 <VTKFile type="UnstructuredGrid"  version="0.1"   >
 <UnstructuredGrid>
 <Piece  NumberOfPoints="          1600 "  NumberOfCells="         1024 ">
 <Points>
 <DataArray  type="Float64" NumberOfComponents="3"  format="ascii" >
   0.0000000000000000        0.0000000000000000        0.0000000000000000     
   3.1250000000000000E-002   0.0000000000000000        0.0000000000000000     
   6.2500000000000000E-002   0.0000000000000000        0.0000000000000000     
   9.3750000000000000E-002   0.0000000000000000        0.0000000000000000     
  0.12500000000000000        0.0000000000000000        0.0000000000000000     
   0.0000000000000000        3.1250000000000000E-002   0.0000000000000000     
   3.1250000000000000E-002   3.1250000000000000E-002   0.0000000000000000     
   6.2500000000000000E-002   3.1250000000000000E-002   0.0000000000000000     
   9.3750000000000000E-002   3.1250000000000000E-002   0.0000000000000000     
  0.12500000000000000        3.1250000000000000E-002   0.0000000000000000     
   0.0000000000000000        6.2500000000000000E-002   0.0000000000000000     
   3.1250000000000000E-002   6.2500000000000000E-002   0.0000000000000000     
   6.2500000000000000E-002   6.2500000000000000E-002   0.0000000000000000     
   9.3750000000000000E-002   6.2500000000000000E-002   0.0000000000000000     
  0.12500000000000000        6.2500000000000000E-002   0.0000000000000000     
   0.0000000000000000        9.3750000000000000E-002   0.0000000000000000     
   3.1250000000000000E-002   9.3750000000000000E-002   0.0000000000000000     
   6.2500000000000000E-002   9.3750000000000000E-002   0.0000000000000000     
   9.3750000000000000E-002   9.3750000000000000E-002   0.0000000000000000     
  0.12500000000000000        9.3750000000000000E-002   0.0000000000000000     
   0.0000000000000000       0.12500000000000000        0.0000000000000000     
   3.1250000000000000E-002  0.12500000000000000        0.0000000000000000     
   6.2500000000000000E-002  0.12500000000000000        0.0000000000000000     
   9.3750000000000000E-002  0.12500000000000000        0.0000000000000000     
  0.12500000000000000       0.12500000000000000        0.0000000000000000     
  0.12500000000000000        0.0000000000000000        0.0000000000000000     
  0.15625000000000000        0.0000000000000000        0.0000000000000000     
  0.18750000000000000        0.0000000000000000        0.0000000000000000     
  0.21875000000000000        0.0000000000000000        0.0000000000000000     
  0.25000000000000000        0.0000000000000000        0.0000000000000000     
  0.12500000000000000        3.1250000000000000E-002   0.0000000000000000     
  0.15625000000000000        3.1250000000000000E-002   0.0000000000000000     
  0.18750000000000000        3.1250000000000000E-002   0.0000000000000000     
  0.21875000000000000        3.1250000000000000E-002   0.0000000000000000     
  0.25000000000000000        3.1250000000000000E-002   0.0000000000000000     
  0.12500000000000000        6.2500000000000000E-002   0.0000000000000000     
  0.15625000000000000        6.2500000000000000E-002   0.0000000000000000     
  0.18750000000000000        6.2500000000000000E-002   0.0000000000000000     
  0.21875000000000000        6.2500000000000000E-002   0.0000000000000000     
  0.25000000000000000        6.2500000000000000E-002   0.0000000000000000     
  0.12500000000000000        9.3750000000000000E-002   0.0000000000000000     
  0.15625000000000000        9.3750000000000000E-002   0.0000000000000000     
  0.18750000000000000        9.3750000000000000E-002   0.0000000000000000     
  0.21875000000000000        9.3750000000000000E-002   0.0000000000000000     
  0.25000000000000000        9.3750000000000000E-002   0.0000000000000000     
  0.12500000000000000       0.12500000000000000        0.0000000000000000     
  0.15625000000000000       0.12500000000000000        0.0000000000000000     
  0.18750000000000000       0.12500000000000000        0.0000000000000000     
  0.21875000000000000       0.12500000000000000        0.0000000000000000     
  0.25000000000000000       0.12500000000000000        0.0000000000000000     
  0.25000000000000000        0.0000000000000000        0.0000000000000000     
  0.28125000000000000        0.0000000000000000        0.0000000000000000     
  0.31250000000000000        0.0000000000000000        0.0000000000000000     
  0.34375000000000000        0.0000000000000000        0.0000000000000000     
  0.37500000000000000        0.0000000000000000        0.0000000000000000     
  0.25000000000000000        3.1250000000000000E-002   0.0000000000000000     
  0.28125000000000000        3.1250000000000000E-002   0.0000000000000000     
  0.31250000000000000        3.1250000000000000E-002   0.0000000000000000     
  0.34375000000000000        3.1250000000000000E-002   0.0000000000000000     
  0.37500000000000000        3.1250000000000000E-002   0.0000000000000000     
  0.25000000000000000        6.2500000000000000E-002   0.0000000000000000     
  0.28125000000000000        6.2500000000000000E-002   0.0000000000000000     
  0.31250000000000000        6.2500000000000000E-002   0.0000000000000000     
  0.34375000000000000        6.2500000000000000E-002   0.0000000000000000     
  0.37500000000000000        6.2500000000000000E-002   0.0000000000000000     
  0.25000000000000000        9.3750000000000000E-002   0.0000000000000000     
  0.28125000000000000        9.3750000000000000E-002   0.0000000000000000     
  0.31250000000000000        9.3750000000000000E-002   0.0000000000000000     
  0.34375000000000000        9.3750000000000000E-002   0.0000000000000000     
  0.37500000000000000        9.3750000000000000E-002   0.0000000000000000     
  0.25000000000000000       0.12500000000000000        0.0000000000000000     
  0.28125000000000000       0.12500000000000000        0.0000000000000000     
  0.31250000000000000       0.12500000000000000        0.0000000000000000     
  0.34375000000000000       0.12500000000000000        0.0000000000000000     
  0.37500000000000000       0.12500000000000000        0.0000000000000000     
  0.37500000000000000        0.0000000000000000        0.0000000000000000     
  0.40625000000000000        0.0000000000000000        0.0000000000000000     
  0.43750000000000000        0.0000000000000000        0.0000000000000000     
  0.46875000000000000        0.0000000000000000        0.0000000000000000     
  0.50000000000000000        0.0000000000000000        0.0000000000000000     
  0.37500000000000000        3.1250000000000000E-002   0.0000000000000000     
  0.40625000000000000        3.1250000000000000E-002   0.0000000000000000     
  0.43750000000000000        3.1250000000000000E-002   0.0000000000000000     
  0.46875000000000000        3.1250000000000000E-002   0.0000000000000000     
  0.50000000000000000        3.1250000000000000E-002   0.0000000000000000     
  0.37500000000000000        6.2500000000000000E-002   0.0000000000000000     
  0.40625000000000000        6.2500000000000000E-002   0.0000000000000000     
  0.43750000000000000        6.2500000000000000E-002   0.0000000000000000     
  0.46875000000000000        6.2500000000000000E-002   0.0000000000000000     
  0.50000000000000000        6.2500000000000000E-002   0.0000000000000000     
  0.37500000000000000        9.3750000000000000E-002   0.0000000000000000     
  0.40625000000000000        9.3750000000000000E-002   0.0000000000000000     
  0.43750000000000000        9.3750000000000000E-002   0.0000000000000000     
  0.46875000000000000        9.3750000000000000E-002   0.0000000000000000     
  0.50000000000000000        9.3750000000000000E-002   0.0000000000000000     
  0.37500000000000000       0.12500000000000000        0.0000000000000000     
  0.40625000000000000       0.12500000000000000        0.0000000000000000     
  0.43750000000000000       0.12500000000000000        0.0000000000000000     
  0.46875000000000000       0.12500000000000000        0.0000000000000000     
  0.50000000000000000       0.12500000000000000        0.0000000000000000     
  0.50000000000000000        0.0000000000000000        0.0000000000000000     
  0.53125000000000000        0.0000000000000000        0.0000000000000000     
  0.56250000000000000        0.0000000000000000        0.0000000000000000     
  0.59375000000000000        0.0000000000000000        0.0000000000000000     
  0.62500000000000000        0.0000000000000000        0.0000000000000000     
  0.50000000000000000        3.1250000000000000E-002   0.0000000000000000     
  0.53125000000000000        3.1250000000000000E-002   0.0000000000000000     
  0.56250000000000000        3.1250000000000000E-002   0.0000000000000000     
  0.59375000000000000        3.1250000000000000E-002   0.0000000000000000     
  0.62500000000000000        3.1250000000000000E-002   0.0000000000000000     
  0.50000000000000000        6.2500000000000000E-002   0.0000000000000000     
  0.53125000000000000        6.2500000000000000E-002   0.0000000000000000     
  0.56250000000000000        6.2500000000000000E-002   0.0000000000000000     
  0.59375000000000000        6.2500000000000000E-002   0.0000000000000000     
  0.62500000000000000        6.2500000000000000E-002   0.0000000000000000     
  0.50000000000000000        9.3750000000000000E-002   0.0000000000000000     
  0.53125000000000000        9.3750000000000000E-002   0.0000000000000000     
  0.56250000000000000        9.3750000000000000E-002   0.0000000000000000     
  0.59375000000000000        9.3750000000000000E-002   0.0000000000000000     
  0.62500000000000000        9.3750000000000000E-002   0.0000000000000000     
  0.50000000000000000       0.12500000000000000        0.0000000000000000     
  0.53125000000000000       0.12500000000000000        0.0000000000000000     
  0.56250000000000000       0.12500000000000000        0.0000000000000000     
  0.59375000000000000       0.12500000000000000        0.0000000000000000     
  0.62500000000000000       0.12500000000000000        0.0000000000000000     
  0.62500000000000000        0.0000000000000000        0.0000000000000000     
  0.65625000000000000        0.0000000000000000        0.0000000000000000     
  0.68750000000000000        0.0000000000000000        0.0000000000000000     
  0.71875000000000000        0.0000000000000000        0.0000000000000000     
  0.75000000000000000        0.0000000000000000        0.0000000000000000     
  0.62500000000000000        3.1250000000000000E-002   0.0000000000000000     
  0.65625000000000000        3.1250000000000000E-002   0.0000000000000000     
  0.68750000000000000        3.1250000000000000E-002   0.0000000000000000     
  0.71875000000000000        3.1250000000000000E-002   0.0000000000000000     
  0.75000000000000000        3.1250000000000000E-002   0.0000000000000000     
  0.62500000000000000        6.2500000000000000E-002   0.0000000000000000     
  0.65625000000000000        6.2500000000000000E-002   0.0000000000000000     
  0.68750000000000000        6.2500000000000000E-002   0.0000000000000000     
  0.71875000000000000        6.2500000000000000E-002   0.0000000000000000     
  0.75000000000000000        6.2500000000000000E-002   0.0000000000000000     
  0.62500000000000000        9.3750000000000000E-002   0.0000000000000000     
  0.65625000000000000        9.3750000000000000E-002   0.0000000000000000     
  0.68750000000000000        9.3750000000000000E-002   0.0000000000000000     
  0.71875000000000000        9.3750000000000000E-002   0.0000000000000000     
  0.75000000000000000        9.3750000000000000E-002   0.0000000000000000     
  0.62500000000000000       0.12500000000000000        0.0000000000000000     
  0.65625000000000000       0.12500000000000000        0.0000000000000000     
  0.68750000000000000       0.12500000000000000        0.0000000000000000     
  0.71875000000000000       0.12500000000000000        0.0000000000000000     
  0.75000000000000000       0.12500000000000000        0.0000000000000000     
  0.75000000000000000        0.0000000000000000        0.0000000000000000     
  0.78125000000000000        0.0000000000000000        0.0000000000000000     
  0.81250000000000000        0.0000000000000000        0.0000000000000000     
  0.84375000000000000        0.0000000000000000        0.0000000000000000     
  0.87500000000000000        0.0000000000000000        0.0000000000000000     
  0.75000000000000000        3.1250000000000000E-002   0.0000000000000000     
  0.78125000000000000        3.1250000000000000E-002   0.0000000000000000     
  0.81250000000000000        3.1250000000000000E-002   0.0000000000000000     
  0.84375000000000000        3.1250000000000000E-002   0.0000000000000000     
  0.87500000000000000        3.1250000000000000E-002   0.0000000000000000     
  0.75000000000000000        6.2500000000000000E-002   0.0000000000000000     
  0.78125000000000000        6.2500000000000000E-002   0.0000000000000000     
  0.81250000000000000        6.2500000000000000E-002   0.0000000000000000     
  0.84375000000000000        6.2500000000000000E-002   0.0000000000000000     
  0.87500000000000000        6.2500000000000000E-002   0.0000000000000000     
  0.75000000000000000        9.3750000000000000E-002   0.0000000000000000     
  0.78125000000000000        9.3750000000000000E-002   0.0000000000000000     
  0.81250000000000000        9.3750000000000000E-002   0.0000000000000000     
  0.84375000000000000        9.3750000000000000E-002   0.0000000000000000     
  0.87500000000000000        9.3750000000000000E-002   0.0000000000000000     
  0.75000000000000000       0.12500000000000000        0.0000000000000000     
  0.78125000000000000       0.12500000000000000        0.0000000000000000     
  0.81250000000000000       0.12500000000000000        0.0000000000000000     
  0.84375000000000000       0.12500000000000000        0.0000000000000000     
  0.87500000000000000       0.12500000000000000        0.0000000000000000     
  0.87500000000000000        0.0000000000000000        0.0000000000000000     
  0.90625000000000000        0.0000000000000000        0.0000000000000000     
  0.93750000000000000        0.0000000000000000        0.0000000000000000     
  0.96875000000000000        0.0000000000000000        0.0000000000000000     
   1.0000000000000000        0.0000000000000000        0.0000000000000000     
  0.87500000000000000        3.1250000000000000E-002   0.0000000000000000     
  0.90625000000000000        3.1250000000000000E-002   0.0000000000000000     
  0.93750000000000000        3.1250000000000000E-002   0.0000000000000000     
  0.96875000000000000        3.1250000000000000E-002   0.0000000000000000     
   1.0000000000000000        3.1250000000000000E-002   0.0000000000000000     
  0.87500000000000000        6.2500000000000000E-002   0.0000000000000000     
  0.90625000000000000        6.2500000000000000E-002   0.0000000000000000     
  0.93750000000000000        6.2500000000000000E-002   0.0000000000000000     
  0.96875000000000000        6.2500000000000000E-002   0.0000000000000000     
   1.0000000000000000        6.2500000000000000E-002   0.0000000000000000     
  0.87500000000000000        9.3750000000000000E-002   0.0000000000000000     
  0.90625000000000000        9.3750000000000000E-002   0.0000000000000000     
  0.93750000000000000        9.3750000000000000E-002   0.0000000000000000     
  0.96875000000000000        9.3750000000000000E-002   0.0000000000000000     
   1.0000000000000000        9.3750000000000000E-002   0.0000000000000000     
  0.87500000000000000       0.12500000000000000        0.0000000000000000     
  0.90625000000000000       0.12500000000000000        0.0000000000000000     
  0.93750000000000000       0.12500000000000000        0.0000000000000000     
  0.96875000000000000       0.12500000000000000        0.0000000000000000     
   1.0000000000000000       0.12500000000000000        0.0000000000000000     
   0.0000000000000000       0.12500000000000000        0.0000000000000000     
   3.1250000000000000E-002  0.12500000000000000        0.0000000000000000     
   6.2500000000000000E-002  0.12500000000000000        0.0000000000000000     
   9.3750000000000000E-002  0.12500000000000000        0.0000000000000000     
  0.12500000000000000       0.12500000000000000        0.0000000000000000     
   0.0000000000000000       0.15625000000000000        0.0000000000000000     
   3.1250000000000000E-002  0.15625000000000000        0.0000000000000000     
   6.2500000000000000E-002  0.15625000000000000        0.0000000000000000     
   9.3750000000000000E-002  0.15625000000000000        0.0000000000000000     
  0.12500000000000000       0.15625000000000000        0.0000000000000000     
   0.0000000000000000       0.18750000000000000        0.0000000000000000     
   3.1250000000000000E-002  0.18750000000000000        0.0000000000000000     
   6.2500000000000000E-002  0.18750000000000000        0.0000000000000000     
   9.3750000000000000E-002  0.18750000000000000        0.0000000000000000     
  0.12500000000000000       0.18750000000000000        0.0000000000000000     
   0.0000000000000000       0.21875000000000000        0.0000000000000000     
   3.1250000000000000E-002  0.21875000000000000        0.0000000000000000     
   6.2500000000000000E-002  0.21875000000000000        0.0000000000000000     
   9.3750000000000000E-002  0.21875000000000000        0.0000000000000000     
  0.12500000000000000       0.21875000000000000        0.0000000000000000     
   0.0000000000000000       0.25000000000000000        0.0000000000000000     
   3.1250000000000000E-002  0.25000000000000000        0.0000000000000000     
   6.2500000000000000E-002  0.25000000000000000        0.0000000000000000     
   9.3750000000000000E-002  0.25000000000000000        0.0000000000000000     
  0.12500000000000000       0.25000000000000000        0.0000000000000000     
  0.12500000000000000       0.12500000000000000        0.0000000000000000     
  0.15625000000000000       0.12500000000000000        0.0000000000000000     
  0.18750000000000000       0.12500000000000000        0.0000000000000000     
  0.21875000000000000       0.12500000000000000        0.0000000000000000     
  0.25000000000000000       0.12500000000000000        0.0000000000000000     
  0.12500000000000000       0.15625000000000000        0.0000000000000000     
  0.15625000000000000       0.15625000000000000        0.0000000000000000     
  0.18750000000000000       0.15625000000000000        0.0000000000000000     
  0.21875000000000000       0.15625000000000000        0.0000000000000000     
  0.25000000000000000       0.15625000000000000        0.0000000000000000     
  0.12500000000000000       0.18750000000000000        0.0000000000000000     
  0.15625000000000000       0.18750000000000000        0.0000000000000000     
  0.18750000000000000       0.18750000000000000        0.0000000000000000     
  0.21875000000000000       0.18750000000000000        0.0000000000000000     
  0.25000000000000000       0.18750000000000000        0.0000000000000000     
  0.12500000000000000       0.21875000000000000        0.0000000000000000     
  0.15625000000000000       0.21875000000000000        0.0000000000000000     
  0.18750000000000000       0.21875000000000000        0.0000000000000000     
  0.21875000000000000       0.21875000000000000        0.0000000000000000     
  0.25000000000000000       0.21875000000000000        0.0000000000000000     
  0.12500000000000000       0.25000000000000000        0.0000000000000000     
  0.15625000000000000       0.25000000000000000        0.0000000000000000     
  0.18750000000000000       0.25000000000000000        0.0000000000000000     
  0.21875000000000000       0.25000000000000000        0.0000000000000000     
  0.25000000000000000       0.25000000000000000        0.0000000000000000     
  0.25000000000000000       0.12500000000000000        0.0000000000000000     
  0.28125000000000000       0.12500000000000000        0.0000000000000000     
  0.31250000000000000       0.12500000000000000        0.0000000000000000     
  0.34375000000000000       0.12500000000000000        0.0000000000000000     
  0.37500000000000000       0.12500000000000000        0.0000000000000000     
  0.25000000000000000       0.15625000000000000        0.0000000000000000     
  0.28125000000000000       0.15625000000000000        0.0000000000000000     
  0.31250000000000000       0.15625000000000000        0.0000000000000000     
  0.34375000000000000       0.15625000000000000        0.0000000000000000     
  0.37500000000000000       0.15625000000000000        0.0000000000000000     
  0.25000000000000000       0.18750000000000000        0.0000000000000000     
  0.28125000000000000       0.18750000000000000        0.0000000000000000     
  0.31250000000000000       0.18750000000000000        0.0000000000000000     
  0.34375000000000000       0.18750000000000000        0.0000000000000000     
  0.37500000000000000       0.18750000000000000        0.0000000000000000     
  0.25000000000000000       0.21875000000000000        0.0000000000000000     
  0.28125000000000000       0.21875000000000000        0.0000000000000000     
  0.31250000000000000       0.21875000000000000        0.0000000000000000     
  0.34375000000000000       0.21875000000000000        0.0000000000000000     
  0.37500000000000000       0.21875000000000000        0.0000000000000000     
  0.25000000000000000       0.25000000000000000        0.0000000000000000     
  0.28125000000000000       0.25000000000000000        0.0000000000000000     
  0.31250000000000000       0.25000000000000000        0.0000000000000000     
  0.34375000000000000       0.25000000000000000        0.0000000000000000     
  0.37500000000000000       0.25000000000000000        0.0000000000000000     
  0.37500000000000000       0.12500000000000000        0.0000000000000000     
  0.40625000000000000       0.12500000000000000        0.0000000000000000     
  0.43750000000000000       0.12500000000000000        0.0000000000000000     
  0.46875000000000000       0.12500000000000000        0.0000000000000000     
  0.50000000000000000       0.12500000000000000        0.0000000000000000     
  0.37500000000000000       0.15625000000000000        0.0000000000000000     
  0.40625000000000000       0.15625000000000000        0.0000000000000000     
  0.43750000000000000       0.15625000000000000        0.0000000000000000     
  0.46875000000000000       0.15625000000000000        0.0000000000000000     
  0.50000000000000000       0.15625000000000000        0.0000000000000000     
  0.37500000000000000       0.18750000000000000        0.0000000000000000     
  0.40625000000000000       0.18750000000000000        0.0000000000000000     
  0.43750000000000000       0.18750000000000000        0.0000000000000000     
  0.46875000000000000       0.18750000000000000        0.0000000000000000     
  0.50000000000000000       0.18750000000000000        0.0000000000000000     
  0.37500000000000000       0.21875000000000000        0.0000000000000000     
  0.40625000000000000       0.21875000000000000        0.0000000000000000     
  0.43750000000000000       0.21875000000000000        0.0000000000000000     
  0.46875000000000000       0.21875000000000000        0.0000000000000000     
  0.50000000000000000       0.21875000000000000        0.0000000000000000     
  0.37500000000000000       0.25000000000000000        0.0000000000000000     
  0.40625000000000000       0.25000000000000000        0.0000000000000000     
  0.43750000000000000       0.25000000000000000        0.0000000000000000     
  0.46875000000000000       0.25000000000000000        0.0000000000000000     
  0.50000000000000000       0.25000000000000000        0.0000000000000000     
  0.50000000000000000       0.12500000000000000        0.0000000000000000     
  0.53125000000000000       0.12500000000000000        0.0000000000000000     
  0.56250000000000000       0.12500000000000000        0.0000000000000000     
  0.59375000000000000       0.12500000000000000        0.0000000000000000     
  0.62500000000000000       0.12500000000000000        0.0000000000000000     
  0.50000000000000000       0.15625000000000000        0.0000000000000000     
  0.53125000000000000       0.15625000000000000        0.0000000000000000     
  0.56250000000000000       0.15625000000000000        0.0000000000000000     
  0.59375000000000000       0.15625000000000000        0.0000000000000000     
  0.62500000000000000       0.15625000000000000        0.0000000000000000     
  0.50000000000000000       0.18750000000000000        0.0000000000000000     
  0.53125000000000000       0.18750000000000000        0.0000000000000000     
  0.56250000000000000       0.18750000000000000        0.0000000000000000     
  0.59375000000000000       0.18750000000000000        0.0000000000000000     
  0.62500000000000000       0.18750000000000000        0.0000000000000000     
  0.50000000000000000       0.21875000000000000        0.0000000000000000     
  0.53125000000000000       0.21875000000000000        0.0000000000000000     
  0.56250000000000000       0.21875000000000000        0.0000000000000000     
  0.59375000000000000       0.21875000000000000        0.0000000000000000     
  0.62500000000000000       0.21875000000000000        0.0000000000000000     
  0.50000000000000000       0.25000000000000000        0.0000000000000000     
  0.53125000000000000       0.25000000000000000        0.0000000000000000     
  0.56250000000000000       0.25000000000000000        0.0000000000000000     
  0.59375000000000000       0.25000000000000000        0.0000000000000000     
  0.62500000000000000       0.25000000000000000        0.0000000000000000     
  0.62500000000000000       0.12500000000000000        0.0000000000000000     
  0.65625000000000000       0.12500000000000000        0.0000000000000000     
  0.68750000000000000       0.12500000000000000        0.0000000000000000     
  0.71875000000000000       0.12500000000000000        0.0000000000000000     
  0.75000000000000000       0.12500000000000000        0.0000000000000000     
  0.62500000000000000       0.15625000000000000        0.0000000000000000     
  0.65625000000000000       0.15625000000000000        0.0000000000000000     
  0.68750000000000000       0.15625000000000000        0.0000000000000000     
  0.71875000000000000       0.15625000000000000        0.0000000000000000     
  0.75000000000000000       0.15625000000000000        0.0000000000000000     
  0.62500000000000000       0.18750000000000000        0.0000000000000000     
  0.65625000000000000       0.18750000000000000        0.0000000000000000     
  0.68750000000000000       0.18750000000000000        0.0000000000000000     
  0.71875000000000000       0.18750000000000000        0.0000000000000000     
  0.75000000000000000       0.18750000000000000        0.0000000000000000     
  0.62500000000000000       0.21875000000000000        0.0000000000000000     
  0.65625000000000000       0.21875000000000000        0.0000000000000000     
  0.68750000000000000       0.21875000000000000        0.0000000000000000     
  0.71875000000000000       0.21875000000000000        0.0000000000000000     
  0.75000000000000000       0.21875000000000000        0.0000000000000000     
  0.62500000000000000       0.25000000000000000        0.0000000000000000     
  0.65625000000000000       0.25000000000000000        0.0000000000000000     
  0.68750000000000000       0.25000000000000000        0.0000000000000000     
  0.71875000000000000       0.25000000000000000        0.0000000000000000     
  0.75000000000000000       0.25000000000000000        0.0000000000000000     
  0.75000000000000000       0.12500000000000000        0.0000000000000000     
  0.78125000000000000       0.12500000000000000        0.0000000000000000     
  0.81250000000000000       0.12500000000000000        0.0000000000000000     
  0.84375000000000000       0.12500000000000000        0.0000000000000000     
  0.87500000000000000       0.12500000000000000        0.0000000000000000     
  0.75000000000000000       0.15625000000000000        0.0000000000000000     
  0.78125000000000000       0.15625000000000000        0.0000000000000000     
  0.81250000000000000       0.15625000000000000        0.0000000000000000     
  0.84375000000000000       0.15625000000000000        0.0000000000000000     
  0.87500000000000000       0.15625000000000000        0.0000000000000000     
  0.75000000000000000       0.18750000000000000        0.0000000000000000     
  0.78125000000000000       0.18750000000000000        0.0000000000000000     
  0.81250000000000000       0.18750000000000000        0.0000000000000000     
  0.84375000000000000       0.18750000000000000        0.0000000000000000     
  0.87500000000000000       0.18750000000000000        0.0000000000000000     
  0.75000000000000000       0.21875000000000000        0.0000000000000000     
  0.78125000000000000       0.21875000000000000        0.0000000000000000     
  0.81250000000000000       0.21875000000000000        0.0000000000000000     
  0.84375000000000000       0.21875000000000000        0.0000000000000000     
  0.87500000000000000       0.21875000000000000        0.0000000000000000     
  0.75000000000000000       0.25000000000000000        0.0000000000000000     
  0.78125000000000000       0.25000000000000000        0.0000000000000000     
  0.81250000000000000       0.25000000000000000        0.0000000000000000     
  0.84375000000000000       0.25000000000000000        0.0000000000000000     
  0.87500000000000000       0.25000000000000000        0.0000000000000000     
  0.87500000000000000       0.12500000000000000        0.0000000000000000     
  0.90625000000000000       0.12500000000000000        0.0000000000000000     
  0.93750000000000000       0.12500000000000000        0.0000000000000000     
  0.96875000000000000       0.12500000000000000        0.0000000000000000     
   1.0000000000000000       0.12500000000000000        0.0000000000000000     
  0.87500000000000000       0.15625000000000000        0.0000000000000000     
  0.90625000000000000       0.15625000000000000        0.0000000000000000     
  0.93750000000000000       0.15625000000000000        0.0000000000000000     
  0.96875000000000000       0.15625000000000000        0.0000000000000000     
   1.0000000000000000       0.15625000000000000        0.0000000000000000     
  0.87500000000000000       0.18750000000000000        0.0000000000000000     
  0.90625000000000000       0.18750000000000000        0.0000000000000000     
  0.93750000000000000       0.18750000000000000        0.0000000000000000     
  0.96875000000000000       0.18750000000000000        0.0000000000000000     
   1.0000000000000000       0.18750000000000000        0.0000000000000000     
  0.87500000000000000       0.21875000000000000        0.0000000000000000     
  0.90625000000000000       0.21875000000000000        0.0000000000000000     
  0.93750000000000000       0.21875000000000000        0.0000000000000000     
  0.96875000000000000       0.21875000000000000        0.0000000000000000     
   1.0000000000000000       0.21875000000000000        0.0000000000000000     
  0.87500000000000000       0.25000000000000000        0.0000000000000000     
  0.90625000000000000       0.25000000000000000        0.0000000000000000     
  0.93750000000000000       0.25000000000000000        0.0000000000000000     
  0.96875000000000000       0.25000000000000000        0.0000000000000000     
   1.0000000000000000       0.25000000000000000        0.0000000000000000     
   0.0000000000000000       0.25000000000000000        0.0000000000000000     
   3.1250000000000000E-002  0.25000000000000000        0.0000000000000000     
   6.2500000000000000E-002  0.25000000000000000        0.0000000000000000     
   9.3750000000000000E-002  0.25000000000000000        0.0000000000000000     
  0.12500000000000000       0.25000000000000000        0.0000000000000000     
   0.0000000000000000       0.28125000000000000        0.0000000000000000     
   3.1250000000000000E-002  0.28125000000000000        0.0000000000000000     
   6.2500000000000000E-002  0.28125000000000000        0.0000000000000000     
   9.3750000000000000E-002  0.28125000000000000        0.0000000000000000     
  0.12500000000000000       0.28125000000000000        0.0000000000000000     
   0.0000000000000000       0.31250000000000000        0.0000000000000000     
   3.1250000000000000E-002  0.31250000000000000        0.0000000000000000     
   6.2500000000000000E-002  0.31250000000000000        0.0000000000000000     
   9.3750000000000000E-002  0.31250000000000000        0.0000000000000000     
  0.12500000000000000       0.31250000000000000        0.0000000000000000     
   0.0000000000000000       0.34375000000000000        0.0000000000000000     
   3.1250000000000000E-002  0.34375000000000000        0.0000000000000000     
   6.2500000000000000E-002  0.34375000000000000        0.0000000000000000     
   9.3750000000000000E-002  0.34375000000000000        0.0000000000000000     
  0.12500000000000000       0.34375000000000000        0.0000000000000000     
   0.0000000000000000       0.37500000000000000        0.0000000000000000     
   3.1250000000000000E-002  0.37500000000000000        0.0000000000000000     
   6.2500000000000000E-002  0.37500000000000000        0.0000000000000000     
   9.3750000000000000E-002  0.37500000000000000        0.0000000000000000     
  0.12500000000000000       0.37500000000000000        0.0000000000000000     
  0.12500000000000000       0.25000000000000000        0.0000000000000000     
  0.15625000000000000       0.25000000000000000        0.0000000000000000     
  0.18750000000000000       0.25000000000000000        0.0000000000000000     
  0.21875000000000000       0.25000000000000000        0.0000000000000000     
  0.25000000000000000       0.25000000000000000        0.0000000000000000     
  0.12500000000000000       0.28125000000000000        0.0000000000000000     
  0.15625000000000000       0.28125000000000000        0.0000000000000000     
  0.18750000000000000       0.28125000000000000        0.0000000000000000     
  0.21875000000000000       0.28125000000000000        0.0000000000000000     
  0.25000000000000000       0.28125000000000000        0.0000000000000000     
  0.12500000000000000       0.31250000000000000        0.0000000000000000     
  0.15625000000000000       0.31250000000000000        0.0000000000000000     
  0.18750000000000000       0.31250000000000000        0.0000000000000000     
  0.21875000000000000       0.31250000000000000        0.0000000000000000     
  0.25000000000000000       0.31250000000000000        0.0000000000000000     
  0.12500000000000000       0.34375000000000000        0.0000000000000000     
  0.15625000000000000       0.34375000000000000        0.0000000000000000     
  0.18750000000000000       0.34375000000000000        0.0000000000000000     
  0.21875000000000000       0.34375000000000000        0.0000000000000000     
  0.25000000000000000       0.34375000000000000        0.0000000000000000     
  0.12500000000000000       0.37500000000000000        0.0000000000000000     
  0.15625000000000000       0.37500000000000000        0.0000000000000000     
  0.18750000000000000       0.37500000000000000        0.0000000000000000     
  0.21875000000000000       0.37500000000000000        0.0000000000000000     
  0.25000000000000000       0.37500000000000000        0.0000000000000000     
  0.25000000000000000       0.25000000000000000        0.0000000000000000     
  0.28125000000000000       0.25000000000000000        0.0000000000000000     
  0.31250000000000000       0.25000000000000000        0.0000000000000000     
  0.34375000000000000       0.25000000000000000        0.0000000000000000     
  0.37500000000000000       0.25000000000000000        0.0000000000000000     
  0.25000000000000000       0.28125000000000000        0.0000000000000000     
  0.28125000000000000       0.28125000000000000        0.0000000000000000     
  0.31250000000000000       0.28125000000000000        0.0000000000000000     
  0.34375000000000000       0.28125000000000000        0.0000000000000000     
  0.37500000000000000       0.28125000000000000        0.0000000000000000     
  0.25000000000000000       0.31250000000000000        0.0000000000000000     
  0.28125000000000000       0.31250000000000000        0.0000000000000000     
  0.31250000000000000       0.31250000000000000        0.0000000000000000     
  0.34375000000000000       0.31250000000000000        0.0000000000000000     
  0.37500000000000000       0.31250000000000000        0.0000000000000000     
  0.25000000000000000       0.34375000000000000        0.0000000000000000     
  0.28125000000000000       0.34375000000000000        0.0000000000000000     
  0.31250000000000000       0.34375000000000000        0.0000000000000000     
  0.34375000000000000       0.34375000000000000        0.0000000000000000     
  0.37500000000000000       0.34375000000000000        0.0000000000000000     
  0.25000000000000000       0.37500000000000000        0.0000000000000000     
  0.28125000000000000       0.37500000000000000        0.0000000000000000     
  0.31250000000000000       0.37500000000000000        0.0000000000000000     
  0.34375000000000000       0.37500000000000000        0.0000000000000000     
  0.37500000000000000       0.37500000000000000        0.0000000000000000     
  0.37500000000000000       0.25000000000000000        0.0000000000000000     
  0.40625000000000000       0.25000000000000000        0.0000000000000000     
  0.43750000000000000       0.25000000000000000        0.0000000000000000     
  0.46875000000000000       0.25000000000000000        0.0000000000000000     
  0.50000000000000000       0.25000000000000000        0.0000000000000000     
  0.37500000000000000       0.28125000000000000        0.0000000000000000     
  0.40625000000000000       0.28125000000000000        0.0000000000000000     
  0.43750000000000000       0.28125000000000000        0.0000000000000000     
  0.46875000000000000       0.28125000000000000        0.0000000000000000     
  0.50000000000000000       0.28125000000000000        0.0000000000000000     
  0.37500000000000000       0.31250000000000000        0.0000000000000000     
  0.40625000000000000       0.31250000000000000        0.0000000000000000     
  0.43750000000000000       0.31250000000000000        0.0000000000000000     
  0.46875000000000000       0.31250000000000000        0.0000000000000000     
  0.50000000000000000       0.31250000000000000        0.0000000000000000     
  0.37500000000000000       0.34375000000000000        0.0000000000000000     
  0.40625000000000000       0.34375000000000000        0.0000000000000000     
  0.43750000000000000       0.34375000000000000        0.0000000000000000     
  0.46875000000000000       0.34375000000000000        0.0000000000000000     
  0.50000000000000000       0.34375000000000000        0.0000000000000000     
  0.37500000000000000       0.37500000000000000        0.0000000000000000     
  0.40625000000000000       0.37500000000000000        0.0000000000000000     
  0.43750000000000000       0.37500000000000000        0.0000000000000000     
  0.46875000000000000       0.37500000000000000        0.0000000000000000     
  0.50000000000000000       0.37500000000000000        0.0000000000000000     
  0.50000000000000000       0.25000000000000000        0.0000000000000000     
  0.53125000000000000       0.25000000000000000        0.0000000000000000     
  0.56250000000000000       0.25000000000000000        0.0000000000000000     
  0.59375000000000000       0.25000000000000000        0.0000000000000000     
  0.62500000000000000       0.25000000000000000        0.0000000000000000     
  0.50000000000000000       0.28125000000000000        0.0000000000000000     
  0.53125000000000000       0.28125000000000000        0.0000000000000000     
  0.56250000000000000       0.28125000000000000        0.0000000000000000     
  0.59375000000000000       0.28125000000000000        0.0000000000000000     
  0.62500000000000000       0.28125000000000000        0.0000000000000000     
  0.50000000000000000       0.31250000000000000        0.0000000000000000     
  0.53125000000000000       0.31250000000000000        0.0000000000000000     
  0.56250000000000000       0.31250000000000000        0.0000000000000000     
  0.59375000000000000       0.31250000000000000        0.0000000000000000     
  0.62500000000000000       0.31250000000000000        0.0000000000000000     
  0.50000000000000000       0.34375000000000000        0.0000000000000000     
  0.53125000000000000       0.34375000000000000        0.0000000000000000     
  0.56250000000000000       0.34375000000000000        0.0000000000000000     
  0.59375000000000000       0.34375000000000000        0.0000000000000000     
  0.62500000000000000       0.34375000000000000        0.0000000000000000     
  0.50000000000000000       0.37500000000000000        0.0000000000000000     
  0.53125000000000000       0.37500000000000000        0.0000000000000000     
  0.56250000000000000       0.37500000000000000        0.0000000000000000     
  0.59375000000000000       0.37500000000000000        0.0000000000000000     
  0.62500000000000000       0.37500000000000000        0.0000000000000000     
  0.62500000000000000       0.25000000000000000        0.0000000000000000     
  0.65625000000000000       0.25000000000000000        0.0000000000000000     
  0.68750000000000000       0.25000000000000000        0.0000000000000000     
  0.71875000000000000       0.25000000000000000        0.0000000000000000     
  0.75000000000000000       0.25000000000000000        0.0000000000000000     
  0.62500000000000000       0.28125000000000000        0.0000000000000000     
  0.65625000000000000       0.28125000000000000        0.0000000000000000     
  0.68750000000000000       0.28125000000000000        0.0000000000000000     
  0.71875000000000000       0.28125000000000000        0.0000000000000000     
  0.75000000000000000       0.28125000000000000        0.0000000000000000     
  0.62500000000000000       0.31250000000000000        0.0000000000000000     
  0.65625000000000000       0.31250000000000000        0.0000000000000000     
  0.68750000000000000       0.31250000000000000        0.0000000000000000     
  0.71875000000000000       0.31250000000000000        0.0000000000000000     
  0.75000000000000000       0.31250000000000000        0.0000000000000000     
  0.62500000000000000       0.34375000000000000        0.0000000000000000     
  0.65625000000000000       0.34375000000000000        0.0000000000000000     
  0.68750000000000000       0.34375000000000000        0.0000000000000000     
  0.71875000000000000       0.34375000000000000        0.0000000000000000     
  0.75000000000000000       0.34375000000000000        0.0000000000000000     
  0.62500000000000000       0.37500000000000000        0.0000000000000000     
  0.65625000000000000       0.37500000000000000        0.0000000000000000     
  0.68750000000000000       0.37500000000000000        0.0000000000000000     
  0.71875000000000000       0.37500000000000000        0.0000000000000000     
  0.75000000000000000       0.37500000000000000        0.0000000000000000     
  0.75000000000000000       0.25000000000000000        0.0000000000000000     
  0.78125000000000000       0.25000000000000000        0.0000000000000000     
  0.81250000000000000       0.25000000000000000        0.0000000000000000     
  0.84375000000000000       0.25000000000000000        0.0000000000000000     
  0.87500000000000000       0.25000000000000000        0.0000000000000000     
  0.75000000000000000       0.28125000000000000        0.0000000000000000     
  0.78125000000000000       0.28125000000000000        0.0000000000000000     
  0.81250000000000000       0.28125000000000000        0.0000000000000000     
  0.84375000000000000       0.28125000000000000        0.0000000000000000     
  0.87500000000000000       0.28125000000000000        0.0000000000000000     
  0.75000000000000000       0.31250000000000000        0.0000000000000000     
  0.78125000000000000       0.31250000000000000        0.0000000000000000     
  0.81250000000000000       0.31250000000000000        0.0000000000000000     
  0.84375000000000000       0.31250000000000000        0.0000000000000000     
  0.87500000000000000       0.31250000000000000        0.0000000000000000     
  0.75000000000000000       0.34375000000000000        0.0000000000000000     
  0.78125000000000000       0.34375000000000000        0.0000000000000000     
  0.81250000000000000       0.34375000000000000        0.0000000000000000     
  0.84375000000000000       0.34375000000000000        0.0000000000000000     
  0.87500000000000000       0.34375000000000000        0.0000000000000000     
  0.75000000000000000       0.37500000000000000        0.0000000000000000     
  0.78125000000000000       0.37500000000000000        0.0000000000000000     
  0.81250000000000000       0.37500000000000000        0.0000000000000000     
  0.84375000000000000       0.37500000000000000        0.0000000000000000     
  0.87500000000000000       0.37500000000000000        0.0000000000000000     
  0.87500000000000000       0.25000000000000000        0.0000000000000000     
  0.90625000000000000       0.25000000000000000        0.0000000000000000     
  0.93750000000000000       0.25000000000000000        0.0000000000000000     
  0.96875000000000000       0.25000000000000000        0.0000000000000000     
   1.0000000000000000       0.25000000000000000        0.0000000000000000     
  0.87500000000000000       0.28125000000000000        0.0000000000000000     
  0.90625000000000000       0.28125000000000000        0.0000000000000000     
  0.93750000000000000       0.28125000000000000        0.0000000000000000     
  0.96875000000000000       0.28125000000000000        0.0000000000000000     
   1.0000000000000000       0.28125000000000000        0.0000000000000000     
  0.87500000000000000       0.31250000000000000        0.0000000000000000     
  0.90625000000000000       0.31250000000000000        0.0000000000000000     
  0.93750000000000000       0.31250000000000000        0.0000000000000000     
  0.96875000000000000       0.31250000000000000        0.0000000000000000     
   1.0000000000000000       0.31250000000000000        0.0000000000000000     
  0.87500000000000000       0.34375000000000000        0.0000000000000000     
  0.90625000000000000       0.34375000000000000        0.0000000000000000     
  0.93750000000000000       0.34375000000000000        0.0000000000000000     
  0.96875000000000000       0.34375000000000000        0.0000000000000000     
   1.0000000000000000       0.34375000000000000        0.0000000000000000     
  0.87500000000000000       0.37500000000000000        0.0000000000000000     
  0.90625000000000000       0.37500000000000000        0.0000000000000000     
  0.93750000000000000       0.37500000000000000        0.0000000000000000     
  0.96875000000000000       0.37500000000000000        0.0000000000000000     
   1.0000000000000000       0.37500000000000000        0.0000000000000000     
   0.0000000000000000       0.37500000000000000        0.0000000000000000     
   3.1250000000000000E-002  0.37500000000000000        0.0000000000000000     
   6.2500000000000000E-002  0.37500000000000000        0.0000000000000000     
   9.3750000000000000E-002  0.37500000000000000        0.0000000000000000     
  0.12500000000000000       0.37500000000000000        0.0000000000000000     
   0.0000000000000000       0.40625000000000000        0.0000000000000000     
   3.1250000000000000E-002  0.40625000000000000        0.0000000000000000     
   6.2500000000000000E-002  0.40625000000000000        0.0000000000000000     
   9.3750000000000000E-002  0.40625000000000000        0.0000000000000000     
  0.12500000000000000       0.40625000000000000        0.0000000000000000     
   0.0000000000000000       0.43750000000000000        0.0000000000000000     
   3.1250000000000000E-002  0.43750000000000000        0.0000000000000000     
   6.2500000000000000E-002  0.43750000000000000        0.0000000000000000     
   9.3750000000000000E-002  0.43750000000000000        0.0000000000000000     
  0.12500000000000000       0.43750000000000000        0.0000000000000000     
   0.0000000000000000       0.46875000000000000        0.0000000000000000     
   3.1250000000000000E-002  0.46875000000000000        0.0000000000000000     
   6.2500000000000000E-002  0.46875000000000000        0.0000000000000000     
   9.3750000000000000E-002  0.46875000000000000        0.0000000000000000     
  0.12500000000000000       0.46875000000000000        0.0000000000000000     
   0.0000000000000000       0.50000000000000000        0.0000000000000000     
   3.1250000000000000E-002  0.50000000000000000        0.0000000000000000     
   6.2500000000000000E-002  0.50000000000000000        0.0000000000000000     
   9.3750000000000000E-002  0.50000000000000000        0.0000000000000000     
  0.12500000000000000       0.50000000000000000        0.0000000000000000     
  0.12500000000000000       0.37500000000000000        0.0000000000000000     
  0.15625000000000000       0.37500000000000000        0.0000000000000000     
  0.18750000000000000       0.37500000000000000        0.0000000000000000     
  0.21875000000000000       0.37500000000000000        0.0000000000000000     
  0.25000000000000000       0.37500000000000000        0.0000000000000000     
  0.12500000000000000       0.40625000000000000        0.0000000000000000     
  0.15625000000000000       0.40625000000000000        0.0000000000000000     
  0.18750000000000000       0.40625000000000000        0.0000000000000000     
  0.21875000000000000       0.40625000000000000        0.0000000000000000     
  0.25000000000000000       0.40625000000000000        0.0000000000000000     
  0.12500000000000000       0.43750000000000000        0.0000000000000000     
  0.15625000000000000       0.43750000000000000        0.0000000000000000     
  0.18750000000000000       0.43750000000000000        0.0000000000000000     
  0.21875000000000000       0.43750000000000000        0.0000000000000000     
  0.25000000000000000       0.43750000000000000        0.0000000000000000     
  0.12500000000000000       0.46875000000000000        0.0000000000000000     
  0.15625000000000000       0.46875000000000000        0.0000000000000000     
  0.18750000000000000       0.46875000000000000        0.0000000000000000     
  0.21875000000000000       0.46875000000000000        0.0000000000000000     
  0.25000000000000000       0.46875000000000000        0.0000000000000000     
  0.12500000000000000       0.50000000000000000        0.0000000000000000     
  0.15625000000000000       0.50000000000000000        0.0000000000000000     
  0.18750000000000000       0.50000000000000000        0.0000000000000000     
  0.21875000000000000       0.50000000000000000        0.0000000000000000     
  0.25000000000000000       0.50000000000000000        0.0000000000000000     
  0.25000000000000000       0.37500000000000000        0.0000000000000000     
  0.28125000000000000       0.37500000000000000        0.0000000000000000     
  0.31250000000000000       0.37500000000000000        0.0000000000000000     
  0.34375000000000000       0.37500000000000000        0.0000000000000000     
  0.37500000000000000       0.37500000000000000        0.0000000000000000     
  0.25000000000000000       0.40625000000000000        0.0000000000000000     
  0.28125000000000000       0.40625000000000000        0.0000000000000000     
  0.31250000000000000       0.40625000000000000        0.0000000000000000     
  0.34375000000000000       0.40625000000000000        0.0000000000000000     
  0.37500000000000000       0.40625000000000000        0.0000000000000000     
  0.25000000000000000       0.43750000000000000        0.0000000000000000     
  0.28125000000000000       0.43750000000000000        0.0000000000000000     
  0.31250000000000000       0.43750000000000000        0.0000000000000000     
  0.34375000000000000       0.43750000000000000        0.0000000000000000     
  0.37500000000000000       0.43750000000000000        0.0000000000000000     
  0.25000000000000000       0.46875000000000000        0.0000000000000000     
  0.28125000000000000       0.46875000000000000        0.0000000000000000     
  0.31250000000000000       0.46875000000000000        0.0000000000000000     
  0.34375000000000000       0.46875000000000000        0.0000000000000000     
  0.37500000000000000       0.46875000000000000        0.0000000000000000     
  0.25000000000000000       0.50000000000000000        0.0000000000000000     
  0.28125000000000000       0.50000000000000000        0.0000000000000000     
  0.31250000000000000       0.50000000000000000        0.0000000000000000     
  0.34375000000000000       0.50000000000000000        0.0000000000000000     
  0.37500000000000000       0.50000000000000000        0.0000000000000000     
  0.37500000000000000       0.37500000000000000        0.0000000000000000     
  0.40625000000000000       0.37500000000000000        0.0000000000000000     
  0.43750000000000000       0.37500000000000000        0.0000000000000000     
  0.46875000000000000       0.37500000000000000        0.0000000000000000     
  0.50000000000000000       0.37500000000000000        0.0000000000000000     
  0.37500000000000000       0.40625000000000000        0.0000000000000000     
  0.40625000000000000       0.40625000000000000        0.0000000000000000     
  0.43750000000000000       0.40625000000000000        0.0000000000000000     
  0.46875000000000000       0.40625000000000000        0.0000000000000000     
  0.50000000000000000       0.40625000000000000        0.0000000000000000     
  0.37500000000000000       0.43750000000000000        0.0000000000000000     
  0.40625000000000000       0.43750000000000000        0.0000000000000000     
  0.43750000000000000       0.43750000000000000        0.0000000000000000     
  0.46875000000000000       0.43750000000000000        0.0000000000000000     
  0.50000000000000000       0.43750000000000000        0.0000000000000000     
  0.37500000000000000       0.46875000000000000        0.0000000000000000     
  0.40625000000000000       0.46875000000000000        0.0000000000000000     
  0.43750000000000000       0.46875000000000000        0.0000000000000000     
  0.46875000000000000       0.46875000000000000        0.0000000000000000     
  0.50000000000000000       0.46875000000000000        0.0000000000000000     
  0.37500000000000000       0.50000000000000000        0.0000000000000000     
  0.40625000000000000       0.50000000000000000        0.0000000000000000     
  0.43750000000000000       0.50000000000000000        0.0000000000000000     
  0.46875000000000000       0.50000000000000000        0.0000000000000000     
  0.50000000000000000       0.50000000000000000        0.0000000000000000     
  0.50000000000000000       0.37500000000000000        0.0000000000000000     
  0.53125000000000000       0.37500000000000000        0.0000000000000000     
  0.56250000000000000       0.37500000000000000        0.0000000000000000     
  0.59375000000000000       0.37500000000000000        0.0000000000000000     
  0.62500000000000000       0.37500000000000000        0.0000000000000000     
  0.50000000000000000       0.40625000000000000        0.0000000000000000     
  0.53125000000000000       0.40625000000000000        0.0000000000000000     
  0.56250000000000000       0.40625000000000000        0.0000000000000000     
  0.59375000000000000       0.40625000000000000        0.0000000000000000     
  0.62500000000000000       0.40625000000000000        0.0000000000000000     
  0.50000000000000000       0.43750000000000000        0.0000000000000000     
  0.53125000000000000       0.43750000000000000        0.0000000000000000     
  0.56250000000000000       0.43750000000000000        0.0000000000000000     
  0.59375000000000000       0.43750000000000000        0.0000000000000000     
  0.62500000000000000       0.43750000000000000        0.0000000000000000     
  0.50000000000000000       0.46875000000000000        0.0000000000000000     
  0.53125000000000000       0.46875000000000000        0.0000000000000000     
  0.56250000000000000       0.46875000000000000        0.0000000000000000     
  0.59375000000000000       0.46875000000000000        0.0000000000000000     
  0.62500000000000000       0.46875000000000000        0.0000000000000000     
  0.50000000000000000       0.50000000000000000        0.0000000000000000     
  0.53125000000000000       0.50000000000000000        0.0000000000000000     
  0.56250000000000000       0.50000000000000000        0.0000000000000000     
  0.59375000000000000       0.50000000000000000        0.0000000000000000     
  0.62500000000000000       0.50000000000000000        0.0000000000000000     
  0.62500000000000000       0.37500000000000000        0.0000000000000000     
  0.65625000000000000       0.37500000000000000        0.0000000000000000     
  0.68750000000000000       0.37500000000000000        0.0000000000000000     
  0.71875000000000000       0.37500000000000000        0.0000000000000000     
  0.75000000000000000       0.37500000000000000        0.0000000000000000     
  0.62500000000000000       0.40625000000000000        0.0000000000000000     
  0.65625000000000000       0.40625000000000000        0.0000000000000000     
  0.68750000000000000       0.40625000000000000        0.0000000000000000     
  0.71875000000000000       0.40625000000000000        0.0000000000000000     
  0.75000000000000000       0.40625000000000000        0.0000000000000000     
  0.62500000000000000       0.43750000000000000        0.0000000000000000     
  0.65625000000000000       0.43750000000000000        0.0000000000000000     
  0.68750000000000000       0.43750000000000000        0.0000000000000000     
  0.71875000000000000       0.43750000000000000        0.0000000000000000     
  0.75000000000000000       0.43750000000000000        0.0000000000000000     
  0.62500000000000000       0.46875000000000000        0.0000000000000000     
  0.65625000000000000       0.46875000000000000        0.0000000000000000     
  0.68750000000000000       0.46875000000000000        0.0000000000000000     
  0.71875000000000000       0.46875000000000000        0.0000000000000000     
  0.75000000000000000       0.46875000000000000        0.0000000000000000     
  0.62500000000000000       0.50000000000000000        0.0000000000000000     
  0.65625000000000000       0.50000000000000000        0.0000000000000000     
  0.68750000000000000       0.50000000000000000        0.0000000000000000     
  0.71875000000000000       0.50000000000000000        0.0000000000000000     
  0.75000000000000000       0.50000000000000000        0.0000000000000000     
  0.75000000000000000       0.37500000000000000        0.0000000000000000     
  0.78125000000000000       0.37500000000000000        0.0000000000000000     
  0.81250000000000000       0.37500000000000000        0.0000000000000000     
  0.84375000000000000       0.37500000000000000        0.0000000000000000     
  0.87500000000000000       0.37500000000000000        0.0000000000000000     
  0.75000000000000000       0.40625000000000000        0.0000000000000000     
  0.78125000000000000       0.40625000000000000        0.0000000000000000     
  0.81250000000000000       0.40625000000000000        0.0000000000000000     
  0.84375000000000000       0.40625000000000000        0.0000000000000000     
  0.87500000000000000       0.40625000000000000        0.0000000000000000     
  0.75000000000000000       0.43750000000000000        0.0000000000000000     
  0.78125000000000000       0.43750000000000000        0.0000000000000000     
  0.81250000000000000       0.43750000000000000        0.0000000000000000     
  0.84375000000000000       0.43750000000000000        0.0000000000000000     
  0.87500000000000000       0.43750000000000000        0.0000000000000000     
  0.75000000000000000       0.46875000000000000        0.0000000000000000     
  0.78125000000000000       0.46875000000000000        0.0000000000000000     
  0.81250000000000000       0.46875000000000000        0.0000000000000000     
  0.84375000000000000       0.46875000000000000        0.0000000000000000     
  0.87500000000000000       0.46875000000000000        0.0000000000000000     
  0.75000000000000000       0.50000000000000000        0.0000000000000000     
  0.78125000000000000       0.50000000000000000        0.0000000000000000     
  0.81250000000000000       0.50000000000000000        0.0000000000000000     
  0.84375000000000000       0.50000000000000000        0.0000000000000000     
  0.87500000000000000       0.50000000000000000        0.0000000000000000     
  0.87500000000000000       0.37500000000000000        0.0000000000000000     
  0.90625000000000000       0.37500000000000000        0.0000000000000000     
  0.93750000000000000       0.37500000000000000        0.0000000000000000     
  0.96875000000000000       0.37500000000000000        0.0000000000000000     
   1.0000000000000000       0.37500000000000000        0.0000000000000000     
  0.87500000000000000       0.40625000000000000        0.0000000000000000     
  0.90625000000000000       0.40625000000000000        0.0000000000000000     
  0.93750000000000000       0.40625000000000000        0.0000000000000000     
  0.96875000000000000       0.40625000000000000        0.0000000000000000     
   1.0000000000000000       0.40625000000000000        0.0000000000000000     
  0.87500000000000000       0.43750000000000000        0.0000000000000000     
  0.90625000000000000       0.43750000000000000        0.0000000000000000     
  0.93750000000000000       0.43750000000000000        0.0000000000000000     
  0.96875000000000000       0.43750000000000000        0.0000000000000000     
   1.0000000000000000       0.43750000000000000        0.0000000000000000     
  0.87500000000000000       0.46875000000000000        0.0000000000000000     
  0.90625000000000000       0.46875000000000000        0.0000000000000000     
  0.93750000000000000       0.46875000000000000        0.0000000000000000     
  0.96875000000000000       0.46875000000000000        0.0000000000000000     
   1.0000000000000000       0.46875000000000000        0.0000000000000000     
  0.87500000000000000       0.50000000000000000        0.0000000000000000     
  0.90625000000000000       0.50000000000000000        0.0000000000000000     
  0.93750000000000000       0.50000000000000000        0.0000000000000000     
  0.96875000000000000       0.50000000000000000        0.0000000000000000     
   1.0000000000000000       0.50000000000000000        0.0000000000000000     
   0.0000000000000000       0.50000000000000000        0.0000000000000000     
   3.1250000000000000E-002  0.50000000000000000        0.0000000000000000     
   6.2500000000000000E-002  0.50000000000000000        0.0000000000000000     
   9.3750000000000000E-002  0.50000000000000000        0.0000000000000000     
  0.12500000000000000       0.50000000000000000        0.0000000000000000     
   0.0000000000000000       0.53125000000000000        0.0000000000000000     
   3.1250000000000000E-002  0.53125000000000000        0.0000000000000000     
   6.2500000000000000E-002  0.53125000000000000        0.0000000000000000     
   9.3750000000000000E-002  0.53125000000000000        0.0000000000000000     
  0.12500000000000000       0.53125000000000000        0.0000000000000000     
   0.0000000000000000       0.56250000000000000        0.0000000000000000     
   3.1250000000000000E-002  0.56250000000000000        0.0000000000000000     
   6.2500000000000000E-002  0.56250000000000000        0.0000000000000000     
   9.3750000000000000E-002  0.56250000000000000        0.0000000000000000     
  0.12500000000000000       0.56250000000000000        0.0000000000000000     
   0.0000000000000000       0.59375000000000000        0.0000000000000000     
   3.1250000000000000E-002  0.59375000000000000        0.0000000000000000     
   6.2500000000000000E-002  0.59375000000000000        0.0000000000000000     
   9.3750000000000000E-002  0.59375000000000000        0.0000000000000000     
  0.12500000000000000       0.59375000000000000        0.0000000000000000     
   0.0000000000000000       0.62500000000000000        0.0000000000000000     
   3.1250000000000000E-002  0.62500000000000000        0.0000000000000000     
   6.2500000000000000E-002  0.62500000000000000        0.0000000000000000     
   9.3750000000000000E-002  0.62500000000000000        0.0000000000000000     
  0.12500000000000000       0.62500000000000000        0.0000000000000000     
  0.12500000000000000       0.50000000000000000        0.0000000000000000     
  0.15625000000000000       0.50000000000000000        0.0000000000000000     
  0.18750000000000000       0.50000000000000000        0.0000000000000000     
  0.21875000000000000       0.50000000000000000        0.0000000000000000     
  0.25000000000000000       0.50000000000000000        0.0000000000000000     
  0.12500000000000000       0.53125000000000000        0.0000000000000000     
  0.15625000000000000       0.53125000000000000        0.0000000000000000     
  0.18750000000000000       0.53125000000000000        0.0000000000000000     
  0.21875000000000000       0.53125000000000000        0.0000000000000000     
  0.25000000000000000       0.53125000000000000        0.0000000000000000     
  0.12500000000000000       0.56250000000000000        0.0000000000000000     
  0.15625000000000000       0.56250000000000000        0.0000000000000000     
  0.18750000000000000       0.56250000000000000        0.0000000000000000     
  0.21875000000000000       0.56250000000000000        0.0000000000000000     
  0.25000000000000000       0.56250000000000000        0.0000000000000000     
  0.12500000000000000       0.59375000000000000        0.0000000000000000     
  0.15625000000000000       0.59375000000000000        0.0000000000000000     
  0.18750000000000000       0.59375000000000000        0.0000000000000000     
  0.21875000000000000       0.59375000000000000        0.0000000000000000     
  0.25000000000000000       0.59375000000000000        0.0000000000000000     
  0.12500000000000000       0.62500000000000000        0.0000000000000000     
  0.15625000000000000       0.62500000000000000        0.0000000000000000     
  0.18750000000000000       0.62500000000000000        0.0000000000000000     
  0.21875000000000000       0.62500000000000000        0.0000000000000000     
  0.25000000000000000       0.62500000000000000        0.0000000000000000     
  0.25000000000000000       0.50000000000000000        0.0000000000000000     
  0.28125000000000000       0.50000000000000000        0.0000000000000000     
  0.31250000000000000       0.50000000000000000        0.0000000000000000     
  0.34375000000000000       0.50000000000000000        0.0000000000000000     
  0.37500000000000000       0.50000000000000000        0.0000000000000000     
  0.25000000000000000       0.53125000000000000        0.0000000000000000     
  0.28125000000000000       0.53125000000000000        0.0000000000000000     
  0.31250000000000000       0.53125000000000000        0.0000000000000000     
  0.34375000000000000       0.53125000000000000        0.0000000000000000     
  0.37500000000000000       0.53125000000000000        0.0000000000000000     
  0.25000000000000000       0.56250000000000000        0.0000000000000000     
  0.28125000000000000       0.56250000000000000        0.0000000000000000     
  0.31250000000000000       0.56250000000000000        0.0000000000000000     
  0.34375000000000000       0.56250000000000000        0.0000000000000000     
  0.37500000000000000       0.56250000000000000        0.0000000000000000     
  0.25000000000000000       0.59375000000000000        0.0000000000000000     
  0.28125000000000000       0.59375000000000000        0.0000000000000000     
  0.31250000000000000       0.59375000000000000        0.0000000000000000     
  0.34375000000000000       0.59375000000000000        0.0000000000000000     
  0.37500000000000000       0.59375000000000000        0.0000000000000000     
  0.25000000000000000       0.62500000000000000        0.0000000000000000     
  0.28125000000000000       0.62500000000000000        0.0000000000000000     
  0.31250000000000000       0.62500000000000000        0.0000000000000000     
  0.34375000000000000       0.62500000000000000        0.0000000000000000     
  0.37500000000000000       0.62500000000000000        0.0000000000000000     
  0.37500000000000000       0.50000000000000000        0.0000000000000000     
  0.40625000000000000       0.50000000000000000        0.0000000000000000     
  0.43750000000000000       0.50000000000000000        0.0000000000000000     
  0.46875000000000000       0.50000000000000000        0.0000000000000000     
  0.50000000000000000       0.50000000000000000        0.0000000000000000     
  0.37500000000000000       0.53125000000000000        0.0000000000000000     
  0.40625000000000000       0.53125000000000000        0.0000000000000000     
  0.43750000000000000       0.53125000000000000        0.0000000000000000     
  0.46875000000000000       0.53125000000000000        0.0000000000000000     
  0.50000000000000000       0.53125000000000000        0.0000000000000000     
  0.37500000000000000       0.56250000000000000        0.0000000000000000     
  0.40625000000000000       0.56250000000000000        0.0000000000000000     
  0.43750000000000000       0.56250000000000000        0.0000000000000000     
  0.46875000000000000       0.56250000000000000        0.0000000000000000     
  0.50000000000000000       0.56250000000000000        0.0000000000000000     
  0.37500000000000000       0.59375000000000000        0.0000000000000000     
  0.40625000000000000       0.59375000000000000        0.0000000000000000     
  0.43750000000000000       0.59375000000000000        0.0000000000000000     
  0.46875000000000000       0.59375000000000000        0.0000000000000000     
  0.50000000000000000       0.59375000000000000        0.0000000000000000     
  0.37500000000000000       0.62500000000000000        0.0000000000000000     
  0.40625000000000000       0.62500000000000000        0.0000000000000000     
  0.43750000000000000       0.62500000000000000        0.0000000000000000     
  0.46875000000000000       0.62500000000000000        0.0000000000000000     
  0.50000000000000000       0.62500000000000000        0.0000000000000000     
  0.50000000000000000       0.50000000000000000        0.0000000000000000     
  0.53125000000000000       0.50000000000000000        0.0000000000000000     
  0.56250000000000000       0.50000000000000000        0.0000000000000000     
  0.59375000000000000       0.50000000000000000        0.0000000000000000     
  0.62500000000000000       0.50000000000000000        0.0000000000000000     
  0.50000000000000000       0.53125000000000000        0.0000000000000000     
  0.53125000000000000       0.53125000000000000        0.0000000000000000     
  0.56250000000000000       0.53125000000000000        0.0000000000000000     
  0.59375000000000000       0.53125000000000000        0.0000000000000000     
  0.62500000000000000       0.53125000000000000        0.0000000000000000     
  0.50000000000000000       0.56250000000000000        0.0000000000000000     
  0.53125000000000000       0.56250000000000000        0.0000000000000000     
  0.56250000000000000       0.56250000000000000        0.0000000000000000     
  0.59375000000000000       0.56250000000000000        0.0000000000000000     
  0.62500000000000000       0.56250000000000000        0.0000000000000000     
  0.50000000000000000       0.59375000000000000        0.0000000000000000     
  0.53125000000000000       0.59375000000000000        0.0000000000000000     
  0.56250000000000000       0.59375000000000000        0.0000000000000000     
  0.59375000000000000       0.59375000000000000        0.0000000000000000     
  0.62500000000000000       0.59375000000000000        0.0000000000000000     
  0.50000000000000000       0.62500000000000000        0.0000000000000000     
  0.53125000000000000       0.62500000000000000        0.0000000000000000     
  0.56250000000000000       0.62500000000000000        0.0000000000000000     
  0.59375000000000000       0.62500000000000000        0.0000000000000000     
  0.62500000000000000       0.62500000000000000        0.0000000000000000     
  0.62500000000000000       0.50000000000000000        0.0000000000000000     
  0.65625000000000000       0.50000000000000000        0.0000000000000000     
  0.68750000000000000       0.50000000000000000        0.0000000000000000     
  0.71875000000000000       0.50000000000000000        0.0000000000000000     
  0.75000000000000000       0.50000000000000000        0.0000000000000000     
  0.62500000000000000       0.53125000000000000        0.0000000000000000     
  0.65625000000000000       0.53125000000000000        0.0000000000000000     
  0.68750000000000000       0.53125000000000000        0.0000000000000000     
  0.71875000000000000       0.53125000000000000        0.0000000000000000     
  0.75000000000000000       0.53125000000000000        0.0000000000000000     
  0.62500000000000000       0.56250000000000000        0.0000000000000000     
  0.65625000000000000       0.56250000000000000        0.0000000000000000     
  0.68750000000000000       0.56250000000000000        0.0000000000000000     
  0.71875000000000000       0.56250000000000000        0.0000000000000000     
  0.75000000000000000       0.56250000000000000        0.0000000000000000     
  0.62500000000000000       0.59375000000000000        0.0000000000000000     
  0.65625000000000000       0.59375000000000000        0.0000000000000000     
  0.68750000000000000       0.59375000000000000        0.0000000000000000     
  0.71875000000000000       0.59375000000000000        0.0000000000000000     
  0.75000000000000000       0.59375000000000000        0.0000000000000000     
  0.62500000000000000       0.62500000000000000        0.0000000000000000     
  0.65625000000000000       0.62500000000000000        0.0000000000000000     
  0.68750000000000000       0.62500000000000000        0.0000000000000000     
  0.71875000000000000       0.62500000000000000        0.0000000000000000     
  0.75000000000000000       0.62500000000000000        0.0000000000000000     
  0.75000000000000000       0.50000000000000000        0.0000000000000000     
  0.78125000000000000       0.50000000000000000        0.0000000000000000     
  0.81250000000000000       0.50000000000000000        0.0000000000000000     
  0.84375000000000000       0.50000000000000000        0.0000000000000000     
  0.87500000000000000       0.50000000000000000        0.0000000000000000     
  0.75000000000000000       0.53125000000000000        0.0000000000000000     
  0.78125000000000000       0.53125000000000000        0.0000000000000000     
  0.81250000000000000       0.53125000000000000        0.0000000000000000     
  0.84375000000000000       0.53125000000000000        0.0000000000000000     
  0.87500000000000000       0.53125000000000000        0.0000000000000000     
  0.75000000000000000       0.56250000000000000        0.0000000000000000     
  0.78125000000000000       0.56250000000000000        0.0000000000000000     
  0.81250000000000000       0.56250000000000000        0.0000000000000000     
  0.84375000000000000       0.56250000000000000        0.0000000000000000     
  0.87500000000000000       0.56250000000000000        0.0000000000000000     
  0.75000000000000000       0.59375000000000000        0.0000000000000000     
  0.78125000000000000       0.59375000000000000        0.0000000000000000     
  0.81250000000000000       0.59375000000000000        0.0000000000000000     
  0.84375000000000000       0.59375000000000000        0.0000000000000000     
  0.87500000000000000       0.59375000000000000        0.0000000000000000     
  0.75000000000000000       0.62500000000000000        0.0000000000000000     
  0.78125000000000000       0.62500000000000000        0.0000000000000000     
  0.81250000000000000       0.62500000000000000        0.0000000000000000     
  0.84375000000000000       0.62500000000000000        0.0000000000000000     
  0.87500000000000000       0.62500000000000000        0.0000000000000000     
  0.87500000000000000       0.50000000000000000        0.0000000000000000     
  0.90625000000000000       0.50000000000000000        0.0000000000000000     
  0.93750000000000000       0.50000000000000000        0.0000000000000000     
  0.96875000000000000       0.50000000000000000        0.0000000000000000     
   1.0000000000000000       0.50000000000000000        0.0000000000000000     
  0.87500000000000000       0.53125000000000000        0.0000000000000000     
  0.90625000000000000       0.53125000000000000        0.0000000000000000     
  0.93750000000000000       0.53125000000000000        0.0000000000000000     
  0.96875000000000000       0.53125000000000000        0.0000000000000000     
   1.0000000000000000       0.53125000000000000        0.0000000000000000     
  0.87500000000000000       0.56250000000000000        0.0000000000000000     
  0.90625000000000000       0.56250000000000000        0.0000000000000000     
  0.93750000000000000       0.56250000000000000        0.0000000000000000     
  0.96875000000000000       0.56250000000000000        0.0000000000000000     
   1.0000000000000000       0.56250000000000000        0.0000000000000000     
  0.87500000000000000       0.59375000000000000        0.0000000000000000     
  0.90625000000000000       0.59375000000000000        0.0000000000000000     
  0.93750000000000000       0.59375000000000000        0.0000000000000000     
  0.96875000000000000       0.59375000000000000        0.0000000000000000     
   1.0000000000000000       0.59375000000000000        0.0000000000000000     
  0.87500000000000000       0.62500000000000000        0.0000000000000000     
  0.90625000000000000       0.62500000000000000        0.0000000000000000     
  0.93750000000000000       0.62500000000000000        0.0000000000000000     
  0.96875000000000000       0.62500000000000000        0.0000000000000000     
   1.0000000000000000       0.62500000000000000        0.0000000000000000     
   0.0000000000000000       0.62500000000000000        0.0000000000000000     
   3.1250000000000000E-002  0.62500000000000000        0.0000000000000000     
   6.2500000000000000E-002  0.62500000000000000        0.0000000000000000     
   9.3750000000000000E-002  0.62500000000000000        0.0000000000000000     
  0.12500000000000000       0.62500000000000000        0.0000000000000000     
   0.0000000000000000       0.65625000000000000        0.0000000000000000     
   3.1250000000000000E-002  0.65625000000000000        0.0000000000000000     
   6.2500000000000000E-002  0.65625000000000000        0.0000000000000000     
   9.3750000000000000E-002  0.65625000000000000        0.0000000000000000     
  0.12500000000000000       0.65625000000000000        0.0000000000000000     
   0.0000000000000000       0.68750000000000000        0.0000000000000000     
   3.1250000000000000E-002  0.68750000000000000        0.0000000000000000     
   6.2500000000000000E-002  0.68750000000000000        0.0000000000000000     
   9.3750000000000000E-002  0.68750000000000000        0.0000000000000000     
  0.12500000000000000       0.68750000000000000        0.0000000000000000     
   0.0000000000000000       0.71875000000000000        0.0000000000000000     
   3.1250000000000000E-002  0.71875000000000000        0.0000000000000000     
   6.2500000000000000E-002  0.71875000000000000        0.0000000000000000     
   9.3750000000000000E-002  0.71875000000000000        0.0000000000000000     
  0.12500000000000000       0.71875000000000000        0.0000000000000000     
   0.0000000000000000       0.75000000000000000        0.0000000000000000     
   3.1250000000000000E-002  0.75000000000000000        0.0000000000000000     
   6.2500000000000000E-002  0.75000000000000000        0.0000000000000000     
   9.3750000000000000E-002  0.75000000000000000        0.0000000000000000     
  0.12500000000000000       0.75000000000000000        0.0000000000000000     
  0.12500000000000000       0.62500000000000000        0.0000000000000000     
  0.15625000000000000       0.62500000000000000        0.0000000000000000     
  0.18750000000000000       0.62500000000000000        0.0000000000000000     
  0.21875000000000000       0.62500000000000000        0.0000000000000000     
  0.25000000000000000       0.62500000000000000        0.0000000000000000     
  0.12500000000000000       0.65625000000000000        0.0000000000000000     
  0.15625000000000000       0.65625000000000000        0.0000000000000000     
  0.18750000000000000       0.65625000000000000        0.0000000000000000     
  0.21875000000000000       0.65625000000000000        0.0000000000000000     
  0.25000000000000000       0.65625000000000000        0.0000000000000000     
  0.12500000000000000       0.68750000000000000        0.0000000000000000     
  0.15625000000000000       0.68750000000000000        0.0000000000000000     
  0.18750000000000000       0.68750000000000000        0.0000000000000000     
  0.21875000000000000       0.68750000000000000        0.0000000000000000     
  0.25000000000000000       0.68750000000000000        0.0000000000000000     
  0.12500000000000000       0.71875000000000000        0.0000000000000000     
  0.15625000000000000       0.71875000000000000        0.0000000000000000     
  0.18750000000000000       0.71875000000000000        0.0000000000000000     
  0.21875000000000000       0.71875000000000000        0.0000000000000000     
  0.25000000000000000       0.71875000000000000        0.0000000000000000     
  0.12500000000000000       0.75000000000000000        0.0000000000000000     
  0.15625000000000000       0.75000000000000000        0.0000000000000000     
  0.18750000000000000       0.75000000000000000        0.0000000000000000     
  0.21875000000000000       0.75000000000000000        0.0000000000000000     
  0.25000000000000000       0.75000000000000000        0.0000000000000000     
  0.25000000000000000       0.62500000000000000        0.0000000000000000     
  0.28125000000000000       0.62500000000000000        0.0000000000000000     
  0.31250000000000000       0.62500000000000000        0.0000000000000000     
  0.34375000000000000       0.62500000000000000        0.0000000000000000     
  0.37500000000000000       0.62500000000000000        0.0000000000000000     
  0.25000000000000000       0.65625000000000000        0.0000000000000000     
  0.28125000000000000       0.65625000000000000        0.0000000000000000     
  0.31250000000000000       0.65625000000000000        0.0000000000000000     
  0.34375000000000000       0.65625000000000000        0.0000000000000000     
  0.37500000000000000       0.65625000000000000        0.0000000000000000     
  0.25000000000000000       0.68750000000000000        0.0000000000000000     
  0.28125000000000000       0.68750000000000000        0.0000000000000000     
  0.31250000000000000       0.68750000000000000        0.0000000000000000     
  0.34375000000000000       0.68750000000000000        0.0000000000000000     
  0.37500000000000000       0.68750000000000000        0.0000000000000000     
  0.25000000000000000       0.71875000000000000        0.0000000000000000     
  0.28125000000000000       0.71875000000000000        0.0000000000000000     
  0.31250000000000000       0.71875000000000000        0.0000000000000000     
  0.34375000000000000       0.71875000000000000        0.0000000000000000     
  0.37500000000000000       0.71875000000000000        0.0000000000000000     
  0.25000000000000000       0.75000000000000000        0.0000000000000000     
  0.28125000000000000       0.75000000000000000        0.0000000000000000     
  0.31250000000000000       0.75000000000000000        0.0000000000000000     
  0.34375000000000000       0.75000000000000000        0.0000000000000000     
  0.37500000000000000       0.75000000000000000        0.0000000000000000     
  0.37500000000000000       0.62500000000000000        0.0000000000000000     
  0.40625000000000000       0.62500000000000000        0.0000000000000000     
  0.43750000000000000       0.62500000000000000        0.0000000000000000     
  0.46875000000000000       0.62500000000000000        0.0000000000000000     
  0.50000000000000000       0.62500000000000000        0.0000000000000000     
  0.37500000000000000       0.65625000000000000        0.0000000000000000     
  0.40625000000000000       0.65625000000000000        0.0000000000000000     
  0.43750000000000000       0.65625000000000000        0.0000000000000000     
  0.46875000000000000       0.65625000000000000        0.0000000000000000     
  0.50000000000000000       0.65625000000000000        0.0000000000000000     
  0.37500000000000000       0.68750000000000000        0.0000000000000000     
  0.40625000000000000       0.68750000000000000        0.0000000000000000     
  0.43750000000000000       0.68750000000000000        0.0000000000000000     
  0.46875000000000000       0.68750000000000000        0.0000000000000000     
  0.50000000000000000       0.68750000000000000        0.0000000000000000     
  0.37500000000000000       0.71875000000000000        0.0000000000000000     
  0.40625000000000000       0.71875000000000000        0.0000000000000000     
  0.43750000000000000       0.71875000000000000        0.0000000000000000     
  0.46875000000000000       0.71875000000000000        0.0000000000000000     
  0.50000000000000000       0.71875000000000000        0.0000000000000000     
  0.37500000000000000       0.75000000000000000        0.0000000000000000     
  0.40625000000000000       0.75000000000000000        0.0000000000000000     
  0.43750000000000000       0.75000000000000000        0.0000000000000000     
  0.46875000000000000       0.75000000000000000        0.0000000000000000     
  0.50000000000000000       0.75000000000000000        0.0000000000000000     
  0.50000000000000000       0.62500000000000000        0.0000000000000000     
  0.53125000000000000       0.62500000000000000        0.0000000000000000     
  0.56250000000000000       0.62500000000000000        0.0000000000000000     
  0.59375000000000000       0.62500000000000000        0.0000000000000000     
  0.62500000000000000       0.62500000000000000        0.0000000000000000     
  0.50000000000000000       0.65625000000000000        0.0000000000000000     
  0.53125000000000000       0.65625000000000000        0.0000000000000000     
  0.56250000000000000       0.65625000000000000        0.0000000000000000     
  0.59375000000000000       0.65625000000000000        0.0000000000000000     
  0.62500000000000000       0.65625000000000000        0.0000000000000000     
  0.50000000000000000       0.68750000000000000        0.0000000000000000     
  0.53125000000000000       0.68750000000000000        0.0000000000000000     
  0.56250000000000000       0.68750000000000000        0.0000000000000000     
  0.59375000000000000       0.68750000000000000        0.0000000000000000     
  0.62500000000000000       0.68750000000000000        0.0000000000000000     
  0.50000000000000000       0.71875000000000000        0.0000000000000000     
  0.53125000000000000       0.71875000000000000        0.0000000000000000     
  0.56250000000000000       0.71875000000000000        0.0000000000000000     
  0.59375000000000000       0.71875000000000000        0.0000000000000000     
  0.62500000000000000       0.71875000000000000        0.0000000000000000     
  0.50000000000000000       0.75000000000000000        0.0000000000000000     
  0.53125000000000000       0.75000000000000000        0.0000000000000000     
  0.56250000000000000       0.75000000000000000        0.0000000000000000     
  0.59375000000000000       0.75000000000000000        0.0000000000000000     
  0.62500000000000000       0.75000000000000000        0.0000000000000000     
  0.62500000000000000       0.62500000000000000        0.0000000000000000     
  0.65625000000000000       0.62500000000000000        0.0000000000000000     
  0.68750000000000000       0.62500000000000000        0.0000000000000000     
  0.71875000000000000       0.62500000000000000        0.0000000000000000     
  0.75000000000000000       0.62500000000000000        0.0000000000000000     
  0.62500000000000000       0.65625000000000000        0.0000000000000000     
  0.65625000000000000       0.65625000000000000        0.0000000000000000     
  0.68750000000000000       0.65625000000000000        0.0000000000000000     
  0.71875000000000000       0.65625000000000000        0.0000000000000000     
  0.75000000000000000       0.65625000000000000        0.0000000000000000     
  0.62500000000000000       0.68750000000000000        0.0000000000000000     
  0.65625000000000000       0.68750000000000000        0.0000000000000000     
  0.68750000000000000       0.68750000000000000        0.0000000000000000     
  0.71875000000000000       0.68750000000000000        0.0000000000000000     
  0.75000000000000000       0.68750000000000000        0.0000000000000000     
  0.62500000000000000       0.71875000000000000        0.0000000000000000     
  0.65625000000000000       0.71875000000000000        0.0000000000000000     
  0.68750000000000000       0.71875000000000000        0.0000000000000000     
  0.71875000000000000       0.71875000000000000        0.0000000000000000     
  0.75000000000000000       0.71875000000000000        0.0000000000000000     
  0.62500000000000000       0.75000000000000000        0.0000000000000000     
  0.65625000000000000       0.75000000000000000        0.0000000000000000     
  0.68750000000000000       0.75000000000000000        0.0000000000000000     
  0.71875000000000000       0.75000000000000000        0.0000000000000000     
  0.75000000000000000       0.75000000000000000        0.0000000000000000     
  0.75000000000000000       0.62500000000000000        0.0000000000000000     
  0.78125000000000000       0.62500000000000000        0.0000000000000000     
  0.81250000000000000       0.62500000000000000        0.0000000000000000     
  0.84375000000000000       0.62500000000000000        0.0000000000000000     
  0.87500000000000000       0.62500000000000000        0.0000000000000000     
  0.75000000000000000       0.65625000000000000        0.0000000000000000     
  0.78125000000000000       0.65625000000000000        0.0000000000000000     
  0.81250000000000000       0.65625000000000000        0.0000000000000000     
  0.84375000000000000       0.65625000000000000        0.0000000000000000     
  0.87500000000000000       0.65625000000000000        0.0000000000000000     
  0.75000000000000000       0.68750000000000000        0.0000000000000000     
  0.78125000000000000       0.68750000000000000        0.0000000000000000     
  0.81250000000000000       0.68750000000000000        0.0000000000000000     
  0.84375000000000000       0.68750000000000000        0.0000000000000000     
  0.87500000000000000       0.68750000000000000        0.0000000000000000     
  0.75000000000000000       0.71875000000000000        0.0000000000000000     
  0.78125000000000000       0.71875000000000000        0.0000000000000000     
  0.81250000000000000       0.71875000000000000        0.0000000000000000     
  0.84375000000000000       0.71875000000000000        0.0000000000000000     
  0.87500000000000000       0.71875000000000000        0.0000000000000000     
  0.75000000000000000       0.75000000000000000        0.0000000000000000     
  0.78125000000000000       0.75000000000000000        0.0000000000000000     
  0.81250000000000000       0.75000000000000000        0.0000000000000000     
  0.84375000000000000       0.75000000000000000        0.0000000000000000     
  0.87500000000000000       0.75000000000000000        0.0000000000000000     
  0.87500000000000000       0.62500000000000000        0.0000000000000000     
  0.90625000000000000       0.62500000000000000        0.0000000000000000     
  0.93750000000000000       0.62500000000000000        0.0000000000000000     
  0.96875000000000000       0.62500000000000000        0.0000000000000000     
   1.0000000000000000       0.62500000000000000        0.0000000000000000     
  0.87500000000000000       0.65625000000000000        0.0000000000000000     
  0.90625000000000000       0.65625000000000000        0.0000000000000000     
  0.93750000000000000       0.65625000000000000        0.0000000000000000     
  0.96875000000000000       0.65625000000000000        0.0000000000000000     
   1.0000000000000000       0.65625000000000000        0.0000000000000000     
  0.87500000000000000       0.68750000000000000        0.0000000000000000     
  0.90625000000000000       0.68750000000000000        0.0000000000000000     
  0.93750000000000000       0.68750000000000000        0.0000000000000000     
  0.96875000000000000       0.68750000000000000        0.0000000000000000     
   1.0000000000000000       0.68750000000000000        0.0000000000000000     
  0.87500000000000000       0.71875000000000000        0.0000000000000000     
  0.90625000000000000       0.71875000000000000        0.0000000000000000     
  0.93750000000000000       0.71875000000000000        0.0000000000000000     
  0.96875000000000000       0.71875000000000000        0.0000000000000000     
   1.0000000000000000       0.71875000000000000        0.0000000000000000     
  0.87500000000000000       0.75000000000000000        0.0000000000000000     
  0.90625000000000000       0.75000000000000000        0.0000000000000000     
  0.93750000000000000       0.75000000000000000        0.0000000000000000     
  0.96875000000000000       0.75000000000000000        0.0000000000000000     
   1.0000000000000000       0.75000000000000000        0.0000000000000000     
   0.0000000000000000       0.75000000000000000        0.0000000000000000     
   3.1250000000000000E-002  0.75000000000000000        0.0000000000000000     
   6.2500000000000000E-002  0.75000000000000000        0.0000000000000000     
   9.3750000000000000E-002  0.75000000000000000        0.0000000000000000     
  0.12500000000000000       0.75000000000000000        0.0000000000000000     
   0.0000000000000000       0.78125000000000000        0.0000000000000000     
   3.1250000000000000E-002  0.78125000000000000        0.0000000000000000     
   6.2500000000000000E-002  0.78125000000000000        0.0000000000000000     
   9.3750000000000000E-002  0.78125000000000000        0.0000000000000000     
  0.12500000000000000       0.78125000000000000        0.0000000000000000     
   0.0000000000000000       0.81250000000000000        0.0000000000000000     
   3.1250000000000000E-002  0.81250000000000000        0.0000000000000000     
   6.2500000000000000E-002  0.81250000000000000        0.0000000000000000     
   9.3750000000000000E-002  0.81250000000000000        0.0000000000000000     
  0.12500000000000000       0.81250000000000000        0.0000000000000000     
   0.0000000000000000       0.84375000000000000        0.0000000000000000     
   3.1250000000000000E-002  0.84375000000000000        0.0000000000000000     
   6.2500000000000000E-002  0.84375000000000000        0.0000000000000000     
   9.3750000000000000E-002  0.84375000000000000        0.0000000000000000     
  0.12500000000000000       0.84375000000000000        0.0000000000000000     
   0.0000000000000000       0.87500000000000000        0.0000000000000000     
   3.1250000000000000E-002  0.87500000000000000        0.0000000000000000     
   6.2500000000000000E-002  0.87500000000000000        0.0000000000000000     
   9.3750000000000000E-002  0.87500000000000000        0.0000000000000000     
  0.12500000000000000       0.87500000000000000        0.0000000000000000     
  0.12500000000000000       0.75000000000000000        0.0000000000000000     
  0.15625000000000000       0.75000000000000000        0.0000000000000000     
  0.18750000000000000       0.75000000000000000        0.0000000000000000     
  0.21875000000000000       0.75000000000000000        0.0000000000000000     
  0.25000000000000000       0.75000000000000000        0.0000000000000000     
  0.12500000000000000       0.78125000000000000        0.0000000000000000     
  0.15625000000000000       0.78125000000000000        0.0000000000000000     
  0.18750000000000000       0.78125000000000000        0.0000000000000000     
  0.21875000000000000       0.78125000000000000        0.0000000000000000     
  0.25000000000000000       0.78125000000000000        0.0000000000000000     
  0.12500000000000000       0.81250000000000000        0.0000000000000000     
  0.15625000000000000       0.81250000000000000        0.0000000000000000     
  0.18750000000000000       0.81250000000000000        0.0000000000000000     
  0.21875000000000000       0.81250000000000000        0.0000000000000000     
  0.25000000000000000       0.81250000000000000        0.0000000000000000     
  0.12500000000000000       0.84375000000000000        0.0000000000000000     
  0.15625000000000000       0.84375000000000000        0.0000000000000000     
  0.18750000000000000       0.84375000000000000        0.0000000000000000     
  0.21875000000000000       0.84375000000000000        0.0000000000000000     
  0.25000000000000000       0.84375000000000000        0.0000000000000000     
  0.12500000000000000       0.87500000000000000        0.0000000000000000     
  0.15625000000000000       0.87500000000000000        0.0000000000000000     
  0.18750000000000000       0.87500000000000000        0.0000000000000000     
  0.21875000000000000       0.87500000000000000        0.0000000000000000     
  0.25000000000000000       0.87500000000000000        0.0000000000000000     
  0.25000000000000000       0.75000000000000000        0.0000000000000000     
  0.28125000000000000       0.75000000000000000        0.0000000000000000     
  0.31250000000000000       0.75000000000000000        0.0000000000000000     
  0.34375000000000000       0.75000000000000000        0.0000000000000000     
  0.37500000000000000       0.75000000000000000        0.0000000000000000     
  0.25000000000000000       0.78125000000000000        0.0000000000000000     
  0.28125000000000000       0.78125000000000000        0.0000000000000000     
  0.31250000000000000       0.78125000000000000        0.0000000000000000     
  0.34375000000000000       0.78125000000000000        0.0000000000000000     
  0.37500000000000000       0.78125000000000000        0.0000000000000000     
  0.25000000000000000       0.81250000000000000        0.0000000000000000     
  0.28125000000000000       0.81250000000000000        0.0000000000000000     
  0.31250000000000000       0.81250000000000000        0.0000000000000000     
  0.34375000000000000       0.81250000000000000        0.0000000000000000     
  0.37500000000000000       0.81250000000000000        0.0000000000000000     
  0.25000000000000000       0.84375000000000000        0.0000000000000000     
  0.28125000000000000       0.84375000000000000        0.0000000000000000     
  0.31250000000000000       0.84375000000000000        0.0000000000000000     
  0.34375000000000000       0.84375000000000000        0.0000000000000000     
  0.37500000000000000       0.84375000000000000        0.0000000000000000     
  0.25000000000000000       0.87500000000000000        0.0000000000000000     
  0.28125000000000000       0.87500000000000000        0.0000000000000000     
  0.31250000000000000       0.87500000000000000        0.0000000000000000     
  0.34375000000000000       0.87500000000000000        0.0000000000000000     
  0.37500000000000000       0.87500000000000000        0.0000000000000000     
  0.37500000000000000       0.75000000000000000        0.0000000000000000     
  0.40625000000000000       0.75000000000000000        0.0000000000000000     
  0.43750000000000000       0.75000000000000000        0.0000000000000000     
  0.46875000000000000       0.75000000000000000        0.0000000000000000     
  0.50000000000000000       0.75000000000000000        0.0000000000000000     
  0.37500000000000000       0.78125000000000000        0.0000000000000000     
  0.40625000000000000       0.78125000000000000        0.0000000000000000     
  0.43750000000000000       0.78125000000000000        0.0000000000000000     
  0.46875000000000000       0.78125000000000000        0.0000000000000000     
  0.50000000000000000       0.78125000000000000        0.0000000000000000     
  0.37500000000000000       0.81250000000000000        0.0000000000000000     
  0.40625000000000000       0.81250000000000000        0.0000000000000000     
  0.43750000000000000       0.81250000000000000        0.0000000000000000     
  0.46875000000000000       0.81250000000000000        0.0000000000000000     
  0.50000000000000000       0.81250000000000000        0.0000000000000000     
  0.37500000000000000       0.84375000000000000        0.0000000000000000     
  0.40625000000000000       0.84375000000000000        0.0000000000000000     
  0.43750000000000000       0.84375000000000000        0.0000000000000000     
  0.46875000000000000       0.84375000000000000        0.0000000000000000     
  0.50000000000000000       0.84375000000000000        0.0000000000000000     
  0.37500000000000000       0.87500000000000000        0.0000000000000000     
  0.40625000000000000       0.87500000000000000        0.0000000000000000     
  0.43750000000000000       0.87500000000000000        0.0000000000000000     
  0.46875000000000000       0.87500000000000000        0.0000000000000000     
  0.50000000000000000       0.87500000000000000        0.0000000000000000     
  0.50000000000000000       0.75000000000000000        0.0000000000000000     
  0.53125000000000000       0.75000000000000000        0.0000000000000000     
  0.56250000000000000       0.75000000000000000        0.0000000000000000     
  0.59375000000000000       0.75000000000000000        0.0000000000000000     
  0.62500000000000000       0.75000000000000000        0.0000000000000000     
  0.50000000000000000       0.78125000000000000        0.0000000000000000     
  0.53125000000000000       0.78125000000000000        0.0000000000000000     
  0.56250000000000000       0.78125000000000000        0.0000000000000000     
  0.59375000000000000       0.78125000000000000        0.0000000000000000     
  0.62500000000000000       0.78125000000000000        0.0000000000000000     
  0.50000000000000000       0.81250000000000000        0.0000000000000000     
  0.53125000000000000       0.81250000000000000        0.0000000000000000     
  0.56250000000000000       0.81250000000000000        0.0000000000000000     
  0.59375000000000000       0.81250000000000000        0.0000000000000000     
  0.62500000000000000       0.81250000000000000        0.0000000000000000     
  0.50000000000000000       0.84375000000000000        0.0000000000000000     
  0.53125000000000000       0.84375000000000000        0.0000000000000000     
  0.56250000000000000       0.84375000000000000        0.0000000000000000     
  0.59375000000000000       0.84375000000000000        0.0000000000000000     
  0.62500000000000000       0.84375000000000000        0.0000000000000000     
  0.50000000000000000       0.87500000000000000        0.0000000000000000     
  0.53125000000000000       0.87500000000000000        0.0000000000000000     
  0.56250000000000000       0.87500000000000000        0.0000000000000000     
  0.59375000000000000       0.87500000000000000        0.0000000000000000     
  0.62500000000000000       0.87500000000000000        0.0000000000000000     
  0.62500000000000000       0.75000000000000000        0.0000000000000000     
  0.65625000000000000       0.75000000000000000        0.0000000000000000     
  0.68750000000000000       0.75000000000000000        0.0000000000000000     
  0.71875000000000000       0.75000000000000000        0.0000000000000000     
  0.75000000000000000       0.75000000000000000        0.0000000000000000     
  0.62500000000000000       0.78125000000000000        0.0000000000000000     
  0.65625000000000000       0.78125000000000000        0.0000000000000000     
  0.68750000000000000       0.78125000000000000        0.0000000000000000     
  0.71875000000000000       0.78125000000000000        0.0000000000000000     
  0.75000000000000000       0.78125000000000000        0.0000000000000000     
  0.62500000000000000       0.81250000000000000        0.0000000000000000     
  0.65625000000000000       0.81250000000000000        0.0000000000000000     
  0.68750000000000000       0.81250000000000000        0.0000000000000000     
  0.71875000000000000       0.81250000000000000        0.0000000000000000     
  0.75000000000000000       0.81250000000000000        0.0000000000000000     
  0.62500000000000000       0.84375000000000000        0.0000000000000000     
  0.65625000000000000       0.84375000000000000        0.0000000000000000     
  0.68750000000000000       0.84375000000000000        0.0000000000000000     
  0.71875000000000000       0.84375000000000000        0.0000000000000000     
  0.75000000000000000       0.84375000000000000        0.0000000000000000     
  0.62500000000000000       0.87500000000000000        0.0000000000000000     
  0.65625000000000000       0.87500000000000000        0.0000000000000000     
  0.68750000000000000       0.87500000000000000        0.0000000000000000     
  0.71875000000000000       0.87500000000000000        0.0000000000000000     
  0.75000000000000000       0.87500000000000000        0.0000000000000000     
  0.75000000000000000       0.75000000000000000        0.0000000000000000     
  0.78125000000000000       0.75000000000000000        0.0000000000000000     
  0.81250000000000000       0.75000000000000000        0.0000000000000000     
  0.84375000000000000       0.75000000000000000        0.0000000000000000     
  0.87500000000000000       0.75000000000000000        0.0000000000000000     
  0.75000000000000000       0.78125000000000000        0.0000000000000000     
  0.78125000000000000       0.78125000000000000        0.0000000000000000     
  0.81250000000000000       0.78125000000000000        0.0000000000000000     
  0.84375000000000000       0.78125000000000000        0.0000000000000000     
  0.87500000000000000       0.78125000000000000        0.0000000000000000     
  0.75000000000000000       0.81250000000000000        0.0000000000000000     
  0.78125000000000000       0.81250000000000000        0.0000000000000000     
  0.81250000000000000       0.81250000000000000        0.0000000000000000     
  0.84375000000000000       0.81250000000000000        0.0000000000000000     
  0.87500000000000000       0.81250000000000000        0.0000000000000000     
  0.75000000000000000       0.84375000000000000        0.0000000000000000     
  0.78125000000000000       0.84375000000000000        0.0000000000000000     
  0.81250000000000000       0.84375000000000000        0.0000000000000000     
  0.84375000000000000       0.84375000000000000        0.0000000000000000     
  0.87500000000000000       0.84375000000000000        0.0000000000000000     
  0.75000000000000000       0.87500000000000000        0.0000000000000000     
  0.78125000000000000       0.87500000000000000        0.0000000000000000     
  0.81250000000000000       0.87500000000000000        0.0000000000000000     
  0.84375000000000000       0.87500000000000000        0.0000000000000000     
  0.87500000000000000       0.87500000000000000        0.0000000000000000     
  0.87500000000000000       0.75000000000000000        0.0000000000000000     
  0.90625000000000000       0.75000000000000000        0.0000000000000000     
  0.93750000000000000       0.75000000000000000        0.0000000000000000     
  0.96875000000000000       0.75000000000000000        0.0000000000000000     
   1.0000000000000000       0.75000000000000000        0.0000000000000000     
  0.87500000000000000       0.78125000000000000        0.0000000000000000     
  0.90625000000000000       0.78125000000000000        0.0000000000000000     
  0.93750000000000000       0.78125000000000000        0.0000000000000000     
  0.96875000000000000       0.78125000000000000        0.0000000000000000     
   1.0000000000000000       0.78125000000000000        0.0000000000000000     
  0.87500000000000000       0.81250000000000000        0.0000000000000000     
  0.90625000000000000       0.81250000000000000        0.0000000000000000     
  0.93750000000000000       0.81250000000000000        0.0000000000000000     
  0.96875000000000000       0.81250000000000000        0.0000000000000000     
   1.0000000000000000       0.81250000000000000        0.0000000000000000     
  0.87500000000000000       0.84375000000000000        0.0000000000000000     
  0.90625000000000000       0.84375000000000000        0.0000000000000000     
  0.93750000000000000       0.84375000000000000        0.0000000000000000     
  0.96875000000000000       0.84375000000000000        0.0000000000000000     
   1.0000000000000000       0.84375000000000000        0.0000000000000000     
  0.87500000000000000       0.87500000000000000        0.0000000000000000     
  0.90625000000000000       0.87500000000000000        0.0000000000000000     
  0.93750000000000000       0.87500000000000000        0.0000000000000000     
  0.96875000000000000       0.87500000000000000        0.0000000000000000     
   1.0000000000000000       0.87500000000000000        0.0000000000000000     
   0.0000000000000000       0.87500000000000000        0.0000000000000000     
   3.1250000000000000E-002  0.87500000000000000        0.0000000000000000     
   6.2500000000000000E-002  0.87500000000000000        0.0000000000000000     
   9.3750000000000000E-002  0.87500000000000000        0.0000000000000000     
  0.12500000000000000       0.87500000000000000        0.0000000000000000     
   0.0000000000000000       0.90625000000000000        0.0000000000000000     
   3.1250000000000000E-002  0.90625000000000000        0.0000000000000000     
   6.2500000000000000E-002  0.90625000000000000        0.0000000000000000     
   9.3750000000000000E-002  0.90625000000000000        0.0000000000000000     
  0.12500000000000000       0.90625000000000000        0.0000000000000000     
   0.0000000000000000       0.93750000000000000        0.0000000000000000     
   3.1250000000000000E-002  0.93750000000000000        0.0000000000000000     
   6.2500000000000000E-002  0.93750000000000000        0.0000000000000000     
   9.3750000000000000E-002  0.93750000000000000        0.0000000000000000     
  0.12500000000000000       0.93750000000000000        0.0000000000000000     
   0.0000000000000000       0.96875000000000000        0.0000000000000000     
   3.1250000000000000E-002  0.96875000000000000        0.0000000000000000     
   6.2500000000000000E-002  0.96875000000000000        0.0000000000000000     
   9.3750000000000000E-002  0.96875000000000000        0.0000000000000000     
  0.12500000000000000       0.96875000000000000        0.0000000000000000     
   0.0000000000000000        1.0000000000000000        0.0000000000000000     
   3.1250000000000000E-002   1.0000000000000000        0.0000000000000000     
   6.2500000000000000E-002   1.0000000000000000        0.0000000000000000     
   9.3750000000000000E-002   1.0000000000000000        0.0000000000000000     
  0.12500000000000000        1.0000000000000000        0.0000000000000000     
  0.12500000000000000       0.87500000000000000        0.0000000000000000     
  0.15625000000000000       0.87500000000000000        0.0000000000000000     
  0.18750000000000000       0.87500000000000000        0.0000000000000000     
  0.21875000000000000       0.87500000000000000        0.0000000000000000     
  0.25000000000000000       0.87500000000000000        0.0000000000000000     
  0.12500000000000000       0.90625000000000000        0.0000000000000000     
  0.15625000000000000       0.90625000000000000        0.0000000000000000     
  0.18750000000000000       0.90625000000000000        0.0000000000000000     
  0.21875000000000000       0.90625000000000000        0.0000000000000000     
  0.25000000000000000       0.90625000000000000        0.0000000000000000     
  0.12500000000000000       0.93750000000000000        0.0000000000000000     
  0.15625000000000000       0.93750000000000000        0.0000000000000000     
  0.18750000000000000       0.93750000000000000        0.0000000000000000     
  0.21875000000000000       0.93750000000000000        0.0000000000000000     
  0.25000000000000000       0.93750000000000000        0.0000000000000000     
  0.12500000000000000       0.96875000000000000        0.0000000000000000     
  0.15625000000000000       0.96875000000000000        0.0000000000000000     
  0.18750000000000000       0.96875000000000000        0.0000000000000000     
  0.21875000000000000       0.96875000000000000        0.0000000000000000     
  0.25000000000000000       0.96875000000000000        0.0000000000000000     
  0.12500000000000000        1.0000000000000000        0.0000000000000000     
  0.15625000000000000        1.0000000000000000        0.0000000000000000     
  0.18750000000000000        1.0000000000000000        0.0000000000000000     
  0.21875000000000000        1.0000000000000000        0.0000000000000000     
  0.25000000000000000        1.0000000000000000        0.0000000000000000     
  0.25000000000000000       0.87500000000000000        0.0000000000000000     
  0.28125000000000000       0.87500000000000000        0.0000000000000000     
  0.31250000000000000       0.87500000000000000        0.0000000000000000     
  0.34375000000000000       0.87500000000000000        0.0000000000000000     
  0.37500000000000000       0.87500000000000000        0.0000000000000000     
  0.25000000000000000       0.90625000000000000        0.0000000000000000     
  0.28125000000000000       0.90625000000000000        0.0000000000000000     
  0.31250000000000000       0.90625000000000000        0.0000000000000000     
  0.34375000000000000       0.90625000000000000        0.0000000000000000     
  0.37500000000000000       0.90625000000000000        0.0000000000000000     
  0.25000000000000000       0.93750000000000000        0.0000000000000000     
  0.28125000000000000       0.93750000000000000        0.0000000000000000     
  0.31250000000000000       0.93750000000000000        0.0000000000000000     
  0.34375000000000000       0.93750000000000000        0.0000000000000000     
  0.37500000000000000       0.93750000000000000        0.0000000000000000     
  0.25000000000000000       0.96875000000000000        0.0000000000000000     
  0.28125000000000000       0.96875000000000000        0.0000000000000000     
  0.31250000000000000       0.96875000000000000        0.0000000000000000     
  0.34375000000000000       0.96875000000000000        0.0000000000000000     
  0.37500000000000000       0.96875000000000000        0.0000000000000000     
  0.25000000000000000        1.0000000000000000        0.0000000000000000     
  0.28125000000000000        1.0000000000000000        0.0000000000000000     
  0.31250000000000000        1.0000000000000000        0.0000000000000000     
  0.34375000000000000        1.0000000000000000        0.0000000000000000     
  0.37500000000000000        1.0000000000000000        0.0000000000000000     
  0.37500000000000000       0.87500000000000000        0.0000000000000000     
  0.40625000000000000       0.87500000000000000        0.0000000000000000     
  0.43750000000000000       0.87500000000000000        0.0000000000000000     
  0.46875000000000000       0.87500000000000000        0.0000000000000000     
  0.50000000000000000       0.87500000000000000        0.0000000000000000     
  0.37500000000000000       0.90625000000000000        0.0000000000000000     
  0.40625000000000000       0.90625000000000000        0.0000000000000000     
  0.43750000000000000       0.90625000000000000        0.0000000000000000     
  0.46875000000000000       0.90625000000000000        0.0000000000000000     
  0.50000000000000000       0.90625000000000000        0.0000000000000000     
  0.37500000000000000       0.93750000000000000        0.0000000000000000     
  0.40625000000000000       0.93750000000000000        0.0000000000000000     
  0.43750000000000000       0.93750000000000000        0.0000000000000000     
  0.46875000000000000       0.93750000000000000        0.0000000000000000     
  0.50000000000000000       0.93750000000000000        0.0000000000000000     
  0.37500000000000000       0.96875000000000000        0.0000000000000000     
  0.40625000000000000       0.96875000000000000        0.0000000000000000     
  0.43750000000000000       0.96875000000000000        0.0000000000000000     
  0.46875000000000000       0.96875000000000000        0.0000000000000000     
  0.50000000000000000       0.96875000000000000        0.0000000000000000     
  0.37500000000000000        1.0000000000000000        0.0000000000000000     
  0.40625000000000000        1.0000000000000000        0.0000000000000000     
  0.43750000000000000        1.0000000000000000        0.0000000000000000     
  0.46875000000000000        1.0000000000000000        0.0000000000000000     
  0.50000000000000000        1.0000000000000000        0.0000000000000000     
  0.50000000000000000       0.87500000000000000        0.0000000000000000     
  0.53125000000000000       0.87500000000000000        0.0000000000000000     
  0.56250000000000000       0.87500000000000000        0.0000000000000000     
  0.59375000000000000       0.87500000000000000        0.0000000000000000     
  0.62500000000000000       0.87500000000000000        0.0000000000000000     
  0.50000000000000000       0.90625000000000000        0.0000000000000000     
  0.53125000000000000       0.90625000000000000        0.0000000000000000     
  0.56250000000000000       0.90625000000000000        0.0000000000000000     
  0.59375000000000000       0.90625000000000000        0.0000000000000000     
  0.62500000000000000       0.90625000000000000        0.0000000000000000     
  0.50000000000000000       0.93750000000000000        0.0000000000000000     
  0.53125000000000000       0.93750000000000000        0.0000000000000000     
  0.56250000000000000       0.93750000000000000        0.0000000000000000     
  0.59375000000000000       0.93750000000000000        0.0000000000000000     
  0.62500000000000000       0.93750000000000000        0.0000000000000000     
  0.50000000000000000       0.96875000000000000        0.0000000000000000     
  0.53125000000000000       0.96875000000000000        0.0000000000000000     
  0.56250000000000000       0.96875000000000000        0.0000000000000000     
  0.59375000000000000       0.96875000000000000        0.0000000000000000     
  0.62500000000000000       0.96875000000000000        0.0000000000000000     
  0.50000000000000000        1.0000000000000000        0.0000000000000000     
  0.53125000000000000        1.0000000000000000        0.0000000000000000     
  0.56250000000000000        1.0000000000000000        0.0000000000000000     
  0.59375000000000000        1.0000000000000000        0.0000000000000000     
  0.62500000000000000        1.0000000000000000        0.0000000000000000     
  0.62500000000000000       0.87500000000000000        0.0000000000000000     
  0.65625000000000000       0.87500000000000000        0.0000000000000000     
  0.68750000000000000       0.87500000000000000        0.0000000000000000     
  0.71875000000000000       0.87500000000000000        0.0000000000000000     
  0.75000000000000000       0.87500000000000000        0.0000000000000000     
  0.62500000000000000       0.90625000000000000        0.0000000000000000     
  0.65625000000000000       0.90625000000000000        0.0000000000000000     
  0.68750000000000000       0.90625000000000000        0.0000000000000000     
  0.71875000000000000       0.90625000000000000        0.0000000000000000     
  0.75000000000000000       0.90625000000000000        0.0000000000000000     
  0.62500000000000000       0.93750000000000000        0.0000000000000000     
  0.65625000000000000       0.93750000000000000        0.0000000000000000     
  0.68750000000000000       0.93750000000000000        0.0000000000000000     
  0.71875000000000000       0.93750000000000000        0.0000000000000000     
  0.75000000000000000       0.93750000000000000        0.0000000000000000     
  0.62500000000000000       0.96875000000000000        0.0000000000000000     
  0.65625000000000000       0.96875000000000000        0.0000000000000000     
  0.68750000000000000       0.96875000000000000        0.0000000000000000     
  0.71875000000000000       0.96875000000000000        0.0000000000000000     
  0.75000000000000000       0.96875000000000000        0.0000000000000000     
  0.62500000000000000        1.0000000000000000        0.0000000000000000     
  0.65625000000000000        1.0000000000000000        0.0000000000000000     
  0.68750000000000000        1.0000000000000000        0.0000000000000000     
  0.71875000000000000        1.0000000000000000        0.0000000000000000     
  0.75000000000000000        1.0000000000000000        0.0000000000000000     
  0.75000000000000000       0.87500000000000000        0.0000000000000000     
  0.78125000000000000       0.87500000000000000        0.0000000000000000     
  0.81250000000000000       0.87500000000000000        0.0000000000000000     
  0.84375000000000000       0.87500000000000000        0.0000000000000000     
  0.87500000000000000       0.87500000000000000        0.0000000000000000     
  0.75000000000000000       0.90625000000000000        0.0000000000000000     
  0.78125000000000000       0.90625000000000000        0.0000000000000000     
  0.81250000000000000       0.90625000000000000        0.0000000000000000     
  0.84375000000000000       0.90625000000000000        0.0000000000000000     
  0.87500000000000000       0.90625000000000000        0.0000000000000000     
  0.75000000000000000       0.93750000000000000        0.0000000000000000     
  0.78125000000000000       0.93750000000000000        0.0000000000000000     
  0.81250000000000000       0.93750000000000000        0.0000000000000000     
  0.84375000000000000       0.93750000000000000        0.0000000000000000     
  0.87500000000000000       0.93750000000000000        0.0000000000000000     
  0.75000000000000000       0.96875000000000000        0.0000000000000000     
  0.78125000000000000       0.96875000000000000        0.0000000000000000     
  0.81250000000000000       0.96875000000000000        0.0000000000000000     
  0.84375000000000000       0.96875000000000000        0.0000000000000000     
  0.87500000000000000       0.96875000000000000        0.0000000000000000     
  0.75000000000000000        1.0000000000000000        0.0000000000000000     
  0.78125000000000000        1.0000000000000000        0.0000000000000000     
  0.81250000000000000        1.0000000000000000        0.0000000000000000     
  0.84375000000000000        1.0000000000000000        0.0000000000000000     
  0.87500000000000000        1.0000000000000000        0.0000000000000000     
  0.87500000000000000       0.87500000000000000        0.0000000000000000     
  0.90625000000000000       0.87500000000000000        0.0000000000000000     
  0.93750000000000000       0.87500000000000000        0.0000000000000000     
  0.96875000000000000       0.87500000000000000        0.0000000000000000     
   1.0000000000000000       0.87500000000000000        0.0000000000000000     
  0.87500000000000000       0.90625000000000000        0.0000000000000000     
  0.90625000000000000       0.90625000000000000        0.0000000000000000     
  0.93750000000000000       0.90625000000000000        0.0000000000000000     
  0.96875000000000000       0.90625000000000000        0.0000000000000000     
   1.0000000000000000       0.90625000000000000        0.0000000000000000     
  0.87500000000000000       0.93750000000000000        0.0000000000000000     
  0.90625000000000000       0.93750000000000000        0.0000000000000000     
  0.93750000000000000       0.93750000000000000        0.0000000000000000     
  0.96875000000000000       0.93750000000000000        0.0000000000000000     
   1.0000000000000000       0.93750000000000000        0.0000000000000000     
  0.87500000000000000       0.96875000000000000        0.0000000000000000     
  0.90625000000000000       0.96875000000000000        0.0000000000000000     
  0.93750000000000000       0.96875000000000000        0.0000000000000000     
  0.96875000000000000       0.96875000000000000        0.0000000000000000     
   1.0000000000000000       0.96875000000000000        0.0000000000000000     
  0.87500000000000000        1.0000000000000000        0.0000000000000000     
  0.90625000000000000        1.0000000000000000        0.0000000000000000     
  0.93750000000000000        1.0000000000000000        0.0000000000000000     
  0.96875000000000000        1.0000000000000000        0.0000000000000000     
   1.0000000000000000        1.0000000000000000        0.0000000000000000     
 </DataArray>
 </Points>
 <Cells>
 <DataArray  type="Int32"  Name="connectivity"  format="ascii">
           0           1           6           5
           1           2           7           6
           2           3           8           7
           3           4           9           8
           5           6          11          10
           6           7          12          11
           7           8          13          12
           8           9          14          13
          10          11          16          15
          11          12          17          16
          12          13          18          17
          13          14          19          18
          15          16          21          20
          16          17          22          21
          17          18          23          22
          18          19          24          23
          25          26          31          30
          26          27          32          31
          27          28          33          32
          28          29          34          33
          30          31          36          35
          31          32          37          36
          32          33          38          37
          33          34          39          38
          35          36          41          40
          36          37          42          41
          37          38          43          42
          38          39          44          43
          40          41          46          45
          41          42          47          46
          42          43          48          47
          43          44          49          48
          50          51          56          55
          51          52          57          56
          52          53          58          57
          53          54          59          58
          55          56          61          60
          56          57          62          61
          57          58          63          62
          58          59          64          63
          60          61          66          65
          61          62          67          66
          62          63          68          67
          63          64          69          68
          65          66          71          70
          66          67          72          71
          67          68          73          72
          68          69          74          73
          75          76          81          80
          76          77          82          81
          77          78          83          82
          78          79          84          83
          80          81          86          85
          81          82          87          86
          82          83          88          87
          83          84          89          88
          85          86          91          90
          86          87          92          91
          87          88          93          92
          88          89          94          93
          90          91          96          95
          91          92          97          96
          92          93          98          97
          93          94          99          98
         100         101         106         105
         101         102         107         106
         102         103         108         107
         103         104         109         108
         105         106         111         110
         106         107         112         111
         107         108         113         112
         108         109         114         113
         110         111         116         115
         111         112         117         116
         112         113         118         117
         113         114         119         118
         115         116         121         120
         116         117         122         121
         117         118         123         122
         118         119         124         123
         125         126         131         130
         126         127         132         131
         127         128         133         132
         128         129         134         133
         130         131         136         135
         131         132         137         136
         132         133         138         137
         133         134         139         138
         135         136         141         140
         136         137         142         141
         137         138         143         142
         138         139         144         143
         140         141         146         145
         141         142         147         146
         142         143         148         147
         143         144         149         148
         150         151         156         155
         151         152         157         156
         152         153         158         157
         153         154         159         158
         155         156         161         160
         156         157         162         161
         157         158         163         162
         158         159         164         163
         160         161         166         165
         161         162         167         166
         162         163         168         167
         163         164         169         168
         165         166         171         170
         166         167         172         171
         167         168         173         172
         168         169         174         173
         175         176         181         180
         176         177         182         181
         177         178         183         182
         178         179         184         183
         180         181         186         185
         181         182         187         186
         182         183         188         187
         183         184         189         188
         185         186         191         190
         186         187         192         191
         187         188         193         192
         188         189         194         193
         190         191         196         195
         191         192         197         196
         192         193         198         197
         193         194         199         198
         200         201         206         205
         201         202         207         206
         202         203         208         207
         203         204         209         208
         205         206         211         210
         206         207         212         211
         207         208         213         212
         208         209         214         213
         210         211         216         215
         211         212         217         216
         212         213         218         217
         213         214         219         218
         215         216         221         220
         216         217         222         221
         217         218         223         222
         218         219         224         223
         225         226         231         230
         226         227         232         231
         227         228         233         232
         228         229         234         233
         230         231         236         235
         231         232         237         236
         232         233         238         237
         233         234         239         238
         235         236         241         240
         236         237         242         241
         237         238         243         242
         238         239         244         243
         240         241         246         245
         241         242         247         246
         242         243         248         247
         243         244         249         248
         250         251         256         255
         251         252         257         256
         252         253         258         257
         253         254         259         258
         255         256         261         260
         256         257         262         261
         257         258         263         262
         258         259         264         263
         260         261         266         265
         261         262         267         266
         262         263         268         267
         263         264         269         268
         265         266         271         270
         266         267         272         271
         267         268         273         272
         268         269         274         273
         275         276         281         280
         276         277         282         281
         277         278         283         282
         278         279         284         283
         280         281         286         285
         281         282         287         286
         282         283         288         287
         283         284         289         288
         285         286         291         290
         286         287         292         291
         287         288         293         292
         288         289         294         293
         290         291         296         295
         291         292         297         296
         292         293         298         297
         293         294         299         298
         300         301         306         305
         301         302         307         306
         302         303         308         307
         303         304         309         308
         305         306         311         310
         306         307         312         311
         307         308         313         312
         308         309         314         313
         310         311         316         315
         311         312         317         316
         312         313         318         317
         313         314         319         318
         315         316         321         320
         316         317         322         321
         317         318         323         322
         318         319         324         323
         325         326         331         330
         326         327         332         331
         327         328         333         332
         328         329         334         333
         330         331         336         335
         331         332         337         336
         332         333         338         337
         333         334         339         338
         335         336         341         340
         336         337         342         341
         337         338         343         342
         338         339         344         343
         340         341         346         345
         341         342         347         346
         342         343         348         347
         343         344         349         348
         350         351         356         355
         351         352         357         356
         352         353         358         357
         353         354         359         358
         355         356         361         360
         356         357         362         361
         357         358         363         362
         358         359         364         363
         360         361         366         365
         361         362         367         366
         362         363         368         367
         363         364         369         368
         365         366         371         370
         366         367         372         371
         367         368         373         372
         368         369         374         373
         375         376         381         380
         376         377         382         381
         377         378         383         382
         378         379         384         383
         380         381         386         385
         381         382         387         386
         382         383         388         387
         383         384         389         388
         385         386         391         390
         386         387         392         391
         387         388         393         392
         388         389         394         393
         390         391         396         395
         391         392         397         396
         392         393         398         397
         393         394         399         398
         400         401         406         405
         401         402         407         406
         402         403         408         407
         403         404         409         408
         405         406         411         410
         406         407         412         411
         407         408         413         412
         408         409         414         413
         410         411         416         415
         411         412         417         416
         412         413         418         417
         413         414         419         418
         415         416         421         420
         416         417         422         421
         417         418         423         422
         418         419         424         423
         425         426         431         430
         426         427         432         431
         427         428         433         432
         428         429         434         433
         430         431         436         435
         431         432         437         436
         432         433         438         437
         433         434         439         438
         435         436         441         440
         436         437         442         441
         437         438         443         442
         438         439         444         443
         440         441         446         445
         441         442         447         446
         442         443         448         447
         443         444         449         448
         450         451         456         455
         451         452         457         456
         452         453         458         457
         453         454         459         458
         455         456         461         460
         456         457         462         461
         457         458         463         462
         458         459         464         463
         460         461         466         465
         461         462         467         466
         462         463         468         467
         463         464         469         468
         465         466         471         470
         466         467         472         471
         467         468         473         472
         468         469         474         473
         475         476         481         480
         476         477         482         481
         477         478         483         482
         478         479         484         483
         480         481         486         485
         481         482         487         486
         482         483         488         487
         483         484         489         488
         485         486         491         490
         486         487         492         491
         487         488         493         492
         488         489         494         493
         490         491         496         495
         491         492         497         496
         492         493         498         497
         493         494         499         498
         500         501         506         505
         501         502         507         506
         502         503         508         507
         503         504         509         508
         505         506         511         510
         506         507         512         511
         507         508         513         512
         508         509         514         513
         510         511         516         515
         511         512         517         516
         512         513         518         517
         513         514         519         518
         515         516         521         520
         516         517         522         521
         517         518         523         522
         518         519         524         523
         525         526         531         530
         526         527         532         531
         527         528         533         532
         528         529         534         533
         530         531         536         535
         531         532         537         536
         532         533         538         537
         533         534         539         538
         535         536         541         540
         536         537         542         541
         537         538         543         542
         538         539         544         543
         540         541         546         545
         541         542         547         546
         542         543         548         547
         543         544         549         548
         550         551         556         555
         551         552         557         556
         552         553         558         557
         553         554         559         558
         555         556         561         560
         556         557         562         561
         557         558         563         562
         558         559         564         563
         560         561         566         565
         561         562         567         566
         562         563         568         567
         563         564         569         568
         565         566         571         570
         566         567         572         571
         567         568         573         572
         568         569         574         573
         575         576         581         580
         576         577         582         581
         577         578         583         582
         578         579         584         583
         580         581         586         585
         581         582         587         586
         582         583         588         587
         583         584         589         588
         585         586         591         590
         586         587         592         591
         587         588         593         592
         588         589         594         593
         590         591         596         595
         591         592         597         596
         592         593         598         597
         593         594         599         598
         600         601         606         605
         601         602         607         606
         602         603         608         607
         603         604         609         608
         605         606         611         610
         606         607         612         611
         607         608         613         612
         608         609         614         613
         610         611         616         615
         611         612         617         616
         612         613         618         617
         613         614         619         618
         615         616         621         620
         616         617         622         621
         617         618         623         622
         618         619         624         623
         625         626         631         630
         626         627         632         631
         627         628         633         632
         628         629         634         633
         630         631         636         635
         631         632         637         636
         632         633         638         637
         633         634         639         638
         635         636         641         640
         636         637         642         641
         637         638         643         642
         638         639         644         643
         640         641         646         645
         641         642         647         646
         642         643         648         647
         643         644         649         648
         650         651         656         655
         651         652         657         656
         652         653         658         657
         653         654         659         658
         655         656         661         660
         656         657         662         661
         657         658         663         662
         658         659         664         663
         660         661         666         665
         661         662         667         666
         662         663         668         667
         663         664         669         668
         665         666         671         670
         666         667         672         671
         667         668         673         672
         668         669         674         673
         675         676         681         680
         676         677         682         681
         677         678         683         682
         678         679         684         683
         680         681         686         685
         681         682         687         686
         682         683         688         687
         683         684         689         688
         685         686         691         690
         686         687         692         691
         687         688         693         692
         688         689         694         693
         690         691         696         695
         691         692         697         696
         692         693         698         697
         693         694         699         698
         700         701         706         705
         701         702         707         706
         702         703         708         707
         703         704         709         708
         705         706         711         710
         706         707         712         711
         707         708         713         712
         708         709         714         713
         710         711         716         715
         711         712         717         716
         712         713         718         717
         713         714         719         718
         715         716         721         720
         716         717         722         721
         717         718         723         722
         718         719         724         723
         725         726         731         730
         726         727         732         731
         727         728         733         732
         728         729         734         733
         730         731         736         735
         731         732         737         736
         732         733         738         737
         733         734         739         738
         735         736         741         740
         736         737         742         741
         737         738         743         742
         738         739         744         743
         740         741         746         745
         741         742         747         746
         742         743         748         747
         743         744         749         748
         750         751         756         755
         751         752         757         756
         752         753         758         757
         753         754         759         758
         755         756         761         760
         756         757         762         761
         757         758         763         762
         758         759         764         763
         760         761         766         765
         761         762         767         766
         762         763         768         767
         763         764         769         768
         765         766         771         770
         766         767         772         771
         767         768         773         772
         768         769         774         773
         775         776         781         780
         776         777         782         781
         777         778         783         782
         778         779         784         783
         780         781         786         785
         781         782         787         786
         782         783         788         787
         783         784         789         788
         785         786         791         790
         786         787         792         791
         787         788         793         792
         788         789         794         793
         790         791         796         795
         791         792         797         796
         792         793         798         797
         793         794         799         798
         800         801         806         805
         801         802         807         806
         802         803         808         807
         803         804         809         808
         805         806         811         810
         806         807         812         811
         807         808         813         812
         808         809         814         813
         810         811         816         815
         811         812         817         816
         812         813         818         817
         813         814         819         818
         815         816         821         820
         816         817         822         821
         817         818         823         822
         818         819         824         823
         825         826         831         830
         826         827         832         831
         827         828         833         832
         828         829         834         833
         830         831         836         835
         831         832         837         836
         832         833         838         837
         833         834         839         838
         835         836         841         840
         836         837         842         841
         837         838         843         842
         838         839         844         843
         840         841         846         845
         841         842         847         846
         842         843         848         847
         843         844         849         848
         850         851         856         855
         851         852         857         856
         852         853         858         857
         853         854         859         858
         855         856         861         860
         856         857         862         861
         857         858         863         862
         858         859         864         863
         860         861         866         865
         861         862         867         866
         862         863         868         867
         863         864         869         868
         865         866         871         870
         866         867         872         871
         867         868         873         872
         868         869         874         873
         875         876         881         880
         876         877         882         881
         877         878         883         882
         878         879         884         883
         880         881         886         885
         881         882         887         886
         882         883         888         887
         883         884         889         888
         885         886         891         890
         886         887         892         891
         887         888         893         892
         888         889         894         893
         890         891         896         895
         891         892         897         896
         892         893         898         897
         893         894         899         898
         900         901         906         905
         901         902         907         906
         902         903         908         907
         903         904         909         908
         905         906         911         910
         906         907         912         911
         907         908         913         912
         908         909         914         913
         910         911         916         915
         911         912         917         916
         912         913         918         917
         913         914         919         918
         915         916         921         920
         916         917         922         921
         917         918         923         922
         918         919         924         923
         925         926         931         930
         926         927         932         931
         927         928         933         932
         928         929         934         933
         930         931         936         935
         931         932         937         936
         932         933         938         937
         933         934         939         938
         935         936         941         940
         936         937         942         941
         937         938         943         942
         938         939         944         943
         940         941         946         945
         941         942         947         946
         942         943         948         947
         943         944         949         948
         950         951         956         955
         951         952         957         956
         952         953         958         957
         953         954         959         958
         955         956         961         960
         956         957         962         961
         957         958         963         962
         958         959         964         963
         960         961         966         965
         961         962         967         966
         962         963         968         967
         963         964         969         968
         965         966         971         970
         966         967         972         971
         967         968         973         972
         968         969         974         973
         975         976         981         980
         976         977         982         981
         977         978         983         982
         978         979         984         983
         980         981         986         985
         981         982         987         986
         982         983         988         987
         983         984         989         988
         985         986         991         990
         986         987         992         991
         987         988         993         992
         988         989         994         993
         990         991         996         995
         991         992         997         996
         992         993         998         997
         993         994         999         998
        1000        1001        1006        1005
        1001        1002        1007        1006
        1002        1003        1008        1007
        1003        1004        1009        1008
        1005        1006        1011        1010
        1006        1007        1012        1011
        1007        1008        1013        1012
        1008        1009        1014        1013
        1010        1011        1016        1015
        1011        1012        1017        1016
        1012        1013        1018        1017
        1013        1014        1019        1018
        1015        1016        1021        1020
        1016        1017        1022        1021
        1017        1018        1023        1022
        1018        1019        1024        1023
        1025        1026        1031        1030
        1026        1027        1032        1031
        1027        1028        1033        1032
        1028        1029        1034        1033
        1030        1031        1036        1035
        1031        1032        1037        1036
        1032        1033        1038        1037
        1033        1034        1039        1038
        1035        1036        1041        1040
        1036        1037        1042        1041
        1037        1038        1043        1042
        1038        1039        1044        1043
        1040        1041        1046        1045
        1041        1042        1047        1046
        1042        1043        1048        1047
        1043        1044        1049        1048
        1050        1051        1056        1055
        1051        1052        1057        1056
        1052        1053        1058        1057
        1053        1054        1059        1058
        1055        1056        1061        1060
        1056        1057        1062        1061
        1057        1058        1063        1062
        1058        1059        1064        1063
        1060        1061        1066        1065
        1061        1062        1067        1066
        1062        1063        1068        1067
        1063        1064        1069        1068
        1065        1066        1071        1070
        1066        1067        1072        1071
        1067        1068        1073        1072
        1068        1069        1074        1073
        1075        1076        1081        1080
        1076        1077        1082        1081
        1077        1078        1083        1082
        1078        1079        1084        1083
        1080        1081        1086        1085
        1081        1082        1087        1086
        1082        1083        1088        1087
        1083        1084        1089        1088
        1085        1086        1091        1090
        1086        1087        1092        1091
        1087        1088        1093        1092
        1088        1089        1094        1093
        1090        1091        1096        1095
        1091        1092        1097        1096
        1092        1093        1098        1097
        1093        1094        1099        1098
        1100        1101        1106        1105
        1101        1102        1107        1106
        1102        1103        1108        1107
        1103        1104        1109        1108
        1105        1106        1111        1110
        1106        1107        1112        1111
        1107        1108        1113        1112
        1108        1109        1114        1113
        1110        1111        1116        1115
        1111        1112        1117        1116
        1112        1113        1118        1117
        1113        1114        1119        1118
        1115        1116        1121        1120
        1116        1117        1122        1121
        1117        1118        1123        1122
        1118        1119        1124        1123
        1125        1126        1131        1130
        1126        1127        1132        1131
        1127        1128        1133        1132
        1128        1129        1134        1133
        1130        1131        1136        1135
        1131        1132        1137        1136
        1132        1133        1138        1137
        1133        1134        1139        1138
        1135        1136        1141        1140
        1136        1137        1142        1141
        1137        1138        1143        1142
        1138        1139        1144        1143
        1140        1141        1146        1145
        1141        1142        1147        1146
        1142        1143        1148        1147
        1143        1144        1149        1148
        1150        1151        1156        1155
        1151        1152        1157        1156
        1152        1153        1158        1157
        1153        1154        1159        1158
        1155        1156        1161        1160
        1156        1157        1162        1161
        1157        1158        1163        1162
        1158        1159        1164        1163
        1160        1161        1166        1165
        1161        1162        1167        1166
        1162        1163        1168        1167
        1163        1164        1169        1168
        1165        1166        1171        1170
        1166        1167        1172        1171
        1167        1168        1173        1172
        1168        1169        1174        1173
        1175        1176        1181        1180
        1176        1177        1182        1181
        1177        1178        1183        1182
        1178        1179        1184        1183
        1180        1181        1186        1185
        1181        1182        1187        1186
        1182        1183        1188        1187
        1183        1184        1189        1188
        1185        1186        1191        1190
        1186        1187        1192        1191
        1187        1188        1193        1192
        1188        1189        1194        1193
        1190        1191        1196        1195
        1191        1192        1197        1196
        1192        1193        1198        1197
        1193        1194        1199        1198
        1200        1201        1206        1205
        1201        1202        1207        1206
        1202        1203        1208        1207
        1203        1204        1209        1208
        1205        1206        1211        1210
        1206        1207        1212        1211
        1207        1208        1213        1212
        1208        1209        1214        1213
        1210        1211        1216        1215
        1211        1212        1217        1216
        1212        1213        1218        1217
        1213        1214        1219        1218
        1215        1216        1221        1220
        1216        1217        1222        1221
        1217        1218        1223        1222
        1218        1219        1224        1223
        1225        1226        1231        1230
        1226        1227        1232        1231
        1227        1228        1233        1232
        1228        1229        1234        1233
        1230        1231        1236        1235
        1231        1232        1237        1236
        1232        1233        1238        1237
        1233        1234        1239        1238
        1235        1236        1241        1240
        1236        1237        1242        1241
        1237        1238        1243        1242
        1238        1239        1244        1243
        1240        1241        1246        1245
        1241        1242        1247        1246
        1242        1243        1248        1247
        1243        1244        1249        1248
        1250        1251        1256        1255
        1251        1252        1257        1256
        1252        1253        1258        1257
        1253        1254        1259        1258
        1255        1256        1261        1260
        1256        1257        1262        1261
        1257        1258        1263        1262
        1258        1259        1264        1263
        1260        1261        1266        1265
        1261        1262        1267        1266
        1262        1263        1268        1267
        1263        1264        1269        1268
        1265        1266        1271        1270
        1266        1267        1272        1271
        1267        1268        1273        1272
        1268        1269        1274        1273
        1275        1276        1281        1280
        1276        1277        1282        1281
        1277        1278        1283        1282
        1278        1279        1284        1283
        1280        1281        1286        1285
        1281        1282        1287        1286
        1282        1283        1288        1287
        1283        1284        1289        1288
        1285        1286        1291        1290
        1286        1287        1292        1291
        1287        1288        1293        1292
        1288        1289        1294        1293
        1290        1291        1296        1295
        1291        1292        1297        1296
        1292        1293        1298        1297
        1293        1294        1299        1298
        1300        1301        1306        1305
        1301        1302        1307        1306
        1302        1303        1308        1307
        1303        1304        1309        1308
        1305        1306        1311        1310
        1306        1307        1312        1311
        1307        1308        1313        1312
        1308        1309        1314        1313
        1310        1311        1316        1315
        1311        1312        1317        1316
        1312        1313        1318        1317
        1313        1314        1319        1318
        1315        1316        1321        1320
        1316        1317        1322        1321
        1317        1318        1323        1322
        1318        1319        1324        1323
        1325        1326        1331        1330
        1326        1327        1332        1331
        1327        1328        1333        1332
        1328        1329        1334        1333
        1330        1331        1336        1335
        1331        1332        1337        1336
        1332        1333        1338        1337
        1333        1334        1339        1338
        1335        1336        1341        1340
        1336        1337        1342        1341
        1337        1338        1343        1342
        1338        1339        1344        1343
        1340        1341        1346        1345
        1341        1342        1347        1346
        1342        1343        1348        1347
        1343        1344        1349        1348
        1350        1351        1356        1355
        1351        1352        1357        1356
        1352        1353        1358        1357
        1353        1354        1359        1358
        1355        1356        1361        1360
        1356        1357        1362        1361
        1357        1358        1363        1362
        1358        1359        1364        1363
        1360        1361        1366        1365
        1361        1362        1367        1366
        1362        1363        1368        1367
        1363        1364        1369        1368
        1365        1366        1371        1370
        1366        1367        1372        1371
        1367        1368        1373        1372
        1368        1369        1374        1373
        1375        1376        1381        1380
        1376        1377        1382        1381
        1377        1378        1383        1382
        1378        1379        1384        1383
        1380        1381        1386        1385
        1381        1382        1387        1386
        1382        1383        1388        1387
        1383        1384        1389        1388
        1385        1386        1391        1390
        1386        1387        1392        1391
        1387        1388        1393        1392
        1388        1389        1394        1393
        1390        1391        1396        1395
        1391        1392        1397        1396
        1392        1393        1398        1397
        1393        1394        1399        1398
        1400        1401        1406        1405
        1401        1402        1407        1406
        1402        1403        1408        1407
        1403        1404        1409        1408
        1405        1406        1411        1410
        1406        1407        1412        1411
        1407        1408        1413        1412
        1408        1409        1414        1413
        1410        1411        1416        1415
        1411        1412        1417        1416
        1412        1413        1418        1417
        1413        1414        1419        1418
        1415        1416        1421        1420
        1416        1417        1422        1421
        1417        1418        1423        1422
        1418        1419        1424        1423
        1425        1426        1431        1430
        1426        1427        1432        1431
        1427        1428        1433        1432
        1428        1429        1434        1433
        1430        1431        1436        1435
        1431        1432        1437        1436
        1432        1433        1438        1437
        1433        1434        1439        1438
        1435        1436        1441        1440
        1436        1437        1442        1441
        1437        1438        1443        1442
        1438        1439        1444        1443
        1440        1441        1446        1445
        1441        1442        1447        1446
        1442        1443        1448        1447
        1443        1444        1449        1448
        1450        1451        1456        1455
        1451        1452        1457        1456
        1452        1453        1458        1457
        1453        1454        1459        1458
        1455        1456        1461        1460
        1456        1457        1462        1461
        1457        1458        1463        1462
        1458        1459        1464        1463
        1460        1461        1466        1465
        1461        1462        1467        1466
        1462        1463        1468        1467
        1463        1464        1469        1468
        1465        1466        1471        1470
        1466        1467        1472        1471
        1467        1468        1473        1472
        1468        1469        1474        1473
        1475        1476        1481        1480
        1476        1477        1482        1481
        1477        1478        1483        1482
        1478        1479        1484        1483
        1480        1481        1486        1485
        1481        1482        1487        1486
        1482        1483        1488        1487
        1483        1484        1489        1488
        1485        1486        1491        1490
        1486        1487        1492        1491
        1487        1488        1493        1492
        1488        1489        1494        1493
        1490        1491        1496        1495
        1491        1492        1497        1496
        1492        1493        1498        1497
        1493        1494        1499        1498
        1500        1501        1506        1505
        1501        1502        1507        1506
        1502        1503        1508        1507
        1503        1504        1509        1508
        1505        1506        1511        1510
        1506        1507        1512        1511
        1507        1508        1513        1512
        1508        1509        1514        1513
        1510        1511        1516        1515
        1511        1512        1517        1516
        1512        1513        1518        1517
        1513        1514        1519        1518
        1515        1516        1521        1520
        1516        1517        1522        1521
        1517        1518        1523        1522
        1518        1519        1524        1523
        1525        1526        1531        1530
        1526        1527        1532        1531
        1527        1528        1533        1532
        1528        1529        1534        1533
        1530        1531        1536        1535
        1531        1532        1537        1536
        1532        1533        1538        1537
        1533        1534        1539        1538
        1535        1536        1541        1540
        1536        1537        1542        1541
        1537        1538        1543        1542
        1538        1539        1544        1543
        1540        1541        1546        1545
        1541        1542        1547        1546
        1542        1543        1548        1547
        1543        1544        1549        1548
        1550        1551        1556        1555
        1551        1552        1557        1556
        1552        1553        1558        1557
        1553        1554        1559        1558
        1555        1556        1561        1560
        1556        1557        1562        1561
        1557        1558        1563        1562
        1558        1559        1564        1563
        1560        1561        1566        1565
        1561        1562        1567        1566
        1562        1563        1568        1567
        1563        1564        1569        1568
        1565        1566        1571        1570
        1566        1567        1572        1571
        1567        1568        1573        1572
        1568        1569        1574        1573
        1575        1576        1581        1580
        1576        1577        1582        1581
        1577        1578        1583        1582
        1578        1579        1584        1583
        1580        1581        1586        1585
        1581        1582        1587        1586
        1582        1583        1588        1587
        1583        1584        1589        1588
        1585        1586        1591        1590
        1586        1587        1592        1591
        1587        1588        1593        1592
        1588        1589        1594        1593
        1590        1591        1596        1595
        1591        1592        1597        1596
        1592        1593        1598        1597
        1593        1594        1599        1598
 </DataArray>
 <DataArray  type="Int32"  Name="offsets"  format="ascii"> 
           4
           8
          12
          16
          20
          24
          28
          32
          36
          40
          44
          48
          52
          56
          60
          64
          68
          72
          76
          80
          84
          88
          92
          96
         100
         104
         108
         112
         116
         120
         124
         128
         132
         136
         140
         144
         148
         152
         156
         160
         164
         168
         172
         176
         180
         184
         188
         192
         196
         200
         204
         208
         212
         216
         220
         224
         228
         232
         236
         240
         244
         248
         252
         256
         260
         264
         268
         272
         276
         280
         284
         288
         292
         296
         300
         304
         308
         312
         316
         320
         324
         328
         332
         336
         340
         344
         348
         352
         356
         360
         364
         368
         372
         376
         380
         384
         388
         392
         396
         400
         404
         408
         412
         416
         420
         424
         428
         432
         436
         440
         444
         448
         452
         456
         460
         464
         468
         472
         476
         480
         484
         488
         492
         496
         500
         504
         508
         512
         516
         520
         524
         528
         532
         536
         540
         544
         548
         552
         556
         560
         564
         568
         572
         576
         580
         584
         588
         592
         596
         600
         604
         608
         612
         616
         620
         624
         628
         632
         636
         640
         644
         648
         652
         656
         660
         664
         668
         672
         676
         680
         684
         688
         692
         696
         700
         704
         708
         712
         716
         720
         724
         728
         732
         736
         740
         744
         748
         752
         756
         760
         764
         768
         772
         776
         780
         784
         788
         792
         796
         800
         804
         808
         812
         816
         820
         824
         828
         832
         836
         840
         844
         848
         852
         856
         860
         864
         868
         872
         876
         880
         884
         888
         892
         896
         900
         904
         908
         912
         916
         920
         924
         928
         932
         936
         940
         944
         948
         952
         956
         960
         964
         968
         972
         976
         980
         984
         988
         992
         996
        1000
        1004
        1008
        1012
        1016
        1020
        1024
        1028
        1032
        1036
        1040
        1044
        1048
        1052
        1056
        1060
        1064
        1068
        1072
        1076
        1080
        1084
        1088
        1092
        1096
        1100
        1104
        1108
        1112
        1116
        1120
        1124
        1128
        1132
        1136
        1140
        1144
        1148
        1152
        1156
        1160
        1164
        1168
        1172
        1176
        1180
        1184
        1188
        1192
        1196
        1200
        1204
        1208
        1212
        1216
        1220
        1224
        1228
        1232
        1236
        1240
        1244
        1248
        1252
        1256
        1260
        1264
        1268
        1272
        1276
        1280
        1284
        1288
        1292
        1296
        1300
        1304
        1308
        1312
        1316
        1320
        1324
        1328
        1332
        1336
        1340
        1344
        1348
        1352
        1356
        1360
        1364
        1368
        1372
        1376
        1380
        1384
        1388
        1392
        1396
        1400
        1404
        1408
        1412
        1416
        1420
        1424
        1428
        1432
        1436
        1440
        1444
        1448
        1452
        1456
        1460
        1464
        1468
        1472
        1476
        1480
        1484
        1488
        1492
        1496
        1500
        1504
        1508
        1512
        1516
        1520
        1524
        1528
        1532
        1536
        1540
        1544
        1548
        1552
        1556
        1560
        1564
        1568
        1572
        1576
        1580
        1584
        1588
        1592
        1596
        1600
        1604
        1608
        1612
        1616
        1620
        1624
        1628
        1632
        1636
        1640
        1644
        1648
        1652
        1656
        1660
        1664
        1668
        1672
        1676
        1680
        1684
        1688
        1692
        1696
        1700
        1704
        1708
        1712
        1716
        1720
        1724
        1728
        1732
        1736
        1740
        1744
        1748
        1752
        1756
        1760
        1764
        1768
        1772
        1776
        1780
        1784
        1788
        1792
        1796
        1800
        1804
        1808
        1812
        1816
        1820
        1824
        1828
        1832
        1836
        1840
        1844
        1848
        1852
        1856
        1860
        1864
        1868
        1872
        1876
        1880
        1884
        1888
        1892
        1896
        1900
        1904
        1908
        1912
        1916
        1920
        1924
        1928
        1932
        1936
        1940
        1944
        1948
        1952
        1956
        1960
        1964
        1968
        1972
        1976
        1980
        1984
        1988
        1992
        1996
        2000
        2004
        2008
        2012
        2016
        2020
        2024
        2028
        2032
        2036
        2040
        2044
        2048
        2052
        2056
        2060
        2064
        2068
        2072
        2076
        2080
        2084
        2088
        2092
        2096
        2100
        2104
        2108
        2112
        2116
        2120
        2124
        2128
        2132
        2136
        2140
        2144
        2148
        2152
        2156
        2160
        2164
        2168
        2172
        2176
        2180
        2184
        2188
        2192
        2196
        2200
        2204
        2208
        2212
        2216
        2220
        2224
        2228
        2232
        2236
        2240
        2244
        2248
        2252
        2256
        2260
        2264
        2268
        2272
        2276
        2280
        2284
        2288
        2292
        2296
        2300
        2304
        2308
        2312
        2316
        2320
        2324
        2328
        2332
        2336
        2340
        2344
        2348
        2352
        2356
        2360
        2364
        2368
        2372
        2376
        2380
        2384
        2388
        2392
        2396
        2400
        2404
        2408
        2412
        2416
        2420
        2424
        2428
        2432
        2436
        2440
        2444
        2448
        2452
        2456
        2460
        2464
        2468
        2472
        2476
        2480
        2484
        2488
        2492
        2496
        2500
        2504
        2508
        2512
        2516
        2520
        2524
        2528
        2532
        2536
        2540
        2544
        2548
        2552
        2556
        2560
        2564
        2568
        2572
        2576
        2580
        2584
        2588
        2592
        2596
        2600
        2604
        2608
        2612
        2616
        2620
        2624
        2628
        2632
        2636
        2640
        2644
        2648
        2652
        2656
        2660
        2664
        2668
        2672
        2676
        2680
        2684
        2688
        2692
        2696
        2700
        2704
        2708
        2712
        2716
        2720
        2724
        2728
        2732
        2736
        2740
        2744
        2748
        2752
        2756
        2760
        2764
        2768
        2772
        2776
        2780
        2784
        2788
        2792
        2796
        2800
        2804
        2808
        2812
        2816
        2820
        2824
        2828
        2832
        2836
        2840
        2844
        2848
        2852
        2856
        2860
        2864
        2868
        2872
        2876
        2880
        2884
        2888
        2892
        2896
        2900
        2904
        2908
        2912
        2916
        2920
        2924
        2928
        2932
        2936
        2940
        2944
        2948
        2952
        2956
        2960
        2964
        2968
        2972
        2976
        2980
        2984
        2988
        2992
        2996
        3000
        3004
        3008
        3012
        3016
        3020
        3024
        3028
        3032
        3036
        3040
        3044
        3048
        3052
        3056
        3060
        3064
        3068
        3072
        3076
        3080
        3084
        3088
        3092
        3096
        3100
        3104
        3108
        3112
        3116
        3120
        3124
        3128
        3132
        3136
        3140
        3144
        3148
        3152
        3156
        3160
        3164
        3168
        3172
        3176
        3180
        3184
        3188
        3192
        3196
        3200
        3204
        3208
        3212
        3216
        3220
        3224
        3228
        3232
        3236
        3240
        3244
        3248
        3252
        3256
        3260
        3264
        3268
        3272
        3276
        3280
        3284
        3288
        3292
        3296
        3300
        3304
        3308
        3312
        3316
        3320
        3324
        3328
        3332
        3336
        3340
        3344
        3348
        3352
        3356
        3360
        3364
        3368
        3372
        3376
        3380
        3384
        3388
        3392
        3396
        3400
        3404
        3408
        3412
        3416
        3420
        3424
        3428
        3432
        3436
        3440
        3444
        3448
        3452
        3456
        3460
        3464
        3468
        3472
        3476
        3480
        3484
        3488
        3492
        3496
        3500
        3504
        3508
        3512
        3516
        3520
        3524
        3528
        3532
        3536
        3540
        3544
        3548
        3552
        3556
        3560
        3564
        3568
        3572
        3576
        3580
        3584
        3588
        3592
        3596
        3600
        3604
        3608
        3612
        3616
        3620
        3624
        3628
        3632
        3636
        3640
        3644
        3648
        3652
        3656
        3660
        3664
        3668
        3672
        3676
        3680
        3684
        3688
        3692
        3696
        3700
        3704
        3708
        3712
        3716
        3720
        3724
        3728
        3732
        3736
        3740
        3744
        3748
        3752
        3756
        3760
        3764
        3768
        3772
        3776
        3780
        3784
        3788
        3792
        3796
        3800
        3804
        3808
        3812
        3816
        3820
        3824
        3828
        3832
        3836
        3840
        3844
        3848
        3852
        3856
        3860
        3864
        3868
        3872
        3876
        3880
        3884
        3888
        3892
        3896
        3900
        3904
        3908
        3912
        3916
        3920
        3924
        3928
        3932
        3936
        3940
        3944
        3948
        3952
        3956
        3960
        3964
        3968
        3972
        3976
        3980
        3984
        3988
        3992
        3996
        4000
        4004
        4008
        4012
        4016
        4020
        4024
        4028
        4032
        4036
        4040
        4044
        4048
        4052
        4056
        4060
        4064
        4068
        4072
        4076
        4080
        4084
        4088
        4092
        4096
 </DataArray>
 <DataArray  type="UInt8"  Name="types"  format="ascii">
 9
 9
 9
 9
 9
 9
 9
 9
 9
 9
 9
 9
 9
 9
 9
 9
 9
 9
 9
 9
 9
 9
 9
 9
 9
 9
 9
 9
 9
 9
 9
 9
 9
 9
 9
 9
 9
 9
 9
 9
 9
 9
 9
 9
 9
 9
 9
 9
 9
 9
 9
 9
 9
 9
 9
 9
 9
 9
 9
 9
 9
 9
 9
 9
 9
 9
 9
 9
 9
 9
 9
 9
 9
 9
 9
 9
 9
 9
 9
 9
 9
 9
 9
 9
 9
 9
 9
 9
 9
 9
 9
 9
 9
 9
 9
 9
 9
 9
 9
 9
 9
 9
 9
 9
 9
 9
 9
 9
 9
 9
 9
 9
 9
 9
 9
 9
 9
 9
 9
 9
 9
 9
 9
 9
 9
 9
 9
 9
 9
 9
 9
 9
 9
 9
 9
 9
 9
 9
 9
 9
 9
 9
 9
 9
 9
 9
 9
 9
 9
 9
 9
 9
 9
 9
 9
 9
 9
 9
 9
 9
 9
 9
 9
 9
 9
 9
 9
 9
 9
 9
 9
 9
 9
 9
 9
 9
 9
 9
 9
 9
 9
 9
 9
 9
 9
 9
 9
 9
 9
 9
 9
 9
 9
 9
 9
 9
 9
 9
 9
 9
 9
 9
 9
 9
 9
 9
 9
 9
 9
 9
 9
 9
 9
 9
 9
 9
 9
 9
 9
 9
 9
 9
 9
 9
 9
 9
 9
 9
 9
 9
 9
 9
 9
 9
 9
 9
 9
 9
 9
 9
 9
 9
 9
 9
 9
 9
 9
 9
 9
 9
 9
 9
 9
 9
 9
 9
 9
 9
 9
 9
 9
 9
 9
 9
 9
 9
 9
 9
 9
 9
 9
 9
 9
 9
 9
 9
 9
 9
 9
 9
 9
 9
 9
 9
 9
 9
 9
 9
 9
 9
 9
 9
 9
 9
 9
 9
 9
 9
 9
 9
 9
 9
 9
 9
 9
 9
 9
 9
 9
 9
 9
 9
 9
 9
 9
 9
 9
 9
 9
 9
 9
 9
 9
 9
 9
 9
 9
 9
 9
 9
 9
 9
 9
 9
 9
 9
 9
 9
 9
 9
 9
 9
 9
 9
 9
 9
 9
 9
 9
 9
 9
 9
 9
 9
 9
 9
 9
 9
 9
 9
 9
 9
 9
 9
 9
 9
 9
 9
 9
 9
 9
 9
 9
 9
 9
 9
 9
 9
 9
 9
 9
 9
 9
 9
 9
 9
 9
 9
 9
 9
 9
 9
 9
 9
 9
 9
 9
 9
 9
 9
 9
 9
 9
 9
 9
 9
 9
 9
 9
 9
 9
 9
 9
 9
 9
 9
 9
 9
 9
 9
 9
 9
 9
 9
 9
 9
 9
 9
 9
 9
 9
 9
 9
 9
 9
 9
 9
 9
 9
 9
 9
 9
 9
 9
 9
 9
 9
 9
 9
 9
 9
 9
 9
 9
 9
 9
 9
 9
 9
 9
 9
 9
 9
 9
 9
 9
 9
 9
 9
 9
 9
 9
 9
 9
 9
 9
 9
 9
 9
 9
 9
 9
 9
 9
 9
 9
 9
 9
 9
 9
 9
 9
 9
 9
 9
 9
 9
 9
 9
 9
 9
 9
 9
 9
 9
 9
 9
 9
 9
 9
 9
 9
 9
 9
 9
 9
 9
 9
 9
 9
 9
 9
 9
 9
 9
 9
 9
 9
 9
 9
 9
 9
 9
 9
 9
 9
 9
 9
 9
 9
 9
 9
 9
 9
 9
 9
 9
 9
 9
 9
 9
 9
 9
 9
 9
 9
 9
 9
 9
 9
 9
 9
 9
 9
 9
 9
 9
 9
 9
 9
 9
 9
 9
 9
 9
 9
 9
 9
 9
 9
 9
 9
 9
 9
 9
 9
 9
 9
 9
 9
 9
 9
 9
 9
 9
 9
 9
 9
 9
 9
 9
 9
 9
 9
 9
 9
 9
 9
 9
 9
 9
 9
 9
 9
 9
 9
 9
 9
 9
 9
 9
 9
 9
 9
 9
 9
 9
 9
 9
 9
 9
 9
 9
 9
 9
 9
 9
 9
 9
 9
 9
 9
 9
 9
 9
 9
 9
 9
 9
 9
 9
 9
 9
 9
 9
 9
 9
 9
 9
 9
 9
 9
 9
 9
 9
 9
 9
 9
 9
 9
 9
 9
 9
 9
 9
 9
 9
 9
 9
 9
 9
 9
 9
 9
 9
 9
 9
 9
 9
 9
 9
 9
 9
 9
 9
 9
 9
 9
 9
 9
 9
 9
 9
 9
 9
 9
 9
 9
 9
 9
 9
 9
 9
 9
 9
 9
 9
 9
 9
 9
 9
 9
 9
 9
 9
 9
 9
 9
 9
 9
 9
 9
 9
 9
 9
 9
 9
 9
 9
 9
 9
 9
 9
 9
 9
 9
 9
 9
 9
 9
 9
 9
 9
 9
 9
 9
 9
 9
 9
 9
 9
 9
 9
 9
 9
 9
 9
 9
 9
 9
 9
 9
 9
 9
 9
 9
 9
 9
 9
 9
 9
 9
 9
 9
 9
 9
 9
 9
 9
 9
 9
 9
 9
 9
 9
 9
 9
 9
 9
 9
 9
 9
 9
 9
 9
 9
 9
 9
 9
 9
 9
 9
 9
 9
 9
 9
 9
 9
 9
 9
 9
 9
 9
 9
 9
 9
 9
 9
 9
 9
 9
 9
 9
 9
 9
 9
 9
 9
 9
 9
 9
 9
 9
 9
 9
 9
 9
 9
 9
 9
 9
 9
 9
 9
 9
 9
 9
 9
 9
 9
 9
 9
 9
 9
 9
 9
 9
 9
 9
 9
 9
 9
 9
 9
 9
 9
 9
 9
 9
 9
 9
 9
 9
 9
 9
 9
 9
 9
 9
 9
 9
 9
 9
 9
 9
 9
 9
 9
 9
 9
 9
 9
 9
 9
 9
 9
 9
 9
 9
 9
 9
 9
 9
 9
 9
 9
 9
 9
 9
 9
 9
 9
 9
 9
 9
 9
 9
 9
 9
 9
 9
 9
 9
 9
 9
 9
 9
 9
 9
 9
 9
 9
 9
 9
 9
 9
 9
 9
 9
 9
 9
 9
 9
 9
 9
 9
 9
 9
 9
 9
 9
 9
 9
 9
 9
 9
 9
 9
 9
 9
 9
 9
 9
 9
 9
 9
 9
 9
 9
 9
 9
 9
 9
 9
 9
 9
 9
 9
 9
 9
 9
 9
 9
 9
 9
 9
 9
 9
 9
 9
 9
 9
 9
 9
 9
 9
 9
 9
 9
 9
 9
 9
 9
 9
 9
 9
 9
 9
 9
 9
 9
 9
 9
 9
 </DataArray>
 </Cells> 
 <PointData>
 <DataArray  type="Float64" Name="disp" NumberOfComponents="3" format="ascii">
   0.0000000000000000        0.0000000000000000        0.0000000000000000     
   6.0959099322956557E-003   3.7904503240620401E-003   0.0000000000000000     
   1.1665942641586574E-002   7.3238531095019700E-003   0.0000000000000000     
   1.6710098127872754E-002   1.0600208356319788E-002   0.0000000000000000     
   2.1228376391154199E-002   1.3619516064515495E-002   0.0000000000000000     
   0.0000000000000000        0.0000000000000000        0.0000000000000000     
   4.8911384009217903E-003   3.0221547611069474E-003   0.0000000000000000     
   9.5736264138002632E-003   6.0605323562815307E-003   0.0000000000000000     
   1.4047464038635424E-002   9.1151327855237517E-003   0.0000000000000000     
   1.8312651275427267E-002   1.2185956048833605E-002   0.0000000000000000     
   0.0000000000000000        0.0000000000000000        0.0000000000000000     
   3.9535765492690368E-003   2.4251184798369458E-003   0.0000000000000000     
   7.9106422870213102E-003   5.0628846795059143E-003   0.0000000000000000     
   1.1871197213256818E-002   7.9132985990069057E-003   0.0000000000000000     
   1.5835241327975560E-002   1.0976360238339922E-002   0.0000000000000000     
   0.0000000000000000        0.0000000000000000        0.0000000000000000     
   3.2832243773373987E-003   1.9993414802520352E-003   0.0000000000000000     
   6.6769902612497127E-003   4.3309100791751208E-003   0.0000000000000000     
   1.0181297651736941E-002   6.9947057967692577E-003   0.0000000000000000     
   1.3796146548799085E-002   9.9907286330344451E-003   0.0000000000000000     
   0.0000000000000000        0.0000000000000000        0.0000000000000000     
   2.8800818851268738E-003   1.7448237623522152E-003   0.0000000000000000     
   5.8726703364854714E-003   3.8646085552891491E-003   0.0000000000000000     
   8.9777653540757917E-003   6.3593543788108024E-003   0.0000000000000000     
   1.2195366937897837E-002   9.2290612329171753E-003   0.0000000000000000     
   2.1228376391154199E-002   1.3619516064515495E-002   0.0000000000000000     
   2.5433576873804740E-002   1.6612424620122062E-002   0.0000000000000000     
   2.9538499018198210E-002   1.9809582409172462E-002   0.0000000000000000     
   3.3543142824334612E-002   2.3210989431666693E-002   0.0000000000000000     
   3.7447508292213945E-002   2.6816645687604758E-002   0.0000000000000000     
   1.8312651275427267E-002   1.2185956048833605E-002   0.0000000000000000     
   2.2407365876222770E-002   1.5341382425217825E-002   0.0000000000000000     
   2.6369785593068906E-002   1.8649792193683134E-002   0.0000000000000000     
   3.0199910425965679E-002   2.2111185354229540E-002   0.0000000000000000     
   3.3897740374913089E-002   2.5725561906857035E-002   0.0000000000000000     
   1.5835241327975560E-002   1.0976360238339922E-002   0.0000000000000000     
   1.9730986489077878E-002   1.4210904360338618E-002   0.0000000000000000     
   2.3486644554464090E-002   1.7575765727836649E-002   0.0000000000000000     
   2.7102215524134204E-002   2.1070944340834025E-002   0.0000000000000000     
   3.0577699398088225E-002   2.4696440199330733E-002   0.0000000000000000     
   1.3796146548799085E-002   9.9907286330344451E-003   0.0000000000000000     
   1.7404438712370053E-002   1.3220990425484443E-002   0.0000000000000000     
   2.0889075902383751E-002   1.6587503011633010E-002   0.0000000000000000     
   2.4250058118840189E-002   2.0090266391480142E-002   0.0000000000000000     
   2.7487385361739353E-002   2.3729280565025851E-002   0.0000000000000000     
   1.2195366937897837E-002   9.2290612329171753E-003   0.0000000000000000     
   1.5427722546099306E-002   1.2371640620655301E-002   0.0000000000000000     
   1.8577079636827899E-002   1.5685004045072209E-002   0.0000000000000000     
   2.1643438210083625E-002   1.9169151506167909E-002   0.0000000000000000     
   2.4626798265866476E-002   2.2824083003942383E-002   0.0000000000000000     
   3.7447508292213945E-002   2.6816645687604758E-002   0.0000000000000000     
   4.1256130937488103E-002   3.0621820643146919E-002   0.0000000000000000     
   4.4973546275808962E-002   3.4621783764453441E-002   0.0000000000000000     
   4.8599754307176543E-002   3.8816535051524326E-002   0.0000000000000000     
   5.2134755031590832E-002   4.3206074504359565E-002   0.0000000000000000     
   3.3897740374913089E-002   2.5725561906857035E-002   0.0000000000000000     
   3.7486550694309805E-002   2.9521708888290803E-002   0.0000000000000000     
   4.0989616638554480E-002   3.3528413335256017E-002   0.0000000000000000     
   4.4406938207647143E-002   3.7745675247752686E-002   0.0000000000000000     
   4.7738515401587765E-002   4.2173494625780808E-002   0.0000000000000000     
   3.0577699398088225E-002   2.4696440199330733E-002   0.0000000000000000     
   3.3942573982310986E-002   2.8496798254703758E-002   0.0000000000000000     
   3.7226317082787348E-002   3.2516563458330087E-002   0.0000000000000000     
   4.0428928699517294E-002   3.6755735810209703E-002   0.0000000000000000     
   4.3550408832500831E-002   4.1214315310342628E-002   0.0000000000000000     
   2.7487385361739353E-002   2.3729280565025851E-002   0.0000000000000000     
   3.0624200801491672E-002   2.7547088742385789E-002   0.0000000000000000     
   3.3683647608507554E-002   3.1586234133675631E-002   0.0000000000000000     
   3.6665725782787005E-002   3.5846716738895383E-002   0.0000000000000000     
   3.9570435324330050E-002   4.0328536558045046E-002   0.0000000000000000     
   2.4626798265866476E-002   2.2824083003942383E-002   0.0000000000000000     
   2.7531431151851842E-002   2.6672580351336891E-002   0.0000000000000000     
   3.0361608215715118E-002   3.0737425361292675E-002   0.0000000000000000     
   3.3117329457456289E-002   3.5018618033809720E-002   0.0000000000000000     
   3.5798594877075374E-002   3.9516158368888048E-002   0.0000000000000000     
   5.2134755031590832E-002   4.3206074504359565E-002   0.0000000000000000     
   5.5575235472794415E-002   4.7795105786130110E-002   0.0000000000000000     
   5.8917882654529873E-002   5.2588332560006924E-002   0.0000000000000000     
   6.2162696576797197E-002   5.7585754825989981E-002   0.0000000000000000     
   6.5309677239596395E-002   6.2787372584079307E-002   0.0000000000000000     
   4.7738515401587765E-002   4.2173494625780808E-002   0.0000000000000000     
   5.0979930150687108E-002   4.6805487751448042E-002   0.0000000000000000     
   5.4126764385255870E-002   5.1635270906862069E-002   0.0000000000000000     
   5.7179018105294091E-002   5.6662844092022886E-002   0.0000000000000000     
   6.0136691310801724E-002   6.1888207306930496E-002   0.0000000000000000     
   4.3550408832500831E-002   4.1214315310342628E-002   0.0000000000000000     
   4.6586411639334545E-002   4.5879858257410290E-002   0.0000000000000000     
   4.9532591277615029E-002   5.0739920950094101E-002   0.0000000000000000     
   5.2388947747342235E-002   5.5794503388394083E-002   0.0000000000000000     
   5.5155481048516211E-002   6.1043605572310235E-002   0.0000000000000000     
   3.9570435324330050E-002   4.0328536558045046E-002   0.0000000000000000     
   4.2394679938736760E-002   4.5018217304016846E-002   0.0000000000000000     
   4.5135363331607295E-002   4.9902282689703023E-002   0.0000000000000000     
   4.7792485502941677E-002   5.4980732715103585E-002   0.0000000000000000     
   5.0366046452739871E-002   6.0253567380218517E-002   0.0000000000000000     
   3.5798594877075374E-002   3.9516158368888048E-002   0.0000000000000000     
   3.8404735048893732E-002   4.4220564891267723E-002   0.0000000000000000     
   4.0935080547232737E-002   4.9122356125688826E-002   0.0000000000000000     
   4.3389631372092390E-002   5.4221532072151371E-002   0.0000000000000000     
   4.5768387523472676E-002   5.9518092730655350E-002   0.0000000000000000     
   6.5309677239596395E-002   6.2787372584079307E-002   0.0000000000000000     
   6.8363307479139088E-002   6.8179557641043331E-002   0.0000000000000000     
   7.1328070131636917E-002   7.3748681803650531E-002   0.0000000000000000     
   7.4203965197089869E-002   7.9494745071900880E-002   0.0000000000000000     
   7.6990992675497943E-002   8.5417747445794390E-002   0.0000000000000000     
   6.0136691310801724E-002   6.1888207306930496E-002   0.0000000000000000     
   6.3005223022122872E-002   6.7302331290799752E-002   0.0000000000000000     
   6.5790052259601578E-002   7.2896186782845485E-002   0.0000000000000000     
   6.8491179023237841E-002   7.8669773783067720E-002   0.0000000000000000     
   7.1108603313031662E-002   8.4623092291466445E-002   0.0000000000000000     
   5.5155481048516211E-002   6.1043605572310235E-002   0.0000000000000000     
   5.7837748395840355E-002   6.6480646071171406E-002   0.0000000000000000     
   6.0441307004018043E-002   7.2099043454306469E-002   0.0000000000000000     
   6.2966156873049281E-002   7.7898797721715443E-002   0.0000000000000000     
   6.5412298002934091E-002   8.3879908873398287E-002   0.0000000000000000     
   5.0366046452739871E-002   6.0253567380218517E-002   0.0000000000000000     
   5.2860883600291522E-002   6.5714501982158322E-002   0.0000000000000000     
   5.5281834364886318E-002   7.1357251818033512E-002   0.0000000000000000     
   5.7628898746524215E-002   7.7181816887844035E-002   0.0000000000000000     
   5.9902076745205229E-002   8.3188197191589944E-002   0.0000000000000000     
   4.5768387523472676E-002   5.9518092730655350E-002   0.0000000000000000     
   4.8074628635476416E-002   6.5003899023760511E-002   0.0000000000000000     
   5.0311634342206403E-002   7.0670811874026560E-002   0.0000000000000000     
   5.2479404643662624E-002   7.6518831281453523E-002   0.0000000000000000     
   5.4577939539845091E-002   8.2547957246041401E-002   0.0000000000000000     
   7.6990992675497943E-002   8.5417747445794390E-002   0.0000000000000000     
   7.9679830621642730E-002   9.1509148128028989E-002   0.0000000000000000     
   8.2261157090305806E-002   9.7760406321302590E-002   0.0000000000000000     
   8.4734972081487128E-002  0.10417152202561521        0.0000000000000000     
   8.7101275595186739E-002  0.11074249524096683        0.0000000000000000     
   7.1108603313031662E-002   8.4623092291466445E-002   0.0000000000000000     
   7.3633218218187038E-002   9.0745331675327542E-002   0.0000000000000000     
   7.6055916827907966E-002   9.7025681301936950E-002   0.0000000000000000     
   7.8376699142194431E-002  0.10346414117129464        0.0000000000000000     
   8.0595565161046434E-002  0.11006071128340063        0.0000000000000000     
   6.5412298002934091E-002   8.3879908873398287E-002   0.0000000000000000     
   6.7771143475198484E-002   9.0030223271365006E-002   0.0000000000000000     
   7.0034106371368518E-002   9.6337587277625605E-002   0.0000000000000000     
   7.2201186691444180E-002  0.10280200089218008        0.0000000000000000     
   7.4272384435425498E-002  0.10942346411502843        0.0000000000000000     
   5.9902076745205229E-002   8.3188197191589944E-002   0.0000000000000000     
   6.2093606392677081E-002   8.9363822916141381E-002   0.0000000000000000     
   6.4195725720687477E-002   9.5696124248368597E-002   0.0000000000000000     
   6.6208434729236418E-002  0.10218510118827150        0.0000000000000000     
   6.8131733418323917E-002  0.10883075373585017        0.0000000000000000     
   5.4577939539845091E-002   8.2547957246041401E-002   0.0000000000000000     
   5.6600606970622830E-002   8.8746130609656665E-002   0.0000000000000000     
   5.8540774875864836E-002   9.5101292214165842E-002   0.0000000000000000     
   6.0398443255571130E-002  0.10161344205956893        0.0000000000000000     
   6.2173612109741719E-002  0.10828258014586589        0.0000000000000000     
   8.7101275595186739E-002  0.11074249524096683        0.0000000000000000     
   8.9375238329924542E-002  0.11745935970337244        0.0000000000000000     
   9.1572030984220468E-002  0.12430814914884709        0.0000000000000000     
   9.3691653558074461E-002  0.13128886357739075        0.0000000000000000     
   9.5734106051486592E-002  0.13840150298900342        0.0000000000000000     
   8.0595565161046434E-002  0.11006071128340063        0.0000000000000000     
   8.2728343521014158E-002  0.11680307907721288        0.0000000000000000     
   8.4790862858647773E-002  0.12367893199168933        0.0000000000000000     
   8.6783123173947277E-002  0.13068827002683001        0.0000000000000000     
   8.8705124466912671E-002  0.13783109318263487        0.0000000000000000     
   7.4272384435425498E-002  0.10942346411502843        0.0000000000000000     
   7.6263274835349532E-002  0.11619065981289424        0.0000000000000000     
   7.8189433123253410E-002  0.12309227085250110        0.0000000000000000     
   8.0050859299137134E-002  0.13012829723384900        0.0000000000000000     
   8.1847553363000689E-002  0.13729873895693800        0.0000000000000000     
   6.8131733418323917E-002  0.10883075373585017        0.0000000000000000     
   6.9980032272930662E-002  0.11562210191041648        0.0000000000000000     
   7.1767741778037353E-002  0.12254816573128237        0.0000000000000000     
   7.3494861933644018E-002  0.12960894519844782        0.0000000000000000     
   7.5161392739750657E-002  0.13680444031191283        0.0000000000000000     
   6.2173612109741719E-002  0.10828258014586589        0.0000000000000000     
   6.3878615833757563E-002  0.11509740536977968        0.0000000000000000     
   6.5525788822999642E-002  0.12204661662803318        0.0000000000000000     
   6.7115131077467985E-002  0.12913021392062640        0.0000000000000000     
   6.8646642597162577E-002  0.13634819724755937        0.0000000000000000     
   9.5734106051486592E-002  0.13840150298900342        0.0000000000000000     
   9.7674357059010924E-002  0.14563543134485421        0.0000000000000000     
   9.9487375175201551E-002  0.15298001260611227        0.0000000000000000     
  0.10117316040005850       0.16043524677277757        0.0000000000000000     
  0.10273171273358175       0.16800113384485005        0.0000000000000000     
   8.8705124466912671E-002  0.13783109318263487        0.0000000000000000     
   9.0531203936029300E-002  0.14509479492403834        0.0000000000000000     
   9.2235698779782549E-002  0.15246676871597492        0.0000000000000000     
   9.3818608998172390E-002  0.15994701455844446        0.0000000000000000     
   9.5279934591198850E-002  0.16753553245144709        0.0000000000000000     
   8.1847553363000689E-002  0.13729873895693800        0.0000000000000000     
   8.3554362216625586E-002  0.14458990692374579        0.0000000000000000     
   8.5146132761793281E-002  0.15198811203625015        0.0000000000000000     
   8.6622864998503815E-002  0.15949335429445102        0.0000000000000000     
   8.7984558926757189E-002  0.16710563369834844        0.0000000000000000     
   7.5161392739750657E-002  0.13680444031191283        0.0000000000000000     
   7.6743831900799725E-002  0.14412076734397652        0.0000000000000000     
   7.8218677121233773E-002  0.15154404256693796        0.0000000000000000     
   7.9585928401052802E-002  0.15907426598079716        0.0000000000000000     
   8.0845585740256770E-002  0.16671143758555415        0.0000000000000000     
   6.8646642597162577E-002  0.13634819724755937        0.0000000000000000     
   7.0099612988551788E-002  0.14368737618473054        0.0000000000000000     
   7.1453331858104041E-002  0.15113456030803840        0.0000000000000000     
   7.2707799205819296E-002  0.15868974961748292        0.0000000000000000     
   7.3863015031697593E-002  0.16635294411306417        0.0000000000000000     
   0.0000000000000000        0.0000000000000000        0.0000000000000000     
   2.8800818851268738E-003   1.7448237623522152E-003   0.0000000000000000     
   5.8726703364854714E-003   3.8646085552891491E-003   0.0000000000000000     
   8.9777653540757917E-003   6.3593543788108024E-003   0.0000000000000000     
   1.2195366937897837E-002   9.2290612329171753E-003   0.0000000000000000     
   0.0000000000000000        0.0000000000000000        0.0000000000000000     
   2.6103186831197751E-003   1.5889078783341655E-003   0.0000000000000000     
   5.2897215041942669E-003   3.5566688140196635E-003   0.0000000000000000     
   8.0382084632234750E-003   5.9032828070564930E-003   0.0000000000000000     
   1.0855779560207401E-002   8.6287498574446550E-003   0.0000000000000000     
   0.0000000000000000        0.0000000000000000        0.0000000000000000     
   2.3401043817984162E-003   1.4589363803945666E-003   0.0000000000000000     
   4.7201827558417831E-003   3.2997795615383263E-003   0.0000000000000000     
   7.1402351221301012E-003   5.5225295434312791E-003   0.0000000000000000     
   9.6002614806633690E-003   8.1271863260734250E-003   0.0000000000000000     
   0.0000000000000000        0.0000000000000000        0.0000000000000000     
   2.0694389811627971E-003   1.3549092685334176E-003   0.0000000000000000     
   4.1640540914280192E-003   3.0939407978451384E-003   0.0000000000000000     
   6.2838453307956657E-003   5.2170945879351617E-003   0.0000000000000000     
   8.4288126992657381E-003   7.7243706388034879E-003   0.0000000000000000     
   0.0000000000000000        0.0000000000000000        0.0000000000000000     
   1.7983224812129169E-003   1.2768265427507189E-003   0.0000000000000000     
   3.6213355109529742E-003   2.9391525229400988E-003   0.0000000000000000     
   5.4690390892201722E-003   4.9869779405681399E-003   0.0000000000000000     
   7.3414332160145106E-003   7.4203027956348420E-003   0.0000000000000000     
   1.2195366937897837E-002   9.2290612329171753E-003   0.0000000000000000     
   1.5427722546099306E-002   1.2371640620655301E-002   0.0000000000000000     
   1.8577079636827899E-002   1.5685004045072209E-002   0.0000000000000000     
   2.1643438210083625E-002   1.9169151506167909E-002   0.0000000000000000     
   2.4626798265866476E-002   2.2824083003942383E-002   0.0000000000000000     
   1.0855779560207401E-002   8.6287498574446550E-003   0.0000000000000000     
   1.3689066709047902E-002   1.1650780364101518E-002   0.0000000000000000     
   1.6484701823646836E-002   1.4887084725944456E-002   0.0000000000000000     
   1.9242684904004201E-002   1.8337662942973471E-002   0.0000000000000000     
   2.1963015950120002E-002   2.2002515015188552E-002   0.0000000000000000     
   9.6002614806633690E-003   8.1271863260734250E-003   0.0000000000000000     
   1.2076699919998112E-002   1.1046335074073427E-002   0.0000000000000000     
   1.4545988528690854E-002   1.4212560952039956E-002   0.0000000000000000     
   1.7008127306741599E-002   1.7625863959973006E-002   0.0000000000000000     
   1.9463116254150346E-002   2.1286244097872574E-002   0.0000000000000000     
   8.4288126992657381E-003   7.7243706388034879E-003   0.0000000000000000     
   1.0590622178949936E-002   1.0558304750571032E-002   0.0000000000000000     
   1.2760939751959967E-002   1.3661432723358700E-002   0.0000000000000000     
   1.4939765418295819E-002   1.7033754557166506E-002   0.0000000000000000     
   1.7127099177957503E-002   2.0675270251994438E-002   0.0000000000000000     
   7.3414332160145106E-003   7.4203027956348420E-003   0.0000000000000000     
   9.2308334859033756E-003   1.0186689393594323E-002   0.0000000000000000     
   1.1129555493454159E-002   1.3233700039900702E-002   0.0000000000000000     
   1.3037599238666856E-002   1.6561334734553981E-002   0.0000000000000000     
   1.4954964721541470E-002   2.0169593477554152E-002   0.0000000000000000     
   2.4626798265866476E-002   2.2824083003942383E-002   0.0000000000000000     
   2.7531431151851842E-002   2.6672580351336891E-002   0.0000000000000000     
   3.0361608215715118E-002   3.0737425361292675E-002   0.0000000000000000     
   3.3117329457456289E-002   3.5018618033809720E-002   0.0000000000000000     
   3.5798594877075374E-002   3.9516158368888048E-002   0.0000000000000000     
   2.1963015950120002E-002   2.2002515015188552E-002   0.0000000000000000     
   2.4629265139698722E-002   2.5879736772879060E-002   0.0000000000000000     
   2.7225002650444838E-002   2.9967424046334328E-002   0.0000000000000000     
   2.9750228482358365E-002   3.4265576835554354E-002   0.0000000000000000     
   3.2204942635439285E-002   3.8774195140539154E-002   0.0000000000000000     
   1.9463116254150346E-002   2.1286244097872574E-002   0.0000000000000000     
   2.1882702871339518E-002   2.5175021698334278E-002   0.0000000000000000     
   2.4238634658731550E-002   2.9273517093953733E-002   0.0000000000000000     
   2.6530911616326442E-002   3.3581730284730937E-002   0.0000000000000000     
   2.8759533744124197E-002   3.8099661270665885E-002   0.0000000000000000     
   1.7127099177957503E-002   2.0675270251994438E-002   0.0000000000000000     
   1.9291744346774237E-002   2.4558435127702550E-002   0.0000000000000000     
   2.1402504240575250E-002   2.8655704504150892E-002   0.0000000000000000     
   2.3459378859360537E-002   3.2967078381339457E-002   0.0000000000000000     
   2.5462368203130109E-002   3.7492556759268249E-002   0.0000000000000000     
   1.4954964721541470E-002   2.0169593477554152E-002   0.0000000000000000     
   1.6856389566002869E-002   2.4029977060983875E-002   0.0000000000000000     
   1.8716611395975930E-002   2.8113986276925795E-002   0.0000000000000000     
   2.0535630211460650E-002   3.2421621125379912E-002   0.0000000000000000     
   2.2313446012457029E-002   3.6952881606346230E-002   0.0000000000000000     
   3.5798594877075374E-002   3.9516158368888048E-002   0.0000000000000000     
   3.8404735048893732E-002   4.4220564891267723E-002   0.0000000000000000     
   4.0935080547232737E-002   4.9122356125688826E-002   0.0000000000000000     
   4.3389631372092390E-002   5.4221532072151371E-002   0.0000000000000000     
   4.5768387523472676E-002   5.9518092730655350E-002   0.0000000000000000     
   3.2204942635439285E-002   3.8774195140539154E-002   0.0000000000000000     
   3.4590589320817426E-002   4.3488717636545361E-002   0.0000000000000000     
   3.6908612749622600E-002   4.8404582998829625E-002   0.0000000000000000     
   3.9159012921854808E-002   5.3521791227391938E-002   0.0000000000000000     
   4.1341789837514048E-002   5.8840342322232300E-002   0.0000000000000000     
   2.8759533744124197E-002   3.8099661270665885E-002   0.0000000000000000     
   3.0926255105519780E-002   4.2824492157232198E-002   0.0000000000000000     
   3.3032829763908172E-002   4.7753405049903469E-002   0.0000000000000000     
   3.5079257719289374E-002   5.2886399948679726E-002   0.0000000000000000     
   3.7065538971663391E-002   5.8223476853560933E-002   0.0000000000000000     
   2.5462368203130109E-002   3.7492556759268249E-002   0.0000000000000000     
   2.7411732403000801E-002   4.2227888453328241E-002   0.0000000000000000     
   2.9307731590089463E-002   4.7168822278910415E-002   0.0000000000000000     
   3.1150365764396080E-002   5.2315358236014742E-002   0.0000000000000000     
   3.2939634925920669E-002   5.7667496324641243E-002   0.0000000000000000     
   2.2313446012457029E-002   3.6952881606346230E-002   0.0000000000000000     
   2.4047021213260487E-002   4.1698906524833490E-002   0.0000000000000000     
   2.5733318228166460E-002   4.6650834685850406E-002   0.0000000000000000     
   2.7372337057174928E-002   5.1808666089396986E-002   0.0000000000000000     
   2.8964077700285910E-002   5.7172400735473243E-002   0.0000000000000000     
   4.5768387523472676E-002   5.9518092730655350E-002   0.0000000000000000     
   4.8074628635476416E-002   6.5003899023760511E-002   0.0000000000000000     
   5.0311634342206403E-002   7.0670811874026560E-002   0.0000000000000000     
   5.2479404643662624E-002   7.6518831281453523E-002   0.0000000000000000     
   5.4577939539845091E-002   8.2547957246041401E-002   0.0000000000000000     
   4.1341789837514048E-002   5.8840342322232300E-002   0.0000000000000000     
   4.3458545703261103E-002   6.4349658050424058E-002   0.0000000000000000     
   4.5510882725756707E-002   7.0039160179040522E-002   0.0000000000000000     
   4.7498800905000874E-002   7.5908848708081678E-002   0.0000000000000000     
   4.9422300240993616E-002   8.1958723637547554E-002   0.0000000000000000     
   3.7065538971663391E-002   5.8223476853560933E-002   0.0000000000000000     
   3.8992197005511653E-002   6.3752599916595099E-002   0.0000000000000000     
   4.0859755305315631E-002   6.9461733289830227E-002   0.0000000000000000     
   4.2668213871075326E-002   7.5350876973266298E-002   0.0000000000000000     
   4.4417572702790724E-002   8.1420030966903326E-002   0.0000000000000000     
   3.2939634925920669E-002   5.7667496324641243E-002   0.0000000000000000     
   3.4675582542228078E-002   6.3212724622273661E-002   0.0000000000000000     
   3.6358252080883183E-002   6.8938531206395717E-002   0.0000000000000000     
   3.7987643541885954E-002   7.4844916077007370E-002   0.0000000000000000     
   3.9563756925236428E-002   8.0931879234108689E-002   0.0000000000000000     
   2.8964077700285910E-002   5.7172400735473243E-002   0.0000000000000000     
   3.0508702313410387E-002   6.2730032167459704E-002   0.0000000000000000     
   3.2006373052459354E-002   6.8469553928736937E-002   0.0000000000000000     
   3.3457089917432799E-002   7.4390966019304908E-002   0.0000000000000000     
   3.4860852908330735E-002   8.0494268439163658E-002   0.0000000000000000     
   5.4577939539845091E-002   8.2547957246041401E-002   0.0000000000000000     
   5.6600606970622830E-002   8.8746130609656665E-002   0.0000000000000000     
   5.8540774875864836E-002   9.5101292214165842E-002   0.0000000000000000     
   6.0398443255571130E-002  0.10161344205956893        0.0000000000000000     
   6.2173612109741719E-002  0.10828258014586589        0.0000000000000000     
   4.9422300240993616E-002   8.1958723637547554E-002   0.0000000000000000     
   5.1275829789316892E-002   8.8177453330472610E-002   0.0000000000000000     
   5.3053838605552725E-002   9.4553706149891309E-002   0.0000000000000000     
   5.4756326689701096E-002  0.10108748209580370        0.0000000000000000     
   5.6383294041762032E-002  0.10777878116820970        0.0000000000000000     
   4.4417572702790724E-002   8.1420030966903326E-002   0.0000000000000000     
   4.6102959429040483E-002   8.7658098057150954E-002   0.0000000000000000     
   4.7719501678403289E-002   9.4053981030418926E-002   0.0000000000000000     
   4.9267199450879137E-002  0.10060767988670719        0.0000000000000000     
   5.0746052746468019E-002  0.10731919462601577        0.0000000000000000     
   3.9563756925236428E-002   8.0931879234108689E-002   0.0000000000000000     
   4.1081995889793610E-002   8.7188064789691752E-002   0.0000000000000000     
   4.2537764094416543E-002   9.3602116855748665E-002   0.0000000000000000     
   4.3931061539105240E-002  0.10017403543227944        0.0000000000000000     
   4.5261888223859674E-002  0.10690382051928408        0.0000000000000000     
   3.4860852908330735E-002   8.0494268439163658E-002   0.0000000000000000     
   3.6212939171576260E-002   8.6767353528094934E-002   0.0000000000000000     
   3.7508625853592485E-002   9.3198113625880527E-002   0.0000000000000000     
   3.8747912954379397E-002   9.9786548732520436E-002   0.0000000000000000     
   3.9930800473937003E-002  0.10653265884801465        0.0000000000000000     
   6.2173612109741719E-002  0.10828258014586589        0.0000000000000000     
   6.3878615833757563E-002  0.11509740536977968        0.0000000000000000     
   6.5525788822999642E-002  0.12204661662803318        0.0000000000000000     
   6.7115131077467985E-002  0.12913021392062640        0.0000000000000000     
   6.8646642597162577E-002  0.13634819724755937        0.0000000000000000     
   5.6383294041762032E-002  0.10777878116820970        0.0000000000000000     
   5.7944915245807700E-002  0.11461580517707455        0.0000000000000000     
   5.9451364885910310E-002  0.12158675593236337        0.0000000000000000     
   6.0902642962069854E-002  0.12869163343407619        0.0000000000000000     
   6.2298749474286347E-002  0.13593043768221300        0.0000000000000000     
   5.0746052746468019E-002  0.10731919462601577        0.0000000000000000     
   5.2164820237058554E-002  0.11417653631839192        0.0000000000000000     
   5.3532260594539381E-002  0.12116771603388285        0.0000000000000000     
   5.4848373818910494E-002  0.12829273377248859        0.0000000000000000     
   5.6113159910171878E-002  0.13555158953420915        0.0000000000000000     
   4.5261888223859674E-002  0.10690382051928408        0.0000000000000000     
   4.6538330807510131E-002  0.11377959879373173        0.0000000000000000     
   4.7768475948886870E-002  0.12078949693259158        0.0000000000000000     
   4.8952323647989897E-002  0.12793351493586361        0.0000000000000000     
   5.0089873904819199E-002  0.13521165280354777        0.0000000000000000     
   3.9930800473937003E-002  0.10653265884801465        0.0000000000000000     
   4.1065446957162424E-002  0.11342499260309406        0.0000000000000000     
   4.2160010948952768E-002  0.12045209862848959        0.0000000000000000     
   4.3214492449308056E-002  0.12761397692420123        0.0000000000000000     
   4.4228891458228267E-002  0.13491062749022895        0.0000000000000000     
   6.8646642597162577E-002  0.13634819724755937        0.0000000000000000     
   7.0099612988551788E-002  0.14368737618473054        0.0000000000000000     
   7.1453331858104041E-002  0.15113456030803840        0.0000000000000000     
   7.2707799205819296E-002  0.15868974961748292        0.0000000000000000     
   7.3863015031697593E-002  0.16635294411306417        0.0000000000000000     
   6.2298749474286347E-002  0.13593043768221300        0.0000000000000000     
   6.3621807851324055E-002  0.14329089807779005        0.0000000000000000     
   6.4853941521947248E-002  0.15076074402182352        0.0000000000000000     
   6.5995150486155951E-002  0.15833997551431347        0.0000000000000000     
   6.7045434743950152E-002  0.16602859255525981        0.0000000000000000     
   5.6113159910171878E-002  0.13555158953420915        0.0000000000000000     
   5.7310518860558844E-002  0.14293249765493718        0.0000000000000000     
   5.8424350662306682E-002  0.15042367247056540        0.0000000000000000     
   5.9454655315415370E-002  0.15802511398109381        0.0000000000000000     
   6.0401432819884915E-002  0.16573682218652241        0.0000000000000000     
   5.0089873904819199E-002  0.13521165280354777        0.0000000000000000     
   5.1165746016256182E-002  0.14261217491617198        0.0000000000000000     
   5.2164559279182302E-002  0.15012334565426411        0.0000000000000000     
   5.3086313693597550E-002  0.15774516501782407        0.0000000000000000     
   5.3931009259501901E-002  0.16547763300685192        0.0000000000000000     
   4.4228891458228267E-002  0.13491062749022895        0.0000000000000000     
   4.5187489318416069E-002  0.14232992986149448        0.0000000000000000     
   4.6074567372574149E-002  0.14985976357291958        0.0000000000000000     
   4.6890125620702494E-002  0.15750012862450419        0.0000000000000000     
   4.7634164062801097E-002  0.16525102501624833        0.0000000000000000     
   0.0000000000000000        0.0000000000000000        0.0000000000000000     
   1.7983224812129169E-003   1.2768265427507189E-003   0.0000000000000000     
   3.6213355109529742E-003   2.9391525229400988E-003   0.0000000000000000     
   5.4690390892201722E-003   4.9869779405681399E-003   0.0000000000000000     
   7.3414332160145106E-003   7.4203027956348420E-003   0.0000000000000000     
   0.0000000000000000        0.0000000000000000        0.0000000000000000     
   1.5350247366571197E-003   1.2175670783956718E-003   0.0000000000000000     
   3.0993738026239160E-003   2.8208940640863699E-003   0.0000000000000000     
   4.6930471979003885E-003   4.8099809570720945E-003   0.0000000000000000     
   6.3160449224865375E-003   7.1848277573528440E-003   0.0000000000000000     
   0.0000000000000000        0.0000000000000000        0.0000000000000000     
   1.2878156022037481E-003   1.1700097508174773E-003   0.0000000000000000     
   2.6055157546481097E-003   2.7246447485471115E-003   0.0000000000000000     
   3.9531004573330848E-003   4.6639049931889035E-003   0.0000000000000000     
   5.3305697102586733E-003   6.9877904847428507E-003   0.0000000000000000     
   0.0000000000000000        0.0000000000000000        0.0000000000000000     
   1.0566950778528022E-003   1.1341545600161351E-003   0.0000000000000000     
   2.1397613670255562E-003   2.6504045763223235E-003   0.0000000000000000     
   3.2491988675182612E-003   4.5487500489185652E-003   0.0000000000000000     
   4.3850075793309181E-003   6.8291909778048611E-003   0.0000000000000000     
   0.0000000000000000        0.0000000000000000        0.0000000000000000     
   8.4166316360428234E-004   1.1100015059916455E-003   0.0000000000000000     
   1.7021106397562551E-003   2.5981735474120068E-003   0.0000000000000000     
   2.5813424284559178E-003   4.4645161242610840E-003   0.0000000000000000     
   3.4793585297032718E-003   6.7090292365388771E-003   0.0000000000000000     
   7.3414332160145106E-003   7.4203027956348420E-003   0.0000000000000000     
   9.2308334859033756E-003   1.0186689393594323E-002   0.0000000000000000     
   1.1129555493454159E-002   1.3233700039900702E-002   0.0000000000000000     
   1.3037599238666856E-002   1.6561334734553981E-002   0.0000000000000000     
   1.4954964721541470E-002   2.0169593477554152E-002   0.0000000000000000     
   6.3160449224865375E-003   7.1848277573528440E-003   0.0000000000000000     
   7.9556664785553274E-003   9.8958629850498074E-003   0.0000000000000000     
   9.5992113682797260E-003   1.2893515160284171E-002   0.0000000000000000     
   1.1246679591659727E-002   1.6177784283055930E-002   0.0000000000000000     
   1.2898071148695338E-002   1.9748670353365097E-002   0.0000000000000000     
   5.3305697102586733E-003   6.9877904847428507E-003   0.0000000000000000     
   6.7234537946026900E-003   9.6501995068439851E-003   0.0000000000000000     
   8.1172829915429449E-003   1.2605030343127332E-002   0.0000000000000000     
   9.5120573010794435E-003   1.5852282993592887E-002   0.0000000000000000     
   1.0907776723212180E-002   1.9391957458240655E-002   0.0000000000000000     
   4.3850075793309181E-003   6.8291909778048611E-003   0.0000000000000000     
   5.5341954340454606E-003   9.4496989589768522E-003   0.0000000000000000     
   6.6837703632438225E-003   1.2368245588430176E-002   0.0000000000000000     
   7.8337323669260030E-003   1.5584830866164835E-002   0.0000000000000000     
   8.9840814450920028E-003   1.9099454792180837E-002   0.0000000000000000     
   3.4793585297032718E-003   6.7090292365388771E-003   0.0000000000000000     
   4.3878913968836411E-003   9.2943613414484122E-003   0.0000000000000000     
   5.2986734833823535E-003   1.2183160896192716E-002   0.0000000000000000     
   6.2117047891994083E-003   1.5375427900771784E-002   0.0000000000000000     
   7.1269853143348036E-003   1.8871162355185628E-002   0.0000000000000000     
   1.4954964721541470E-002   2.0169593477554152E-002   0.0000000000000000     
   1.6856389566002869E-002   2.4029977060983875E-002   0.0000000000000000     
   1.8716611395975930E-002   2.8113986276925795E-002   0.0000000000000000     
   2.0535630211460650E-002   3.2421621125379912E-002   0.0000000000000000     
   2.2313446012457029E-002   3.6952881606346230E-002   0.0000000000000000     
   1.2898071148695338E-002   1.9748670353365097E-002   0.0000000000000000     
   1.4537075774559371E-002   2.3580091988449889E-002   0.0000000000000000     
   1.6147383204424652E-002   2.7645967805548535E-002   0.0000000000000000     
   1.7728993438291180E-002   3.1946297804661038E-002   0.0000000000000000     
   1.9281906476158947E-002   3.6481081985787395E-002   0.0000000000000000     
   1.0907776723212180E-002   1.9391957458240655E-002   0.0000000000000000     
   1.2294240217977677E-002   2.3199224400372229E-002   0.0000000000000000     
   1.3661246745412461E-002   2.7249254483289190E-002   0.0000000000000000     
   1.5008796305516520E-002   3.1542047706991545E-002   0.0000000000000000     
   1.6336888898289863E-002   3.6077604071479273E-002   0.0000000000000000     
   8.9840814450920028E-003   1.9099454792180837E-002   0.0000000000000000     
   1.0127882896257798E-002   2.2887374296750897E-002   0.0000000000000000     
   1.1258202018939355E-002   2.6923846310147759E-002   0.0000000000000000     
   1.2375038813136683E-002   3.1208870832371428E-002   0.0000000000000000     
   1.3478393278849771E-002   3.5742447863421886E-002   0.0000000000000000     
   7.1269853143348036E-003   1.8871162355185628E-002   0.0000000000000000     
   8.0380038093997210E-003   2.2644541677585894E-002   0.0000000000000000     
   8.9382490250053386E-003   2.6669743286124249E-002   0.0000000000000000     
   9.8277209611516581E-003   3.0946767180800690E-002   0.0000000000000000     
   1.0706419617838676E-002   3.5475613361615220E-002   0.0000000000000000     
   2.2313446012457029E-002   3.6952881606346230E-002   0.0000000000000000     
   2.4047021213260487E-002   4.1698906524833490E-002   0.0000000000000000     
   2.5733318228166460E-002   4.6650834685850406E-002   0.0000000000000000     
   2.7372337057174928E-002   5.1808666089396986E-002   0.0000000000000000     
   2.8964077700285910E-002   5.7172400735473243E-002   0.0000000000000000     
   1.9281906476158947E-002   3.6481081985787395E-002   0.0000000000000000     
   2.0799751087930349E-002   4.1236087701244623E-002   0.0000000000000000     
   2.2276156043507772E-002   4.6197082303349728E-002   0.0000000000000000     
   2.3711121342891200E-002   5.1364065792102731E-002   0.0000000000000000     
   2.5104646986080652E-002   5.6737038167503605E-002   0.0000000000000000     
   1.6336888898289863E-002   3.6077604071479273E-002   0.0000000000000000     
   1.7637551578641889E-002   4.0837973312058330E-002   0.0000000000000000     
   1.8902811401481985E-002   4.5805205164034649E-002   0.0000000000000000     
   2.0132668366810168E-002   5.0979299627408207E-002   0.0000000000000000     
   2.1327122474626432E-002   5.6360256702179028E-002   0.0000000000000000     
   1.3478393278849771E-002   3.5742447863421886E-002   0.0000000000000000     
   1.4560422685395095E-002   4.0504563357274634E-002   0.0000000000000000     
   1.5613284302089116E-002   4.5475203267905148E-002   0.0000000000000000     
   1.6636978128931834E-002   5.0654367595313450E-002   0.0000000000000000     
   1.7631504165923254E-002   5.6042056339499519E-002   0.0000000000000000     
   1.0706419617838676E-002   3.5475613361615220E-002   0.0000000000000000     
   1.1568364408189979E-002   4.0235857836893513E-002   0.0000000000000000     
   1.2407574745329155E-002   4.5207076614961247E-002   0.0000000000000000     
   1.3224050629256199E-002   5.0389269695818431E-002   0.0000000000000000     
   1.4017792059971116E-002   5.5782437079465050E-002   0.0000000000000000     
   2.8964077700285910E-002   5.7172400735473243E-002   0.0000000000000000     
   3.0508702313410387E-002   6.2730032167459704E-002   0.0000000000000000     
   3.2006373052459354E-002   6.8469553928736937E-002   0.0000000000000000     
   3.3457089917432799E-002   7.4390966019304908E-002   0.0000000000000000     
   3.4860852908330735E-002   8.0494268439163658E-002   0.0000000000000000     
   2.5104646986080652E-002   5.6737038167503605E-002   0.0000000000000000     
   2.6457195953757274E-002   6.2304694134012129E-002   0.0000000000000000     
   2.7769231226602225E-002   6.8055728396088047E-002   0.0000000000000000     
   2.9040752804615499E-002   7.3990140953731381E-002   0.0000000000000000     
   3.0271760687797102E-002   8.0107931806942104E-002   0.0000000000000000     
   2.1327122474626432E-002   5.6360256702179028E-002   0.0000000000000000     
   2.2486703097967447E-002   6.1936882103789795E-002   0.0000000000000000     
   2.3611939609869879E-002   6.7697981547683181E-002   0.0000000000000000     
   2.4702832010333728E-002   7.3643555033859220E-002   0.0000000000000000     
   2.5759380299358994E-002   7.9773602562317886E-002   0.0000000000000000     
   1.7631504165923254E-002   5.6042056339499519E-002   0.0000000000000000     
   1.8597223746040902E-002   6.1626596076792689E-002   0.0000000000000000     
   1.9534498202262312E-002   6.7396313383522324E-002   0.0000000000000000     
   2.0443327534587483E-002   7.3351208259688438E-002   0.0000000000000000     
   2.1323711743016411E-002   7.9491280705291004E-002   0.0000000000000000     
   1.4017792059971116E-002   5.5782437079465050E-002   0.0000000000000000     
   1.4788757897977645E-002   6.1373836053020839E-002   0.0000000000000000     
   1.5536907003779528E-002   6.7150723903605505E-002   0.0000000000000000     
   1.6262239377376767E-002   7.3113100631219050E-002   0.0000000000000000     
   1.6964755018769352E-002   7.9260966235861485E-002   0.0000000000000000     
   3.4860852908330735E-002   8.0494268439163658E-002   0.0000000000000000     
   3.6212939171576260E-002   8.6767353528094934E-002   0.0000000000000000     
   3.7508625853592485E-002   9.3198113625880527E-002   0.0000000000000000     
   3.8747912954379397E-002   9.9786548732520436E-002   0.0000000000000000     
   3.9930800473937003E-002  0.10653265884801465        0.0000000000000000     
   3.0271760687797102E-002   8.0107931806942104E-002   0.0000000000000000     
   3.1457391379424479E-002   8.6396150401514216E-002   0.0000000000000000     
   3.2592781382775070E-002   9.2841846183241664E-002   0.0000000000000000     
   3.3677930697848871E-002   9.9445019152124420E-002   0.0000000000000000     
   3.4712839324645896E-002  0.10620566930816254        0.0000000000000000     
   2.5759380299358994E-002   7.9773602562317886E-002   0.0000000000000000     
   2.6776954618374305E-002   8.6074641539103200E-002   0.0000000000000000     
   2.7750925108808281E-002   9.2533189370259117E-002   0.0000000000000000     
   2.8681291770660929E-002   9.9149246055785692E-002   0.0000000000000000     
   2.9568054603932237E-002  0.10592281159568288        0.0000000000000000     
   2.1323711743016411E-002   7.9491280705291004E-002   0.0000000000000000     
   2.2171628888425745E-002   8.5802826940861915E-002   0.0000000000000000     
   2.2983057031692126E-002   9.2272143186932984E-002   0.0000000000000000     
   2.3757996172815557E-002   9.8899229443504239E-002   0.0000000000000000     
   2.4496446311796035E-002  0.10568408571057565        0.0000000000000000     
   1.6964755018769352E-002   7.9260966235861485E-002   0.0000000000000000     
   1.7641414189578798E-002   8.5580706606790347E-002   0.0000000000000000     
   1.8289177151426604E-002   9.2058707633263209E-002   0.0000000000000000     
   1.8908043904312759E-002   9.8694969315280032E-002   0.0000000000000000     
   1.9498014448237282E-002  0.10548949165284087        0.0000000000000000     
   3.9930800473937003E-002  0.10653265884801465        0.0000000000000000     
   4.1065446957162424E-002  0.11342499260309406        0.0000000000000000     
   4.2160010948952768E-002  0.12045209862848959        0.0000000000000000     
   4.3214492449308056E-002  0.12761397692420123        0.0000000000000000     
   4.4228891458228267E-002  0.13491062749022895        0.0000000000000000     
   3.4712839324645896E-002  0.10620566930816254        0.0000000000000000     
   3.5705741906183877E-002  0.11311280405271153        0.0000000000000000     
   3.6664873085480588E-002  0.12015543078712689        0.0000000000000000     
   3.7590232862536009E-002  0.12733354951140857        0.0000000000000000     
   3.8481821237350167E-002  0.13464716022555667        0.0000000000000000     
   2.9568054603932237E-002  0.10592281159568288        0.0000000000000000     
   3.0418788874742950E-002  0.11284311944881678        0.0000000000000000     
   3.1241069849213814E-002  0.11989940307405343        0.0000000000000000     
   3.2034897527344813E-002  0.12709166247139286        0.0000000000000000     
   3.2800271909135960E-002  0.13441989764083509        0.0000000000000000     
   2.4496446311796035E-002  0.10568408571057565        0.0000000000000000     
   2.5204587862839637E-002  0.11261593879140983        0.0000000000000000     
   2.5888601240152437E-002  0.11968401548926932        0.0000000000000000     
   2.6548486443734438E-002  0.12688831580415408        0.0000000000000000     
   2.7184243473585647E-002  0.13422883973606420        0.0000000000000000     
   1.9498014448237282E-002  0.10548949165284087        0.0000000000000000     
   2.0063138870473923E-002  0.11243126208049069        0.0000000000000000     
   2.0607467258296465E-002  0.11950926803277447        0.0000000000000000     
   2.1130999611704896E-002  0.12672350950969224        0.0000000000000000     
   2.1633735930699224E-002  0.13407398651124397        0.0000000000000000     
   4.4228891458228267E-002  0.13491062749022895        0.0000000000000000     
   4.5187489318416069E-002  0.14232992986149448        0.0000000000000000     
   4.6074567372574149E-002  0.14985976357291958        0.0000000000000000     
   4.6890125620702494E-002  0.15750012862450419        0.0000000000000000     
   4.7634164062801097E-002  0.16525102501624833        0.0000000000000000     
   3.8481821237350167E-002  0.13464716022555667        0.0000000000000000     
   3.9323728910899199E-002  0.14208366922093774        0.0000000000000000     
   4.0100046584159291E-002  0.14963048278891836        0.0000000000000000     
   4.0810774257130450E-002  0.15728760092949856        0.0000000000000000     
   4.1455911929812655E-002  0.16505502364267835        0.0000000000000000     
   3.2800271909135960E-002  0.13441989764083509        0.0000000000000000     
   3.3522444937566294E-002  0.14187129972453488        0.0000000000000000     
   3.4186668555614870E-002  0.14943305986464711        0.0000000000000000     
   3.4792942763281681E-002  0.15710517806117166        0.0000000000000000     
   3.5341267560566728E-002  0.16488765431410859        0.0000000000000000     
   2.7184243473585647E-002  0.13422883973606420        0.0000000000000000     
   2.7783637398417355E-002  0.14169282137228592        0.0000000000000000     
   2.8334433286940866E-002  0.14926749480010570        0.0000000000000000     
   2.8836631139156185E-002  0.15695286001952341        0.0000000000000000     
   2.9290230955063307E-002  0.16474891703053915        0.0000000000000000     
   2.1633735930699224E-002  0.13407398651124397        0.0000000000000000     
   2.2107306293452377E-002  0.14154823416419091        0.0000000000000000     
   2.2543340778137293E-002  0.14913378759529419        0.0000000000000000     
   2.2941839384753970E-002  0.15683064680455389        0.0000000000000000     
   2.3302802113302407E-002  0.16463881179196993        0.0000000000000000     
   0.0000000000000000        0.0000000000000000        0.0000000000000000     
   8.4166316360428234E-004   1.1100015059916455E-003   0.0000000000000000     
   1.7021106397562551E-003   2.5981735474120068E-003   0.0000000000000000     
   2.5813424284559178E-003   4.4645161242610840E-003   0.0000000000000000     
   3.4793585297032718E-003   6.7090292365388771E-003   0.0000000000000000     
   0.0000000000000000        0.0000000000000000        0.0000000000000000     
   6.3381850898103090E-004   1.0939872685600881E-003   0.0000000000000000     
   1.2780295519520149E-003   2.5621003973155107E-003   0.0000000000000000     
   1.9326331289129522E-003   4.4043393862662674E-003   0.0000000000000000     
   2.5976292398638421E-003   6.6207042354123596E-003   0.0000000000000000     
   0.0000000000000000        0.0000000000000000        0.0000000000000000     
   4.2425976350589129E-004   1.0825485275375417E-003   0.0000000000000000     
   8.5298408272464483E-004   2.5363338615321841E-003   0.0000000000000000     
   1.2861729576562604E-003   4.3613560019839272E-003   0.0000000000000000     
   1.7238263883007385E-003   6.5576149488927706E-003   0.0000000000000000     
   0.0000000000000000        0.0000000000000000        0.0000000000000000     
   2.1298692717886341E-004   1.0756852829240065E-003   0.0000000000000000     
   4.2697423207414462E-004   2.5208739400620272E-003   0.0000000000000000     
   6.4196191468584370E-004   4.3355659714140633E-003   0.0000000000000000     
   8.5794997501396041E-004   6.5197613769801136E-003   0.0000000000000000     
   0.0000000000000000        0.0000000000000000        0.0000000000000000     
  -5.2800645800044066E-017   1.0733975347194825E-003   0.0000000000000000     
   5.1423709040987475E-016   2.5157206329050412E-003   0.0000000000000000     
   1.7013300490642536E-015   4.3269692945566759E-003   0.0000000000000000     
   3.5080987594027224E-015   6.5071435196743859E-003   0.0000000000000000     
   3.4793585297032718E-003   6.7090292365388771E-003   0.0000000000000000     
   4.3878913968836411E-003   9.2943613414484122E-003   0.0000000000000000     
   5.2986734833823535E-003   1.2183160896192716E-002   0.0000000000000000     
   6.2117047891994083E-003   1.5375427900771784E-002   0.0000000000000000     
   7.1269853143348036E-003   1.8871162355185628E-002   0.0000000000000000     
   2.5976292398638421E-003   6.6207042354123596E-003   0.0000000000000000     
   3.2700280279806693E-003   9.1781997081338169E-003   0.0000000000000000     
   3.9468396364394148E-003   1.2043830567810677E-002   0.0000000000000000     
   4.6280640652400810E-003   1.5217596814442935E-002   0.0000000000000000     
   5.3137013143826680E-003   1.8699498448030597E-002   0.0000000000000000     
   1.7238263883007385E-003   6.5576149488927706E-003   0.0000000000000000     
   2.1660916721999790E-003   9.0952271129082236E-003   0.0000000000000000     
   2.6131161068958823E-003   1.1944308904679797E-002   0.0000000000000000     
   3.0648996923884485E-003   1.5104860324207487E-002   0.0000000000000000     
   3.5214424286776781E-003   1.8576881371491303E-002   0.0000000000000000     
   8.5794997501396041E-004   6.5197613769801136E-003   0.0000000000000000     
   1.0760823295415721E-003   9.0454435557716321E-003   0.0000000000000000     
   1.2975028947517552E-003   1.1884595906800079E-002   0.0000000000000000     
   1.5222116706445096E-003   1.5037218430065445E-002   0.0000000000000000     
   1.7502086572198359E-003   1.8503311125567742E-002   0.0000000000000000     
   3.5080987594027224E-015   6.5071435196743859E-003   0.0000000000000000     
   5.4476415782891974E-015   9.0288490367240442E-003   0.0000000000000000     
   7.0331788353319991E-015   1.1864691574171518E-002   0.0000000000000000     
   8.2640498448322691E-015   1.5014671132016807E-002   0.0000000000000000     
   9.1412337768770335E-015   1.8478787710259917E-002   0.0000000000000000     
   7.1269853143348036E-003   1.8871162355185628E-002   0.0000000000000000     
   8.0380038093997210E-003   2.2644541677585894E-002   0.0000000000000000     
   8.9382490250053386E-003   2.6669743286124249E-002   0.0000000000000000     
   9.8277209611516581E-003   3.0946767180800690E-002   0.0000000000000000     
   1.0706419617838676E-002   3.5475613361615220E-002   0.0000000000000000     
   5.3137013143826680E-003   1.8699498448030597E-002   0.0000000000000000     
   5.9968985942425593E-003   2.2462258285266167E-002   0.0000000000000000     
   6.6708031151951402E-003   2.6478599142842171E-002   0.0000000000000000     
   7.3354148772404133E-003   3.0748521020758597E-002   0.0000000000000000     
   7.9907338803783760E-003   3.5272023919015454E-002   0.0000000000000000     
   3.5214424286776781E-003   1.8576881371491303E-002   0.0000000000000000     
   3.9768628876254110E-003   2.2332055862180667E-002   0.0000000000000000     
   4.4252796410934889E-003   2.6342067611925032E-002   0.0000000000000000     
   4.8666926890819102E-003   3.0606916620724397E-002   0.0000000000000000     
   5.3011020315906765E-003   3.5126602888578759E-002   0.0000000000000000     
   1.7502086572198359E-003   1.8503311125567742E-002   0.0000000000000000     
   1.9778966895482790E-003   2.2253934408329394E-002   0.0000000000000000     
   2.2016786027003834E-003   2.6260148693372846E-002   0.0000000000000000     
   2.4215543966761496E-003   3.0521953980698086E-002   0.0000000000000000     
   2.6375240714755772E-003   3.5039350270305136E-002   0.0000000000000000     
   9.1412337768770335E-015   1.8478787710259917E-002   0.0000000000000000     
   1.1161807155629644E-014   2.2227893923712348E-002   0.0000000000000000     
   1.5825150434869983E-014   2.6232842387185599E-002   0.0000000000000000     
   2.3130240398797769E-014   3.0493633100679679E-002   0.0000000000000000     
   3.3077273559056763E-014   3.5010266064194585E-002   0.0000000000000000     
   1.0706419617838676E-002   3.5475613361615220E-002   0.0000000000000000     
   1.1568364408189979E-002   4.0235857836893513E-002   0.0000000000000000     
   1.2407574745329155E-002   4.5207076614961247E-002   0.0000000000000000     
   1.3224050629256199E-002   5.0389269695818431E-002   0.0000000000000000     
   1.4017792059971116E-002   5.5782437079465050E-002   0.0000000000000000     
   7.9907338803783760E-003   3.5272023919015454E-002   0.0000000000000000     
   8.6331994057931190E-003   4.0029048696605486E-002   0.0000000000000000     
   9.2592507346687253E-003   4.4999536212521465E-002   0.0000000000000000     
   9.8688878670052018E-003   5.0183486466763398E-002   0.0000000000000000     
   1.0462110802802540E-002   5.5580899459331257E-002   0.0000000000000000     
   5.3011020315906765E-003   3.5126602888578759E-002   0.0000000000000000     
   5.7267503369710917E-003   3.9881327882101088E-002   0.0000000000000000     
   6.1418802735744597E-003   4.4851293067904356E-002   0.0000000000000000     
   6.5464918414007795E-003   5.0036498445988571E-002   0.0000000000000000     
   6.9405850404500504E-003   5.5436944016353733E-002   0.0000000000000000     
   2.6375240714755772E-003   3.5039350270305136E-002   0.0000000000000000     
   2.8490172017239007E-003   3.9792695393380297E-002   0.0000000000000000     
   3.0554633620463539E-003   4.4762347181109906E-002   0.0000000000000000     
   3.2568625524429357E-003   4.9948305633493964E-002   0.0000000000000000     
   3.4532147729136472E-003   5.5350570750532464E-002   0.0000000000000000     
   3.3077273559056763E-014   3.5010266064194585E-002   0.0000000000000000     
   5.1544489163002360E-014   3.9763151230443126E-002   0.0000000000000000     
   8.4408500154731225E-014   4.4732698552138121E-002   0.0000000000000000     
   1.3167068889201328E-013   4.9918908029279556E-002   0.0000000000000000     
   1.9332951038675272E-013   5.5321779661867451E-002   0.0000000000000000     
   1.4017792059971116E-002   5.5782437079465050E-002   0.0000000000000000     
   1.4788757897977645E-002   6.1373836053020839E-002   0.0000000000000000     
   1.5536907003779528E-002   6.7150723903605505E-002   0.0000000000000000     
   1.6262239377376767E-002   7.3113100631219050E-002   0.0000000000000000     
   1.6964755018769352E-002   7.9260966235861485E-002   0.0000000000000000     
   1.0462110802802540E-002   5.5580899459331257E-002   0.0000000000000000     
   1.1038491207271458E-002   6.1177838658620122E-002   0.0000000000000000     
   1.1597600745622671E-002   6.6960367533025034E-002   0.0000000000000000     
   1.2139439417856175E-002   7.2928486082546012E-002   0.0000000000000000     
   1.2664007223971971E-002   7.9082194307183037E-002   0.0000000000000000     
   6.9405850404500504E-003   5.5436944016353733E-002   0.0000000000000000     
   7.3236093274161359E-003   6.1037840519736437E-002   0.0000000000000000     
   7.6950141589928901E-003   6.6824398696873288E-002   0.0000000000000000     
   8.0547995351803164E-003   7.2796618547764314E-002   0.0000000000000000     
   8.4029654559784148E-003   7.8954500072409450E-002   0.0000000000000000     
   3.4532147729136472E-003   5.5350570750532464E-002   0.0000000000000000     
   3.6441122584116689E-003   6.0953841636369764E-002   0.0000000000000000     
   3.8291472438901838E-003   6.6742817395150256E-002   0.0000000000000000     
   4.0083197293491885E-003   7.2717498026873897E-002   0.0000000000000000     
   4.1816297147886858E-003   7.8877883531540710E-002   0.0000000000000000     
   1.9332951038675272E-013   5.5321779661867451E-002   0.0000000000000000     
   2.5806353581847574E-013   6.0925842008520130E-002   0.0000000000000000     
   3.1455046900497052E-013   6.6715623627855922E-002   0.0000000000000000     
   3.6279009310580257E-013   7.2691124519874806E-002   0.0000000000000000     
   4.0278349232314437E-013   7.8852344684576817E-002   0.0000000000000000     
   1.6964755018769352E-002   7.9260966235861485E-002   0.0000000000000000     
   1.7641414189578798E-002   8.5580706606790347E-002   0.0000000000000000     
   1.8289177151426604E-002   9.2058707633263209E-002   0.0000000000000000     
   1.8908043904312759E-002   9.8694969315280032E-002   0.0000000000000000     
   1.9498014448237282E-002  0.10548949165284087        0.0000000000000000     
   1.2664007223971971E-002   7.9082194307183037E-002   0.0000000000000000     
   1.3169331415285139E-002   8.5408092555055715E-002   0.0000000000000000     
   1.3653439243110757E-002   9.1892781174283608E-002   0.0000000000000000     
   1.4116330707448829E-002   9.8536260164866718E-002   0.0000000000000000     
   1.4558005808299352E-002  0.10533852952680502        0.0000000000000000     
   8.4029654559784148E-003   7.8954500072409450E-002   0.0000000000000000     
   8.7384014589964396E-003   8.5284796803825197E-002   0.0000000000000000     
   9.0599970818436484E-003   9.1774262275027954E-002   0.0000000000000000     
   9.3677523245200411E-003   9.8422896486017777E-002   0.0000000000000000     
   9.6616671870256160E-003  0.10523069943679461        0.0000000000000000     
   4.1816297147886858E-003   7.8877883531540710E-002   0.0000000000000000     
   4.3486243207127035E-003   8.5210819353098821E-002   0.0000000000000000     
   4.5088506676252754E-003   9.1703150935496344E-002   0.0000000000000000     
   4.6623087555263997E-003   9.8354878278733293E-002   0.0000000000000000     
   4.8089985844160747E-003  0.10516600138280963        0.0000000000000000     
   4.0278349232314437E-013   7.8852344684576817E-002   0.0000000000000000     
   4.3393175337691492E-013   8.5186160202876560E-002   0.0000000000000000     
   4.5563905296322482E-013   9.1679447155688709E-002   0.0000000000000000     
   4.6790491674362361E-013   9.8332205543013196E-002   0.0000000000000000     
   4.7072805722803146E-013  0.10514443536485012        0.0000000000000000     
   1.9498014448237282E-002  0.10548949165284087        0.0000000000000000     
   2.0063138870473923E-002  0.11243126208049069        0.0000000000000000     
   2.0607467258296465E-002  0.11950926803277447        0.0000000000000000     
   2.1130999611704896E-002  0.12672350950969224        0.0000000000000000     
   2.1633735930699224E-002  0.13407398651124397        0.0000000000000000     
   1.4558005808299352E-002  0.10533852952680502        0.0000000000000000     
   1.4980387954150968E-002  0.11228826543503002        0.0000000000000000     
   1.5385400553492325E-002  0.11937414406447322        0.0000000000000000     
   1.5773043606323419E-002  0.12659616541513458        0.0000000000000000     
   1.6143317112644249E-002  0.13395432948701411        0.0000000000000000     
   9.6616671870256160E-003  0.10523069943679461        0.0000000000000000     
   9.9422811703759068E-003  0.11218612497399859        0.0000000000000000     
   1.0210133775586449E-002  0.11927762694426985        0.0000000000000000     
   1.0465225002657239E-002  0.12650520534760840        0.0000000000000000     
   1.0707554851588277E-002  0.13386886018401425        0.0000000000000000     
   4.8089985844160747E-003  0.10516600138280963        0.0000000000000000     
   4.9488185191487412E-003  0.11212484069739637        0.0000000000000000     
   5.0816669245788348E-003  0.11921971667216438        0.0000000000000000     
   5.2075438007063574E-003  0.12645062930711376        0.0000000000000000     
   5.3264491475313071E-003  0.13381757860224441        0.0000000000000000     
   4.7072805722803146E-013  0.10514443536485012        0.0000000000000000     
   4.6946843114403780E-013  0.11210441260522334        0.0000000000000000     
   4.6948350155423535E-013  0.11920041324815682        0.0000000000000000     
   4.7077524712758889E-013  0.12643243729365056        0.0000000000000000     
   4.7334055078285253E-013  0.13380048474170456        0.0000000000000000     
   2.1633735930699224E-002  0.13407398651124397        0.0000000000000000     
   2.2107306293452377E-002  0.14154823416419091        0.0000000000000000     
   2.2543340778137293E-002  0.14913378759529419        0.0000000000000000     
   2.2941839384753970E-002  0.15683064680455389        0.0000000000000000     
   2.3302802113302407E-002  0.16463881179196993        0.0000000000000000     
   1.6143317112644249E-002  0.13395432948701411        0.0000000000000000     
   1.6491779984235649E-002  0.14143654773268671        0.0000000000000000     
   1.6813991132878455E-002  0.14903073160472727        0.0000000000000000     
   1.7109950558572659E-002  0.15673688110313586        0.0000000000000000     
   1.7379658261318268E-002  0.16455499622791239        0.0000000000000000     
   1.0707554851588277E-002  0.13386886018401425        0.0000000000000000     
   1.0935386832331456E-002  0.14135677171021033        0.0000000000000000     
   1.1146984454838660E-002  0.14895712018291968        0.0000000000000000     
   1.1342347719109892E-002  0.15666990560214220        0.0000000000000000     
   1.1521476625145154E-002  0.16449512796787796        0.0000000000000000     
   5.3264491475313071E-003  0.13381757860224441        0.0000000000000000     
   5.4381268377397913E-003  0.14130890609676180        0.0000000000000000     
   5.5423207440179123E-003  0.14891295332987126        0.0000000000000000     
   5.6390308663656682E-003  0.15662972030157288        0.0000000000000000     
   5.7282572047830643E-003  0.16445920701186664        0.0000000000000000     
   4.7334055078285253E-013  0.13380048474170456        0.0000000000000000     
   4.6065972217346207E-013  0.14129295089234101        0.0000000000000000     
   4.1620873414416337E-013  0.14889823104558214        0.0000000000000000     
   3.3998617723213220E-013  0.15661632520142790        0.0000000000000000     
   2.3199411142149629E-013  0.16444723335987838        0.0000000000000000     
   0.0000000000000000        0.0000000000000000        0.0000000000000000     
  -5.2800645800044066E-017   1.0733975347194825E-003   0.0000000000000000     
   5.1423709040987475E-016   2.5157206329050412E-003   0.0000000000000000     
   1.7013300490642536E-015   4.3269692945566759E-003   0.0000000000000000     
   3.5080987594027224E-015   6.5071435196743859E-003   0.0000000000000000     
   0.0000000000000000        0.0000000000000000        0.0000000000000000     
  -2.1298692717890491E-004   1.0756852829239274E-003   0.0000000000000000     
  -4.2697423207307961E-004   2.5208739400612488E-003   0.0000000000000000     
  -6.4196191468252430E-004   4.3355659714119634E-003   0.0000000000000000     
  -8.5794997500723857E-004   6.5197613769760699E-003   0.0000000000000000     
   0.0000000000000000        0.0000000000000000        0.0000000000000000     
  -4.2425976350574047E-004   1.0825485275372995E-003   0.0000000000000000     
  -8.5298408272347086E-004   2.5363338615306736E-003   0.0000000000000000     
  -1.2861729576531910E-003   4.3613560019801221E-003   0.0000000000000000     
  -1.7238263882949005E-003   6.5576149488856461E-003   0.0000000000000000     
   0.0000000000000000        0.0000000000000000        0.0000000000000000     
  -6.3381850898055971E-004   1.0939872685595986E-003   0.0000000000000000     
  -1.2780295519506592E-003   2.5621003973133171E-003   0.0000000000000000     
  -1.9326331289102982E-003   4.4043393862611560E-003   0.0000000000000000     
  -2.5976292398594775E-003   6.6207042354031152E-003   0.0000000000000000     
   0.0000000000000000        0.0000000000000000        0.0000000000000000     
  -8.4166316360336228E-004   1.1100015059908248E-003   0.0000000000000000     
  -1.7021106397546448E-003   2.5981735474091792E-003   0.0000000000000000     
  -2.5813424284538465E-003   4.4645161242550628E-003   0.0000000000000000     
  -3.4793585297009690E-003   6.7090292365284765E-003   0.0000000000000000     
   3.5080987594027224E-015   6.5071435196743859E-003   0.0000000000000000     
   5.4476415782891974E-015   9.0288490367240442E-003   0.0000000000000000     
   7.0331788353319991E-015   1.1864691574171518E-002   0.0000000000000000     
   8.2640498448322691E-015   1.5014671132016807E-002   0.0000000000000000     
   9.1412337768770335E-015   1.8478787710259917E-002   0.0000000000000000     
  -8.5794997500723857E-004   6.5197613769760699E-003   0.0000000000000000     
  -1.0760823295311681E-003   9.0454435557661174E-003   0.0000000000000000     
  -1.2975028947382562E-003   1.1884595906794653E-002   0.0000000000000000     
  -1.5222116706285046E-003   1.5037218430061674E-002   0.0000000000000000     
  -1.7502086572019119E-003   1.8503311125567183E-002   0.0000000000000000     
  -1.7238263882949005E-003   6.5576149488856461E-003   0.0000000000000000     
  -2.1660916721910500E-003   9.0952271128985195E-003   0.0000000000000000     
  -2.6131161068840870E-003   1.1944308904670018E-002   0.0000000000000000     
  -3.0648996923740134E-003   1.5104860324200140E-002   0.0000000000000000     
  -3.5214424286608274E-003   1.8576881371488892E-002   0.0000000000000000     
  -2.5976292398594775E-003   6.6207042354031152E-003   0.0000000000000000     
  -3.2700280279741967E-003   9.1781997081212489E-003   0.0000000000000000     
  -3.9468396364304575E-003   1.2043830567797613E-002   0.0000000000000000     
  -4.6280640652282615E-003   1.5217596814432211E-002   0.0000000000000000     
  -5.3137013143676063E-003   1.8699498448025039E-002   0.0000000000000000     
  -3.4793585297009690E-003   6.7090292365284765E-003   0.0000000000000000     
  -4.3878913968806114E-003   9.2943613414343072E-003   0.0000000000000000     
  -5.2986734833773714E-003   1.2183160896177443E-002   0.0000000000000000     
  -6.2117047891912507E-003   1.5375427900757882E-002   0.0000000000000000     
  -7.1269853143222494E-003   1.8871162355175629E-002   0.0000000000000000     
   9.1412337768770335E-015   1.8478787710259917E-002   0.0000000000000000     
   1.1161807155629644E-014   2.2227893923712348E-002   0.0000000000000000     
   1.5825150434869983E-014   2.6232842387185599E-002   0.0000000000000000     
   2.3130240398797769E-014   3.0493633100679679E-002   0.0000000000000000     
   3.3077273559056763E-014   3.5010266064194585E-002   0.0000000000000000     
  -1.7502086572019119E-003   1.8503311125567183E-002   0.0000000000000000     
  -1.9778966895263070E-003   2.2253934408328763E-002   0.0000000000000000     
  -2.2016786026695179E-003   2.6260148693364006E-002   0.0000000000000000     
  -2.4215543966315469E-003   3.0521953980672905E-002   0.0000000000000000     
  -2.6375240714123912E-003   3.5039350270255468E-002   0.0000000000000000     
  -3.5214424286608274E-003   1.8576881371488892E-002   0.0000000000000000     
  -3.9768628876044954E-003   2.2332055862177888E-002   0.0000000000000000     
  -4.4252796410649787E-003   2.6342067611908767E-002   0.0000000000000000     
  -4.8666926890422796E-003   3.0606916620681521E-002   0.0000000000000000     
  -5.3011020315363979E-003   3.5126602888496158E-002   0.0000000000000000     
  -5.3137013143676063E-003   1.8699498448025039E-002   0.0000000000000000     
  -5.9968985942234019E-003   2.2462258285259721E-002   0.0000000000000000     
  -6.6708031151705548E-003   2.6478599142819879E-002   0.0000000000000000     
  -7.3354148772090694E-003   3.0748521020705528E-002   0.0000000000000000     
  -7.9907338803389405E-003   3.5272023918916651E-002   0.0000000000000000     
  -7.1269853143222494E-003   1.8871162355175629E-002   0.0000000000000000     
  -8.0380038093830295E-003   2.2644541677574261E-002   0.0000000000000000     
  -8.9382490249862497E-003   2.6669743286097353E-002   0.0000000000000000     
  -9.8277209611319135E-003   3.0946767180744912E-002   0.0000000000000000     
  -1.0706419617820021E-002   3.5475613361516944E-002   0.0000000000000000     
   3.3077273559056763E-014   3.5010266064194585E-002   0.0000000000000000     
   5.1544489163002360E-014   3.9763151230443126E-002   0.0000000000000000     
   8.4408500154731225E-014   4.4732698552138121E-002   0.0000000000000000     
   1.3167068889201328E-013   4.9918908029279556E-002   0.0000000000000000     
   1.9332951038675272E-013   5.5321779661867451E-002   0.0000000000000000     
  -2.6375240714123912E-003   3.5039350270255468E-002   0.0000000000000000     
  -2.8490172016262727E-003   3.9792695393302970E-002   0.0000000000000000     
  -3.0554633618874107E-003   4.4762347181006690E-002   0.0000000000000000     
  -3.2568625521958031E-003   4.9948305633366614E-002   0.0000000000000000     
  -3.4532147725514543E-003   5.5350570750382765E-002   0.0000000000000000     
  -5.3011020315363979E-003   3.5126602888496158E-002   0.0000000000000000     
  -5.7267503368898451E-003   3.9881327881973232E-002   0.0000000000000000     
  -6.1418802734451378E-003   4.4851293067733299E-002   0.0000000000000000     
  -6.5464918412022743E-003   5.0036498445776366E-002   0.0000000000000000     
  -6.9405850401612554E-003   5.5436944016102427E-002   0.0000000000000000     
  -7.9907338803389405E-003   3.5272023918916651E-002   0.0000000000000000     
  -8.6331994057391743E-003   4.0029048696453906E-002   0.0000000000000000     
  -9.2592507345887753E-003   4.4999536212317955E-002   0.0000000000000000     
  -9.8688878668877419E-003   5.0183486466508796E-002   0.0000000000000000     
  -1.0462110802636072E-002   5.5580899459026445E-002   0.0000000000000000     
  -1.0706419617820021E-002   3.5475613361516944E-002   0.0000000000000000     
  -1.1568364408174259E-002   4.0235857836745006E-002   0.0000000000000000     
  -1.2407574745318322E-002   4.5207076614760665E-002   0.0000000000000000     
  -1.3224050629252204E-002   5.0389269695563940E-002   0.0000000000000000     
  -1.4017792059975911E-002   5.5782437079154805E-002   0.0000000000000000     
   1.9332951038675272E-013   5.5321779661867451E-002   0.0000000000000000     
   2.5806353581847574E-013   6.0925842008520130E-002   0.0000000000000000     
   3.1455046900497052E-013   6.6715623627855922E-002   0.0000000000000000     
   3.6279009310580257E-013   7.2691124519874806E-002   0.0000000000000000     
   4.0278349232314437E-013   7.8852344684576817E-002   0.0000000000000000     
  -3.4532147725514543E-003   5.5350570750382765E-002   0.0000000000000000     
  -3.6441122579281117E-003   6.0953841636211550E-002   0.0000000000000000     
  -3.8291472432995235E-003   6.6742817395009368E-002   0.0000000000000000     
  -4.0083197286656935E-003   7.2717498026776267E-002   0.0000000000000000     
  -4.1816297140266192E-003   7.8877883531512205E-002   0.0000000000000000     
  -6.9405850401612554E-003   5.5436944016102427E-002   0.0000000000000000     
  -7.3236093270302831E-003   6.1037840519468020E-002   0.0000000000000000     
  -7.6950141585175567E-003   6.6824398696629692E-002   0.0000000000000000     
  -8.0547995346230798E-003   7.2796618547587455E-002   0.0000000000000000     
  -8.4029654553468506E-003   7.8954500072341297E-002   0.0000000000000000     
  -1.0462110802636072E-002   5.5580899459026445E-002   0.0000000000000000     
  -1.1038491207048451E-002   6.1177838658289567E-002   0.0000000000000000     
  -1.1597600745339550E-002   6.6960367532716891E-002   0.0000000000000000     
  -1.2139439417509371E-002   7.2928486082308397E-002   0.0000000000000000     
  -1.2664007223557911E-002   7.9082194307064063E-002   0.0000000000000000     
  -1.4017792059975911E-002   5.5782437079154805E-002   0.0000000000000000     
  -1.4788757897982618E-002   6.1373836052676177E-002   0.0000000000000000     
  -1.5536907003765503E-002   6.7150723903270926E-002   0.0000000000000000     
  -1.6262239377324562E-002   7.3113100630939051E-002   0.0000000000000000     
  -1.6964755018659801E-002   7.9260966235680561E-002   0.0000000000000000     
   4.0278349232314437E-013   7.8852344684576817E-002   0.0000000000000000     
   4.3393175337691492E-013   8.5186160202876560E-002   0.0000000000000000     
   4.5563905296322482E-013   9.1679447155688709E-002   0.0000000000000000     
   4.6790491674362361E-013   9.8332205543013196E-002   0.0000000000000000     
   4.7072805722803146E-013  0.10514443536485012        0.0000000000000000     
  -4.1816297140266192E-003   7.8877883531512205E-002   0.0000000000000000     
  -4.3486243198880810E-003   8.5210819353139136E-002   0.0000000000000000     
  -4.5088506667558589E-003   9.1703150935579000E-002   0.0000000000000000     
  -4.6623087546299553E-003   9.8354878278831812E-002   0.0000000000000000     
  -4.8089985835103660E-003  0.10516600138289757        0.0000000000000000     
  -8.4029654553468506E-003   7.8954500072341297E-002   0.0000000000000000     
  -8.7384014583015389E-003   8.5284796803867219E-002   0.0000000000000000     
  -9.0599970810998163E-003   9.1774262275141225E-002   0.0000000000000000     
  -9.3677523237416880E-003   9.8422896486163342E-002   0.0000000000000000     
  -9.6616671862271436E-003  0.10523069943693354        0.0000000000000000     
  -1.2664007223557911E-002   7.9082194307064063E-002   0.0000000000000000     
  -1.3169331414806447E-002   8.5408092555060780E-002   0.0000000000000000     
  -1.3653439242576237E-002   9.1892781174375354E-002   0.0000000000000000     
  -1.4116330706867294E-002   9.8536260165007758E-002   0.0000000000000000     
  -1.4558005807679611E-002  0.10533852952695802        0.0000000000000000     
  -1.6964755018659801E-002   7.9260966235680561E-002   0.0000000000000000     
  -1.7641414189402793E-002   8.5580706606719875E-002   0.0000000000000000     
  -1.8289177151185117E-002   9.2058707633281389E-002   0.0000000000000000     
  -1.8908043904006775E-002   9.8694969315365103E-002   0.0000000000000000     
  -1.9498014447867765E-002  0.10548949165297103        0.0000000000000000     
   4.7072805722803146E-013  0.10514443536485012        0.0000000000000000     
   4.6946843114403780E-013  0.11210441260522334        0.0000000000000000     
   4.6948350155423535E-013  0.11920041324815682        0.0000000000000000     
   4.7077524712758889E-013  0.12643243729365056        0.0000000000000000     
   4.7334055078285253E-013  0.13380048474170456        0.0000000000000000     
  -4.8089985835103660E-003  0.10516600138289757        0.0000000000000000     
  -4.9488185182423776E-003  0.11212484069746986        0.0000000000000000     
  -5.0816669236712717E-003  0.11921971667224231        0.0000000000000000     
  -5.2075437997970509E-003  0.12645062930721490        0.0000000000000000     
  -5.3264491466197116E-003  0.13381757860238763        0.0000000000000000     
  -9.6616671862271436E-003  0.10523069943693354        0.0000000000000000     
  -9.9422811695672585E-003  0.11218612497412629        0.0000000000000000     
  -1.0210133774773098E-002  0.11927762694441606        0.0000000000000000     
  -1.0465225001844658E-002  0.12650520534780288        0.0000000000000000     
  -1.0707554850781941E-002  0.13386886018428665        0.0000000000000000     
  -1.4558005807679611E-002  0.10533852952695802        0.0000000000000000     
  -1.4980387953505181E-002  0.11228826543519264        0.0000000000000000     
  -1.5385400552835991E-002  0.11937414406467810        0.0000000000000000     
  -1.5773043605672048E-002  0.12659616541541444        0.0000000000000000     
  -1.6143317112013344E-002  0.13395432948740160        0.0000000000000000     
  -1.9498014447867765E-002  0.10548949165297103        0.0000000000000000     
  -2.0063138870056139E-002  0.11243126208066891        0.0000000000000000     
  -2.0607467257859956E-002  0.11950926803302842        0.0000000000000000     
  -2.1130999611279223E-002  0.12672350951004960        0.0000000000000000     
  -2.1633735930313924E-002  0.13407398651173241        0.0000000000000000     
   4.7334055078285253E-013  0.13380048474170456        0.0000000000000000     
   4.6065972217346207E-013  0.14129295089234101        0.0000000000000000     
   4.1620873414416337E-013  0.14889823104558214        0.0000000000000000     
   3.3998617723213220E-013  0.15661632520142790        0.0000000000000000     
   2.3199411142149629E-013  0.16444723335987838        0.0000000000000000     
  -5.3264491466197116E-003  0.13381757860238763        0.0000000000000000     
  -5.4381268368558439E-003  0.14130890609693431        0.0000000000000000     
  -5.5423207432220289E-003  0.14891295333002855        0.0000000000000000     
  -5.6390308657182694E-003  0.15662972030167041        0.0000000000000000     
  -5.7282572043445600E-003  0.16445920701185993        0.0000000000000000     
  -1.0707554850781941E-002  0.13386886018428665        0.0000000000000000     
  -1.0935386831559623E-002  0.14135677171052788        0.0000000000000000     
  -1.1146984454152378E-002  0.14895712018318680        0.0000000000000000     
  -1.1342347718560207E-002  0.15666990560226349        0.0000000000000000     
  -1.1521476624783106E-002  0.16449512796775789        0.0000000000000000     
  -1.6143317112013344E-002  0.13395432948740160        0.0000000000000000     
  -1.6491779983650680E-002  0.14143654773312173        0.0000000000000000     
  -1.6813991132374848E-002  0.14903073160505684        0.0000000000000000     
  -1.7109950558185833E-002  0.15673688110320705        0.0000000000000000     
  -1.7379658261083650E-002  0.16455499622757233        0.0000000000000000     
  -2.1633735930313924E-002  0.13407398651173241        0.0000000000000000     
  -2.2107306293129011E-002  0.14154823416471585        0.0000000000000000     
  -2.2543340777889418E-002  0.14913378759563878        0.0000000000000000     
  -2.2941839384595143E-002  0.15683064680450123        0.0000000000000000     
  -2.3302802113246184E-002  0.16463881179130319        0.0000000000000000     
   0.0000000000000000        0.0000000000000000        0.0000000000000000     
  -8.4166316360336228E-004   1.1100015059908248E-003   0.0000000000000000     
  -1.7021106397546448E-003   2.5981735474091792E-003   0.0000000000000000     
  -2.5813424284538465E-003   4.4645161242550628E-003   0.0000000000000000     
  -3.4793585297009690E-003   6.7090292365284765E-003   0.0000000000000000     
   0.0000000000000000        0.0000000000000000        0.0000000000000000     
  -1.0566950778515085E-003   1.1341545600148893E-003   0.0000000000000000     
  -2.1397613670237864E-003   2.6504045763188805E-003   0.0000000000000000     
  -3.2491988675168327E-003   4.5487500489119741E-003   0.0000000000000000     
  -4.3850075793306484E-003   6.8291909777941692E-003   0.0000000000000000     
   0.0000000000000000        0.0000000000000000        0.0000000000000000     
  -1.2878156022023582E-003   1.1700097508157048E-003   0.0000000000000000     
  -2.6055157546464418E-003   2.7246447485430448E-003   0.0000000000000000     
  -3.9531004573322521E-003   4.6639049931820210E-003   0.0000000000000000     
  -5.3305697102597896E-003   6.9877904847326332E-003   0.0000000000000000     
   0.0000000000000000        0.0000000000000000        0.0000000000000000     
  -1.5350247366559110E-003   1.2175670783932701E-003   0.0000000000000000     
  -3.0993738026226132E-003   2.8208940640816714E-003   0.0000000000000000     
  -4.6930471979001066E-003   4.8099809570652042E-003   0.0000000000000000     
  -6.3160449224883911E-003   7.1848277573438694E-003   0.0000000000000000     
   0.0000000000000000        0.0000000000000000        0.0000000000000000     
  -1.7983224812121673E-003   1.2768265427475858E-003   0.0000000000000000     
  -3.6213355109522985E-003   2.9391525229347606E-003   0.0000000000000000     
  -5.4690390892203943E-003   4.9869779405615246E-003   0.0000000000000000     
  -7.3414332160164526E-003   7.4203027956278771E-003   0.0000000000000000     
  -3.4793585297009690E-003   6.7090292365284765E-003   0.0000000000000000     
  -4.3878913968806114E-003   9.2943613414343072E-003   0.0000000000000000     
  -5.2986734833773714E-003   1.2183160896177443E-002   0.0000000000000000     
  -6.2117047891912507E-003   1.5375427900757882E-002   0.0000000000000000     
  -7.1269853143222494E-003   1.8871162355175629E-002   0.0000000000000000     
  -4.3850075793306484E-003   6.8291909777941692E-003   0.0000000000000000     
  -5.5341954340457919E-003   9.4496989589624523E-003   0.0000000000000000     
  -6.6837703632428242E-003   1.2368245588413812E-002   0.0000000000000000     
  -7.8337323669217460E-003   1.5584830866148250E-002   0.0000000000000000     
  -8.9840814450825521E-003   1.9099454792165762E-002   0.0000000000000000     
  -5.3305697102597896E-003   6.9877904847326332E-003   0.0000000000000000     
  -6.7234537946052452E-003   9.6501995068304508E-003   0.0000000000000000     
  -8.1172829915448202E-003   1.2605030343111039E-002   0.0000000000000000     
  -9.5120573010785102E-003   1.5852282993574406E-002   0.0000000000000000     
  -1.0907776723206312E-002   1.9391957458220543E-002   0.0000000000000000     
  -6.3160449224883911E-003   7.1848277573438694E-003   0.0000000000000000     
  -7.9556664785589738E-003   9.8958629850382975E-003   0.0000000000000000     
  -9.5992113682833551E-003   1.2893515160269126E-002   0.0000000000000000     
  -1.1246679591661545E-002   1.6177784283036348E-002   0.0000000000000000     
  -1.2898071148693534E-002   1.9748670353339968E-002   0.0000000000000000     
  -7.3414332160164526E-003   7.4203027956278771E-003   0.0000000000000000     
  -9.2308334859069682E-003   1.0186689393585998E-002   0.0000000000000000     
  -1.1129555493458433E-002   1.3233700039888066E-002   0.0000000000000000     
  -1.3037599238670847E-002   1.6561334734534076E-002   0.0000000000000000     
  -1.4954964721544209E-002   2.0169593477524041E-002   0.0000000000000000     
  -7.1269853143222494E-003   1.8871162355175629E-002   0.0000000000000000     
  -8.0380038093830295E-003   2.2644541677574261E-002   0.0000000000000000     
  -8.9382490249862497E-003   2.6669743286097353E-002   0.0000000000000000     
  -9.8277209611319135E-003   3.0946767180744912E-002   0.0000000000000000     
  -1.0706419617820021E-002   3.5475613361516944E-002   0.0000000000000000     
  -8.9840814450825521E-003   1.9099454792165762E-002   0.0000000000000000     
  -1.0127882896244410E-002   2.2887374296733196E-002   0.0000000000000000     
  -1.1258202018926484E-002   2.6923846310117388E-002   0.0000000000000000     
  -1.2375038813128771E-002   3.1208870832318342E-002   0.0000000000000000     
  -1.3478393278851267E-002   3.5742447863336059E-002   0.0000000000000000     
  -1.0907776723206312E-002   1.9391957458220543E-002   0.0000000000000000     
  -1.2294240217968584E-002   2.3199224400348214E-002   0.0000000000000000     
  -1.3661246745405677E-002   2.7249254483256179E-002   0.0000000000000000     
  -1.5008796305517583E-002   3.1542047706944451E-002   0.0000000000000000     
  -1.6336888898304310E-002   3.6077604071413007E-002   0.0000000000000000     
  -1.2898071148693534E-002   1.9748670353339968E-002   0.0000000000000000     
  -1.4537075774555552E-002   2.3580091988419320E-002   0.0000000000000000     
  -1.6147383204423826E-002   2.7645967805513743E-002   0.0000000000000000     
  -1.7728993438298358E-002   3.1946297804623228E-002   0.0000000000000000     
  -1.9281906476179150E-002   3.6481081985747781E-002   0.0000000000000000     
  -1.4954964721544209E-002   2.0169593477524041E-002   0.0000000000000000     
  -1.6856389566005308E-002   2.4029977060946509E-002   0.0000000000000000     
  -1.8716611395980940E-002   2.8113986276890067E-002   0.0000000000000000     
  -2.0535630211471100E-002   3.2421621125354690E-002   0.0000000000000000     
  -2.2313446012475781E-002   3.6952881606340401E-002   0.0000000000000000     
  -1.0706419617820021E-002   3.5475613361516944E-002   0.0000000000000000     
  -1.1568364408174259E-002   4.0235857836745006E-002   0.0000000000000000     
  -1.2407574745318322E-002   4.5207076614760665E-002   0.0000000000000000     
  -1.3224050629252204E-002   5.0389269695563940E-002   0.0000000000000000     
  -1.4017792059975911E-002   5.5782437079154805E-002   0.0000000000000000     
  -1.3478393278851267E-002   3.5742447863336059E-002   0.0000000000000000     
  -1.4560422685415561E-002   4.0504563357148422E-002   0.0000000000000000     
  -1.5613284302143227E-002   4.5475203267733334E-002   0.0000000000000000     
  -1.6636978129034266E-002   5.0654367595090802E-002   0.0000000000000000     
  -1.7631504166088684E-002   5.6042056339220811E-002   0.0000000000000000     
  -1.6336888898304310E-002   3.6077604071413007E-002   0.0000000000000000     
  -1.7637551578683536E-002   4.0837973311966078E-002   0.0000000000000000     
  -1.8902811401572947E-002   4.5805205163907882E-002   0.0000000000000000     
  -2.0132668366972535E-002   5.0979299627238427E-002   0.0000000000000000     
  -2.1327122474882311E-002   5.6360256701957712E-002   0.0000000000000000     
  -1.9281906476179150E-002   3.6481081985747781E-002   0.0000000000000000     
  -2.0799751087978189E-002   4.1236087701197965E-002   0.0000000000000000     
  -2.2276156043607477E-002   4.6197082303284301E-002   0.0000000000000000     
  -2.3711121343067007E-002   5.1364065792006829E-002   0.0000000000000000     
  -2.5104646986356789E-002   5.6737038167365514E-002   0.0000000000000000     
  -2.2313446012475781E-002   3.6952881606340401E-002   0.0000000000000000     
  -2.4047021213299515E-002   4.1698906524844079E-002   0.0000000000000000     
  -2.5733318228246819E-002   4.6650834685862605E-002   0.0000000000000000     
  -2.7372337057317678E-002   5.1808666089395980E-002   0.0000000000000000     
  -2.8964077700512118E-002   5.7172400735444204E-002   0.0000000000000000     
  -1.4017792059975911E-002   5.5782437079154805E-002   0.0000000000000000     
  -1.4788757897982618E-002   6.1373836052676177E-002   0.0000000000000000     
  -1.5536907003765503E-002   6.7150723903270926E-002   0.0000000000000000     
  -1.6262239377324562E-002   7.3113100630939051E-002   0.0000000000000000     
  -1.6964755018659801E-002   7.9260966235680561E-002   0.0000000000000000     
  -1.7631504166088684E-002   5.6042056339220811E-002   0.0000000000000000     
  -1.8597223746260317E-002   6.1626596076472209E-002   0.0000000000000000     
  -1.9534498202503026E-002   6.7396313383193837E-002   0.0000000000000000     
  -2.0443327534816792E-002   7.3351208259385708E-002   0.0000000000000000     
  -2.1323711743201631E-002   7.9491280705047823E-002   0.0000000000000000     
  -2.1327122474882311E-002   5.6360256701957712E-002   0.0000000000000000     
  -2.2486703098309094E-002   6.1936882103522023E-002   0.0000000000000000     
  -2.3611939610259720E-002   6.7697981547387667E-002   0.0000000000000000     
  -2.4702832010734192E-002   7.3643555033554631E-002   0.0000000000000000     
  -2.5759380299732508E-002   7.9773602562022899E-002   0.0000000000000000     
  -2.5104646986356789E-002   5.6737038167365514E-002   0.0000000000000000     
  -2.6457195954128942E-002   6.2304694133825618E-002   0.0000000000000000     
  -2.7769231227035604E-002   6.8055728395852361E-002   0.0000000000000000     
  -2.9040752805076765E-002   7.3990140953445777E-002   0.0000000000000000     
  -3.0271760688252439E-002   8.0107931806605831E-002   0.0000000000000000     
  -2.8964077700512118E-002   5.7172400735444204E-002   0.0000000000000000     
  -3.0508702313719854E-002   6.2730032167382987E-002   0.0000000000000000     
  -3.2006373052830654E-002   6.8469553928587945E-002   0.0000000000000000     
  -3.3457089917844511E-002   7.4390966019059146E-002   0.0000000000000000     
  -3.4860852908761418E-002   8.0494268438796562E-002   0.0000000000000000     
  -1.6964755018659801E-002   7.9260966235680561E-002   0.0000000000000000     
  -1.7641414189402793E-002   8.5580706606719875E-002   0.0000000000000000     
  -1.8289177151185117E-002   9.2058707633281389E-002   0.0000000000000000     
  -1.8908043904006775E-002   9.8694969315365103E-002   0.0000000000000000     
  -1.9498014447867765E-002  0.10548949165297103        0.0000000000000000     
  -2.1323711743201631E-002   7.9491280705047823E-002   0.0000000000000000     
  -2.2171628888547242E-002   8.5802826940696311E-002   0.0000000000000000     
  -2.2983057031743324E-002   9.2272143186847400E-002   0.0000000000000000     
  -2.3757996172789880E-002   9.8899229443501033E-002   0.0000000000000000     
  -2.4496446311686914E-002  0.10568408571065725        0.0000000000000000     
  -2.5759380299732508E-002   7.9773602562022899E-002   0.0000000000000000     
  -2.6776954618696430E-002   8.6074641538842006E-002   0.0000000000000000     
  -2.7750925109067716E-002   9.2533189370061483E-002   0.0000000000000000     
  -2.8681291770846367E-002   9.9149246055681262E-002   0.0000000000000000     
  -2.9568054604032373E-002  0.10592281159570135        0.0000000000000000     
  -3.0271760688252439E-002   8.0107931806605831E-002   0.0000000000000000     
  -3.1457391379850368E-002   8.6396150401156960E-002   0.0000000000000000     
  -3.2592781383158291E-002   9.2841846182923585E-002   0.0000000000000000     
  -3.3677930698176227E-002   9.9445019151905747E-002   0.0000000000000000     
  -3.4712839324904154E-002  0.10620566930810339        0.0000000000000000     
  -3.4860852908761418E-002   8.0494268438796562E-002   0.0000000000000000     
  -3.6212939172009052E-002   8.6767353527641117E-002   0.0000000000000000     
  -3.7508625854015057E-002   9.3198113625433773E-002   0.0000000000000000     
  -3.8747912954779459E-002   9.9786548732174490E-002   0.0000000000000000     
  -3.9930800474302239E-002  0.10653265884786331        0.0000000000000000     
  -1.9498014447867765E-002  0.10548949165297103        0.0000000000000000     
  -2.0063138870056139E-002  0.11243126208066891        0.0000000000000000     
  -2.0607467257859956E-002  0.11950926803302842        0.0000000000000000     
  -2.1130999611279223E-002  0.12672350951004960        0.0000000000000000     
  -2.1633735930313924E-002  0.13407398651173241        0.0000000000000000     
  -2.4496446311686914E-002  0.10568408571065725        0.0000000000000000     
  -2.5204587862664316E-002  0.11261593879158613        0.0000000000000000     
  -2.5888601239951958E-002  0.11968401548955782        0.0000000000000000     
  -2.6548486443549860E-002  0.12688831580457227        0.0000000000000000     
  -2.7184243473458020E-002  0.13422883973662955        0.0000000000000000     
  -2.9568054604032373E-002  0.10592281159570135        0.0000000000000000     
  -3.0418788874773874E-002  0.11284311944897547        0.0000000000000000     
  -3.1241069849218969E-002  0.11989940307435716        0.0000000000000000     
  -3.2034897527367656E-002  0.12709166247184644        0.0000000000000000     
  -3.2800271909219962E-002  0.13441989764144338        0.0000000000000000     
  -3.4712839324904154E-002  0.10620566930810339        0.0000000000000000     
  -3.5705741906384821E-002  0.11311280405283686        0.0000000000000000     
  -3.6664873085660979E-002  0.12015543078742642        0.0000000000000000     
  -3.7590232862732616E-002  0.12733354951187206        0.0000000000000000     
  -3.8481821237599752E-002  0.13464716022617385        0.0000000000000000     
  -3.9930800474302239E-002  0.10653265884786331        0.0000000000000000     
  -4.1065446957497163E-002  0.11342499260317032        0.0000000000000000     
  -4.2160010949277994E-002  0.12045209862876559        0.0000000000000000     
  -4.3214492449644731E-002  0.12761397692464915        0.0000000000000000     
  -4.4228891458597389E-002  0.13491062749082103        0.0000000000000000     
  -2.1633735930313924E-002  0.13407398651173241        0.0000000000000000     
  -2.2107306293129011E-002  0.14154823416471585        0.0000000000000000     
  -2.2543340777889418E-002  0.14913378759563878        0.0000000000000000     
  -2.2941839384595143E-002  0.15683064680450123        0.0000000000000000     
  -2.3302802113246184E-002  0.16463881179130319        0.0000000000000000     
  -2.7184243473458020E-002  0.13422883973662955        0.0000000000000000     
  -2.7783637398363491E-002  0.14169282137286932        0.0000000000000000     
  -2.8334433286953339E-002  0.14926749480043122        0.0000000000000000     
  -2.8836631139227561E-002  0.15695286001931535        0.0000000000000000     
  -2.9290230955186163E-002  0.16474891702952166        0.0000000000000000     
  -3.2800271909219962E-002  0.13441989764144338        0.0000000000000000     
  -3.3522444937722981E-002  0.14187129972514112        0.0000000000000000     
  -3.4186668555823835E-002  0.14943305986493297        0.0000000000000000     
  -3.4792942763522502E-002  0.15710517806081892        0.0000000000000000     
  -3.5341267560819026E-002  0.16488765431279903        0.0000000000000000     
  -3.8481821237599752E-002  0.13464716022617385        0.0000000000000000     
  -3.9323728911207466E-002  0.14208366922153126        0.0000000000000000     
  -4.0100046584500885E-002  0.14963048278914401        0.0000000000000000     
  -4.0810774257479997E-002  0.15728760092901201        0.0000000000000000     
  -4.1455911930144800E-002  0.16505502364113522        0.0000000000000000     
  -4.4228891458597389E-002  0.13491062749082103        0.0000000000000000     
  -4.5187489318816970E-002  0.14232992986203985        0.0000000000000000     
  -4.6074567372984515E-002  0.14985976357306433        0.0000000000000000     
  -4.6890125621100016E-002  0.15750012862389448        0.0000000000000000     
  -4.7634164063163460E-002  0.16525102501453026        0.0000000000000000     
   0.0000000000000000        0.0000000000000000        0.0000000000000000     
  -1.7983224812121673E-003   1.2768265427475858E-003   0.0000000000000000     
  -3.6213355109522985E-003   2.9391525229347606E-003   0.0000000000000000     
  -5.4690390892203943E-003   4.9869779405615246E-003   0.0000000000000000     
  -7.3414332160164526E-003   7.4203027956278771E-003   0.0000000000000000     
   0.0000000000000000        0.0000000000000000        0.0000000000000000     
  -2.0694389811626588E-003   1.3549092685296981E-003   0.0000000000000000     
  -4.1640540914281250E-003   3.0939407978393305E-003   0.0000000000000000     
  -6.2838453307963969E-003   5.2170945879288968E-003   0.0000000000000000     
  -8.4288126992674763E-003   7.7243706387983965E-003   0.0000000000000000     
   0.0000000000000000        0.0000000000000000        0.0000000000000000     
  -2.3401043817989180E-003   1.4589363803906540E-003   0.0000000000000000     
  -4.7201827558427173E-003   3.2997795615324010E-003   0.0000000000000000     
  -7.1402351221313970E-003   5.5225295434252397E-003   0.0000000000000000     
  -9.6002614806649598E-003   8.1271863260691732E-003   0.0000000000000000     
   0.0000000000000000        0.0000000000000000        0.0000000000000000     
  -2.6103186831209443E-003   1.5889078783304527E-003   0.0000000000000000     
  -5.2897215041960762E-003   3.5566688140139711E-003   0.0000000000000000     
  -8.0382084632253971E-003   5.9032828070505533E-003   0.0000000000000000     
  -1.0855779560208905E-002   8.6287498574402002E-003   0.0000000000000000     
   0.0000000000000000        0.0000000000000000        0.0000000000000000     
  -2.8800818851287373E-003   1.7448237623490948E-003   0.0000000000000000     
  -5.8726703364882010E-003   3.8646085552840404E-003   0.0000000000000000     
  -8.9777653540783937E-003   6.3593543788048375E-003   0.0000000000000000     
  -1.2195366937899311E-002   9.2290612329114854E-003   0.0000000000000000     
  -7.3414332160164526E-003   7.4203027956278771E-003   0.0000000000000000     
  -9.2308334859069682E-003   1.0186689393585998E-002   0.0000000000000000     
  -1.1129555493458433E-002   1.3233700039888066E-002   0.0000000000000000     
  -1.3037599238670847E-002   1.6561334734534076E-002   0.0000000000000000     
  -1.4954964721544209E-002   2.0169593477524041E-002   0.0000000000000000     
  -8.4288126992674763E-003   7.7243706387983965E-003   0.0000000000000000     
  -1.0590622178952899E-002   1.0558304750565673E-002   0.0000000000000000     
  -1.2760939751964196E-002   1.3661432723348570E-002   0.0000000000000000     
  -1.4939765418301379E-002   1.7033754557147084E-002   0.0000000000000000     
  -1.7127099177964438E-002   2.0675270251961215E-002   0.0000000000000000     
  -9.6002614806649598E-003   8.1271863260691732E-003   0.0000000000000000     
  -1.2076699920000421E-002   1.1046335074069456E-002   0.0000000000000000     
  -1.4545988528694799E-002   1.4212560952031349E-002   0.0000000000000000     
  -1.7008127306748097E-002   1.7625863959954850E-002   0.0000000000000000     
  -1.9463116254160310E-002   2.1286244097839961E-002   0.0000000000000000     
  -1.0855779560208905E-002   8.6287498574402002E-003   0.0000000000000000     
  -1.3689066709049541E-002   1.1650780364097342E-002   0.0000000000000000     
  -1.6484701823650239E-002   1.4887084725936401E-002   0.0000000000000000     
  -1.9242684904011001E-002   1.8337662942957380E-002   0.0000000000000000     
  -2.1963015950131830E-002   2.2002515015160269E-002   0.0000000000000000     
  -1.2195366937899311E-002   9.2290612329114854E-003   0.0000000000000000     
  -1.5427722546100253E-002   1.2371640620649334E-002   0.0000000000000000     
  -1.8577079636830515E-002   1.5685004045063726E-002   0.0000000000000000     
  -2.1643438210090092E-002   1.9169151506154666E-002   0.0000000000000000     
  -2.4626798265878987E-002   2.2824083003922153E-002   0.0000000000000000     
  -1.4954964721544209E-002   2.0169593477524041E-002   0.0000000000000000     
  -1.6856389566005308E-002   2.4029977060946509E-002   0.0000000000000000     
  -1.8716611395980940E-002   2.8113986276890067E-002   0.0000000000000000     
  -2.0535630211471100E-002   3.2421621125354690E-002   0.0000000000000000     
  -2.2313446012475781E-002   3.6952881606340401E-002   0.0000000000000000     
  -1.7127099177964438E-002   2.0675270251961215E-002   0.0000000000000000     
  -1.9291744346782755E-002   2.4558435127660823E-002   0.0000000000000000     
  -2.1402504240585710E-002   2.8655704504115767E-002   0.0000000000000000     
  -2.3459378859373301E-002   3.2967078381326044E-002   0.0000000000000000     
  -2.5462368203145538E-002   3.7492556759291654E-002   0.0000000000000000     
  -1.9463116254160310E-002   2.1286244097839961E-002   0.0000000000000000     
  -2.1882702871352782E-002   2.5175021698293297E-002   0.0000000000000000     
  -2.4238634658746840E-002   2.9273517093921463E-002   0.0000000000000000     
  -2.6530911616342499E-002   3.3581730284724484E-002   0.0000000000000000     
  -2.8759533744139740E-002   3.8099661270702335E-002   0.0000000000000000     
  -2.1963015950131830E-002   2.2002515015160269E-002   0.0000000000000000     
  -2.4629265139715379E-002   2.5879736772843925E-002   0.0000000000000000     
  -2.7225002650464326E-002   2.9967424046307173E-002   0.0000000000000000     
  -2.9750228482378658E-002   3.4265576835550003E-002   0.0000000000000000     
  -3.2204942635458388E-002   3.8774195140572454E-002   0.0000000000000000     
  -2.4626798265878987E-002   2.2824083003922153E-002   0.0000000000000000     
  -2.7531431151870563E-002   2.6672580351312713E-002   0.0000000000000000     
  -3.0361608215738169E-002   3.0737425361272875E-002   0.0000000000000000     
  -3.3117329457481810E-002   3.5018618033802636E-002   0.0000000000000000     
  -3.5798594877101478E-002   3.9516158368901995E-002   0.0000000000000000     
  -2.2313446012475781E-002   3.6952881606340401E-002   0.0000000000000000     
  -2.4047021213299515E-002   4.1698906524844079E-002   0.0000000000000000     
  -2.5733318228246819E-002   4.6650834685862605E-002   0.0000000000000000     
  -2.7372337057317678E-002   5.1808666089395980E-002   0.0000000000000000     
  -2.8964077700512118E-002   5.7172400735444204E-002   0.0000000000000000     
  -2.5462368203145538E-002   3.7492556759291654E-002   0.0000000000000000     
  -2.7411732403026304E-002   4.2227888453387714E-002   0.0000000000000000     
  -2.9307731590139489E-002   4.7168822278989372E-002   0.0000000000000000     
  -3.1150365764485093E-002   5.2315358236096635E-002   0.0000000000000000     
  -3.2939634926063117E-002   5.7667496324709473E-002   0.0000000000000000     
  -2.8759533744139740E-002   3.8099661270702335E-002   0.0000000000000000     
  -3.0926255105537322E-002   4.2824492157312190E-002   0.0000000000000000     
  -3.3032829763934006E-002   4.7753405050011265E-002   0.0000000000000000     
  -3.5079257719329758E-002   5.2886399948799505E-002   0.0000000000000000     
  -3.7065538971724613E-002   5.8223476853676952E-002   0.0000000000000000     
  -3.2204942635458388E-002   3.8774195140572454E-002   0.0000000000000000     
  -3.4590589320832595E-002   4.3488717636617505E-002   0.0000000000000000     
  -3.6908612749630358E-002   4.8404582998928226E-002   0.0000000000000000     
  -3.9159012921851692E-002   5.3521791227504611E-002   0.0000000000000000     
  -4.1341789837496597E-002   5.8840342322346660E-002   0.0000000000000000     
  -3.5798594877101478E-002   3.9516158368901995E-002   0.0000000000000000     
  -3.8404735048912092E-002   4.4220564891303653E-002   0.0000000000000000     
  -4.0935080547228560E-002   4.9122356125740313E-002   0.0000000000000000     
  -4.3389631372050881E-002   5.4221532072211955E-002   0.0000000000000000     
  -4.5768387523379070E-002   5.9518092730718591E-002   0.0000000000000000     
  -2.8964077700512118E-002   5.7172400735444204E-002   0.0000000000000000     
  -3.0508702313719854E-002   6.2730032167382987E-002   0.0000000000000000     
  -3.2006373052830654E-002   6.8469553928587945E-002   0.0000000000000000     
  -3.3457089917844511E-002   7.4390966019059146E-002   0.0000000000000000     
  -3.4860852908761418E-002   8.0494268438796562E-002   0.0000000000000000     
  -3.2939634926063117E-002   5.7667496324709473E-002   0.0000000000000000     
  -3.4675582542428647E-002   6.3212724622297475E-002   0.0000000000000000     
  -3.6358252081136744E-002   6.8938531206330214E-002   0.0000000000000000     
  -3.7987643542187428E-002   7.4844916076807683E-002   0.0000000000000000     
  -3.9563756925580687E-002   8.0931879233729895E-002   0.0000000000000000     
  -3.7065538971724613E-002   5.8223476853676952E-002   0.0000000000000000     
  -3.8992197005602088E-002   6.3752599916672467E-002   0.0000000000000000     
  -4.0859755305445715E-002   6.9461733289814892E-002   0.0000000000000000     
  -4.2668213871255502E-002   7.5350876973104261E-002   0.0000000000000000     
  -4.4417572703031455E-002   8.1420030966540560E-002   0.0000000000000000     
  -4.1341789837496597E-002   5.8840342322346660E-002   0.0000000000000000     
  -4.3458545703240183E-002   6.4349658050507935E-002   0.0000000000000000     
  -4.5510882725757568E-002   7.0039160179042020E-002   0.0000000000000000     
  -4.7498800905048752E-002   7.5908848707948881E-002   0.0000000000000000     
  -4.9422300241113735E-002   8.1958723637228545E-002   0.0000000000000000     
  -4.5768387523379070E-002   5.9518092730718591E-002   0.0000000000000000     
  -4.8074628635342932E-002   6.5003899023803893E-002   0.0000000000000000     
  -5.0311634342072295E-002   7.0670811874011544E-002   0.0000000000000000     
  -5.2479404643567144E-002   7.6518831281341529E-002   0.0000000000000000     
  -5.4577939539827522E-002   8.2547957245793863E-002   0.0000000000000000     
  -3.4860852908761418E-002   8.0494268438796562E-002   0.0000000000000000     
  -3.6212939172009052E-002   8.6767353527641117E-002   0.0000000000000000     
  -3.7508625854015057E-002   9.3198113625433773E-002   0.0000000000000000     
  -3.8747912954779459E-002   9.9786548732174490E-002   0.0000000000000000     
  -3.9930800474302239E-002  0.10653265884786331        0.0000000000000000     
  -3.9563756925580687E-002   8.0931879233729895E-002   0.0000000000000000     
  -4.1081995890173403E-002   8.7188064789171155E-002   0.0000000000000000     
  -4.2537764094822475E-002   9.3602116855205766E-002   0.0000000000000000     
  -4.3931061539527923E-002  0.10017403543183377        0.0000000000000000     
  -4.5261888224289712E-002  0.10690382051905513        0.0000000000000000     
  -4.4417572703031455E-002   8.1420030966540560E-002   0.0000000000000000     
  -4.6102959429344365E-002   8.7658098056623612E-002   0.0000000000000000     
  -4.7719501678765021E-002   9.4053981029853365E-002   0.0000000000000000     
  -4.9267199451293459E-002  0.10060767988622979        0.0000000000000000     
  -5.0746052746929657E-002  0.10731919462575282        0.0000000000000000     
  -4.9422300241113735E-002   8.1958723637228545E-002   0.0000000000000000     
  -5.1275829789521915E-002   8.8177453329998587E-002   0.0000000000000000     
  -5.3053838605842688E-002   9.4553706149376582E-002   0.0000000000000000     
  -5.4756326690076081E-002  0.10108748209536250        0.0000000000000000     
  -5.6383294042222067E-002  0.10777878116795640        0.0000000000000000     
  -5.4577939539827522E-002   8.2547957245793863E-002   0.0000000000000000     
  -5.6600606970706062E-002   8.8746130609295995E-002   0.0000000000000000     
  -5.8540774876055482E-002   9.5101292213775376E-002   0.0000000000000000     
  -6.0398443255875789E-002  0.10161344205923198        0.0000000000000000     
  -6.2173612110166941E-002  0.10828258014566586        0.0000000000000000     
  -3.9930800474302239E-002  0.10653265884786331        0.0000000000000000     
  -4.1065446957497163E-002  0.11342499260317032        0.0000000000000000     
  -4.2160010949277994E-002  0.12045209862876559        0.0000000000000000     
  -4.3214492449644731E-002  0.12761397692464915        0.0000000000000000     
  -4.4228891458597389E-002  0.13491062749082103        0.0000000000000000     
  -4.5261888224289712E-002  0.10690382051905513        0.0000000000000000     
  -4.6538330807943618E-002  0.11377959879375835        0.0000000000000000     
  -4.7768475949325415E-002  0.12078949693283193        0.0000000000000000     
  -4.8952323648435096E-002  0.12793351493627589        0.0000000000000000     
  -5.0089873905272662E-002  0.13521165280409020        0.0000000000000000     
  -5.0746052746929657E-002  0.10731919462575282        0.0000000000000000     
  -5.2164820237556933E-002  0.11417653631838347        0.0000000000000000     
  -5.3532260595058653E-002  0.12116771603408266        0.0000000000000000     
  -5.4848373819434804E-002  0.12829273377285036        0.0000000000000000     
  -5.6113159910685370E-002  0.13555158953468663        0.0000000000000000     
  -5.6383294042222067E-002  0.10777878116795640        0.0000000000000000     
  -5.7944915246337117E-002  0.11461580517704566        0.0000000000000000     
  -5.9451364886477703E-002  0.12158675593251776        0.0000000000000000     
  -6.0902642962643840E-002  0.12869163343437268        0.0000000000000000     
  -6.2298749474835498E-002  0.13593043768261040        0.0000000000000000     
  -6.2173612110166941E-002  0.10828258014566586        0.0000000000000000     
  -6.3878615834284155E-002  0.11509740536974496        0.0000000000000000     
  -6.5525788823582579E-002  0.12204661662813725        0.0000000000000000     
  -6.7115131078062218E-002  0.12913021392084270        0.0000000000000000     
  -6.8646642597723059E-002  0.13634819724786137        0.0000000000000000     
  -4.4228891458597389E-002  0.13491062749082103        0.0000000000000000     
  -4.5187489318816970E-002  0.14232992986203985        0.0000000000000000     
  -4.6074567372984515E-002  0.14985976357306433        0.0000000000000000     
  -4.6890125621100016E-002  0.15750012862389448        0.0000000000000000     
  -4.7634164063163460E-002  0.16525102501453026        0.0000000000000000     
  -5.0089873905272662E-002  0.13521165280409020        0.0000000000000000     
  -5.1165746016711186E-002  0.14261217491665246        0.0000000000000000     
  -5.2164559279623719E-002  0.15012334565434027        0.0000000000000000     
  -5.3086313694010269E-002  0.15774516501715366        0.0000000000000000     
  -5.3931009259870849E-002  0.16547763300509261        0.0000000000000000     
  -5.6113159910685370E-002  0.13555158953468663        0.0000000000000000     
  -5.7310518861049792E-002  0.14293249765535482        0.0000000000000000     
  -5.8424350662767500E-002  0.15042367247061819        0.0000000000000000     
  -5.9454655315838496E-002  0.15802511398047683        0.0000000000000000     
  -6.0401432820262772E-002  0.16573682218493074        0.0000000000000000     
  -6.2298749474835498E-002  0.13593043768261040        0.0000000000000000     
  -6.3621807851832815E-002  0.14329089807814685        0.0000000000000000     
  -6.4853941522415887E-002  0.15076074402189807        0.0000000000000000     
  -6.5995150486584692E-002  0.15833997551386400        0.0000000000000000     
  -6.7045434744339272E-002  0.16602859255404467        0.0000000000000000     
  -6.8646642597723059E-002  0.13634819724786137        0.0000000000000000     
  -7.0099612989060228E-002  0.14368737618502864        0.0000000000000000     
  -7.1453331858568822E-002  0.15113456030817990        0.0000000000000000     
  -7.2707799206248869E-002  0.15868974961731513        0.0000000000000000     
  -7.3863015032100299E-002  0.16635294411243440        0.0000000000000000     
   0.0000000000000000        0.0000000000000000        0.0000000000000000     
  -2.8800818851287373E-003   1.7448237623490948E-003   0.0000000000000000     
  -5.8726703364882010E-003   3.8646085552840404E-003   0.0000000000000000     
  -8.9777653540783937E-003   6.3593543788048375E-003   0.0000000000000000     
  -1.2195366937899311E-002   9.2290612329114854E-003   0.0000000000000000     
   0.0000000000000000        0.0000000000000000        0.0000000000000000     
  -3.2832243773395636E-003   1.9993414802496616E-003   0.0000000000000000     
  -6.6769902612528647E-003   4.3309100791707475E-003   0.0000000000000000     
  -1.0181297651739902E-002   6.9947057967632599E-003   0.0000000000000000     
  -1.3796146548800674E-002   9.9907286330271957E-003   0.0000000000000000     
   0.0000000000000000        0.0000000000000000        0.0000000000000000     
  -3.9535765492706909E-003   2.4251184798352353E-003   0.0000000000000000     
  -7.9106422870238342E-003   5.0628846795022315E-003   0.0000000000000000     
  -1.1871197213259431E-002   7.9132985990009886E-003   0.0000000000000000     
  -1.5835241327977485E-002   1.0976360238331503E-002   0.0000000000000000     
   0.0000000000000000        0.0000000000000000        0.0000000000000000     
  -4.8911384009221164E-003   3.0221547611058177E-003   0.0000000000000000     
  -9.5736264138011132E-003   6.0605323562784915E-003   0.0000000000000000     
  -1.4047464038636989E-002   9.1151327855180219E-003   0.0000000000000000     
  -1.8312651275429741E-002   1.2185956048824408E-002   0.0000000000000000     
   0.0000000000000000        0.0000000000000000        0.0000000000000000     
  -6.0959099322938429E-003   3.7904503240614061E-003   0.0000000000000000     
  -1.1665942641584697E-002   7.3238531094995275E-003   0.0000000000000000     
  -1.6710098127872566E-002   1.0600208356314363E-002   0.0000000000000000     
  -2.1228376391157450E-002   1.3619516064505916E-002   0.0000000000000000     
  -1.2195366937899311E-002   9.2290612329114854E-003   0.0000000000000000     
  -1.5427722546100253E-002   1.2371640620649334E-002   0.0000000000000000     
  -1.8577079636830515E-002   1.5685004045063726E-002   0.0000000000000000     
  -2.1643438210090092E-002   1.9169151506154666E-002   0.0000000000000000     
  -2.4626798265878987E-002   2.2824083003922153E-002   0.0000000000000000     
  -1.3796146548800674E-002   9.9907286330271957E-003   0.0000000000000000     
  -1.7404438712370841E-002   1.3220990425476142E-002   0.0000000000000000     
  -2.0889075902386048E-002   1.6587503011623688E-002   0.0000000000000000     
  -2.4250058118846306E-002   2.0090266391469828E-002   0.0000000000000000     
  -2.7487385361751614E-002   2.3729280565014561E-002   0.0000000000000000     
  -1.5835241327977485E-002   1.0976360238331503E-002   0.0000000000000000     
  -1.9730986489079567E-002   1.4210904360328487E-002   0.0000000000000000     
  -2.3486644554467265E-002   1.7575765727826636E-002   0.0000000000000000     
  -2.7102215524140584E-002   2.1070944340825966E-002   0.0000000000000000     
  -3.0577699398099512E-002   2.4696440199326465E-002   0.0000000000000000     
  -1.8312651275429741E-002   1.2185956048824408E-002   0.0000000000000000     
  -2.2407365876226448E-002   1.5341382425206364E-002   0.0000000000000000     
  -2.6369785593074176E-002   1.8649792193672590E-002   0.0000000000000000     
  -3.0199910425972917E-002   2.2111185354223090E-002   0.0000000000000000     
  -3.3897740374922693E-002   2.5725561906857857E-002   0.0000000000000000     
  -2.1228376391157450E-002   1.3619516064505916E-002   0.0000000000000000     
  -2.5433576873811474E-002   1.6612424620109773E-002   0.0000000000000000     
  -2.9538499018206758E-002   1.9809582409161530E-002   0.0000000000000000     
  -3.3543142824343321E-002   2.3210989431661187E-002   0.0000000000000000     
  -3.7447508292221141E-002   2.6816645687608748E-002   0.0000000000000000     
  -2.4626798265878987E-002   2.2824083003922153E-002   0.0000000000000000     
  -2.7531431151870563E-002   2.6672580351312713E-002   0.0000000000000000     
  -3.0361608215738169E-002   3.0737425361272875E-002   0.0000000000000000     
  -3.3117329457481810E-002   3.5018618033802636E-002   0.0000000000000000     
  -3.5798594877101478E-002   3.9516158368901995E-002   0.0000000000000000     
  -2.7487385361751614E-002   2.3729280565014561E-002   0.0000000000000000     
  -3.0624200801510532E-002   2.7547088742373833E-002   0.0000000000000000     
  -3.3683647608531632E-002   3.1586234133663578E-002   0.0000000000000000     
  -3.6665725782814892E-002   3.5846716738883802E-002   0.0000000000000000     
  -3.9570435324360345E-002   4.0328536558034499E-002   0.0000000000000000     
  -3.0577699398099512E-002   2.4696440199326465E-002   0.0000000000000000     
  -3.3942573982327494E-002   2.8496798254701465E-002   0.0000000000000000     
  -3.7226317082807957E-002   3.2516563458324294E-002   0.0000000000000000     
  -4.0428928699540900E-002   3.6755735810194957E-002   0.0000000000000000     
  -4.3550408832526331E-002   4.1214315310313464E-002   0.0000000000000000     
  -3.3897740374922693E-002   2.5725561906857857E-002   0.0000000000000000     
  -3.7486550694321441E-002   2.9521708888295604E-002   0.0000000000000000     
  -4.0989616638567150E-002   3.3528413335255025E-002   0.0000000000000000     
  -4.4406938207659820E-002   3.7745675247736130E-002   0.0000000000000000     
  -4.7738515401599443E-002   4.2173494625738911E-002   0.0000000000000000     
  -3.7447508292221141E-002   2.6816645687608748E-002   0.0000000000000000     
  -4.1256130937492391E-002   3.0621820643156255E-002   0.0000000000000000     
  -4.4973546275809226E-002   3.4621783764455773E-002   0.0000000000000000     
  -4.8599754307171644E-002   3.8816535051507291E-002   0.0000000000000000     
  -5.2134755031579660E-002   4.3206074504310812E-002   0.0000000000000000     
  -3.5798594877101478E-002   3.9516158368901995E-002   0.0000000000000000     
  -3.8404735048912092E-002   4.4220564891303653E-002   0.0000000000000000     
  -4.0935080547228560E-002   4.9122356125740313E-002   0.0000000000000000     
  -4.3389631372050881E-002   5.4221532072211955E-002   0.0000000000000000     
  -4.5768387523379070E-002   5.9518092730718591E-002   0.0000000000000000     
  -3.9570435324360345E-002   4.0328536558034499E-002   0.0000000000000000     
  -4.2394679938758041E-002   4.5018217304007284E-002   0.0000000000000000     
  -4.5135363331598045E-002   4.9902282689693774E-002   0.0000000000000000     
  -4.7792485502880351E-002   5.4980732715093947E-002   0.0000000000000000     
  -5.0366046452604965E-002   6.0253567380207831E-002   0.0000000000000000     
  -4.3550408832526331E-002   4.1214315310313464E-002   0.0000000000000000     
  -4.6586411639352648E-002   4.5879858257365028E-002   0.0000000000000000     
  -4.9532591277608236E-002   5.0739920950034899E-002   0.0000000000000000     
  -5.2388947747293094E-002   5.5794503388323050E-002   0.0000000000000000     
  -5.5155481048407229E-002   6.1043605572229501E-002   0.0000000000000000     
  -4.7738515401599443E-002   4.2173494625738911E-002   0.0000000000000000     
  -5.0979930150695914E-002   4.6805487751376905E-002   0.0000000000000000     
  -5.4126764385259145E-002   5.1635270906763682E-002   0.0000000000000000     
  -5.7179018105289109E-002   5.6662844091899242E-002   0.0000000000000000     
  -6.0136691310785848E-002   6.1888207306783578E-002   0.0000000000000000     
  -5.2134755031579660E-002   4.3206074504310812E-002   0.0000000000000000     
  -5.5575235472787844E-002   4.7795105786042902E-002   0.0000000000000000     
  -5.8917882654550759E-002   5.2588332559880151E-002   0.0000000000000000     
  -6.2162696576868418E-002   5.7585754825822538E-002   0.0000000000000000     
  -6.5309677239740821E-002   6.2787372583870071E-002   0.0000000000000000     
  -4.5768387523379070E-002   5.9518092730718591E-002   0.0000000000000000     
  -4.8074628635342932E-002   6.5003899023803893E-002   0.0000000000000000     
  -5.0311634342072295E-002   7.0670811874011544E-002   0.0000000000000000     
  -5.2479404643567144E-002   7.6518831281341529E-002   0.0000000000000000     
  -5.4577939539827522E-002   8.2547957245793863E-002   0.0000000000000000     
  -5.0366046452604965E-002   6.0253567380207831E-002   0.0000000000000000     
  -5.2860883600095068E-002   6.5714501982136519E-002   0.0000000000000000     
  -5.5281834364673856E-002   7.1357251817981110E-002   0.0000000000000000     
  -5.7628898746341313E-002   7.7181816887741603E-002   0.0000000000000000     
  -5.9902076745097434E-002   8.3188197191417998E-002   0.0000000000000000     
  -5.5155481048407229E-002   6.1043605572229501E-002   0.0000000000000000     
  -5.7837748395681350E-002   6.6480646071082006E-002   0.0000000000000000     
  -6.0441307003846208E-002   7.2099043454208311E-002   0.0000000000000000     
  -6.2966156872901802E-002   7.7898797721608459E-002   0.0000000000000000     
  -6.5412298002848118E-002   8.3879908873282408E-002   0.0000000000000000     
  -6.0136691310785848E-002   6.1888207306783578E-002   0.0000000000000000     
  -6.3005223022101764E-002   6.7302331290640324E-002   0.0000000000000000     
  -6.5790052259589379E-002   7.2896186782693176E-002   0.0000000000000000     
  -6.8491179023248611E-002   7.8669773782942098E-002   0.0000000000000000     
  -7.1108603313079541E-002   8.4623092291387078E-002   0.0000000000000000     
  -6.5309677239740821E-002   6.2787372583870071E-002   0.0000000000000000     
  -6.8363307479356317E-002   6.8179557640811531E-002   0.0000000000000000     
  -7.1328070131903315E-002   7.3748681803435662E-002   0.0000000000000000     
  -7.4203965197381788E-002   7.9494745071742520E-002   0.0000000000000000     
  -7.6990992675791736E-002   8.5417747445732065E-002   0.0000000000000000     
  -5.4577939539827522E-002   8.2547957245793863E-002   0.0000000000000000     
  -5.6600606970706062E-002   8.8746130609295995E-002   0.0000000000000000     
  -5.8540774876055482E-002   9.5101292213775376E-002   0.0000000000000000     
  -6.0398443255875789E-002  0.10161344205923198        0.0000000000000000     
  -6.2173612110166941E-002  0.10828258014566586        0.0000000000000000     
  -5.9902076745097434E-002   8.3188197191417998E-002   0.0000000000000000     
  -6.2093606392673577E-002   8.9363822915912910E-002   0.0000000000000000     
  -6.4195725720801095E-002   9.5696124248128997E-002   0.0000000000000000     
  -6.6208434729479959E-002  0.10218510118806623        0.0000000000000000     
  -6.8131733418710178E-002  0.10883075373572461        0.0000000000000000     
  -6.5412298002848118E-002   8.3879908873282408E-002   0.0000000000000000     
  -6.7771143475201204E-002   9.0030223271246407E-002   0.0000000000000000     
  -7.0034106371477167E-002   9.6337587277516692E-002   0.0000000000000000     
  -7.2201186691675981E-002  0.10280200089209324        0.0000000000000000     
  -7.4272384435797659E-002  0.10942346411497607        0.0000000000000000     
  -7.1108603313079541E-002   8.4623092291387078E-002   0.0000000000000000     
  -7.3633218218288971E-002   9.0745331675296442E-002   0.0000000000000000     
  -7.6055916828083769E-002   9.7025681301938421E-002   0.0000000000000000     
  -7.8376699142463910E-002  0.10346414117131299        0.0000000000000000     
  -8.0595565161429392E-002  0.11006071128342020        0.0000000000000000     
  -7.6990992675791736E-002   8.5417747445732065E-002   0.0000000000000000     
  -7.9679830621936856E-002   9.1509148128063059E-002   0.0000000000000000     
  -8.2261157090620832E-002   9.7760406321394197E-002   0.0000000000000000     
  -8.4734972081843662E-002  0.10417152202572554        0.0000000000000000     
  -8.7101275595605349E-002  0.11074249524105703        0.0000000000000000     
  -6.2173612110166941E-002  0.10828258014566586        0.0000000000000000     
  -6.3878615834284155E-002  0.11509740536974496        0.0000000000000000     
  -6.5525788823582579E-002  0.12204661662813725        0.0000000000000000     
  -6.7115131078062218E-002  0.12913021392084270        0.0000000000000000     
  -6.8646642597723059E-002  0.13634819724786137        0.0000000000000000     
  -6.8131733418710178E-002  0.10883075373572461        0.0000000000000000     
  -6.9980032273440504E-002  0.11562210191038892        0.0000000000000000     
  -7.1767741778619637E-002  0.12254816573134396        0.0000000000000000     
  -7.3494861934247591E-002  0.12960894519858970        0.0000000000000000     
  -7.5161392740324365E-002  0.13680444031212616        0.0000000000000000     
  -7.4272384435797659E-002  0.10942346411497607        0.0000000000000000     
  -7.6263274835848632E-002  0.11619065981288523        0.0000000000000000     
  -7.8189433123835264E-002  0.12309227085254082        0.0000000000000000     
  -8.0050859299757665E-002  0.13012829723394284        0.0000000000000000     
  -8.1847553363615752E-002  0.13729873895709122        0.0000000000000000     
  -8.0595565161429392E-002  0.11006071128342020        0.0000000000000000     
  -8.2728343521508499E-002  0.11680307907723386        0.0000000000000000     
  -8.4790862859229515E-002  0.12367893199172780        0.0000000000000000     
  -8.6783123174592400E-002  0.13068827002690206        0.0000000000000000     
  -8.8705124467597193E-002  0.13783109318275658        0.0000000000000000     
  -8.7101275595605349E-002  0.11074249524105703        0.0000000000000000     
  -8.9375238330420159E-002  0.11745935970343480        0.0000000000000000     
  -9.1572030984802308E-002  0.12430814914890491        0.0000000000000000     
  -9.3691653558751822E-002  0.13128886357746739        0.0000000000000000     
  -9.5734106052268703E-002  0.13840150298912221        0.0000000000000000     
  -6.8646642597723059E-002  0.13634819724786137        0.0000000000000000     
  -7.0099612989060228E-002  0.14368737618502864        0.0000000000000000     
  -7.1453331858568822E-002  0.15113456030817990        0.0000000000000000     
  -7.2707799206248869E-002  0.15868974961731513        0.0000000000000000     
  -7.3863015032100299E-002  0.16635294411243440        0.0000000000000000     
  -7.5161392740324365E-002  0.13680444031212616        0.0000000000000000     
  -7.6743831901326054E-002  0.14412076734422807        0.0000000000000000     
  -7.8218677121728683E-002  0.15154404256717022        0.0000000000000000     
  -7.9585928401532322E-002  0.15907426598095256        0.0000000000000000     
  -8.0845585740736914E-002  0.16671143758557513        0.0000000000000000     
  -8.1847553363615752E-002  0.13729873895709122        0.0000000000000000     
  -8.3554362217224232E-002  0.14458990692397311        0.0000000000000000     
  -8.5146132762397797E-002  0.15198811203657558        0.0000000000000000     
  -8.6622864999136448E-002  0.15949335429489855        0.0000000000000000     
  -8.7984558927440143E-002  0.16710563369894207        0.0000000000000000     
  -8.8705124467597193E-002  0.13783109318275658        0.0000000000000000     
  -9.0531203936754817E-002  0.14509479492426372        0.0000000000000000     
  -9.2235698780576136E-002  0.15246676871639592        0.0000000000000000     
  -9.3818608999061179E-002  0.15994701455915308        0.0000000000000000     
  -9.5279934592209986E-002  0.16753553245253519        0.0000000000000000     
  -9.5734106052268703E-002  0.13840150298912221        0.0000000000000000     
  -9.7674357059917741E-002  0.14563543134509999        0.0000000000000000     
  -9.9487375176263715E-002  0.15298001260663133        0.0000000000000000     
 -0.10117316040130661       0.16043524677371615        0.0000000000000000     
 -0.10273171273504647       0.16800113384635457        0.0000000000000000     
 </DataArray>
 <DataArray  type="Float64" Name="stress" NumberOfComponents="3" format="ascii">
   13416471652.848579        4024941495.8545737        2894011638.1832094     
   11766421998.390848        1890390208.2257891        1715852443.2122307     
   10313663810.860367        413477143.68783808        810754514.09640777     
   9058197090.2571373       -405797697.75927734        178717850.83574089     
   8000021836.5811577       -567434316.11556053       -180257546.56976885     
   10539879233.287273        3161963769.9861817        2225755084.8540034     
   9667544819.9026642        1589544875.5147088        1446719620.8941216     
   8943861213.5892563        512628671.28056335        863142524.25287592     
   8368828414.3470459       -68784842.716251850        475023794.93026602     
   7942446422.1760368       -154695666.47573996        282363432.92629224     
   8337931157.8600492        2501379347.3580151        1712340642.4031515     
   8021589418.3013659        1424576075.8696935        1275681472.9556394     
   7805257825.9578266        681139961.76519418        956877772.29024363     
   7688936380.8294373        271071005.04451799        755929540.40696287     
   7672625082.9161949        194369205.70766497        672836777.30579805     
   6810627426.5669098        2043188227.9700727        1353768310.8306532     
   6828555793.5869474        1395483809.2907424        1202737999.3967841     
   6897853647.9660797        919011015.14172888        1091960258.2085104     
   7018520989.7043066        613769845.52303195        1021435087.2658329     
   7190557818.8016291        479760300.43465233        991162486.56875026     
   5957968039.4078493        1787390411.8223548        1150038090.1365087     
   6088443945.7594099        1502268075.7778559        1227889200.2175555     
   6221648679.6140118        1226241831.4101677        1268389982.0076776     
   6357582240.9716568        959311678.71929002        1271540435.5068753     
   6496244629.8323469        701477617.70522451        1237340560.7151482     
   8000021836.5811577       -567434316.11556053       -180257546.56976885     
   7917708734.3408775       -200029958.73790598       -78346065.579340965     
   7793894712.6260309        29038000.391176224       -9021941.6265077256     
   7628579771.4366035        119769561.27166939        27714825.288728565     
   7421763910.7726078        72164723.903593540        31864235.166370388     
   7942446422.1760368       -154695666.47573996        282363432.92629224     
   7739792428.7014761        16478279.218335152        281075357.58375293     
   7513740179.7016277        109658039.82810879        265088664.10249478     
   7264289675.1764879        124843615.35358286        234403352.48251933     
   6991440915.1260567        62035005.794753551        189019422.72382805     
   7672625082.9161949        194369205.70766497        672836777.30579805     
   7400740880.7755737        184645944.48862648        589468920.23778832     
   7123561087.0589466        157270711.34956264        509291183.92993885     
   6841085701.7663116        112243506.29047632        432303568.38225019     
   6553314724.8976688        49564329.311361074        358506073.59471643     
   7190557818.8016291        479760300.43465233        991162486.56875026     
   6900554090.5631723        304473037.07296681        846834622.38276672     
   6623357434.6979866        171876014.95553207        723585617.85582221     
   6358967851.2060795        81969234.082350731        621415472.98791122     
   6107385340.0874491        34752694.453421116        540324187.77904022     
   6496244629.8323469        701477617.70522451        1237340560.7151482     
   6239232058.0642710        375959556.97135735        1053172464.0186884     
   6013129222.6187534        153473950.64601994        907971965.88014293     
   5817936123.4957952        34020798.729211092        801739066.29951072     
   5653652760.6953945        17600101.220929146        734473765.27679467     
   7421763910.7726078        72164723.903593540        31864235.166370388     
   7219422165.4160490       -18580996.117235184        14907344.976954276     
   7029251811.6802273       -68755410.735600948        2298480.8791743447     
   6851252849.5651464       -78358519.951505184       -5962357.1269806130     
   6685425279.0707998       -47390323.764947891       -9875169.0415109191     
   6991440915.1260567        62035005.794753551        189019422.72382805     
   6809005236.5100098        2680078.0475692749        180662574.72807702     
   6634361060.0443068       -30703175.865128517        176026030.68563721     
   6467508385.7289543       -38114755.943339348        175109790.59650666     
   6308447213.5639400       -19554662.187074184        177913854.46068430     
   6553314724.8976688        49564329.311361074        358506073.59471643     
   6388991621.1983681        21062146.290698051        353639396.74383748     
   6228080130.1790123        3932005.5365357399        351865301.70794916     
   6070580251.8396101       -1826092.9511256218        353183788.48704726     
   5916491986.1801596        3787850.8277194500        357594857.08113670     
   6107385340.0874491        34752694.453421116        540324187.77904022     
   5959381319.4811201        36565208.612145185        533837811.02423614     
   5810409022.0843449        35150133.469386339        529816293.94610405     
   5660468447.8971291        30507469.025154829        528259636.54464173     
   5509559596.9194679        22637215.279439688        529167838.81984806     
   5653652760.6953945        17600101.220929146        734473765.27679467     
   5520174331.3582659        49189265.011907101        721257817.56927609     
   5381347735.7602987        62951207.933426857        709879007.40010834     
   5237172973.9014950        58885929.985484362        700337334.76928949     
   5087650045.7818537        36993431.168087006        692632799.67682123     
   6685425279.0707998       -47390323.764947891       -9875169.0415109191     
   6509180033.3396044       -8741615.6062471867       -3743778.2112115663     
   6327888108.8732815        13084830.102040529        4234094.6506063379     
   6141549505.6718502        18089013.359958887        14058449.543951763     
   5950164223.7352896        6270934.1674578190        25729286.468823425     
   6308447213.5639400       -19554662.187074184        177913854.46068430     
   6133107402.2528238        1294593.1048059464        174628596.04482383     
   5954705376.6679192        11936467.484066725        174300909.65907827     
   5773241136.8092289        12370960.950697184        176930795.30343473     
   5588714682.6767502        2598073.5047125816        182518252.97790837     
   5916491986.1801596        3787850.8277194500        357594857.08113670     
   5745232152.1422281        7790016.1087210178        347208157.95733964     
   5572894568.2918396        8199682.0148646832        340890120.86224020     
   5399479234.6290007        5016848.5461633205        338640745.79584110     
   5224986151.1537027       -1758484.2973897457        340460032.75813085     
   5509559596.9194679        22637215.279439688        529167838.81984806     
   5345554283.0078259        10744653.405491114        513994907.52633744     
   5182455683.7450581        1874473.6944580078        504001728.26010615     
   5020263799.1311665       -3973323.8536462784        499188301.02116084     
   4858978629.1661520       -6798739.2388412952        499554625.80949885     
   5087650045.7818537        36993431.168087006        692632799.67682123     
   4934073794.8496027        10158504.995115519        674988844.75181293     
   4783388723.0275583       -7039157.4771604538        663635731.85267448     
   4635594830.3157225       -14599556.248746634        658573460.97940445     
   4490692116.7140951       -12522691.319640398        659802032.13200426     
   5950164223.7352896        6270934.1674578190        25729286.468823425     
   5776240607.6938391       -4721895.5501952171        20134329.158800501     
   5604453835.0290365       -8591914.0123684406        18416887.508324683     
   5434803905.7408743       -5339121.2190642357        20576961.517409101     
   5267290819.8293591        5036482.8297255039        26614551.186054081     
   5588714682.6767502        2598073.5047125816        182518252.97790837     
   5426307668.9282856       -3062806.3985702991        178124452.65831318     
   5265298809.2959175       -4063172.5815105438        177481611.56274056     
   5105688103.7796516       -403025.04412674904        180589729.69121596     
   4947475552.3794775        7917636.2135848999        187448807.04371551     
   5224986151.1537027       -1758484.2973897457        340460032.75813085     
   5073734149.8824425       -2195891.3310232162        336405585.29166150     
   4923141613.4667339       -435082.17948603630        335975540.61369926     
   4773208541.9065828        3523943.1572434902        339169898.72425532     
   4623934935.2019873        9681184.6791577339        345988659.62331861     
   4858978629.1661520       -6798739.2388412952        499554625.80949885     
   4718520050.5563173       -2121150.3475720882        494977727.05885184     
   4577982247.5414896        2292357.1937208176        493898674.66119754     
   4437365220.1216793        6441783.3850634098        496317468.61653441     
   4296668968.2968798        10327128.226440907        502234108.92486042     
   4490692116.7140951       -12522691.319640398        659802032.13200426     
   4360665370.9499102       -2838583.4482064247        653840877.95988214     
   4229820711.5201907        4119145.5381150246        651251013.70523262     
   4098158138.4249411        8350495.6393373013        652032439.36805117     
   3965677651.6641588        9855466.8554470539        656185154.94833982     
   5267290819.8293591        5036482.8297255039        26614551.186054081     
   5060847959.8051624        4967071.9654479027        23961750.694028430     
   4853081828.2641535        486756.04510331154        25278855.482641935     
   4643992425.2063169       -8404464.9313225746        30565865.551877953     
   4433579750.6316738       -21706590.963764906        39822780.901753128     
   4947475552.3794775        7917636.2135848999        187448807.04371551     
   4751088588.5296955        5558714.1614871025        182363765.17892933     
   4553812969.7451887        237608.99365472794        181572471.51870370     
   4355648696.0259552       -8045679.2899284363        185074926.06304252     
   4156595767.3720045       -19291150.689259768        192871128.81194061     
   4623934935.2019873        9681184.6791577339        345988659.62331861     
   4438529133.0235634        5310331.0883553028        338978429.06487489     
   4252669292.4925075       -573983.67788934708        336585789.63492274     
   4066355413.6088214       -7971759.6195597649        338810741.33346528     
   3879587496.3724995       -16882996.736695051        345653284.16050029     
   4296668968.2968798        10327128.226440907        502234108.92486042     
   4123169593.2867641        4221922.7460155487        493805742.35186583     
   3949650796.5061016       -1948021.9695603848        490318809.83129483     
   3776112577.9549007       -8182705.9202635288        491773311.36315382     
   3602554937.6331682       -14482129.106083632        498169246.94743252     
   3965677651.6641588        9855466.8554470539        656185154.94833982     
   3805009969.3192887        2293489.1344563961        646845705.03990269     
   3644757481.7859764       -3884505.8813440800        642771532.10782242     
   3484920189.0642157       -8678518.1919658184        643962636.15209997     
   3325498091.1540017       -12088547.797429085        650419017.17272723     
   4433579750.6316738       -21706590.963764906        39822780.901753128     
   4287115890.7629347       -16030942.364773035        33244861.592761889     
   4141838904.7536631       -6399047.5675442219        32281562.841080397     
   3997748792.6038594        7189093.4278986454        36932884.646730430     
   3854845554.3135266        24733480.621591330        47198827.009682536     
   4156595767.3720045       -19291150.689259768        192871128.81194061     
   4024285957.4061117       -10666107.637241364        186925740.44811967     
   3892764304.9100509        586126.98086190224        185572832.73233125     
   3762030809.8838201        14465553.165093899        188812405.66456193     
   3632085472.3274240        30972170.915418625        196644459.24482131     
   3879587496.3724995       -16882996.736695051        345653284.16050029     
   3758511336.5686159       -6184679.1539435387        339875257.62061924     
   3637824617.8449316        5811775.3628013134        337667571.81946212     
   3517527340.2014475        19106366.813548565        339030226.75704753     
   3397619503.6381636        33699095.198301554        343963222.43336135     
   3602554937.6331682       -14482129.106083632        498169246.94743252     
   3489792028.2504621       -2586656.9148371220        492093413.11023915     
   3377019843.5583234        9277897.5783078671        488565780.10248917     
   3264238383.5567465        21111534.373324633        487586347.92418188     
   3151447648.2457385        32914253.470233798        489155116.57531601     
   3325498091.1540017       -12088547.797429085        650419017.17272723     
   3218128032.4516478        127959.08008265495        643580206.91698861     
   3110349982.0502152        10984493.627349734        638267457.58140230     
   3002163939.9497213        20481055.844398379        634480769.16596627     
   2893569906.1501551        28617645.731218457        632220141.67067993     
   3854845554.3135266        24733480.621591330        47198827.009682536     
   3605973884.9073730        9451753.8033766747        46483188.025000423     
   3355232538.5579329       -12062229.492481232        49606988.180502288     
   3102621515.2652068       -39808469.265976906        56570227.476192601     
   2848140815.0291700       -73786965.517119527        67372905.912075847     
   3632085472.3274240        30972170.915418625        196644459.24482131     
   3393670667.1163244        14397755.870796204        190405178.19864976     
   3154111533.5572200       -5991087.0004855394        188668512.36843225     
   2913408071.6501226       -30194357.698433638        191434461.75415152     
   2671560281.3950210       -58212056.223039150        198703026.35582358     
   3397619503.6381636        33699095.198301554        343963222.43336135     
   3171556351.4099860        16400428.563624859        333046539.35356063     
   2945074219.4291024       -2294837.2467237711        327295647.56546003     
   2718173107.6955132       -22386702.232767820        326710547.06906772     
   2490853016.2092323       -43875166.394450903        331291237.86436945     
   3151447648.2457385        32914253.470233798        489155116.57531601     
   2939630937.7883625        15459771.881863236        474407271.48972118     
   2728120596.1735740       -973480.23119211197        465488393.77159363     
   2516916623.4013844       -16385502.868934512        462398483.42092401     
   2306019019.4717894       -30776296.031358838        465137540.43771344     
   2893569906.1501551        28617645.731218457        632220141.67067993     
   2697894426.2514524        11575785.825512528        614487374.60714006     
   2503250663.7906504       -2027015.9538692236        603246750.98682749     
   2309638618.7677317       -12190759.606972575        598498270.80972219     
   2117058291.1827116       -18915445.133757234        600241934.07583511     
   5957968039.4078493        1787390411.8223548        1150038090.1365087     
   6088443945.7594099        1502268075.7778559        1227889200.2175555     
   6221648679.6140118        1226241831.4101677        1268389982.0076776     
   6357582240.9716568        959311678.71929002        1271540435.5068753     
   6496244629.8323469        701477617.70522451        1237340560.7151482     
   5434605603.4653187        1630381681.0395956        1033463150.5170460     
   5489886898.9260359        1372514182.9984684        1113855253.1782913     
   5547366416.1530933        1121974090.8451381        1167466097.7521129     
   5607044155.1464901        878761404.57960474        1194295684.2385106     
   5668920115.9062252        642876124.20186734        1194344012.6374853     
   4895192725.8217649        1468557817.7465296        936356662.16859329     
   4905476753.8302155        1247004360.7403467        1018670717.3838823     
   4917428397.8683014        1031009623.8329461        1084772584.7152486     
   4931047657.9360209        820573607.02432847        1134662264.1626914     
   4946334534.0333767        615696310.31449318        1168339755.7262113     
   4339729406.4771891        1301918821.9431565        858718625.09115052     
   4335213510.4719448        1125738609.0034900        942335592.83432806     
   4331834624.7596321        953348430.37359118        1020309442.8970836     
   4329592749.3402500        784748286.05346167        1092640175.2794166     
   4328487884.2137966        619938176.04309905        1159327789.9813278     
   3768215645.4315886        1130464693.6294765        800549039.28471768     
   3779097168.8512249        1008716927.7878982        884849879.52962923     
   3790585096.8270874        888990510.46707392        974076672.29761910     
   3802679429.3591762        771285441.66700411        1068229417.5886875     
   3815380166.4474907        655601721.38768733        1167308115.4028347     
   6496244629.8323469        701477617.70522451        1237340560.7151482     
   6239232058.0642710        375959556.97135735        1053172464.0186884     
   6013129222.6187534        153473950.64601994        907971965.88014293     
   5817936123.4957952        34020798.729211092        801739066.29951072     
   5653652760.6953945        17600101.220929146        734473765.27679467     
   5668920115.9062252        642876124.20186734        1194344012.6374853     
   5518766346.6882172        383336579.28786993        1073469135.6548710     
   5392758083.9173183        204282055.86423039        980599927.65596497     
   5290895327.5935268        105712553.93095207        915736388.64076626     
   5213178077.7168407        87628073.488031864        878878518.60927284     
   4946334534.0333767        615696310.31449318        1168339755.7262113     
   4871719768.5819855        412739341.58532691        1102866496.9360857     
   4814486279.7022533        267719961.42835212        1054436977.5554593     
   4774634067.3941793        180638169.84356833        1023051197.5843316     
   4752163131.6577616        151493966.83097696        1008709157.0227052     
   4328487884.2137966        619938176.04309905        1159327789.9813278     
   4298092323.7455759        464167843.86373162        1141364547.8623309     
   4278313809.9735618        343787667.33838677        1129483115.5786254     
   4269152342.8977537        258797646.46706343        1123683493.1302116     
   4270607922.5181532        209197781.24976230        1123965680.5170910     
   3815380166.4474907        655601721.38768733        1167308115.4028347     
   3797884012.1789870        537622086.12308288        1188963288.4336069     
   3784240674.7312398        432485173.59433019        1205738341.7254636     
   3774450154.1042485        340190983.80143309        1217633275.2784054     
   3768512450.2980132        260739516.74438941        1224648089.0924311     
   5653652760.6953945        17600101.220929146        734473765.27679467     
   5520174331.3582659        49189265.011907101        721257817.56927609     
   5381347735.7602987        62951207.933426857        709879007.40010834     
   5237172973.9014950        58885929.985484362        700337334.76928949     
   5087650045.7818537        36993431.168087006        692632799.67682123     
   5213178077.7168407        87628073.488031864        878878518.60927284     
   5077154220.0517473        85489959.133013487        855205200.23388851     
   4939032118.6369658        76357698.945706606        835519940.56310201     
   4798811773.4724960        60231292.926112652        819822739.59691513     
   4656493184.5583439        37110741.074234247        808113597.33532572     
   4752163131.6577616        151493966.83097696        1008709157.0227052     
   4619739334.7111244        117472221.04388809        978370044.24246538     
   4488467216.5259542        87289404.461684465        954169911.33307135     
   4358346777.1022472        60945517.084365129        936108758.29452395     
   4229378016.4400072        38440558.911931038        924186585.12682569     
   4270607922.5181532        209197781.24976230        1123965680.5170910     
   4147929675.3363953        145136050.74452877        1090752349.5950048     
   4029653029.4272599        95746324.481357813        1065828919.7100142     
   3915777984.7907386        61028602.460238695        1049195390.8621180     
   3806304541.4268336        40982884.681178331        1040851763.0513182     
   3768512450.2980132        260739516.74438941        1224648089.0924311     
   3661725241.9275646        168481448.23494327        1192352116.2915084     
   3562589557.3408866        101728459.00472808        1170496965.6939311     
   3471105396.5379753        60480549.053737402        1159082637.2996957     
   3387272759.5188332        44737718.381977320        1158109131.1088049     
   5087650045.7818537        36993431.168087006        692632799.67682123     
   4934073794.8496027        10158504.995115519        674988844.75181293     
   4783388723.0275583       -7039157.4771604538        663635731.85267448     
   4635594830.3157225       -14599556.248746634        658573460.97940445     
   4490692116.7140951       -12522691.319640398        659802032.13200426     
   4656493184.5583439        37110741.074234247        808113597.33532572     
   4520279518.9162121        15854031.000764847        794550614.73840380     
   4386185436.4502316        1662598.1811339855        786765344.31581938     
   4254210937.1603971       -5463557.3846654892        784757786.06757009     
   4124356021.0467219       -5524435.6966235638        788527939.99365866     
   4229378016.4400072        38440558.911931038        924186585.12682569     
   4109060850.7979016        22322239.350937128        913804379.60158861     
   3990091672.3978863        10697210.596920967        908686756.39915586     
   3872470481.2399693        3565472.6498847008        908833715.51952958     
   3756197277.3241425        927025.50982785225        914245256.96270859     
   3806304541.4268336        40982884.681178331        1040851763.0513182     
   3700417790.4946647        29563130.045630693        1032750139.3413689     
   3595107430.8705306        20064679.770205736        1029399968.1026894     
   3490373462.5544353        12487533.854904890        1030801249.3352852     
   3386215885.5463743        6831692.2997238636        1036953983.0391527     
   3387272759.5188332        44737718.381977320        1158109131.1088049     
   3294350338.0065064        37576703.084850073        1151387893.9577417     
   3201232711.8681593        29765005.700984955        1148904979.4264169     
   3107919881.1037927        21302626.230389833        1150660387.5148365     
   3014411845.7134061        12189564.673061013        1156654118.2229936     
   4490692116.7140951       -12522691.319640398        659802032.13200426     
   4360665370.9499102       -2838583.4482064247        653840877.95988214     
   4229820711.5201907        4119145.5381150246        651251013.70523262     
   4098158138.4249411        8350495.6393373013        652032439.36805117     
   3965677651.6641588        9855466.8554470539        656185154.94833982     
   4124356021.0467219       -5524435.6966235638        788527939.99365866     
   4002148384.4497938       -602627.54384231567        781434914.52681005     
   3879593803.7600422        3162700.2995269299        778084290.74468231     
   3756692278.9774742        5771547.8335032463        778476068.64728642     
   3633443810.1020827        7223915.0580661297        782610248.23461425     
   3756197277.3241425        927025.50982785225        914245256.96270859     
   3642869069.2294979        1404629.7444663048        906569824.70262420     
   3529664886.6147408        2295652.2453989983        903007905.89451993     
   3416584729.4798722        3600093.0126318932        903559500.53840244     
   3303628597.8248920        5317952.0461542606        908224608.63426983     
   3386215885.5463743        6831692.2997238636        1036953983.0391527     
   3282827425.2890296        3183188.4167273045        1029245608.4873296     
   3180033960.0842810        1518001.3757202625        1026021859.1547457     
   3077835489.9321327        1836131.1767178774        1027282735.0414019     
   2976232014.8325853        4137577.8197059631        1033028236.1473008     
   3014411845.7134061        12189564.673061013        1156654118.2229936     
   2922023452.6283793        4733048.4729287624        1149462265.8809259     
   2830701024.1686630        829747.69049251080        1147126150.5253563     
   2740444560.3342576        479662.32576084137        1149645772.1562839     
   2651254061.1251602        3682792.3787221909        1157021130.7737088     
   3965677651.6641588        9855466.8554470539        656185154.94833982     
   3805009969.3192887        2293489.1344563961        646845705.03990269     
   3644757481.7859764       -3884505.8813440800        642771532.10782242     
   3484920189.0642157       -8678518.1919658184        643962636.15209997     
   3325498091.1540017       -12088547.797429085        650419017.17272723     
   3633443810.1020827        7223915.0580661297        782610248.23461425     
   3486729071.2693529        1507470.9753286839        774400604.58883846     
   3340276267.5271754       -3335856.1388905048        771232825.05952203     
   3194085398.8755541       -7306066.2845902443        773106909.64666927     
   3048156465.3144941       -10403159.461762071        780022858.35027981     
   3303628597.8248920        5317952.0461542606        908224608.63426983     
   3170228480.0474539        1255544.8646038771        900965968.24332190     
   3036937037.6395807       -2444611.0850752592        898525779.10894489     
   2903754270.6012621       -5782515.8028970957        900904041.23113072     
   2770680178.9325042       -8758169.2888431549        908100754.60988927     
   2976232014.8325853        4137577.8197059631        1033028236.1473008     
   2855508195.6536026        1537710.8022890091        1026541796.0033529     
   2734739792.1231871       -1210770.7199028730        1024650394.2560811     
   2613926804.2413330       -4107866.7468909025        1027354030.9054819     
   2493069232.0080419       -7153577.2786674500        1034652705.9515582     
   2651254061.1251602        3682792.3787221909        1157021130.7737088     
   2542568218.0877957        2353968.7884007692        1151128087.8689334     
   2433684530.9779983        365664.95663440228        1149606670.5009394     
   2324602999.7957635       -2282119.1165895462        1152456878.6697209     
   2215323624.5411048       -5589383.4312309027        1159678712.3752878     
   3325498091.1540017       -12088547.797429085        650419017.17272723     
   3218128032.4516478        127959.08008265495        643580206.91698861     
   3110349982.0502152        10984493.627349734        638267457.58140230     
   3002163939.9497213        20481055.844398379        634480769.16596627     
   2893569906.1501551        28617645.731218457        632220141.67067993     
   3048156465.3144941       -10403159.461762071        780022858.35027981     
   2945206289.6512847       -472402.43687403202        773235384.90633833     
   2842082677.4685445        8880232.8562517166        768849241.30758345     
   2738785628.7662644        17654746.417565107        766864427.55401492     
   2635315143.5444551        25851138.247118235        767280943.64562881     
   2770680178.9325042       -8758169.2888431549        908100754.60988927     
   2674650654.6656928       -362931.60938525200        901638265.68720150     
   2578682249.0588789        8236034.9367394447        898452375.53473723     
   2482774962.1120629        17038730.349521756        898543084.15249097     
   2386928793.8252425        26045154.628964543        901910391.54046142     
   2493069232.0080419       -7153577.2786674500        1034652705.9515582     
   2406461127.4948640        456371.56252861023        1028788849.2595795     
   2320148696.8212166        9051899.8688293695        1027076860.2628611     
   2234131939.9871016        18633007.640233755        1029516738.9613903     
   2148410856.9925189        29199694.876750588        1036108485.3551753     
   2215323624.5411048       -5589383.4312309027        1159678712.3752878     
   2140637708.1388001        1985507.0788687468        1154687135.6234744     
   2066482020.7555628        11327827.652528524        1154722695.4919550     
   1992856562.3913894        22437578.289730787        1159785391.9807167     
   1919761333.0462823        35314758.990492702        1169875225.0897684     
   2893569906.1501551        28617645.731218457        632220141.67067993     
   2697894426.2514524        11575785.825512528        614487374.60714006     
   2503250663.7906504       -2027015.9538692236        603246750.98682749     
   2309638618.7677317       -12190759.606972575        598498270.80972219     
   2117058291.1827116       -18915445.133757234        600241934.07583511     
   2635315143.5444551        25851138.247118235        767280943.64562881     
   2456680603.4878998        12320792.444755316        753678355.05879366     
   2278761793.6773734        1176214.1291518211        745881688.88347006     
   2101558714.1128743       -7582596.6996831894        743890945.11965978     
   1925071364.7944078       -13955640.041764498        747706123.76734519     
   2386928793.8252425        26045154.628964543        901910391.54046142     
   2223374562.0916591        15438133.474186659        892069329.70648849     
   2060220073.4122474        6163589.1666382551        887347969.25232077     
   1897465327.7869992       -1778478.2937040329        887746310.17794442     
   1735110325.2159057       -8388068.9068313837        893264352.48336351     
   2148410856.9925189        29199694.876750588        1036108485.3551753     
   1997976302.0627425        20927808.913821101        1029660298.5502244     
   1847625502.9952698        12935109.158558965        1027645592.0933647     
   1697358459.7900932        5221595.6109616756        1030064365.9845937     
   1547175172.4472218       -2212731.7289494872        1036916620.2239101     
   1919761333.0462823        35314758.990492702        1169875225.0897684     
   1780485823.4011400        28789818.763639927        1166451261.5900018     
   1640978082.4264367        21490774.104922295        1166774557.4066074     
   1501238110.1221719        13417625.014335752        1170845112.5395956     
   1361265906.4883463        4570371.4918683767        1178662926.9889655     
   3768215645.4315886        1130464693.6294765        800549039.28471768     
   3779097168.8512249        1008716927.7878982        884849879.52962923     
   3790585096.8270874        888990510.46707392        974076672.29761910     
   3802679429.3591762        771285441.66700411        1068229417.5886875     
   3815380166.4474907        655601721.38768733        1167308115.4028347     
   3207797954.1147037        962339386.23441112        756692030.58325565     
   3235863312.5738306        868214873.51623690        853066037.56696653     
   3263652004.1410522        773168137.82504749        951357829.79872918     
   3291164028.8163705        677199179.16084313        1051567407.2785431     
   3318399386.5997829        580307997.52362335        1153694770.0064082     
   2685622843.9562721        805686853.18688154        721991724.82072508     
   2722277273.8119545        736607164.49923110        829408648.52041638     
   2757771965.3276024        663661681.34479642        935735190.19313192     
   2792106918.5032144        586850403.72357726        1040971349.8388724     
   2825282133.3387914        506173331.63557392        1145117127.4576373     
   2201690314.9562936        660507094.48688805        696448121.99712622     
   2238339052.5655985        613893800.73688138        813877712.38997805     
   2272944980.3867369        560471141.02632093        927208753.48082781     
   2305508098.4197097        500239115.35520685        1036441245.2696751     
   2336028406.6645169        433197723.72353989        1141575187.7565205     
   1756000367.1147685        526800110.13443053        680061222.11245871     
   1784048648.8347611        500074782.22918713        806473229.17565250     
   1809171049.3184566        463596516.86962086        925778519.66181731     
   1831367568.5658553        417365314.05573153        1037977093.5709528     
   1850638206.5769577        361381173.78752029        1143068950.9030585     
   3815380166.4474907        655601721.38768733        1167308115.4028347     
   3797884012.1789870        537622086.12308288        1188963288.4336069     
   3784240674.7312398        432485173.59433019        1205738341.7254636     
   3774450154.1042485        340190983.80143309        1217633275.2784054     
   3768512450.2980132        260739516.74438941        1224648089.0924311     
   3318399386.5997829        580307997.52362335        1153694770.0064082     
   3293770000.6344638        473100708.91001356        1182021308.9097745     
   3272874413.0873537        378339415.02376890        1207254940.0965831     
   3255712623.9584541        296024115.86488831        1229395663.5668359     
   3242284633.2477636        226154811.43337572        1248443479.3205290     
   2825282133.3387914        506173331.63557392        1145117127.4576373     
   2798625835.7405376        411270285.69212359        1179976177.4306257     
   2775584318.1579494        328416506.46755111        1213529531.7094157     
   2756157580.5910220        257611993.96185482        1245777190.2940080     
   2740345623.0397587        198856748.17503572        1276719153.1844020     
   2336028406.6645169        433197723.72353989        1141575187.7565205     
   2312451517.4972115        352130816.46941417        1182827893.9961603     
   2292370389.9430237        282716447.92567658        1224562116.5639613     
   2275785024.0019531        224954618.09232885        1266777855.4599214     
   2262695419.6739979        178845326.96936917        1309475110.6840436     
   1850638206.5769577        361381173.78752029        1143068950.9030585     
   1835247045.9044833        295682301.24188310        1190576458.6063795     
   1823232628.4425802        241239239.39814830        1240352694.6602192     
   1814594954.1912456        198051988.25631118        1292397659.0645785     
   1809334023.1504827        166120547.81637645        1346711351.8194566     
   3768512450.2980132        260739516.74438941        1224648089.0924311     
   3661725241.9275646        168481448.23494327        1192352116.2915084     
   3562589557.3408866        101728459.00472808        1170496965.6939311     
   3471105396.5379753        60480549.053737402        1159082637.2996957     
   3387272759.5188332        44737718.381977320        1158109131.1088049     
   3242284633.2477636        226154811.43337572        1248443479.3205290     
   3164926161.8065815        151955294.35479605        1231439299.9968905     
   3093624396.2804303        97944796.992987752        1222464430.3929884     
   3028379336.6693101        64123319.347952127        1221518870.5088220     
   2969190982.9732237        50490861.419687510        1228602620.3443944     
   2740345623.0397587        198856748.17503572        1276719153.1844020     
   2685525852.8603940        140648771.82708883        1273146146.4911833     
   2635167970.7273240        97313755.633455157        1275190937.0340972     
   2589271976.6405487        68851699.594137907        1282853524.8131413     
   2547837870.6000671        55262603.709133625        1296133909.8283150     
   2262695419.6739979        178845326.96936917        1309475110.6840436     
   2223524315.0890045        134561880.65182126        1317472655.7743890     
   2187220280.6815672        99835334.926127315        1328676485.6172574     
   2153783316.4516869        74665689.792292714        1343086600.2126501     
   2123213422.3993654        59052945.250316024        1360702999.5605655     
   1809334023.1504827        166120547.81637645        1346711351.8194566     
   1778921548.4924114        133694620.82899088        1364418827.8465044     
   1749781326.1431594        105509534.87100381        1382921076.1424682     
   1721913356.1027286        81565289.942419708        1402218096.7073510     
   1695317638.3711166        61861886.043233752        1422309889.5411489     
   3387272759.5188332        44737718.381977320        1158109131.1088049     
   3294350338.0065064        37576703.084850073        1151387893.9577417     
   3201232711.8681593        29765005.700984955        1148904979.4264169     
   3107919881.1037927        21302626.230389833        1150660387.5148365     
   3014411845.7134061        12189564.673061013        1156654118.2229936     
   2969190982.9732237        50490861.419687510        1228602620.3443944     
   2886297603.7094765        39393396.848697066        1220872867.5484555     
   2803707848.8785486        29308013.720435619        1217527851.3871891     
   2721421718.4804397        20234712.034901500        1218567571.8605952     
   2639439212.5151496        12173491.792099953        1223992028.9686747     
   2547837870.6000671        55262603.709133625        1296133909.8283150     
   2475391859.3418508        40354187.591369033        1287977608.6228118     
   2403748301.5752921        28120616.445794344        1284352458.0669129     
   2332907197.3003898        18561890.272409081        1285258458.1606209     
   2262868546.5171466        11678009.071214437        1290695608.9039333     
   2123213422.3993654        59052945.250316024        1360702999.5605655     
   2061633104.9036291        40459075.312859535        1352702117.1808105     
   2001354069.9583888        26202813.877055526        1349378799.4655917     
   1942376317.5636442        16284160.942903161        1350733046.4149108     
   1884699847.7193952        10703116.510406375        1356764858.0287693     
   1695317638.3711166        61861886.043233752        1422309889.5411489     
   1645021340.3948126        39708060.013176203        1415046393.2224512     
   1596525154.0278401        23554606.014228761        1412606875.5832243     
   1549829079.2702024        13401524.046393275        1414991336.6234691     
   1504933116.1218970        9248814.1096710563        1422199776.3431826     
   3014411845.7134061        12189564.673061013        1156654118.2229936     
   2922023452.6283793        4733048.4729287624        1149462265.8809259     
   2830701024.1686630        829747.69049251080        1147126150.5253563     
   2740444560.3342576        479662.32576084137        1149645772.1562839     
   2651254061.1251602        3682792.3787221909        1157021130.7737088     
   2639439212.5151496        12173491.792099953        1223992028.9686747     
   2559971046.7733760        6567252.9088901281        1217239758.6983998     
   2481320583.6048560        3686689.2698678970        1215143400.7863784     
   2403487823.0095873        3531800.8750125170        1217702955.2326100     
   2326472764.9875722        6102587.7243373394        1224918422.0370922     
   2262868546.5171466        11678009.071214437        1290695608.9039333     
   2195749680.6093502        7750769.2521489859        1284093281.6447208     
   2129200255.2227530        5721664.5037446022        1281947042.1155164     
   2063220270.3573501        5590694.8259921074        1284256890.3163173     
   1997809726.0131481        7357860.2189017534        1291022826.2471225     
   1884699847.7193952        10703116.510406375        1356764858.0287693     
   1829359354.1363060        8283597.5027043819        1350022834.7198882     
   1774340039.0223558        6934673.3921345472        1347537074.5127645     
   1719641902.3775487        6656344.1787084341        1349307577.4074037     
   1665264944.2018800        7448609.8624129295        1355334343.4038014     
   1504933116.1218970        9248814.1096710563        1422199776.3431826     
   1460800067.3542387        8165737.6605445147        1415028417.9238973     
   1416739935.0036664        7325715.9350410104        1411913497.9781282     
   1372752719.0701766        6728748.9331454039        1412855016.5058715     
   1328838419.5537736        6374836.6548725963        1417852973.5071321     
   2651254061.1251602        3682792.3787221909        1157021130.7737088     
   2542568218.0877957        2353968.7884007692        1151128087.8689334     
   2433684530.9779983        365664.95663440228        1149606670.5009394     
   2324602999.7957635       -2282119.1165895462        1152456878.6697209     
   2215323624.5411048       -5589383.4312309027        1159678712.3752878     
   2326472764.9875722        6102587.7243373394        1224918422.0370922     
   2229317378.4057412        3791704.0896522999        1217697165.4514153     
   2132109406.6686318        1305536.6040431261        1215200494.4588416     
   2034848849.7762501       -1355914.7324755192        1217428409.0593622     
   1937535707.7285941       -4192649.9199112654        1224380909.2529786     
   1997809726.0131481        7357860.2189017534        1291022826.2471225     
   1913193253.1906111        4367453.7309795618        1282642824.7172325     
   1828669454.1299555        1685959.7826691866        1279340368.8367600     
   1744238328.8311865       -686621.62603008747        1281115458.6056981     
   1659899877.2942965       -2750290.4951225519        1287968094.0240564     
   1665264944.2018800        7448609.8624129295        1355334343.4038014     
   1594195842.4424052        4081217.7123915553        1345965065.6663828     
   1523364673.3619659        1506934.4924943447        1342026293.6346967     
   1452771436.9605737       -274239.79724788666        1343518027.3087428     
   1382416133.2382159       -1262305.1568764448        1350440266.6885221     
   1328838419.5537736        6374836.6548725963        1417852973.5071321     
   1272325146.1611190        2932996.0338676572        1407663888.2988677     
   1216195064.3646634        768460.73352897167        1403258268.8526528     
   1160448174.1644106       -118769.24613553286        1404636115.1684873     
   1105084475.5603516        271306.09484803677        1411797427.2463734     
   2215323624.5411048       -5589383.4312309027        1159678712.3752878     
   2140637708.1388001        1985507.0788687468        1154687135.6234744     
   2066482020.7555628        11327827.652528524        1154722695.4919550     
   1992856562.3913894        22437578.289730787        1159785391.9807167     
   1919761333.0462823        35314758.990492702        1169875225.0897684     
   1937535707.7285941       -4192649.9199112654        1224380909.2529786     
   1875135101.0653288        3942302.2134045362        1219607407.9550192     
   1813115382.8796053        13346882.605182171        1219127763.3076048     
   1751476553.1714187        24021091.255421162        1222941975.3107297     
   1690218611.9407818        35964928.164152622        1231050043.9643960     
   1659899877.2942965       -2750290.4951225519        1287968094.0240564     
   1607689494.7422223        5316197.5730414391        1283238437.5481727     
   1555710660.1261649        14154512.094594359        1282069357.7530885     
   1503963373.4461203        23764653.069523215        1284460854.6387939     
   1452447634.7020953        34146620.497851729        1290412928.2052960     
   1382416133.2382159       -1262305.1568764448        1350440266.6885221     
   1338300889.1694846        6107193.1577948332        1345580224.4029396     
   1294267852.4952414        13750716.120756567        1343547478.8284056     
   1250317023.2154899        21668263.732030690        1344342029.9649119     
   1206448401.3302293        29859835.991596162        1347963877.8124716     
   1105084475.5603516        271306.09484803677        1411797427.2463734     
   1066969284.3471103        6315288.9676505923        1406632768.5193093     
   1028786959.9868357        12135494.683677495        1403562126.5335453     
   990537502.47952759        17731923.242922783        1402585501.2890794     
   952220911.82518649        23104574.645397544        1403702892.7859137     
   1919761333.0462823        35314758.990492702        1169875225.0897684     
   1780485823.4011400        28789818.763639927        1166451261.5900018     
   1640978082.4264367        21490774.104922295        1166774557.4066074     
   1501238110.1221719        13417625.014335752        1170845112.5395956     
   1361265906.4883463        4570371.4918683767        1178662926.9889655     
   1690218611.9407818        35964928.164152622        1231050043.9643960     
   1561989948.8927484        28312053.186612189        1225210405.8505542     
   1433706444.3950727        20476373.376930773        1224381375.3605754     
   1305368098.4477546        12457888.735089362        1228562952.4944689     
   1176974911.0507827        4256599.2611006498        1237755137.2522132     
   1452447634.7020953        34146620.497851729        1290412928.2052960     
   1338875384.8439977        26448680.747481704        1282364570.3372798     
   1225425683.4161718        19159235.764678538        1280590168.4006138     
   1112098530.4186144        12278285.549439430        1285089722.3953030     
   998893925.85132277        5805830.1017573476        1295863232.3213482     
   1206448401.3302293        29859835.991596162        1347963877.8124716     
   1111142131.2548866        23199701.446240604        1337913755.0501766     
   1016135799.4897269        17539361.268163025        1335400936.5267274     
   921429406.03475106        12878815.457365930        1340425422.2421238     
   827022950.88996089        9218064.0138468146        1352987212.1963439     
   952220911.82518649        23104574.645397544        1403702892.7859137     
   878790188.12541640        18565115.282895207        1391857959.9892528     
   805836792.61574554        15616749.887394011        1388813679.7389185     
   733360725.29617023        14259478.458877355        1394570052.0349181     
   661361986.16669548        14493300.997365147        1409127076.8772333     
   1756000367.1147685        526800110.13443053        680061222.11245871     
   1784048648.8347611        500074782.22918713        806473229.17565250     
   1809171049.3184566        463596516.86962086        925778519.66181731     
   1831367568.5658553        417365314.05573153        1037977093.5709528     
   1850638206.5769577        361381173.78752029        1143068950.9030585     
   1326323851.2233236        397897155.36699706        669728742.24917233     
   1339562540.7463212        375513902.90795660        791888122.04939795     
   1350606819.3420386        345815947.35798174        908760207.01830256     
   1359456687.0104761        308803288.71707231        1020344997.1558858     
   1366112143.7516325        264475926.98522866        1126642492.4621477     
   890431618.07358646        267129485.42207596        662348399.48971665     
   894059063.24446988        250647812.76270255        781108534.05416012     
   896223567.79708946        229289671.37578315        896400795.53298998     
   896925131.73144531        203055061.26131755        1008225183.9262074     
   896163755.04753697        171943982.41930577        1116581699.2338119     
   448323667.66555679        134497100.29966703        657920193.83409166     
   447538216.32920629        125476511.79342489        774134465.18993843     
   446021294.68360853        114017688.92302497        888700285.20588052     
   443772902.72876340        100120631.68846741        1001617653.8819177     
   440793040.46467090        83785340.089751795        1112886571.2180498     
  -7.6529899633587804E-004  -2.2958969890076339E-004   656444125.28229737     
   5.3077391383148391E-004   1.2368769012668040E-004   770965915.45673370     
   1.5961648211950770E-003  -2.9240861106076532E-004   885658676.03697312     
   2.4307336134741500E-003  -1.4778685944430465E-003   1000522407.0230160     
   3.0342601142275202E-003  -3.4331226048824734E-003   1115557108.4148622     
   1850638206.5769577        361381173.78752029        1143068950.9030585     
   1835247045.9044833        295682301.24188310        1190576458.6063795     
   1823232628.4425802        241239239.39814830        1240352694.6602192     
   1814594954.1912456        198051988.25631118        1292397659.0645785     
   1809334023.1504827        166120547.81637645        1346711351.8194566     
   1366112143.7516325        264475926.98522866        1126642492.4621477     
   1360320135.0472267        216927181.11558881        1182028285.9254107     
   1357060683.7508967        177820293.27286783        1238340823.3191316     
   1356333789.8626425        147155263.45706677        1295580104.6433077     
   1358139453.3824632        124932091.66818339        1353746129.8979423     
   896163755.04753697        171943982.41930577        1116581699.2338119     
   896136657.11102116        141395090.86560991        1178860895.0207739     
   897797930.78008628        116474104.66385114        1240724850.3181307     
   901147576.05473328        97181023.814030588        1302173565.1258812     
   906185592.93496084        83515848.316147417        1363207039.4440272     
   440793040.46467090        83785340.089751795        1112886571.2180498     
   442696612.09586656        69086030.491945758        1181074285.8924677     
   445444369.53014904        57200673.571096063        1247504775.6572180     
   449036312.76751834        48129269.327202097        1312178040.5122993     
   453472441.80797428        41871817.760264322        1375094080.4577141     
   3.0342601142275202E-003  -3.4331226048824734E-003   1115557108.4148622     
   1.7632358485374501E-003  -5.4025865740810215E-003   1188668458.5404918     
   1.0844004265970445E-003  -5.3981744669544841E-003   1258680599.3363912     
   9.9865885936258991E-004  -3.4167394760545467E-003   1325593530.8025603     
   1.5049317103854355E-003   5.3807690903639278E-004   1389407252.9389992     
   1809334023.1504827        166120547.81637645        1346711351.8194566     
   1778921548.4924114        133694620.82899088        1364418827.8465044     
   1749781326.1431594        105509534.87100381        1382921076.1424682     
   1721913356.1027286        81565289.942419708        1402218096.7073510     
   1695317638.3711166        61861886.043233752        1422309889.5411489     
   1358139453.3824632        124932091.66818339        1353746129.8979423     
   1332771224.1134822        99844984.445027351        1372785146.9676054     
   1308357184.0753479        77938507.991357386        1393216006.7374446     
   1284897333.2680593        59212662.307175398        1415038709.2074597     
   1262391671.6916173        43667447.392482638        1438253254.3776515     
   906185592.93496084        83515848.316147417        1363207039.4440272     
   887567524.57295251        66279335.512581140        1383206523.9653380     
   869585582.36381698        51163243.218591779        1405194921.6180820     
   852239766.30755472        38167571.434178919        1429172232.4022615     
   835530076.40416574        27292320.159344703        1455138456.3178790     
   453472441.80797428        41871817.760264322        1375094080.4577141     
   443310449.87082267        32997674.031657368        1395682958.8397005     
   433466521.00856978        25183740.552712947        1418857820.7843814     
   423940655.22121620        18430017.323432639        1444618666.2917569     
   414732852.50876313        12736504.343820378        1472965495.3618276     
   1.5049317103854355E-003   5.3807690903639278E-004   1389407252.9389992     
   7.0913741911560555E-003   2.2498143458117401E-003   1410214451.5906947     
   9.6055947079182746E-003  -6.2795350421361133E-003   1434204704.2363436     
   9.0432697960088869E-003  -2.5063602178120325E-002   1461378010.8759463     
   5.4099124447603390E-003  -5.4084964528944533E-002   1491734371.5095015     
   1695317638.3711166        61861886.043233752        1422309889.5411489     
   1645021340.3948126        39708060.013176203        1415046393.2224512     
   1596525154.0278401        23554606.014228761        1412606875.5832243     
   1549829079.2702024        13401524.046393275        1414991336.6234691     
   1504933116.1218970        9248814.1096710563        1422199776.3431826     
   1262391671.6916173        43667447.392482638        1438253254.3776515     
   1226012695.7566128        27455052.126256227        1434793189.7675574     
   1190983803.5288060        15742935.884024918        1435843679.4104154     
   1157304995.0082014        8531098.6657974720        1441404723.3062282     
   1124976270.1947954        5819540.4715675116        1451476321.4549913     
   835530076.40416574        27292320.159344703        1455138456.3178790     
   812172924.14898384        16752706.148509532        1454956790.8638968     
   789715827.69886708        9213278.1545582414        1458972255.2363496     
   768158787.05381453        4674036.1774876714        1467184849.4352374     
   747501802.21382713        3134980.2173024714        1479594573.4605634     
   414732852.50876313        12736504.343820378        1472965495.3618276     
   403502025.57192510        7601022.0799328983        1475537196.5114677     
   392721226.53801847        3965632.8258160055        1481992603.0610254     
   382390455.40704119        1830336.5814635605        1492331715.0105019     
   372509712.17899370        1195133.3468786627        1506554532.3598955     
   5.4099124447603390E-003  -5.4084964528944533E-002   1491734371.5095015     
   2.5436360893040900E-002  -7.9472749352079014E-002   1496534406.7102740     
   4.6260591511317381E-002 -0.10220126027522707        1504904722.8844459     
   6.7879464640727222E-002 -0.12228096282793056        1516845320.0320196     
   9.0295124856996256E-002 -0.13970470842443691        1532356198.1529932     
   1504933116.1218970        9248814.1096710563        1422199776.3431826     
   1460800067.3542387        8165737.6605445147        1415028417.9238973     
   1416739935.0036664        7325715.9350410104        1411913497.9781282     
   1372752719.0701766        6728748.9331454039        1412855016.5058715     
   1328838419.5537736        6374836.6548725963        1417852973.5071321     
   1124976270.1947954        5819540.4715675116        1451476321.4549913     
   1091542452.2213347        4907023.7133641839        1445287201.1565299     
   1058163321.5631293        4176798.0060096979        1443232459.9898798     
   1024838878.2201712        3628863.3494795561        1445312097.9550374     
   991569122.19246471        3263219.7437892556        1451526115.0520048     
   747501802.21382713        3134980.2173024714        1479594573.4605634     
   724989902.62969542        2459829.4285667241        1474366423.9974527     
   702514461.25898254        1906206.0178933740        1473350594.3244455     
   680075478.10168326        1474109.9852655232        1476547084.4415433     
   657672953.15780222        1163541.3306997120        1483955894.3487446     
   372509712.17899370        1195133.3468786627        1506554532.3598955     
   361142418.57931912        824154.80614973605        1502266086.4466646     
   349793354.09122747        513939.97069729865        1502267900.9818287     
   338462518.71471655        264488.84051293135        1506559975.9653947     
   327149912.44978958        75801.415610209107        1515142311.3973591     
   9.0295124856996256E-002 -0.13970470842443691        1532356198.1529932     
   7.0203915940665260E-002 -0.15389470833213650        1528986188.5041630     
   5.9862096964384291E-002 -0.13558604788361234        1529984379.9620273     
   5.9267151625968392E-002  -8.4788849476290146E-002   1535350772.5265856     
   6.8420406702933284E-002  -1.4962619055846199E-003   1545085366.1978378     
   1328838419.5537736        6374836.6548725963        1417852973.5071321     
   1272325146.1611190        2932996.0338676572        1407663888.2988677     
   1216195064.3646634        768460.73352897167        1403258268.8526528     
   1160448174.1644106       -118769.24613553286        1404636115.1684873     
   1105084475.5603516        271306.09484803677        1411797427.2463734     
   991569122.19246471        3263219.7437892556        1451526115.0520048     
   950145840.79041219        970341.39058995247        1442796604.2528725     
   909009953.08285558       -364557.98095667362        1439626168.6995814     
   868161459.06979859       -741478.37083828449        1442014808.3921328     
   827600358.75124753       -160419.77903342247        1449962523.3305302     
   657672953.15780222        1163541.3306997120        1483955894.3487446     
   630698547.98575890       -172709.48288589716        1476574193.7400956     
   603915738.60651505       -870307.65380549431        1474527177.8610823     
   577324525.02007234       -929253.18205535412        1477814846.7117038     
   550924907.22643054       -349546.06763374805        1486437200.2919636     
   327149912.44978958        75801.415610209107        1515142311.3973591     
   313983267.74716616       -496156.58653482795        1508996656.7605398     
   300912420.93564326       -748788.28501211107        1507961296.3371518     
   287937372.01522309       -682093.67981265485        1512036230.1271963     
   275058120.98590404       -296072.77094443142        1521221458.1306689     
   6.8420406702933284E-002  -1.4962619055846199E-003   1545085366.1978378     
   7.4630045733014266E-002   7.9629892423528109E-002   1540063993.3142035     
   7.0239441552421622E-002  0.12542086188297649        1539928524.1277952     
   5.5251693787937713E-002  0.13588819286846820        1544678958.6386104     
   2.9666562247081238E-002  0.11103160515544176        1554315296.8466470     
   1105084475.5603516        271306.09484803677        1411797427.2463734     
   1066969284.3471103        6315288.9676505923        1406632768.5193093     
   1028786959.9868357        12135494.683677495        1403562126.5335453     
   990537502.47952759        17731923.242922783        1402585501.2890794     
   952220911.82518649        23104574.645397544        1403702892.7859137     
   827600358.75124753       -160419.77903342247        1449962523.3305302     
   795274141.44564140        3250620.2012904286        1445448678.4874499     
   762897574.28156328        6493827.3200415373        1443901475.9610574     
   730470657.25901926        9569201.5772389770        1445320915.7513473     
   697993390.37800121        12476742.972856849        1449706997.8583231     
   550924907.22643054       -349546.06763374805        1486437200.2919636     
   526880879.75813299        1176515.7991133928        1482593749.8361938     
   502803285.71992844        2590689.0995034873        1482589567.2724905     
   478692125.11181670        3892973.8335369229        1486424652.6008592     
   454547397.93379617        5083370.0012086034        1494099005.8212991     
   275058120.98590404       -296072.77094443142        1521221458.1306689     
   261789499.28458774        92975.761127799749        1518067982.5655296     
   248504094.30192482        426080.02204316854        1519626400.4678454     
   235201906.03792417        703240.01183283329        1525896711.8376169     
   221882934.49257311        924455.73045577109        1536878916.6748452     
   2.9666562247081238E-002  0.11103160515544176        1554315296.8466470     
   2.5004266056939017E-002   8.7329090845192026E-002   1551871376.6754613     
   2.7561103582524241E-002   8.7688967808586316E-002   1555011975.5471177     
   3.7338218597557343E-002  0.11211678334816870        1563737093.4616144     
   5.4329800731538549E-002  0.16059351650696854        1578046730.4189510     
   952220911.82518649        23104574.645397544        1403702892.7859137     
   878790188.12541640        18565115.282895207        1391857959.9892528     
   805836792.61574554        15616749.887394011        1388813679.7389185     
   733360725.29617023        14259478.458877355        1394570052.0349181     
   661361986.16669548        14493300.997365147        1409127076.8772333     
   697993390.37800121        12476742.972856849        1449706997.8583231     
   646929530.41586435        10274903.303423703        1441655134.7417591     
   596223666.59303486        9266384.0983503461        1441468448.1786468     
   545875798.90951335        9451185.3576396406        1449146938.1689873     
   495885927.36530459        10829307.081303179        1464690604.7127843     
   454547397.93379617        5083370.0012086034        1494099005.8212991     
   423177613.15822375        4417313.4595240653        1489700991.6589105     
   392046492.47116935        4546803.8795631677        1492232678.0570986     
   361154035.87263703        5471841.2613392770        1501694065.0158648     
   330500243.36262351        7192425.6048540771        1518085152.5352128     
   221882934.49257311        924455.73045577109        1536878916.6748452     
   207534436.35249957        992345.75120013952        1535995530.7407072     
   193305270.25015154        1458009.2310288101        1541106369.3742721     
   179195436.18554038        2321446.1699845791        1552211432.5755522     
   165204934.15865439        3582656.5680152550        1569310720.3445258     
   5.4329800731538549E-002  0.16059351650696854        1578046730.4189510     
  -1.3172613183382240E-003  0.17843510551902025        1580538751.9871495     
  -7.0022147421015424E-002  0.15274853268689934        1588089522.1301801     
 -0.15178456019532577        8.3538258728115461E-002   1600699040.8480313     
 -0.24660603229805458       -2.9204294660234560E-002   1618367308.1407216     
  -7.6529899633587804E-004  -2.2958969890076339E-004   656444125.28229737     
   5.3077391383148391E-004   1.2368769012668040E-004   770965915.45673370     
   1.5961648211950770E-003  -2.9240861106076532E-004   885658676.03697312     
   2.4307336134741500E-003  -1.4778685944430465E-003   1000522407.0230160     
   3.0342601142275202E-003  -3.4331226048824734E-003   1115557108.4148622     
  -448323667.66685528       -134497100.30005658        657920193.83426261     
  -447538216.32815951       -125476511.79334348        774134465.18974543     
  -446021294.68054098       -114017688.92355487        888700285.20518756     
  -443772902.72400004       -100120631.69069049        1001617653.8805894     
  -440793040.45853621       -83785340.094750762        1112886571.2159507     
  -890431618.07418859       -267129485.42225656        662348399.48991656     
  -894059063.24336123       -250647812.76276410        781108534.05379164     
  -896223567.79445755       -229289671.37635115        896400795.53178239     
  -896925131.72747791       -203055061.26301748        1008225183.9238890     
  -896163755.04242229       -171943982.42276353        1116581699.2301106     
  -1326323851.2227652       -397897155.36682957        669728742.24925911     
  -1339562540.7450743       -375513902.90813810        791888122.04887211     
  -1350606819.3401537       -345815947.35868120        908760207.01675713     
  -1359456687.0080030       -308803288.71845865        1020344997.1529138     
  -1366112143.7486234       -264475926.98747078        1126642492.4573429     
  -1756000367.1125853       -526800110.13377553        680061222.11229038     
  -1784048648.8332987       -500074782.22946554        806473229.17498708     
  -1809171049.3176286       -463596516.87054503        925778519.66011190     
  -1831367568.5655754       -417365314.05701387        1037977093.5676649     
  -1850638206.5771391       -361381173.78887212        1143068950.8976462     
   3.0342601142275202E-003  -3.4331226048824734E-003   1115557108.4148622     
   1.7632358485374501E-003  -5.4025865740810215E-003   1188668458.5404918     
   1.0844004265970445E-003  -5.3981744669544841E-003   1258680599.3363912     
   9.9865885936258991E-004  -3.4167394760545467E-003   1325593530.8025603     
   1.5049317103854355E-003   5.3807690903639278E-004   1389407252.9389992     
  -440793040.45853621       -83785340.094750762        1112886571.2159507     
  -442696612.09178859       -69086030.500038832        1181074285.8912313     
  -445444369.52733481       -57200673.579639807        1247504775.6570220     
  -449036312.76517445       -48129269.333552346        1312178040.5133238     
  -453472441.80530870       -41871817.761779249        1375094080.4601359     
  -896163755.04242229       -171943982.42276353        1116581699.2301106     
  -896136657.10696816       -141395090.87116441        1178860895.0183415     
  -897797930.77669430       -116474104.67016473        1240724850.3173237     
  -901147576.05160058       -97181023.819764495        1302173565.1270573     
  -906185592.93168592       -83515848.319964021        1363207039.4475420     
  -1366112143.7486234       -264475926.98747078        1126642492.4573429     
  -1360320135.0437753       -216927181.11877739        1182028285.9218235     
  -1357060683.7469935       -177820293.27697104        1238340823.3172960     
  -1356333789.8582768       -147155263.46205050        1295580104.6437602     
  -1358139453.3776271       -124932091.67401844        1353746129.9012163     
  -1850638206.5771391       -361381173.78887212        1143068950.8976462     
  -1835247045.9022100       -295682301.24287945        1190576458.6016765     
  -1823232628.4382319       -241239239.40005922        1240352694.6569388     
  -1814594954.1852069       -198051988.26041412        1292397659.0634346     
  -1809334023.1431339       -166120547.82394248        1346711351.8211625     
   1.5049317103854355E-003   5.3807690903639278E-004   1389407252.9389992     
   7.0913741911560555E-003   2.2498143458117401E-003   1410214451.5906947     
   9.6055947079182746E-003  -6.2795350421361133E-003   1434204704.2363436     
   9.0432697960088869E-003  -2.5063602178120325E-002   1461378010.8759463     
   5.4099124447603390E-003  -5.4084964528944533E-002   1491734371.5095015     
  -453472441.80530870       -41871817.761779249        1375094080.4601359     
  -443310449.85805035       -32997674.030492902        1395682958.8361228     
  -433466520.98984402       -25183740.562713251        1418857820.7741559     
  -423940655.20068926       -18430017.358437151        1444618666.2742355     
  -414732852.49058449       -12736504.417663559        1472965495.3363607     
  -906185592.93168592       -83515848.319964021        1363207039.4475420     
  -887567524.56249392       -66279335.515029490        1383206523.9591808     
  -869585582.34833026       -51163243.226856172        1405194921.6009591     
  -852239766.28919590       -38167571.455446303        1429172232.3728752     
  -835530076.38508832       -27292320.200793684        1455138456.2749295     
  -1358139453.3776271       -124932091.67401844        1353746129.9012163     
  -1332771224.1062379       -99844984.451354980        1372785146.9598689     
  -1308357184.0658536       -77938507.998711944        1393216006.7167513     
  -1284897333.2564747       -59212662.316083729        1415038709.1718645     
  -1262391671.6781001       -43667447.403473556        1438253254.3252079     
  -1809334023.1431339       -166120547.82394248        1346711351.8211625     
  -1778921548.4892819       -133694620.83947003        1364418827.8381863     
  -1749781326.1424127       -105509534.87827498        1382921076.1215334     
  -1721913356.1025279       -81565289.940357506        1402218096.6712034     
  -1695317638.3696229       -61861886.025711775        1422309889.4871957     
   5.4099124447603390E-003  -5.4084964528944533E-002   1491734371.5095015     
   2.5436360893040900E-002  -7.9472749352079014E-002   1496534406.7102740     
   4.6260591511317381E-002 -0.10220126027522707        1504904722.8844459     
   6.7879464640727222E-002 -0.12228096282793056        1516845320.0320196     
   9.0295124856996256E-002 -0.13970470842443691        1532356198.1529932     
  -414732852.49058449       -12736504.417663559        1472965495.3363607     
  -403502025.51137090       -7601022.1845102310        1475537196.4836278     
  -392721226.43443811       -3965632.9589595497        1481992603.0279746     
  -382390455.25978398       -1830336.7410042584        1492331714.9694028     
  -372509711.98741221       -1195133.5306570530        1506554532.3079085     
  -835530076.38508832       -27292320.200793684        1455138456.2749295     
  -812172924.09331965       -16752706.203095168        1454956790.8151035     
  -789715827.60690606       -9213278.2232470810        1458972255.1760380     
  -768158786.92584908       -4674036.2612546980        1467184849.3577304     
  -747501802.05014813       -3134980.3171146512        1479594573.3601842     
  -1262391671.6781001       -43667447.403473556        1438253254.3252079     
  -1226012695.7204077       -27455052.135221064        1434793189.7047002     
  -1190983803.4711456       -15742935.895070970        1435843679.3286316     
  -1157304994.9303148       -8531098.6830237508        1441404723.1970034     
  -1124976270.0979152       -5819540.4990824461        1451476321.3098114     
  -1695317638.3696229       -61861886.025711775        1422309889.4871957     
  -1645021340.3926337       -39708059.980885744        1415046393.1524186     
  -1596525154.0271525       -23554605.974415898        1412606875.4857595     
  -1549829079.2731795       -13401524.006311297        1414991336.4872186     
  -1504933116.1307132       -9248814.0765594840        1422199776.1567965     
   9.0295124856996256E-002 -0.13970470842443691        1532356198.1529932     
   7.0203915940665260E-002 -0.15389470833213650        1528986188.5041630     
   5.9862096964384291E-002 -0.13558604788361234        1529984379.9620273     
   5.9267151625968392E-002  -8.4788849476290146E-002   1535350772.5265856     
   6.8420406702933284E-002  -1.4962619055846199E-003   1545085366.1978378     
  -372509711.98741221       -1195133.5306570530        1506554532.3079085     
  -361142418.42324769       -824155.01700221002        1502266086.4018211     
  -349793353.95739508       -513940.16438613832        1502267900.9474256     
  -338462518.58985972       -264488.97282794118        1506559975.9447224     
  -327149912.32063323       -75801.442299291492        1515142311.3937094     
  -747501802.05014813       -3134980.3171146512        1479594573.3601842     
  -724989902.48744953       -2459829.5513318777        1474366423.9040980     
  -702514461.13112688       -1906206.1401365399        1473350594.2447042     
  -680075477.98117709       -1474110.0835174322        1476547084.3819997     
  -657672953.03760278       -1163541.3814837635        1483955894.3159840     
  -1124976270.0979152       -5819540.4990824461        1451476321.3098114     
  -1091542452.1224036       -4907023.7568910718        1445287201.0109923     
  -1058163321.4613289       -4176798.0628240108        1443232459.8538606     
  -1024838878.1146874       -3628863.4168681502        1445312097.8384185     
  -991569122.08248496       -3263219.8190404177        1451526114.9646606     
  -1504933116.1307132       -9248814.0765594840        1422199776.1567965     
  -1460800067.3281074       -8165737.6336711645        1415028417.7225044     
  -1416739934.9480026       -7325715.9324517846        1411913497.7748988     
  -1372752718.9903927       -6728748.9728837609        1412855016.3139777     
  -1328838419.4552801       -6374836.7549707890        1417852973.3397415     
   6.8420406702933284E-002  -1.4962619055846199E-003   1545085366.1978378     
   7.4630045733014266E-002   7.9629892423528109E-002   1540063993.3142035     
   7.0239441552421622E-002  0.12542086188297649        1539928524.1277952     
   5.5251693787937713E-002  0.13588819286846820        1544678958.6386104     
   2.9666562247081238E-002  0.11103160515544176        1554315296.8466470     
  -327149912.32063323       -75801.442299291492        1515142311.3937094     
  -313983267.62062484        496156.66482038796        1508996656.7377214     
  -300912420.82403570        748788.42720824480        1507961296.2968204     
  -287937371.93087089        682093.84484799206        1512036230.0710056     
  -275058120.94112909        296072.91774606705        1521221458.0602694     
  -657672953.03760278       -1163541.3814837635        1483955894.3159840     
  -630698547.87847733        172709.48124158382        1476574193.6793511     
  -603915738.51559925        870307.68980622292        1474527177.7756610     
  -577324524.94896841        929253.24421542883        1477814846.6049123     
  -550924907.17858517        349546.14446571469        1486437200.1671126     
  -991569122.08248496       -3263219.8190404177        1451526114.9646606     
  -950145840.69893169       -970341.47112613916        1442796604.1390848     
  -909009953.00445056        364557.91321766376        1439626168.5643117     
  -868161458.99903977        741478.33399230242        1442014808.2403419     
  -827600358.68270350        160419.79118502140        1449962523.1671727     
  -1328838419.4552801       -6374836.7549707890        1417852973.3397415     
  -1272325146.0819864       -2932996.1922688484        1407663888.1169274     
  -1216195064.2905881       -768460.90255427361        1403258268.6627746     
  -1160448174.0810864        118769.11417311430        1404636114.9772861     
  -1105084475.4534836       -271306.14209413528        1411797427.0604594     
   2.9666562247081238E-002  0.11103160515544176        1554315296.8466470     
   2.5004266056939017E-002   8.7329090845192026E-002   1551871376.6754613     
   2.7561103582524241E-002   8.7688967808586316E-002   1555011975.5471177     
   3.7338218597557343E-002  0.11211678334816870        1563737093.4616144     
   5.4329800731538549E-002  0.16059351650696854        1578046730.4189510     
  -275058120.94112909        296072.91774606705        1521221458.0602694     
  -261789499.24221265       -92975.625810861588        1518067982.5137269     
  -248504094.25254470       -426079.86686058342        1519626400.4316785     
  -235201905.97212589       -703239.80540789664        1525896711.8141265     
  -221882934.40095255       -924455.44144128263        1536878916.6610615     
  -550924907.17858517        349546.14446571469        1486437200.1671126     
  -526880879.71423167       -1176515.7003939450        1482593749.7426710     
  -502803285.67559540       -2590688.9643106759        1482589567.2043746     
  -478692125.06266761       -3892973.6472559571        1486424652.5522237     
  -454547397.87545788       -5083369.7492612898        1494099005.7862136     
  -827600358.68270350        160419.79118502140        1449962523.1671727     
  -795274141.39105332       -3250620.1364232004        1445448678.3622885     
  -762897574.24158216       -6493827.2046297193        1443901475.8652024     
  -730470657.23429012       -9569201.4134315252        1445320915.6759121     
  -697993390.36917782       -12476742.762833208        1449706997.7944126     
  -1105084475.4534836       -271306.14209413528        1411797427.0604594     
  -1066969284.2726707       -6315288.9338762760        1406632768.3725882     
  -1028786959.9505099       -12135494.587837696        1403562126.4141631     
  -990537502.48698628       -17731923.103920877        1402585501.1851876     
  -952220911.88211727       -23104574.482184350        1403702892.6856542     
   5.4329800731538549E-002  0.16059351650696854        1578046730.4189510     
  -1.3172613183382240E-003  0.17843510551902025        1580538751.9871495     
  -7.0022147421015424E-002  0.15274853268689934        1588089522.1301801     
 -0.15178456019532577        8.3538258728115461E-002   1600699040.8480313     
 -0.24660603229805458       -2.9204294660234560E-002   1618367308.1407216     
  -221882934.40095255       -924455.44144128263        1536878916.6610615     
  -207534436.37407544       -992345.45284090936        1535995530.6906884     
  -193305270.41515037       -1458009.0240775570        1541106369.2926357     
  -179195436.52416623       -2321446.1551210433        1552211432.4668961     
  -165204934.70113215       -3582656.8459964022        1569310720.2134793     
  -454547397.87545788       -5083369.7492612898        1494099005.7862136     
  -423177613.20180726       -4417313.2206256688        1489700991.5465691     
  -392046492.65099531       -4546803.7681190670        1492232677.8767242     
  -361154036.22301757       -5471841.3917246908        1501694064.7766926     
  -330500243.91787803       -7192426.0914611071        1518085152.2464619     
  -697993390.36917782       -12476742.762833208        1449706997.7944126     
  -646929530.48450673       -10274903.124902368        1441655134.5547874     
  -596223666.77755737       -9266384.0793721974        1441468447.8824577     
  -545875799.24833417       -9451185.6262662113        1449146937.7774220     
  -495885927.89683789       -10829307.765583336        1464690604.2396815     
  -952220911.88211727       -23104574.482184350        1403702892.6856542     
  -878790188.22216868       -18565115.165654540        1391857959.7153487     
  -805836792.79483986       -15616749.957856417        1388813679.3098266     
  -733360725.60011721       -14259478.858751416        1394570051.4690850     
  -661361986.63801718       -14493301.868378043        1409127076.1931243     
  -1756000367.1125853       -526800110.13377553        680061222.11229038     
  -1784048648.8332987       -500074782.22946554        806473229.17498708     
  -1809171049.3176286       -463596516.87054503        925778519.66011190     
  -1831367568.5655754       -417365314.05701387        1037977093.5676649     
  -1850638206.5771391       -361381173.78887212        1143068950.8976462     
  -2201690314.9527006       -660507094.48581028        696448121.99655759     
  -2238339052.5640326       -613893800.73732483        813877712.38888049     
  -2272944980.3869867       -560471141.02758431        927208753.47887528     
  -2305508098.4215646       -500239115.35658920        1036441245.2665412     
  -2336028406.6677661       -433197723.72433859        1141575187.7518787     
  -2685622843.9521651       -805686853.18564963        721991724.81960857     
  -2722277273.8105612       -736607164.49992287        829408648.51888335     
  -2757771965.3285880       -663661681.34629726        935735190.19107330     
  -2792106918.5062442       -586850403.72477162        1040971349.8361778     
  -2825282133.3435307       -506173331.63534671        1145117127.4541976     
  -3207797954.1109776       -962339386.23329329        756692030.58144319     
  -3235863312.5728865       -868214873.51725984        853066037.56499517     
  -3263652004.1424327       -773168137.82668257        951357829.79670572     
  -3291164028.8196149       -677199179.16156149        1051567407.2765750     
  -3318399386.6044340       -580307997.52189636        1153694770.0046017     
  -3768215645.4291382       -1130464693.6287415        800549039.28206146     
  -3779097168.8510075       -1008716927.7893354        884849879.52721643     
  -3790585096.8285193       -888990510.46874094        974076672.29577351     
  -3802679429.3616753       -771285441.66695809        1068229417.5877321     
  -3815380166.4504747       -655601721.38398719        1167308115.4030921     
  -1850638206.5771391       -361381173.78887212        1143068950.8976462     
  -1835247045.9022100       -295682301.24287945        1190576458.6016765     
  -1823232628.4382319       -241239239.40005922        1240352694.6569388     
  -1814594954.1852069       -198051988.26041412        1292397659.0634346     
  -1809334023.1431339       -166120547.82394248        1346711351.8211625     
  -2336028406.6677661       -433197723.72433859        1141575187.7518787     
  -2312451517.4962630       -352130816.46858120        1182827893.9920030     
  -2292370389.9385028       -282716447.92529589        1224562116.5606208     
  -2275785023.9944830       -224954618.09448433        1266777855.4577322     
  -2262695419.6642065       -178845326.97614467        1309475110.6833375     
  -2825282133.3435307       -506173331.63534671        1145117127.4541976     
  -2798625835.7404242       -411270285.68931574        1179976177.4271612     
  -2775584318.1538482       -328416506.46505558        1213529531.7058797     
  -2756157580.5838032       -257611993.96256721        1245777190.2903516     
  -2740345623.0302916       -198856748.18185019        1276719153.1805789     
  -3318399386.6044340       -580307997.52189636        1153694770.0046017     
  -3293770000.6346917       -473100708.90508187        1182021308.9071507     
  -3272874413.0842695       -378339415.01933753        1207254940.0927148     
  -3255712623.9531684       -296024115.86466336        1229395663.5612938     
  -3242284633.2413888       -226154811.44105923        1248443479.3128889     
  -3815380166.4504747       -655601721.38398719        1167308115.4030921     
  -3797884012.1790648       -537622086.11588025        1188963288.4319715     
  -3784240674.7297659       -432485173.58814240        1205738341.7211270     
  -3774450154.1025782       -340190983.80077350        1217633275.2705586     
  -3768512450.2974992       -260739516.75377285        1224648089.0802667     
  -1809334023.1431339       -166120547.82394248        1346711351.8211625     
  -1778921548.4892819       -133694620.83947003        1364418827.8381863     
  -1749781326.1424127       -105509534.87827498        1382921076.1215334     
  -1721913356.1025279       -81565289.940357506        1402218096.6712034     
  -1695317638.3696229       -61861886.025711775        1422309889.4871957     
  -2262695419.6642065       -178845326.97614467        1309475110.6833375     
  -2223524315.0893121       -134561880.66379619        1317472655.7659333     
  -2187220280.6892757       -99835334.934307814        1328676485.5996511     
  -2153783316.4640975       -74665689.787680864        1343086600.1844919     
  -2123213422.4137790       -59052945.223916531        1360702999.5204561     
  -2740345623.0302916       -198856748.18185019        1276719153.1805789     
  -2685525852.8634977       -140648771.84036791        1273146146.4828918     
  -2635167970.7394376       -97313755.641330361        1275190937.0211270     
  -2589271976.6581125       -68851699.584740996        1282853524.7952843     
  -2547837870.6195202       -55262603.670595884        1296133909.8053658     
  -3242284633.2413888       -226154811.44105923        1248443479.3128889     
  -3164926161.8118386       -151955294.36918557        1231439299.9890630     
  -3093624396.2928996       -97944796.999342918        1222464430.3859608     
  -3028379336.6845684       -64123319.331533551        1221518870.5035794     
  -2969190982.9868479       -50490861.365753293        1228602620.3419220     
  -3768512450.2974992       -260739516.75377285        1224648089.0802667     
  -3661725241.9343371       -168481448.25025284        1192352116.2844484     
  -3562589557.3496590       -101728459.00834310        1170496965.6941521     
  -3471105396.5434680       -60480549.028058529        1159082637.3093786     
  -3387272759.5157590       -44737718.309382439        1158109131.1301270     
  -1695317638.3696229       -61861886.025711775        1422309889.4871957     
  -1645021340.3926337       -39708059.980885744        1415046393.1524186     
  -1596525154.0271525       -23554605.974415898        1412606875.4857595     
  -1549829079.2731795       -13401524.006311297        1414991336.4872186     
  -1504933116.1307132       -9248814.0765594840        1422199776.1567965     
  -2123213422.4137790       -59052945.223916531        1360702999.5204561     
  -2061633104.9413326       -40459075.270169497        1352702117.1278796     
  -2001354070.0214951       -26202813.825118661        1349378799.3924007     
  -1942376317.6542671       -16284160.888765693        1350733046.3140211     
  -1884699847.8396485       -10703116.461110830        1356764857.8927376     
  -2547837870.6195202       -55262603.670595884        1296133909.8053658     
  -2475391859.3973904       -40354187.531664371        1287977608.5903711     
  -2403748301.6689672       -28120616.371763468        1284352458.0214539     
  -2332907197.4342566       -18561890.190897346        1285258458.0986149     
  -2262868546.6932554       -11678008.989064336        1290695608.8218541     
  -2969190982.9868479       -50490861.365753293        1228602620.3419220     
  -2886297603.7608037       -39393396.765366793        1220872867.5398929     
  -2803707848.9695678       -29308013.614343643        1217527851.3729198     
  -2721421718.6131482       -20234711.912699699        1218567571.8410053     
  -2639439212.6915355       -12173491.660421014        1223992028.9441493     
  -3387272759.5157590       -44737718.309382439        1158109131.1301270     
  -3294350338.0315742       -37576702.971273065        1151387893.9764435     
  -3201232711.9232998       -29765005.552867174        1148904979.4467976     
  -3107919881.1909356       -21302626.054164410        1150660387.5411887     
  -3014411845.8344870       -12189564.475175977        1156654118.2596188     
  -1504933116.1307132       -9248814.0765594840        1422199776.1567965     
  -1460800067.3281074       -8165737.6336711645        1415028417.7225044     
  -1416739934.9480026       -7325715.9324517846        1411913497.7748988     
  -1372752718.9903927       -6728748.9728837609        1412855016.3139777     
  -1328838419.4552801       -6374836.7549707890        1417852973.3397415     
  -1884699847.8396485       -10703116.461110830        1356764857.8927376     
  -1829359354.1913869       -8283597.4454056025        1350022834.5771911     
  -1774340039.0204341       -6934673.3540643454        1347537074.3701966     
  -1719641902.3267934       -6656344.1870957613        1349307577.2717576     
  -1665264944.1104617       -7448609.9444899559        1355334343.2818732     
  -2262868546.6932554       -11678008.989064336        1290695608.8218541     
  -2195749680.7082806       -7750769.1532173157        1284093281.5611041     
  -2129200255.2554326       -5721664.4244532585        1281947042.0307763     
  -2063220270.3347068       -5590694.8027631044        1284256890.2308710     
  -1997809725.9461029       -7357860.2881516218        1291022826.1613879     
  -2639439212.6915355       -12173491.660421014        1223992028.9441493     
  -2559971046.8787971       -6567252.7571191788        1217239758.6742449     
  -2481320583.6529965       -3686689.1436067820        1215143400.7566342     
  -2403487823.0141320       -3531800.8198832273        1217702955.1913116     
  -2326472764.9622049       -6102587.7859510183        1224918421.9782822     
  -3014411845.8344870       -12189564.475175977        1156654118.2596188     
  -2922023452.7029305       -4733048.2571022511        1149462265.9166152     
  -2830701024.2131262       -829747.51153123379        1147126150.5477710     
  -2740444560.3650699       -479662.23845827579        1149645772.1530857     
  -2651254061.1587639       -3682792.4378838539        1157021130.7325611     
  -1328838419.4552801       -6374836.7549707890        1417852973.3397415     
  -1272325146.0819864       -2932996.1922688484        1407663888.1169274     
  -1216195064.2905881       -768460.90255427361        1403258268.6627746     
  -1160448174.0810864        118769.11417311430        1404636114.9772861     
  -1105084475.4534836       -271306.14209413528        1411797427.0604594     
  -1665264944.1104617       -7448609.9444899559        1355334343.2818732     
  -1594195842.3613715       -4081217.8711525202        1345965065.5406561     
  -1523364673.2750247       -1506934.6736279130        1342026293.5097065     
  -1452771436.8514264        274239.64806956053        1343518027.1890199     
  -1382416133.0905735        1262305.0939474106        1350440266.5786011     
  -1997809725.9461029       -7357860.2881516218        1291022826.1613879     
  -1913193253.1309199       -4367453.8970775604        1282642824.6407790     
  -1828669454.0593328       -1685959.9846558571        1279340368.7720351     
  -1744238328.7313426        686621.44910669327        1281115458.5551610     
  -1659899877.1469543        2750290.4042050838        1287968093.9901516     
  -2326472764.9622049       -6102587.7859510183        1224918421.9782822     
  -2229317378.3906355       -3791704.2700514793        1217697165.4172869     
  -2132109406.6435142       -1305536.8356443644        1215200494.4497621     
  -2034848849.7208414        1355914.5172622204        1217428409.0757062     
  -1937535707.6226199        4192649.7886738777        1224380909.2951198     
  -2651254061.1587639       -3682792.4378838539        1157021130.7325611     
  -2542568218.1405196       -2353968.9900826216        1151128087.8701890     
  -2433684531.0275726       -365665.22660851479        1149606670.5428853     
  -2324602999.8199229        2282118.8525439501        1152456878.7506576     
  -2215323624.5175738        5589383.2473595142        1159678712.4935021     
  -1105084475.4534836       -271306.14209413528        1411797427.0604594     
  -1066969284.2726707       -6315288.9338762760        1406632768.3725882     
  -1028786959.9505099       -12135494.587837696        1403562126.4141631     
  -990537502.48698628       -17731923.103920877        1402585501.1851876     
  -952220911.88211727       -23104574.482184350        1403702892.6856542     
  -1382416133.0905735        1262305.0939474106        1350440266.5786011     
  -1338300889.0792913       -6107193.1494843960        1345580224.3136618     
  -1294267852.4697306       -13750716.065331519        1343547478.7546349     
  -1250317023.2618921       -21668263.653586507        1344342029.9015183     
  -1206448401.4557757       -29859835.914242923        1347963877.7543151     
  -1659899877.1469543        2750290.4042050838        1287968093.9901516     
  -1607689494.6581581       -5316197.5967672467        1283238437.5145612     
  -1555710660.1141617       -14154512.080405176        1282069357.7213442     
  -1503963373.5149622       -23764653.046694756        1284460854.6105025     
  -1452447634.8605566       -34146620.495634973        1290412928.1820381     
  -1937535707.6226199        4192649.7886738777        1224380909.2951198     
  -1875135101.0092726       -3942302.2757257223        1219607407.9752872     
  -1813115382.8837972       -13346882.633028507        1219127763.3142893     
  -1751476553.2461977       -24021091.283255935        1222941975.3121328     
  -1690218612.0964632       -35964928.226366401        1231050043.9688172     
  -2215323624.5175738        5589383.2473595142        1159678712.4935021     
  -2140637708.1326337       -1985507.1863514185        1154687135.6958344     
  -2066482020.7786400       -11327827.723221540        1154722695.5334742     
  -1992856562.4555972       -22437578.363261580        1159785392.0064163     
  -1919761333.1634967       -35314759.106439233        1169875225.1146638     
  -952220911.88211727       -23104574.482184350        1403702892.6856542     
  -878790188.22216868       -18565115.165654540        1391857959.7153487     
  -805836792.79483986       -15616749.957856417        1388813679.3098266     
  -733360725.60011721       -14259478.858751416        1394570051.4690850     
  -661361986.63801718       -14493301.868378043        1409127076.1931243     
  -1206448401.4557757       -29859835.914242923        1347963877.7543151     
  -1111142131.3769550       -23199701.404831052        1337913754.7843919     
  -1016135799.6404115       -17539361.369681895        1335400936.0658426     
  -921429406.24615812       -12878815.808828950        1340425421.5986803     
  -827022951.19418609       -9218064.7222440243        1352987211.3828826     
  -1452447634.8605566       -34146620.495634973        1290412928.1820381     
  -1338875384.9725845       -26448680.776250541        1282364570.0845478     
  -1225425683.5365636       -19159235.896697402        1280590167.9250317     
  -1112098530.5524940       -12278285.856991410        1285089721.7034881     
  -998893926.02038181       -5805830.6571247578        1295863231.4199243     
  -1690218612.0964632       -35964928.226366401        1231050043.9688172     
  -1561989949.0090685       -28312053.279928088        1225210405.6158159     
  -1433706444.4832892       -20476373.538886964        1224381374.8873851     
  -1305368098.5191295       -12457889.003245533        1228562951.7835186     
  -1176974911.1165955       -4256599.6730074286        1237755136.3042343     
  -1919761333.1634967       -35314759.106439233        1169875225.1146638     
  -1780485823.4863987       -28789818.915866137        1166451261.3781993     
  -1640978082.4805813       -21490774.296225667        1166774556.9529061     
  -1501238110.1460645       -13417625.247587621        1170845111.8387818     
  -1361265906.4828327       -4570371.7698972225        1178662926.0358150     
  -3768215645.4291382       -1130464693.6287415        800549039.28206146     
  -3779097168.8510075       -1008716927.7893354        884849879.52721643     
  -3790585096.8285193       -888990510.46874094        974076672.29577351     
  -3802679429.3616753       -771285441.66695809        1068229417.5877321     
  -3815380166.4504747       -655601721.38398719        1167308115.4030921     
  -4339729406.4764948       -1301918821.9429486        858718625.08780181     
  -4335213510.4723043       -1125738609.0043457        942335592.83172190     
  -4331834624.7607346       -953348430.37448573        1020309442.8955497     
  -4329592749.3417873       -784748286.05336893        1092640175.2792845     
  -4328487884.2154646       -619938176.04099560        1159327789.9829268     
  -4895192725.8228970       -1468557817.7468691        936356662.16500270     
  -4905476753.8311987       -1247004360.7406356        1018670717.3812120     
  -4917428397.8691044       -1031009623.8330768        1084772584.7138343     
  -4931047657.9366112       -820573607.02419305        1134662264.1628695     
  -4946334534.0337200       -615696310.31398404        1168339755.7283180     
  -5434605603.4683418       -1630381681.0405025        1033463150.5136642     
  -5489886898.9276953       -1372514182.9982057        1113855253.1756866     
  -5547366416.1536293       -1121974090.8445144        1167466097.7506275     
  -5607044155.1461449       -878761404.57942986        1194295684.2384870     
  -5668920115.9052439       -642876124.20295286        1194344012.6392646     
  -5957968039.4128323       -1787390411.8238497        1150038090.1337864     
  -6088443945.7617893       -1502268075.7770550        1227889200.2151458     
  -6221648679.6143084       -1226241831.4087992        1268389982.0059292     
  -6357582240.9703894       -959311678.71908116        1271540435.5061369     
  -6496244629.8300314       -701477617.70790076        1237340560.7157686     
  -3815380166.4504747       -655601721.38398719        1167308115.4030921     
  -3797884012.1790648       -537622086.11588025        1188963288.4319715     
  -3784240674.7297659       -432485173.58814240        1205738341.7211270     
  -3774450154.1025782       -340190983.80077350        1217633275.2705586     
  -3768512450.2974992       -260739516.75377285        1224648089.0802667     
  -4328487884.2154646       -619938176.04099560        1159327789.9829268     
  -4298092323.7468319       -464167843.85992992        1141364547.8609419     
  -4278313809.9750280       -343787667.33495605        1129483115.5735538     
  -4269152342.9000525       -258797646.46607423        1123683493.1207612     
  -4270607922.5219002       -209197781.25328398        1123965680.5025661     
  -4946334534.0337200       -615696310.31398404        1168339755.7283180     
  -4871719768.5840950       -412739341.58482695        1102866496.9349663     
  -4814486279.7060146       -267719961.42748594        1054436977.5505308     
  -4774634067.3994780       -180638169.84196138        1023051197.5750117     
  -4752163131.6644850       -151493966.82825112        1008709157.0084096     
  -5668920115.9052439       -642876124.20295286        1194344012.6392646     
  -5518766346.6908512       -383336579.29057288        1073469135.6540432     
  -5392758083.9227228       -204282055.86573386        980599927.65205777     
  -5290895327.6008558       -105712553.92843246        915736388.63330913     
  -5213178077.7252493       -87628073.478670835        878878518.59779549     
  -6496244629.8300314       -701477617.70790076        1237340560.7157686     
  -6239232058.0671034       -375959556.97716808        1053172464.0181736     
  -6013129222.6251535       -153473950.64969611        907971965.87813413     
  -5817936123.5041857       -34020798.725491285        801739066.29565251     
  -5653652760.7041931       -17600101.204545021        734473765.27072561     
  -3768512450.2974992       -260739516.75377285        1224648089.0802667     
  -3661725241.9343371       -168481448.25025284        1192352116.2844484     
  -3562589557.3496590       -101728459.00834310        1170496965.6941521     
  -3471105396.5434680       -60480549.028058529        1159082637.3093786     
  -3387272759.5157590       -44737718.309382439        1158109131.1301270     
  -4270607922.5219002       -209197781.25328398        1123965680.5025661     
  -4147929675.3412628       -145136050.74946785        1090752349.5903075     
  -4029653029.4306417       -95746324.479040861        1065828919.7166708     
  -3915777984.7900395       -61028602.442014694        1049195390.8816558     
  -3806304541.4194560       -40982884.638382673        1040851763.0852664     
  -4752163131.6644850       -151493966.82825112        1008709157.0084096     
  -4619739334.7146549       -117472221.03862119        978370044.23958743     
  -4488467216.5263758       -87289404.454162836        954169911.34248781     
  -4358346777.0996475       -60945517.074883461        936108758.31711066     
  -4229378016.4344730       -38440558.900775433        924186585.16345513     
  -5213178077.7252493       -87628073.478670835        878878518.59779549     
  -5077154220.0545130       -85489959.117713928        855205200.23228800     
  -4939032118.6368599       -76357698.933712721        835519940.57160425     
  -4798811773.4722958       -60231292.926664114        819822739.61573994     
  -4656493184.5608187       -37110741.096566677        808113597.36470032     
  -5653652760.7041931       -17600101.204545021        734473765.27072561     
  -5520174331.3608351       -49189264.986748695        721257817.56841040     
  -5381347735.7620983       -62951207.917685270        709879007.40401661     
  -5237172973.9079809       -58885929.997355223        700337334.77754474     
  -5087650045.7984819       -36993431.225755215        692632799.68899667     
  -3387272759.5157590       -44737718.309382439        1158109131.1301270     
  -3294350338.0315742       -37576702.971273065        1151387893.9764435     
  -3201232711.9232998       -29765005.552867174        1148904979.4467976     
  -3107919881.1909356       -21302626.054164410        1150660387.5411887     
  -3014411845.8344870       -12189564.475175977        1156654118.2596188     
  -3806304541.4194560       -40982884.638382673        1040851763.0852664     
  -3700417790.5091949       -29563129.983354330        1032750139.3698175     
  -3595107430.9072800       -20064679.689469337        1029399968.1311004     
  -3490373462.6137023       -12487533.756719351        1030801249.3691131     
  -3386215885.6284652       -6831692.1851015091        1036953983.0838563     
  -4229378016.4344730       -38440558.900775433        924186585.16345513     
  -4109060850.8047357       -22322239.340822697        913804379.63174403     
  -3990091672.4157658       -10697210.583430529        908686756.42945480     
  -3872470481.2675676       -3565472.6286041737        908833715.55659032     
  -3756197277.3601360       -927025.47633957863        914245257.01314795     
  -4656493184.5608187       -37110741.096566677        808113597.36470032     
  -4520279518.9181890       -15854031.043657780        794550614.76222467     
  -4386185436.4487648       -1662598.2347416878        786765344.34186351     
  -4254210937.1525340        5463557.3301806450        784757786.10362017     
  -4124356021.0294995        5524435.6511178017        788527940.04749215     
  -5087650045.7984819       -36993431.225755215        692632799.68899667     
  -4934073794.8495617       -10158505.091872692        674988844.76125693     
  -4783388723.0062656        7039157.3565974236        663635731.86832511     
  -4635594830.2685986        14599556.119636774        658573461.01020348     
  -4490692116.6365538        12522691.197266102        659802032.18689048     
  -3014411845.8344870       -12189564.475175977        1156654118.2596188     
  -2922023452.7029305       -4733048.2571022511        1149462265.9166152     
  -2830701024.2131262       -829747.51153123379        1147126150.5477710     
  -2740444560.3650699       -479662.23845827579        1149645772.1530857     
  -2651254061.1587639       -3682792.4378838539        1157021130.7325611     
  -3386215885.6284652       -6831692.1851015091        1036953983.0838563     
  -3282827425.3574853       -3183188.2893419266        1029245608.5188371     
  -3180033960.1484308       -1518001.2666668892        1026021859.1612870     
  -3077835490.0013061       -1836131.1170921326        1027282735.0112064     
  -2976232014.9161062       -4137577.8406037092        1033028236.0685945     
  -3756197277.3601360       -927025.47633957863        914245257.01314795     
  -3642869069.2831297       -1404629.7029004097        906569824.73590267     
  -3529664886.6882272       -2295652.2031462193        903007905.89943933     
  -3416584729.5754342       -3600092.9770903587        903559500.50375450     
  -3303628597.9447484       -5317952.0247201920        908224608.54884875     
  -4124356021.0294995        5524435.6511178017        788527940.04749215     
  -4002148384.4798660        602627.50221300125        781434914.56781483     
  -3879593803.8325186       -3162700.3209760189        778084290.76222694     
  -3756692279.0874534       -5771547.8184506893        778476068.63072550     
  -3633443810.2446795       -7223914.9902153015        782610248.17331851     
  -4490692116.6365538        12522691.197266102        659802032.18689048     
  -4360665370.9476986        2838583.3259902000        653840878.01457047     
  -4229820711.5812974       -4119145.6201479435        651251013.74965155     
  -4098158138.5373716       -8350495.6411921978        652032439.39213061     
  -3965677651.8159080       -9855466.7371094227        656185154.94200635     
  -2651254061.1587639       -3682792.4378838539        1157021130.7325611     
  -2542568218.1405196       -2353968.9900826216        1151128087.8701890     
  -2433684531.0275726       -365665.22660851479        1149606670.5428853     
  -2324602999.8199229        2282118.8525439501        1152456878.7506576     
  -2215323624.5175738        5589383.2473595142        1159678712.4935021     
  -2976232014.9161062       -4137577.8406037092        1033028236.0685945     
  -2855508195.7419448       -1537710.8993793726        1026541795.9903636     
  -2734739792.2060323        1210770.5810046196        1024650394.3062104     
  -2613926804.3083735        4107866.6005440950        1027354031.0161302     
  -2493069232.0489702        7153577.1592363119        1034652706.1201278     
  -3303628597.9447484       -5317952.0247201920        908224608.54884875     
  -3170228480.1603656       -1255544.8537697792        900965968.23297727     
  -3036937037.7471924        2444611.0798137188        898525779.17018712     
  -2903754270.7052312        5782515.7760289907        900904041.36047614     
  -2770680179.0344772        8758169.2348833084        908100754.80384278     
  -3633443810.2446795       -7223914.9902153015        782610248.17331851     
  -3486729071.3957882       -1507470.8532664776        774400604.59802842     
  -3340276267.6510582        3335856.2698047161        771232825.13482165     
  -3194085399.0104980        7306066.3789857626        773106909.78369725     
  -3048156465.4740963        10403159.474294901        780022858.54465580     
  -3965677651.8159080       -9855466.7371094227        656185154.94200635     
  -3805009969.4482098       -2293488.8978595734        646845705.08551621     
  -3644757481.9176278        3884506.1509921551        642771532.20011079     
  -3484920189.2241745        8678518.4094252586        643962636.28578913     
  -3325498091.3678341        12088547.877470732        650419017.34255815     
  -2215323624.5175738        5589383.2473595142        1159678712.4935021     
  -2140637708.1326337       -1985507.1863514185        1154687135.6958344     
  -2066482020.7786400       -11327827.723221540        1154722695.5334742     
  -1992856562.4555972       -22437578.363261580        1159785392.0064163     
  -1919761333.1634967       -35314759.106439233        1169875225.1146638     
  -2493069232.0489702        7153577.1592363119        1034652706.1201278     
  -2406461127.5306487       -456371.65456283092        1028788849.3724434     
  -2320148696.8576980       -9051899.9529314041        1027076860.3336138     
  -2234131940.0301213       -18633007.735881448        1029516739.0036417     
  -2148410857.0479116       -29199695.003386974        1036108485.3825210     
  -2770680179.0344772        8758169.2348833084        908100754.80384278     
  -2674650654.7440629        362931.53260767460        901638265.82264888     
  -2578682249.1134357       -8236035.0356383324        898452375.62385905     
  -2482774962.1426077       -17038730.469883323        898543084.20747530     
  -2386928793.8315792       -26045154.770108938        901910391.57349551     
  -3048156465.4740963        10403159.474294901        780022858.54465580     
  -2945206289.7728720        472402.37515568733        773235385.04645479     
  -2842082677.5458574       -8880232.9713555574        768849241.40420973     
  -2738785628.7930703       -17654746.565291286        766864427.61791873     
  -2635315143.5144930       -25851138.406599045        767280943.68758214     
  -3325498091.3678341        12088547.877470732        650419017.34255815     
  -3218128032.6170821       -127959.12691187859        643580207.04385519     
  -3110349982.1549611       -10984493.760078311        638267457.67466235     
  -3002163939.9814939       -20481056.022073865        634480769.23497224     
  -2893569906.0966625       -28617645.912875652        632220141.72478914     
  -1919761333.1634967       -35314759.106439233        1169875225.1146638     
  -1780485823.4863987       -28789818.915866137        1166451261.3781993     
  -1640978082.4805813       -21490774.296225667        1166774556.9529061     
  -1501238110.1460645       -13417625.247587621        1170845111.8387818     
  -1361265906.4828327       -4570371.7698972225        1178662926.0358150     
  -2148410857.0479116       -29199695.003386974        1036108485.3825210     
  -1997976302.0904503       -20927809.044792891        1029660298.3448374     
  -1847625502.9797950       -12935109.242230892        1027645591.6497997     
  -1697358459.7159503       -5221595.5957043171        1030064365.2974120     
  -1547175172.2989197        2212731.8947997093        1036916619.2876695     
  -2386928793.8315792       -26045154.770108938        901910391.57349551     
  -2223374562.0752416       -15438133.587968111        892069329.52981699     
  -2060220073.3412194       -6163589.1468898058        887347968.86026919     
  -1897465327.6295421        1778478.5530654192        887746309.56484926     
  -1735110324.9401751        8388069.5119460821        893264351.64355707     
  -2635315143.5144930       -25851138.406599045        767280943.68758214     
  -2456680603.4407597       -12320792.545331359        753678354.93314314     
  -2278761793.5648737       -1176214.0102256536        745881688.58430457     
  -2101558713.8868268        7582597.1987347603        743890944.64108157     
  -1925071364.4066365        13955641.081527352        747706123.10346305     
  -2893569906.0966625       -28617645.912875652        632220141.72478914     
  -2697894426.1870170       -11575785.916943192        614487374.55481136     
  -2503250663.6507316        2027016.1677947044        603246750.82191765     
  -2309638618.4878278        12190760.341273665        598498270.52611661     
  -2117058290.6982675        18915446.603564262        600241933.66740799     
  -5957968039.4128323       -1787390411.8238497        1150038090.1337864     
  -6088443945.7617893       -1502268075.7770550        1227889200.2151458     
  -6221648679.6143084       -1226241831.4087992        1268389982.0059292     
  -6357582240.9703894       -959311678.71908116        1271540435.5061369     
  -6496244629.8300314       -701477617.70790076        1237340560.7157686     
  -6810627426.5727215       -2043188227.9718165        1353768310.8287623     
  -6828555793.5898256       -1395483809.2902520        1202737999.3952475     
  -6897853647.9664669       -919011015.14047647        1091960258.2072487     
  -7018520989.7026424       -613769845.52248859        1021435087.2647661     
  -7190557818.7983561       -479760300.43628836        991162486.56780040     
  -8337931157.8643627       -2501379347.3593087        1712340642.4019854     
  -8021589418.3036346       -1424576075.8691809        1275681472.9549582     
  -7805257825.9584208       -681139961.76409221        956877772.28953993     
  -7688936380.8287144       -271071005.04404211        755929540.40572977     
  -7672625082.9145231       -194369205.70903015        672836777.30352831     
  -10539879233.287758       -3161963769.9863276        2225755084.8534565     
  -9667544819.9032211       -1589544875.5138431        1446719620.8942795     
  -8943861213.5901699       -512628671.27964735        863142524.25280321     
  -8368828414.3486080        68784842.716257095        475023794.92902744     
  -7942446422.1785288        154695666.47387600        282363432.92295384     
  -13416471652.842905       -4024941495.8528714        2894011638.1831741     
  -11766421998.388580       -1890390208.2242362        1715852443.2132096     
  -10313663810.861719       -413477143.68714190        810754514.09703827     
  -9058197090.2623177        405797697.75841379        178717850.83465970     
  -8000021836.5903788        567434316.11243010       -180257546.57392514     
  -6496244629.8300314       -701477617.70790076        1237340560.7157686     
  -6239232058.0671034       -375959556.97716808        1053172464.0181736     
  -6013129222.6251535       -153473950.64969611        907971965.87813413     
  -5817936123.5041857       -34020798.725491285        801739066.29565251     
  -5653652760.7041931       -17600101.204545021        734473765.27072561     
  -7190557818.7983561       -479760300.43628836        991162486.56780040     
  -6900554090.5652370       -304473037.07758474        846834622.38172603     
  -6623357434.7041016       -171876014.95883322        723585617.85486603     
  -6358967851.2149563       -81969234.080040216        621415472.98721957     
  -6107385340.0977945       -34752694.441199780        540324187.77878547     
  -7672625082.9145231       -194369205.70903015        672836777.30352831     
  -7400740880.7779007       -184645944.49235916        589468920.23613179     
  -7123561087.0642748       -157270711.35233688        509291183.92960846     
  -6841085701.7736416       -112243506.28896260        432303568.38395482     
  -6553314724.9060049       -49564329.302236319        358506073.59917212     
  -7942446422.1785288        154695666.47387600        282363432.92295384     
  -7739792428.7051029       -16478279.221497536        281075357.58139414     
  -7513740179.7056751       -109658039.83020687        265088664.10236156     
  -7264289675.1802530       -124843615.35226488        234403352.48586050     
  -6991440915.1288338       -62035005.787657738        189019422.73188418     
  -8000021836.5903788        567434316.11243010       -180257546.57392514     
  -7917708734.3468370        200029958.73500776       -78346065.582491964     
  -7793894712.6283054       -29038000.392448425       -9021941.6268731374     
  -7628579771.4347858       -119769561.26994133        27714825.292929452     
  -7421763910.7662725       -72164723.897463322        31864235.176921565     
  -5653652760.7041931       -17600101.204545021        734473765.27072561     
  -5520174331.3608351       -49189264.986748695        721257817.56841040     
  -5381347735.7620983       -62951207.917685270        709879007.40401661     
  -5237172973.9079809       -58885929.997355223        700337334.77754474     
  -5087650045.7984819       -36993431.225755215        692632799.68899667     
  -6107385340.0977945       -34752694.441199780        540324187.77878547     
  -5959381319.4866505       -36565208.592792749        533837811.02477217     
  -5810409022.0894289       -35150133.457461119        529816293.94714469     
  -5660468447.9061337       -30507469.035204649        528259636.54590297     
  -5509559596.9367514       -22637215.326015234        529167838.82104975     
  -6553314724.9060049       -49564329.302236319        358506073.59917212     
  -6388991621.2028961       -21062146.275969028        353639396.74593967     
  -6228080130.1830082       -3932005.5271117687        351865301.70755851     
  -6070580251.8463440        1826092.9443325996        353183788.48403054     
  -5916491986.1929064       -3787850.8616406918        357594857.07535094     
  -6991440915.1288338       -62035005.787657738        189019422.73188418     
  -6809005236.5095701       -2680078.0362720490        180662574.73191673     
  -6634361060.0428333        30703175.873359203        176026030.68525958     
  -6467508385.7286224        38114755.941239834        175109790.59192348     
  -6308447213.5669365        19554662.167369127        177913854.45190427     
  -7421763910.7662725       -72164723.897463322        31864235.176921565     
  -7219422165.4066763        18580996.126296043        14907344.982698079     
  -7029251811.6689005        68755410.743969917        2298480.8802528088     
  -6851252849.5529566        78358519.955542564       -5962357.1304100417     
  -6685425279.0588417        47390323.761021137       -9875169.0492969975     
  -5087650045.7984819       -36993431.225755215        692632799.68899667     
  -4934073794.8495617       -10158505.091872692        674988844.76125693     
  -4783388723.0062656        7039157.3565974236        663635731.86832511     
  -4635594830.2685986        14599556.119636774        658573461.01020348     
  -4490692116.6365538        12522691.197266102        659802032.18689048     
  -5509559596.9367514       -22637215.326015234        529167838.82104975     
  -5345554282.9917650       -10744653.478607655        513994907.52690870     
  -5182455683.6929426       -1874473.7850828171        504001728.26104432     
  -5020263799.0402822        3973323.7545669079        499188301.02345598     
  -4858978629.0337858        6798739.1403369904        499554625.81414634     
  -5916491986.1929064       -3787850.8616406918        357594857.07535094     
  -5745232152.1276569       -7790016.1634581089        347208157.95084852     
  -5572894568.2491074       -8199682.0876080990        340890120.84809101     
  -5399479234.5572615       -5016848.6340963840        338640745.76708013     
  -5224986151.0521145        1758484.1970789433        340460032.70781147     
  -6308447213.5669365        19554662.167369127        177913854.45190427     
  -6133107402.2572308       -1294593.1464042664        174628596.03307876     
  -5954705376.6747637       -11936467.550981283        174300909.62946701     
  -5773241136.8195372       -12370961.046349764        176930795.24106815     
  -5588714682.6915464       -2598073.6325109005        182518252.86788213     
  -6685425279.0588417        47390323.761021137       -9875169.0492969975     
  -6509180033.3804874        8741615.5725345612       -3743778.2264032601     
  -6327888108.9699125       -13084830.175202370        4234094.6051728092     
  -6141549505.8271122       -18089013.482187271        14058449.445426088     
  -5950164223.9520864       -6270934.3484337330        25729286.294364259     
  -4490692116.6365538        12522691.197266102        659802032.18689048     
  -4360665370.9476986        2838583.3259902000        653840878.01457047     
  -4229820711.5812974       -4119145.6201479435        651251013.74965155     
  -4098158138.5373716       -8350495.6411921978        652032439.39213061     
  -3965677651.8159080       -9855466.7371094227        656185154.94200635     
  -4858978629.0337858        6798739.1403369904        499554625.81414634     
  -4718520050.5165224        2121150.2320318222        494977727.05286843     
  -4577982247.5821028       -2292357.2857215405        493898674.64534980     
  -4437365220.2305040       -6441783.4129014015        496317468.59159732     
  -4296668968.4617424       -10327128.149522781        502234108.89160544     
  -5224986151.0521145        1758484.1970789433        340460032.70781147     
  -5073734149.8597059        2195891.2057490349        336405585.22047806     
  -4923141613.5104971        435082.07043099403        335975540.53327036     
  -4773208542.0044775       -3523943.2088668346        339169898.64619213     
  -4623934935.3416634       -9681184.6321618557        345988659.55923975     
  -5588714682.6915464       -2598073.6325109005        182518252.86788213     
  -5426307668.9772377        3062806.2471635342        178124452.51740178     
  -5265298809.3664856        4063172.4483075142        177481611.41341472     
  -5105688103.8592968        403024.97091841698        180589729.55591682     
  -4947475552.4556751       -7917636.1850416660        187448806.94490623     
  -5950164223.9520864       -6270934.3484337330        25729286.294364259     
  -5776240607.8691092        4721895.3562958241        20134328.943645682     
  -5604453835.1500731        8591913.8478991985        18416887.285778344     
  -5434803905.7949524        5339121.1264383793        20576961.320763197     
  -5267290819.8037672       -5036482.8081259727        26614551.048607618     
  -3965677651.8159080       -9855466.7371094227        656185154.94200635     
  -3805009969.4482098       -2293488.8978595734        646845705.08551621     
  -3644757481.9176278        3884506.1509921551        642771532.20011079     
  -3484920189.2241745        8678518.4094252586        643962636.28578913     
  -3325498091.3678341        12088547.877470732        650419017.34255815     
  -4296668968.4617424       -10327128.149522781        502234108.89160544     
  -4123169593.4437151       -4221922.5607185364        493805742.35662192     
  -3949650796.6776032        1948022.1883783340        490318809.87013823     
  -3776112578.1633997        8182706.0977711678        491773311.43215072     
  -3602554937.9011111        14482129.167462349        498169247.04266304     
  -4623934935.3416634       -9681184.6321618557        345988659.55923975     
  -4438529133.1664171       -5310330.9417293072        338978429.02850753     
  -4252669292.6578822        573983.85966944695        336585789.62368733     
  -4066355413.8160391        7971759.7720894814        338810741.34477872     
  -3879587496.6409030        16882996.795492649        345653284.19177753     
  -4947475552.4556751       -7917636.1850416660        187448806.94490623     
  -4751088588.6163187       -5558714.0409190655        182363765.10116822     
  -4553812969.8584566       -237608.83510923386        181572471.46075892     
  -4355648696.1820908        8045679.4323744774        185074926.02366984     
  -4156595767.5872173        19291150.761559486        192871128.78991008     
  -5267290819.8037672       -5036482.8081259727        26614551.048607618     
  -5060847959.7934036       -4967071.8582401276        23961750.574618816     
  -4853081828.2793417       -486755.89601445198        25278855.381355010     
  -4643992425.2615385        8404465.0786635876        30565865.468829002     
  -4433579750.7400389        21706591.065687656        39822780.837040789     
  -3325498091.3678341        12088547.877470732        650419017.34255815     
  -3218128032.6170821       -127959.12691187859        643580207.04385519     
  -3110349982.1549611       -10984493.760078311        638267457.67466235     
  -3002163939.9814939       -20481056.022073865        634480769.23497224     
  -2893569906.0966625       -28617645.912875652        632220141.72478914     
  -3602554937.9011111        14482129.167462349        498169247.04266304     
  -3489792028.4490957        2586656.8799433708        492093413.18949783     
  -3377019843.6775622       -9277897.6758310795        488565780.16543895     
  -3264238383.5864997       -21111534.499840379        487586347.97049296     
  -3151447648.1759076       -32914253.592108607        489155116.60465294     
  -3879587496.6409030        16882996.795492649        345653284.19177753     
  -3758511336.7744875        6184679.1387755871        339875257.66034096     
  -3637824617.9803705       -5811775.4256255627        337667571.85762340     
  -3517527340.2585673       -19106366.897724867        339030226.78360587     
  -3397619503.6090717       -33699095.277518749        343963222.43830580     
  -4156595767.5872173        19291150.761559486        192871128.78991008     
  -4024285957.5932322        10666107.649620056        186925740.45639589     
  -3892764305.0633931       -586127.00947451591        185572832.75120041     
  -3762030809.9976921       -14465553.215706825        188812405.67432049     
  -3632085472.3961463       -30972170.969100952        196644459.22574612     
  -4433579750.7400389        21706591.065687656        39822780.837040789     
  -4287115890.9053555        16030942.412417650        33244861.577654742     
  -4141838904.9266376        6399047.5725748539        32281562.846180804     
  -3997748792.8038969       -7189093.4538552761        36932884.642627142     
  -3854845554.5371342       -24733480.666864157        47198826.966983356     
  -2893569906.0966625       -28617645.912875652        632220141.72478914     
  -2697894426.1870170       -11575785.916943192        614487374.55481136     
  -2503250663.6507316        2027016.1677947044        603246750.82191765     
  -2309638618.4878278        12190760.341273665        598498270.52611661     
  -2117058290.6982675        18915446.603564262        600241933.66740799     
  -3151447648.1759076       -32914253.592108607        489155116.60465294     
  -2939630937.7276249       -15459771.931587815        474407271.46340346     
  -2728120596.0660043        973480.44004297256        465488393.68450230     
  -2516916623.1910672        16385503.522734165        462398483.26794189     
  -2306019019.1028032        30776297.316521883        465137540.21372855     
  -3397619503.6090717       -33699095.277518749        343963222.43830580     
  -3171556351.4071321       -16400428.587888718        333046539.34359872     
  -2945074219.4051695        2294837.4351398945        327295647.53648239     
  -2718173107.6032004        22386702.791519642        326710547.01697034     
  -2490853016.0012159        43875167.481309652        331291237.78505599     
  -3632085472.3961463       -30972170.969100952        196644459.22574612     
  -3393670667.2255402       -14397755.885859966        190405178.19538328     
  -3154111533.6682262        5991087.1530543566        188668512.37786648     
  -2913408071.7242174        30194358.147663236        191434461.77321064     
  -2671560281.3934884        58212057.097952843        198703026.38138741     
  -3854845554.5371342       -24733480.666864157        47198826.966983356     
  -3605973885.1828604       -9451753.8255181313        46483188.018774636     
  -3355232538.8551841        12062229.593803644        49606988.208661169     
  -3102621515.5541277        39808469.591093779        56570227.536660418     
  -2848140815.2796540        73786966.166408181        67372906.002752036     
 </DataArray>
 <DataArray  type="Float64" Name="VM" NumberOfComponents="1" format="ascii">
   12935503942.987852     
   11340704637.393286     
   10210295242.778976     
   9272929528.1020966     
   8304173430.1444435     
   10130267022.767061     
   9322020833.1271687     
   8826415292.9740391     
   8443613666.3646564     
   8035809560.0786505     
   7982355370.5354099     
   7734987981.7172260     
   7669183370.6958923     
   7669632511.1391869     
   7666404698.0803719     
   6491682078.9066000     
   6586892007.8374081     
   6757432524.8510466     
   6961219912.8482924     
   7171593737.5387373     
   5657799529.9933310     
   5890892949.7412453     
   6116353071.0493412     
   6331719607.8829956     
   6536767543.7768545     
   8304173430.1444435     
   8020742911.7042990     
   7779432052.8908043     
   7569557897.2123871     
   7386152160.6024647     
   8035809560.0786505     
   7746878725.1551247     
   7473633009.0113964     
   7214112906.1105404     
   6968325864.9735708     
   7666404698.0803719     
   7381122119.5107870     
   7101243669.1252384     
   6826847285.7772369     
   6558136905.5249043     
   7171593737.5387373     
   6910911991.8177958     
   6658133164.0248442     
   6409401136.9157743     
   6161571717.4395313     
   6536767543.7768545     
   6328600165.8633223     
   6142610021.5112906     
   5964894291.5393763     
   5786445331.7097044     
   7386152160.6024647     
   7228776687.5138931     
   7063881601.7140522     
   6890774002.1376781     
   6709267771.5379457     
   6968325864.9735708     
   6814853463.2742510     
   6656751520.4382191     
   6493736618.7786503     
   6325757520.1828041     
   6558136905.5249043     
   6407829128.6801367     
   6255872145.0076313     
   6102233176.2886486     
   5946940661.1058035     
   6161571717.4395313     
   6012703645.5951061     
   5865148574.3463001     
   5718944126.3462257     
   5574145146.4557734     
   5786445331.7097044     
   5635942639.2127495     
   5489616433.1325502     
   5347379700.1584530     
   5209276577.0385237     
   6709267771.5379457     
   6513558468.2767363     
   6321360104.6817350     
   6132573349.9057531     
   5947198207.0928736     
   6325757520.1828041     
   6139914791.3188066     
   5956401839.7344522     
   5775202095.4022770     
   5596352151.2517853     
   5946940661.1058035     
   5772751357.0396090     
   5600012800.3625040     
   5428751741.2891808     
   5259031329.9915695     
   5574145146.4557734     
   5413889748.3249502     
   5254539873.0096941     
   5096133673.0607061     
   4938766945.5764380     
   5209276577.0385237     
   5065757042.7895784     
   4922983384.6556873     
   4780981825.5127563     
   4639905626.2947559     
   5947198207.0928736     
   5778708232.1850462     
   5608845437.3989849     
   5437592234.7084942     
   5264976194.6327171     
   5596352151.2517853     
   5436600867.3072948     
   5276294253.1315050     
   5115461547.8067474     
   4954171563.8987331     
   5259031329.9915695     
   5108172918.7551947     
   4957630905.8258305     
   4807475465.1196985     
   4657813575.0617924     
   4938766945.5764380     
   4796817018.4070072     
   4656097082.9295340     
   4516708994.0278463     
   4378791605.2060814     
   4639905626.2947559     
   4506696387.4413490     
   4375655450.3766088     
   4246903237.9625182     
   4120600640.1013756     
   5264976194.6327171     
   5058536512.1282272     
   4853035984.1490393     
   4648501841.2703915     
   4445007991.5665979     
   4954171563.8987331     
   4758805875.4787836     
   4564541190.5470552     
   4371446286.2338114     
   4179646379.0756354     
   4657813575.0617924     
   4474563457.0522490     
   4292727266.5381193     
   4112432864.1269007     
   3933879995.5238147     
   4378791605.2060814     
   4208879892.5229106     
   4040875749.3243585     
   3874985799.4733143     
   3711509433.1362872     
   4120600640.1013756     
   3965426518.8093147     
   3812859294.5137086     
   3663202371.4727535     
   3516876287.7846222     
   4445007991.5665979     
   4295539759.1185284     
   4145419228.8365483     
   3994671327.6768613     
   3843408049.2020159     
   4179646379.0756354     
   4042615291.7806959     
   3905719453.7859898     
   3769033773.2173357     
   3632701159.1500163     
   3933879995.5238147     
   3807392345.9911804     
   3681673216.7071347     
   3556821749.6303792     
   3432985480.9741244     
   3711509433.1362872     
   3593626269.8832693     
   3476939318.3377781     
   3361548182.1294332     
   3247583142.1594124     
   3516876287.7846222     
   3405660392.5124359     
   3295813722.3765616     
   3187415543.6652899     
   3080562535.5695310     
   3843408049.2020159     
   3602157169.9759693     
   3362377883.2677307     
   3124252897.3110328     
   2888100346.5902667     
   3632701159.1500163     
   3402515105.9331727     
   3173978487.4076977     
   2947332393.2110410     
   2722974233.4384751     
   3432985480.9741244     
   3215553416.2839580     
   3000265523.7466764     
   2787478517.3187518     
   2577755229.2628932     
   3247583142.1594124     
   3044898981.7333870     
   2845230577.7576399     
   2649116039.5162039     
   2457376734.8808336     
   3080562535.5695310     
   2894878630.7223191     
   2713496278.1110530     
   2537190563.1209831     
   2367110018.6833735     
   5657799529.9933310     
   5890892949.7412453     
   6116353071.0493412     
   6331719607.8829956     
   6536767543.7768545     
   5151382272.9390802     
   5311282923.0607595     
   5467817653.5473824     
   5618090272.5745640     
   5760634032.8682833     
   4643381498.0554638     
   4755485384.8901234     
   4868712516.8298368     
   4980427677.1622953     
   5088705208.7295942     
   4134061147.9724350     
   4224338466.4033546     
   4320533622.5522556     
   4420989755.2644424     
   4524252269.2491503     
   3624941533.5663862     
   3719667175.1596870     
   3825640000.6187391     
   3942796350.0050535     
   4071043396.4270043     
   6536767543.7768545     
   6328600165.8633223     
   6142610021.5112906     
   5964894291.5393763     
   5786445331.7097044     
   5760634032.8682833     
   5652007772.8839779     
   5559375491.5637131     
   5473678274.6514120     
   5389375283.7382555     
   5088705208.7295942     
   5053929202.9275866     
   5029665004.0532627     
   5010706609.3471174     
   4993852550.7282553     
   4524252269.2491503     
   4538959380.4558840     
   4558346610.0203085     
   4579932875.9420614     
   4601994197.1407270     
   4071043396.4270043     
   4112424498.4801235     
   4151181490.9319510     
   4186414019.0906620     
   4217387804.6559272     
   5786445331.7097044     
   5635942639.2127495     
   5489616433.1325502     
   5347379700.1584530     
   5209276577.0385237     
   5389375283.7382555     
   5248322170.3739614     
   5110481029.4876833     
   4975893043.5974073     
   4844650950.3420401     
   4993852550.7282553     
   4866695391.4863882     
   4742729427.5304451     
   4621923637.3650637     
   4504320033.0459242     
   4601994197.1407270     
   4493728184.6323023     
   4389694783.0107508     
   4289580418.0773506     
   4193299142.2961588     
   4217387804.6559272     
   4133375821.4859843     
   4055880388.7451224     
   3984057465.7943554     
   3917617852.0497417     
   5209276577.0385237     
   5065757042.7895784     
   4922983384.6556873     
   4780981825.5127563     
   4639905626.2947559     
   4844650950.3420401     
   4717567770.1492386     
   4592203404.0622835     
   4468681911.0647278     
   4347235533.5102673     
   4504320033.0459242     
   4392979768.9777346     
   4284320015.7432814     
   4178536743.9424162     
   4075913385.3032255     
   4193299142.2961588     
   4096863241.7293115     
   4004005274.0380273     
   3914962367.2162747     
   3830038093.7241464     
   3917617852.0497417     
   3835029019.5364752     
   3756785870.4526477     
   3683133301.3958035     
   3614364292.7251110     
   4639905626.2947559     
   4506696387.4413490     
   4375655450.3766088     
   4246903237.9625182     
   4120600640.1013756     
   4347235533.5102673     
   4225106559.1402111     
   4105512584.6686025     
   3988629241.8422513     
   3874681253.8054023     
   4075913385.3032255     
   3966230790.9989195     
   3859625167.4251785     
   3756331117.5417843     
   3656642924.0090575     
   3830038093.7241464     
   3734240986.6605234     
   3642245675.6898384     
   3554342810.9716744     
   3470893508.0360198     
   3614364292.7251110     
   3533865289.2930336     
   3458065271.9014482     
   3387296611.5533190     
   3321971001.1546769     
   4120600640.1013756     
   3965426518.8093147     
   3812859294.5137086     
   3663202371.4727535     
   3516876287.7846222     
   3874681253.8054023     
   3735119092.5046139     
   3599027585.8600965     
   3466793041.8165517     
   3338919510.7377515     
   3656642924.0090575     
   3532929217.4917731     
   3413570330.8746004     
   3299014637.8883061     
   3189820118.2951097     
   3470893508.0360198     
   3363168543.3570366     
   3260650185.2854428     
   3163816807.2680340     
   3073239072.7803669     
   3321971001.1546769     
   3230164265.5774965     
   3144315045.8350616     
   3064891500.0780873     
   2992429856.0915542     
   3516876287.7846222     
   3405660392.5124359     
   3295813722.3765616     
   3187415543.6652899     
   3080562535.5695310     
   3338919510.7377515     
   3235631393.6861901     
   3134591187.9713202     
   3035975789.6569257     
   2939998032.3952756     
   3189820118.2951097     
   3097350748.2918181     
   3008335398.5386796     
   2923063037.2879953     
   2841877293.3492699     
   3073239072.7803669     
   2994190477.4206476     
   2920073764.3474445     
   2851276602.5312710     
   2788252368.6720204     
   2992429856.0915542     
   2928820689.6196847     
   2871797524.2101889     
   2821803025.4436021     
   2779345053.4438696     
   3080562535.5695310     
   2894878630.7223191     
   2713496278.1110530     
   2537190563.1209831     
   2367110018.6833735     
   2939998032.3952756     
   2776554758.3856320     
   2618987374.0473962     
   2468332030.2381024     
   2325973659.5713468     
   2841877293.3492699     
   2701235105.1098299     
   2567879601.1895614     
   2442955785.0565076     
   2327873715.5593867     
   2788252368.6720204     
   2670418506.8557973     
   2560889389.9676442     
   2460749455.1074438     
   2371237572.6406751     
   2779345053.4438696     
   2683565611.9842963     
   2596554184.7859006     
   2519203778.6965432     
   2452464709.6229200     
   3624941533.5663862     
   3719667175.1596870     
   3825640000.6187391     
   3942796350.0050535     
   4071043396.4270043     
   3137964783.3967786     
   3255510525.3960700     
   3382470516.0413566     
   3518375740.3359203     
   3662768491.8616915     
   2694762790.9544911     
   2830528368.5882244     
   2973604966.9138532     
   3122910408.8809738     
   3277533800.1568165     
   2298825298.2443280     
   2449513346.9082346     
   2604925130.3512769     
   2763138215.4175620     
   2922722792.9049697     
   1955362947.3875079     
   2119420637.2991183     
   2284839999.1382275     
   2448661066.0725770     
   2608925486.9806972     
   4071043396.4270043     
   4112424498.4801235     
   4151181490.9319510     
   4186414019.0906620     
   4217387804.6559272     
   3662768491.8616915     
   3702159275.3033118     
   3740184984.3385420     
   3775945789.9643364     
   3808691472.8102374     
   3277533800.1568165     
   3320766403.5985293     
   3364244309.9070177     
   3407144217.9696069     
   3448787802.8168426     
   2922722792.9049697     
   2975632398.7056127     
   3030751872.4916067     
   3087398923.0400643     
   3145040366.5981374     
   2608925486.9806972     
   2676812766.0057859     
   2749174922.9476585     
   2825503570.4698672     
   2905445315.2634492     
   4217387804.6559272     
   4133375821.4859843     
   4055880388.7451224     
   3984057465.7943554     
   3917617852.0497417     
   3808691472.8102374     
   3756094911.3903089     
   3709495723.9200821     
   3668423165.9618154     
   3632784139.7690907     
   3448787802.8168426     
   3422983873.9701004     
   3402275398.4220443     
   3386433765.4273386     
   3375443815.6033654     
   3145040366.5981374     
   3141682393.5819511     
   3141923199.4659228     
   3145661880.9853220     
   3152884146.3731647     
   2905445315.2634492     
   2920534214.6198387     
   2936947470.7488050     
   2954629742.0324712     
   2973541576.4748797     
   3917617852.0497417     
   3835029019.5364752     
   3756785870.4526477     
   3683133301.3958035     
   3614364292.7251110     
   3632784139.7690907     
   3562324564.9597878     
   3496653794.7213054     
   3436015018.9077849     
   3380699013.4900007     
   3375443815.6033654     
   3317523150.0683227     
   3264948007.5496039     
   3217944263.0963473     
   3176786127.4928446     
   3152884146.3731647     
   3107726706.1997762     
   3068571821.8641195     
   3035605417.7700276     
   3009064397.8793044     
   2973541576.4748797     
   2940989666.6245880     
   2915170050.0568004     
   2896201158.8083906     
   2884258481.7273388     
   3614364292.7251110     
   3533865289.2930336     
   3458065271.9014482     
   3387296611.5533190     
   3321971001.1546769     
   3380699013.4900007     
   3313864934.2261314     
   3252312719.5508571     
   3196354018.2719274     
   3146361499.5112615     
   3176786127.4928446     
   3122666273.0918756     
   3074330585.8560205     
   3032049073.8057880     
   2996133850.2184925     
   3009064397.8793044     
   2966337059.5351238     
   2929777243.5246615     
   2899596328.1655703     
   2876030676.9085584     
   2884258481.7273388     
   2851138593.0055718     
   2824416090.5484500     
   2804235419.5716653     
   2790752984.3051720     
   3321971001.1546769     
   3230164265.5774965     
   3144315045.8350616     
   3064891500.0780873     
   2992429856.0915542     
   3146361499.5112615     
   3067535916.5144506     
   2995537581.9300776     
   2930830352.4818168     
   2873936575.2911077     
   2996133850.2184925     
   2930441871.6449976     
   2872470555.0760674     
   2822646967.9728031     
   2781443115.9501872     
   2876030676.9085584     
   2823089912.5023274     
   2778749774.0078149     
   2743367529.1712198     
   2717330994.1092649     
   2790752984.3051720     
   2749480136.8029971     
   2717645623.3798442     
   2695512131.8015490     
   2683361302.9773664     
   2992429856.0915542     
   2928820689.6196847     
   2871797524.2101889     
   2821803025.4436021     
   2779345053.4438696     
   2873936575.2911077     
   2823310384.6993060     
   2778881717.9842687     
   2740973545.2845221     
   2709943998.2189550     
   2781443115.9501872     
   2741577947.3278179     
   2707308847.7594552     
   2678852082.6842966     
   2656439444.2384830     
   2717330994.1092649     
   2686014096.5079632     
   2659488809.8977008     
   2637884844.6773534     
   2621336462.7882805     
   2683361302.9773664     
   2658490615.6843133     
   2637427718.3848505     
   2620239129.3994684     
   2606991227.6026530     
   2779345053.4438696     
   2683565611.9842963     
   2596554184.7859006     
   2519203778.6965432     
   2452464709.6229200     
   2709943998.2189550     
   2626749444.8654685     
   2554193727.7911892     
   2493186660.8085775     
   2444665925.7915568     
   2656439444.2384830     
   2586745448.4368949     
   2529484236.0693517     
   2485483055.2948442     
   2455566721.7548103     
   2621336462.7882805     
   2565041236.3439279     
   2522876176.7361751     
   2495506367.9932284     
   2483576367.3785391     
   2606991227.6026530     
   2562831980.3403578     
   2534451139.5289912     
   2522308631.9413648     
   2526844231.5568552     
   1955362947.3875079     
   2119420637.2991183     
   2284839999.1382275     
   2448661066.0725770     
   2608925486.9806972     
   1653882215.1712713     
   1820350111.2455599     
   1988517391.1085727     
   2155687593.0491095     
   2320102594.0979095     
   1393729634.9820623     
   1571134498.3311026     
   1749542451.1087649     
   1926949643.0301099     
   2102105686.4962809     
   1207212612.6103275     
   1399189689.2103190     
   1590737345.4606984     
   1781078740.6631782     
   1969755328.4923279     
   1136994577.3190484     
   1335352136.4749143     
   1534005825.0602219     
   1732955643.0749717     
   1932201590.5191638     
   2608925486.9806972     
   2676812766.0057859     
   2749174922.9476585     
   2825503570.4698672     
   2905445315.2634492     
   2320102594.0979095     
   2407075085.1592441     
   2496474476.4176040     
   2587911858.5349870     
   2681111961.9134555     
   2102105686.4962809     
   2205784029.6153960     
   2309379049.4426041     
   2412655102.2283058     
   2515445619.4492192     
   1969755328.4923279     
   2086858506.1564581     
   2201140018.5563436     
   2312525000.3238950     
   2420961375.0509710     
   1932201590.5191638     
   2058834163.5467114     
   2180098748.5518751     
   2295995345.5346541     
   2406523954.4950490     
   2905445315.2634492     
   2920534214.6198387     
   2936947470.7488050     
   2954629742.0324712     
   2973541576.4748797     
   2681111961.9134555     
   2703108361.4624100     
   2727462932.7620897     
   2754158446.8198671     
   2783187278.6410809     
   2515445619.4492192     
   2544233192.7443533     
   2576436346.4067082     
   2612056904.0958004     
   2651100829.1148014     
   2420961375.0509710     
   2454949602.8479137     
   2493408046.0332088     
   2536340155.4333806     
   2583750251.5326428     
   2406523954.4950490     
   2442563079.7229643     
   2484115416.1916418     
   2531180963.9010825     
   2583759722.8512836     
   2973541576.4748797     
   2940989666.6245880     
   2915170050.0568004     
   2896201158.8083906     
   2884258481.7273388     
   2783187278.6410809     
   2765157348.1059422     
   2754066428.7102523     
   2749999504.9317837     
   2753072677.1831293     
   2651100829.1148014     
   2645183775.7303128     
   2646178419.1692615     
   2654127637.1000571     
   2669087048.8789577     
   2583750251.5326428     
   2586780757.4741235     
   2596458073.3015242     
   2612793093.6371574     
   2635799573.5933266     
   2583759722.8512836     
   2592073627.6971407     
   2606571440.5862222     
   2627253161.5185318     
   2654118790.4940662     
   2884258481.7273388     
   2851138593.0055718     
   2824416090.5484500     
   2804235419.5716653     
   2790752984.3051720     
   2753072677.1831293     
   2729963014.5235524     
   2713681471.1746993     
   2704324328.9594660     
   2701993422.0470743     
   2669087048.8789577     
   2654261124.0816231     
   2646597246.6535711     
   2646143647.0042486     
   2652950268.3989005     
   2635799573.5933266     
   2626887335.2185893     
   2625376624.5770493     
   2631280355.7417588     
   2644611681.1159396     
   2654118790.4940662     
   2648281762.5602956     
   2650010680.8809972     
   2659305545.4561720     
   2676166356.2858195     
   2790752984.3051720     
   2749480136.8029971     
   2717645623.3798442     
   2695512131.8015490     
   2683361302.9773664     
   2701993422.0470743     
   2673357854.5021200     
   2654091394.6873212     
   2644346557.2075210     
   2644282341.2403398     
   2652950268.3989005     
   2634141921.9050498     
   2624486952.5327291     
   2624052422.2731700     
   2632906682.8232293     
   2644611681.1159396     
   2632480627.4323010     
   2629185421.2294207     
   2634742013.8162003     
   2649166410.1809511     
   2676166356.2858195     
   2667469083.3276162     
   2667234443.8138971     
   2675462437.7446575     
   2692153065.1198945     
   2683361302.9773664     
   2658490615.6843133     
   2637427718.3848505     
   2620239129.3994684     
   2606991227.6026530     
   2644282341.2403398     
   2626376218.0649967     
   2613743516.5630260     
   2606443281.2349129     
   2604533143.7546086     
   2632906682.8232293     
   2621304568.9360251     
   2616434735.2389565     
   2618333919.4133949     
   2627037126.2318988     
   2649166410.1809511     
   2642366479.0437279     
   2643755241.0909014     
   2653344559.8620911     
   2671145481.5951319     
   2692153065.1198945     
   2687920071.2137580     
   2693359748.0256605     
   2708472095.5555983     
   2733257113.8035703     
   2606991227.6026530     
   2562831980.3403578     
   2534451139.5289912     
   2522308631.9413648     
   2526844231.5568552     
   2604533143.7546086     
   2578194103.4713950     
   2565840515.3595166     
   2567682045.0740533     
   2583912871.6866169     
   2627037126.2318988     
   2614355872.9481993     
   2613850352.1731901     
   2625593494.0181265     
   2649651417.5414929     
   2671145481.5951319     
   2668466299.6696014     
   2676212573.3220115     
   2694398150.8228846     
   2723035446.7249928     
   2733257113.8035703     
   2737573421.7732477     
   2750651739.2972507     
   2772492066.3755598     
   2803094403.0082068     
   1136994577.3190484     
   1335352136.4749143     
   1534005825.0602219     
   1732955643.0749717     
   1932201590.5191638     
   1207212612.6109879     
   1399189689.2097163     
   1590737345.4587507     
   1781078740.6597321     
   1969755328.4871812     
   1393729634.9826512     
   1571134498.3300030     
   1749542451.1056616     
   1926949643.0246170     
   2102105686.4879572     
   1653882215.1710229     
   1820350111.2440553     
   1988517391.1052215     
   2155687593.0432682     
   2320102594.0889049     
   1955362947.3857834     
   2119420637.2972488     
   2284839999.1354041     
   2448661066.0679493     
   2608925486.9734073     
   1932201590.5191638     
   2058834163.5467114     
   2180098748.5518751     
   2295995345.5346541     
   2406523954.4950490     
   1969755328.4871812     
   2086858506.1529706     
   2201140018.5548348     
   2312525000.3247237     
   2420961375.0545058     
   2102105686.4879572     
   2205784029.6092072     
   2309379049.4391613     
   2412655102.2282634     
   2515445619.4532471     
   2320102594.0889049     
   2407075085.1515508     
   2496474476.4120669     
   2587911858.5324802     
   2681111961.9148717     
   2608925486.9734073     
   2676812765.9978461     
   2749174922.9400592     
   2825503570.4636011     
   2905445315.2595315     
   2406523954.4950490     
   2442563079.7229643     
   2484115416.1916418     
   2531180963.9010825     
   2583759722.8512836     
   2420961375.0545058     
   2454949602.8396807     
   2493408046.0118232     
   2536340155.3974142     
   2583750251.4806519     
   2515445619.4532471     
   2544233192.7304354     
   2576436346.3723874     
   2612056904.0385504     
   2651100829.0320597     
   2681111961.9148717     
   2703108361.4458590     
   2727462932.7244062     
   2754158446.7578363     
   2783187278.5514331     
   2905445315.2595315     
   2920534214.6036344     
   2936947470.7168961     
   2954629741.9814358     
   2973541576.4012532     
   2583759722.8512836     
   2592073627.6971407     
   2606571440.5862222     
   2627253161.5185318     
   2654118790.4940662     
   2583750251.4806519     
   2586780757.4092774     
   2596458073.2194772     
   2612793093.5336723     
   2635799573.4642482     
   2651100829.0320597     
   2645183775.6248488     
   2646178419.0322084     
   2654127636.9226232     
   2669087048.6524205     
   2783187278.5514331     
   2765157347.9903250     
   2754066428.5552421     
   2749999504.7238059     
   2753072676.9084549     
   2973541576.4012532     
   2940989666.5308909     
   2915170049.9253216     
   2896201158.6208129     
   2884258481.4647417     
   2654118790.4940662     
   2648281762.5602956     
   2650010680.8809972     
   2659305545.4561720     
   2676166356.2858195     
   2635799573.4642482     
   2626887335.1057940     
   2625376624.4873085     
   2631280355.6816998     
   2644611681.0920410     
   2669087048.6524205     
   2654261123.8706155     
   2646597246.4703679     
   2646143646.8610644     
   2652950268.3078818     
   2753072676.9084549     
   2729963014.2443113     
   2713681470.9070730     
   2704324328.7199054     
   2701993421.8522987     
   2884258481.4647417     
   2851138592.6991725     
   2824416090.2164631     
   2804235419.2330284     
   2790752983.9796524     
   2676166356.2858195     
   2667469083.3276162     
   2667234443.8138971     
   2675462437.7446575     
   2692153065.1198945     
   2644611681.0920410     
   2632480627.3826394     
   2629185421.1554132     
   2634742013.7192907     
   2649166410.0626616     
   2652950268.3078818     
   2634141921.7770114     
   2624486952.3719697     
   2624052422.0839453     
   2632906682.6098051     
   2701993421.8522987     
   2673357854.2711086     
   2654091394.4287348     
   2644346556.9298978     
   2644282340.9520617     
   2790752983.9796524     
   2749480136.4504929     
   2717645623.0148001     
   2695512131.4383583     
   2683361302.6301918     
   2692153065.1198945     
   2687920071.2137580     
   2693359748.0256605     
   2708472095.5555983     
   2733257113.8035703     
   2649166410.0626616     
   2642366478.9569449     
   2643755241.0311656     
   2653344559.8248348     
   2671145481.5756488     
   2632906682.6098051     
   2621304568.7784004     
   2616434735.1275225     
   2618333919.3383660     
   2627037126.1833072     
   2644282340.9520617     
   2626376217.8515906     
   2613743516.4091039     
   2606443281.1248899     
   2604533143.6726818     
   2683361302.6301918     
   2658490615.4283290     
   2637427718.1984205     
   2620239129.2607594     
   2606991227.4896049     
   2733257113.8035703     
   2737573421.7732477     
   2750651739.2972507     
   2772492066.3755598     
   2803094403.0082068     
   2671145481.5756488     
   2668466299.5963931     
   2676212573.2002139     
   2694398150.6579542     
   2723035446.5229111     
   2627037126.1833072     
   2614355872.7821069     
   2613850351.8992453     
   2625593493.6468811     
   2649651417.0846624     
   2604533143.6726818     
   2578194103.1965203     
   2565840514.9050078     
   2567682044.4549212     
   2583912870.9201832     
   2606991227.4896049     
   2562831979.9461679     
   2534451138.8692217     
   2522308631.0344696     
   2526844230.4253674     
   1955362947.3857834     
   2119420637.2972488     
   2284839999.1354041     
   2448661066.0679493     
   2608925486.9734073     
   2298825298.2410927     
   2449513346.9058142     
   2604925130.3491039     
   2763138215.4150887     
   2922722792.9016862     
   2694762790.9503603     
   2830528368.5855651     
   2973604966.9123530     
   3122910408.8803940     
   3277533800.1569934     
   3137964783.3924584     
   3255510525.3934722     
   3382470516.0404081     
   3518375740.3366804     
   3662768491.8643384     
   3624941533.5626140     
   3719667175.1574335     
   3825640000.6181431     
   3942796350.0064559     
   4071043396.4309201     
   2608925486.9734073     
   2676812765.9978461     
   2749174922.9400592     
   2825503570.4636011     
   2905445315.2595315     
   2922722792.9016862     
   2975632398.7001991     
   3030751872.4844570     
   3087398923.0314980     
   3145040366.5884371     
   3277533800.1569934     
   3320766403.5955825     
   3364244309.9007940     
   3407144217.9597950     
   3448787802.8030329     
   3662768491.8643384     
   3702159275.3025503     
   3740184984.3337436     
   3775945789.9546523     
   3808691472.7946730     
   4071043396.4309201     
   4112424498.4811559     
   4151181490.9290810     
   4186414019.0826206     
   4217387804.6412749     
   2905445315.2595315     
   2920534214.6036344     
   2936947470.7168961     
   2954629741.9814358     
   2973541576.4012532     
   3145040366.5884371     
   3141682393.5678000     
   3141923199.4462428     
   3145661880.9590735     
   3152884146.3391995     
   3448787802.8030329     
   3422983873.9585562     
   3402275398.4138451     
   3386433765.4236975     
   3375443815.6053662     
   3808691472.7946730     
   3756094911.3814535     
   3709495723.9208865     
   3668423165.9755311     
   3632784139.7989144     
   4217387804.6412749     
   4133375821.4795794     
   4055880388.7514124     
   3984057465.8183470     
   3917617852.0965652     
   2973541576.4012532     
   2940989666.5308909     
   2915170049.9253216     
   2896201158.6208129     
   2884258481.4647417     
   3152884146.3391995     
   3107726706.1690292     
   3068571821.8249464     
   3035605417.7101240     
   3009064397.7856655     
   3375443815.6053662     
   3317523150.0931907     
   3264948007.5911336     
   3217944263.1477900     
   3176786127.5468783     
   3632784139.7989144     
   3562324565.0251236     
   3496653794.8206444     
   3436015019.0393348     
   3380699013.6516852     
   3917617852.0965652     
   3835029019.6223998     
   3756785870.5800481     
   3683133301.5671163     
   3614364292.9429026     
   2884258481.4647417     
   2851138592.6991725     
   2824416090.2164631     
   2804235419.2330284     
   2790752983.9796524     
   3009064397.7856655     
   2966337059.3916936     
   2929777243.3382177     
   2899596327.9436936     
   2876030676.6598182     
   3176786127.5468783     
   3122666273.0927005     
   3074330585.7999272     
   3032049073.6896863     
   2996133850.0401235     
   3380699013.6516852     
   3313864934.3391685     
   3252312719.6022406     
   3196354018.2488079     
   3146361499.4011831     
   3614364292.9429026     
   3533865289.4783936     
   3458065272.0333500     
   3387296611.6102915     
   3321971001.1149402     
   2790752983.9796524     
   2749480136.4504929     
   2717645623.0148001     
   2695512131.4383583     
   2683361302.6301918     
   2876030676.6598182     
   2823089912.2322016     
   2778749773.7295270     
   2743367528.8980036     
   2717330993.8541994     
   2996133850.0401235     
   2930441871.4517093     
   2872470554.8804712     
   2822646967.7875738     
   2781443115.7878661     
   3146361499.4011831     
   3067535916.3975096     
   2995537581.8188343     
   2930830352.3888917     
   2873936575.2290154     
   3321971001.1149402     
   3230164265.5410919     
   3144315045.8149896     
   3064891500.0873904     
   2992429856.1431456     
   2683361302.6301918     
   2658490615.4283290     
   2637427718.1984205     
   2620239129.2607594     
   2606991227.4896049     
   2717330993.8541994     
   2686014096.3310051     
   2659488809.7867470     
   2637884844.6201816     
   2621336462.7725496     
   2781443115.7878661     
   2741577947.2244954     
   2707308847.7114935     
   2678852082.6881509     
   2656439444.2907891     
   2873936575.2290154     
   2823310384.6677718     
   2778881717.9868407     
   2740973545.3252068     
   2709943998.3024712     
   2992429856.1431456     
   2928820689.6615572     
   2871797524.2516770     
   2821803025.4950008     
   2779345053.5169544     
   2606991227.4896049     
   2562831979.9461679     
   2534451138.8692217     
   2522308631.0344696     
   2526844230.4253674     
   2621336462.7725496     
   2565041235.9889522     
   2522876176.0447412     
   2495506366.9708200     
   2483576366.0345058     
   2656439444.2907891     
   2586745448.1197705     
   2529484235.3739295     
   2485483054.2140465     
   2455566720.2846251     
   2709943998.3024712     
   2626749444.5788007     
   2554193727.1157098     
   2493186659.7259083     
   2444665924.2848372     
   2779345053.5169544     
   2683565611.7153506     
   2596554184.1494098     
   2519203777.6653132     
   2452464708.1689591     
   3624941533.5626140     
   3719667175.1574335     
   3825640000.6181431     
   3942796350.0064559     
   4071043396.4309201     
   4134061147.9697723     
   4224338466.4017200     
   4320533622.5519009     
   4420989755.2657423     
   4524252269.2525787     
   4643381498.0542345     
   4755485384.8892202     
   4868712516.8295794     
   4980427677.1629982     
   5088705208.7315445     
   5151382272.9395647     
   5311282923.0606890     
   5467817653.5471087     
   5618090272.5742922     
   5760634032.8680658     
   5657799529.9958172     
   5890892949.7421045     
   6116353071.0489473     
   6331719607.8814468     
   6536767543.7739859     
   4071043396.4309201     
   4112424498.4811559     
   4151181490.9290810     
   4186414019.0826206     
   4217387804.6412749     
   4524252269.2525787     
   4538959380.4573727     
   4558346610.0192108     
   4579932875.9375887     
   4601994197.1320028     
   5088705208.7315445     
   5053929202.9290009     
   5029665004.0540314     
   5010706609.3470697     
   4993852550.7271032     
   5760634032.8680658     
   5652007772.8848524     
   5559375491.5661144     
   5473678274.6558523     
   5389375283.7450809     
   6536767543.7739859     
   6328600165.8632545     
   6142610021.5148773     
   5964894291.5477724     
   5786445331.7239313     
   4217387804.6412749     
   4133375821.4795794     
   4055880388.7514124     
   3984057465.8183470     
   3917617852.0965652     
   4601994197.1320028     
   4493728184.6311760     
   4389694783.0196800     
   4289580418.0991120     
   4193299142.3337822     
   4993852550.7271032     
   4866695391.4903345     
   4742729427.5399437     
   4621923637.3806982     
   4504320033.0684395     
   5389375283.7450809     
   5248322170.3829832     
   5110481029.4973679     
   4975893043.6062603     
   4844650950.3485470     
   5786445331.7239313     
   5635942639.2270222     
   5489616433.1433554     
   5347379700.1623306     
   5209276577.0318098     
   3917617852.0965652     
   3835029019.6223998     
   3756785870.5800481     
   3683133301.5671163     
   3614364292.9429026     
   4193299142.3337822     
   4096863241.7915730     
   4004005274.1286855     
   3914962367.3391957     
   3830038093.8834267     
   4504320033.0684395     
   4392979769.0076065     
   4284320015.7854381     
   4178536744.0020065     
   4075913385.3857560     
   4844650950.3485470     
   4717567770.1427603     
   4592203404.0486879     
   4468681911.0502281     
   4347235533.5015669     
   5209276577.0318098     
   5065757042.7463856     
   4922983384.5825691     
   4780981825.4167337     
   4639905626.1834688     
   3614364292.9429026     
   3533865289.4783936     
   3458065272.0333500     
   3387296611.6102915     
   3321971001.1149402     
   3830038093.8834267     
   3734240986.8026118     
   3642245675.7989235     
   3554342811.0311604     
   3470893508.0283775     
   4075913385.3857560     
   3966230791.0900626     
   3859625167.5151086     
   3756331117.6197834     
   3656642924.0632567     
   4347235533.5015669     
   4225106559.1717281     
   4105512584.7369199     
   3988629241.9431262     
   3874681253.9335332     
   4639905626.1834688     
   4506696387.4038067     
   4375655450.4159117     
   4246903238.0810995     
   4120600640.3008728     
   3321971001.1149402     
   3230164265.5410919     
   3144315045.8149896     
   3064891500.0873904     
   2992429856.1431456     
   3470893508.0283775     
   3363168543.3789563     
   3260650185.3439007     
   3163816807.3706088     
   3073239072.9351511     
   3656642924.0632567     
   3532929217.5900159     
   3413570331.0163937     
   3299014638.0740037     
   3189820118.5258889     
   3874681253.9335332     
   3735119092.6852546     
   3599027586.0844097     
   3466793042.0763803     
   3338919511.0256910     
   4120600640.3008728     
   3965426519.0686808     
   3812859294.8154511     
   3663202371.7995744     
   3516876288.1195307     
   2992429856.1431456     
   2928820689.6615572     
   2871797524.2516770     
   2821803025.4950008     
   2779345053.5169544     
   3073239072.9351511     
   2994190477.5287733     
   2920073764.4178810     
   2851276602.5737586     
   2788252368.6974344     
   3189820118.5258889     
   3097350748.4446249     
   3008335398.6231036     
   2923063037.3141418     
   2841877293.3280334     
   3338919511.0256910     
   3235631393.8692274     
   3134591188.0605550     
   3035975789.6636806     
   2939998032.3313227     
   3516876288.1195307     
   3405660392.7185578     
   3295813722.4672337     
   3187415543.6537895     
   3080562535.4692206     
   2779345053.5169544     
   2683565611.7153506     
   2596554184.1494098     
   2519203777.6653132     
   2452464708.1689591     
   2788252368.6974344     
   2670418506.5908704     
   2560889389.3927698     
   2460749454.1986523     
   2371237571.3698802     
   2841877293.3280334     
   2701235104.8751521     
   2567879600.7341070     
   2442955784.3666863     
   2327873714.6143012     
   2939998032.3313227     
   2776554758.1976576     
   2618987373.7456164     
   2468332029.8265848     
   2325973659.0455284     
   3080562535.4692206     
   2894878630.5868349     
   2713496277.9707727     
   2537190563.0025616     
   2367110018.6064830     
   5657799529.9958172     
   5890892949.7421045     
   6116353071.0489473     
   6331719607.8814468     
   6536767543.7739859     
   6491682078.9102335     
   6586892007.8393955     
   6757432524.8512726     
   6961219912.8464451     
   7171593737.5344601     
   7982355370.5382204     
   7734987981.7192039     
   7669183370.6966705     
   7669632511.1383314     
   7666404698.0774746     
   10130267022.767099     
   9322020833.1280727     
   8826415292.9753284     
   8443613666.3660049     
   8035809560.0798292     
   12935503942.983181     
   11340704637.392113     
   10210295242.780788     
   9272929528.1067486     
   8304173430.1521902     
   6536767543.7739859     
   6328600165.8632545     
   6142610021.5148773     
   5964894291.5477724     
   5786445331.7239313     
   7171593737.5344601     
   6910911991.8173256     
   6658133164.0289793     
   6409401136.9254398     
   6161571717.4556780     
   7666404698.0774746     
   7381122119.5109177     
   7101243669.1291237     
   6826847285.7855806     
   6558136905.5384235     
   8035809560.0798292     
   7746878725.1569147     
   7473633009.0143976     
   7214112906.1152658     
   6968325864.9804964     
   8304173430.1521902     
   8020742911.7088461     
   7779432052.8924475     
   7569557897.2114592     
   7386152160.5992861     
   5786445331.7239313     
   5635942639.2270222     
   5489616433.1433554     
   5347379700.1623306     
   5209276577.0318098     
   6161571717.4556780     
   6012703645.6101866     
   5865148574.3574381     
   5718944126.3505440     
   5574145146.4503345     
   6558136905.5384235     
   6407829128.6922865     
   6255872145.0162277     
   6102233176.2914429     
   5946940661.1005850     
   6968325864.9804964     
   6814853463.2797565     
   6656751520.4408569     
   6493736618.7768917     
   6325757520.1751690     
   7386152160.5992861     
   7228776687.5091028     
   7063881601.7069712     
   6890774002.1275511     
   6709267771.5240383     
   5209276577.0318098     
   5065757042.7463856     
   4922983384.5825691     
   4780981825.4167337     
   4639905626.1834688     
   5574145146.4503345     
   5413889748.2733183     
   5254539872.9139147     
   5096133672.9229345     
   4938766945.3989382     
   5946940661.1005850     
   5772751356.9967813     
   5600012800.2813368     
   5428751741.1688318     
   5259031329.8309841     
   6325757520.1751690     
   6139914791.3014374     
   5956401839.7053757     
   5775202095.3592339     
   5596352151.1920404     
   6709267771.5240383     
   6513558468.3007545     
   6321360104.7418070     
   6132573349.9994936     
   5947198207.2170582     
   4639905626.1834688     
   4506696387.4038067     
   4375655450.4159117     
   4246903238.0810995     
   4120600640.3008728     
   4938766945.3989382     
   4796817018.3091230     
   4656097082.9192295     
   4516708994.1128263     
   4378791605.3937712     
   5259031329.8309841     
   5108172918.6562738     
   4957630905.7987814     
   4807475465.1747465     
   4657813575.2092571     
   5596352151.1920404     
   5436600867.2666731     
   5276294253.1203194     
   5115461547.8353739     
   4954171563.9777575     
   5947198207.2170582     
   5778708232.2609978     
   5608845437.4354048     
   5437592234.7139578     
   5264976194.6158247     
   4120600640.3008728     
   3965426519.0686808     
   3812859294.8154511     
   3663202371.7995744     
   3516876288.1195307     
   4378791605.3937712     
   4208879892.7688365     
   4040875749.6132135     
   3874985799.7898464     
   3711509433.4652615     
   4657813575.2092571     
   4474563457.2581511     
   4292727266.7893848     
   4112432864.4104996     
   3933879995.8265800     
   4954171563.9777575     
   4758805875.6163216     
   4564541190.7322178     
   4371446286.4557543     
   4179646379.3233924     
   5264976194.6158247     
   5058536512.1682949     
   4853035984.2371740     
   4648501841.3978357     
   4445007991.7245388     
   3516876288.1195307     
   3405660392.7185578     
   3295813722.4672337     
   3187415543.6537895     
   3080562535.4692206     
   3711509433.4652615     
   3593626270.0918274     
   3476939318.4328671     
   3361548182.1177521     
   3247583142.0473599     
   3933879995.8265800     
   3807392346.1977024     
   3681673216.8204150     
   3556821749.6531386     
   3432985480.9085388     
   4179646379.3233924     
   4042615291.9745564     
   3905719453.9272470     
   3769033773.3071790     
   3632701159.1889572     
   4445007991.7245388     
   4295539759.2845383     
   4145419229.0121474     
   3994671327.8638172     
   3843408049.4015841     
   3080562535.4692206     
   2894878630.5868349     
   2713496277.9707727     
   2537190563.0025616     
   2367110018.6064830     
   3247583142.0473599     
   3044898981.6388516     
   2845230577.7119331     
   2649116039.5502539     
   2457376735.0241728     
   3432985480.9085388     
   3215553416.2662125     
   3000265523.8063102     
   2787478517.4869623     
   2577755229.5731473     
   3632701159.1889572     
   3402515106.0338764     
   3173978487.5958905     
   2947332393.5150075     
   2722974233.8904529     
   3843408049.4015841     
   3602157170.2401218     
   3362377883.6170473     
   3124252897.7686548     
   2888100347.1835718     
 </DataArray>
 <DataArray  type="Float64" Name="strain" NumberOfComponents="3" format="ascii">
  0.20348315340153678        0.0000000000000000       0.12540717098793908     
  0.18665508226538519       -2.7325606521524420E-002   7.4353605872529996E-002
  0.16982701112923360       -4.4677033326171206E-002   3.5132695610844339E-002
  0.15299893999308201       -5.2054280413940307E-002   7.7444402028821052E-003
  0.13617086885693042       -4.9457347784831796E-002  -7.8111603513566497E-003
  0.15985483503819031        0.0000000000000000        9.6449387010340143E-002
  0.15317802262080421       -2.1845309507601513E-002   6.2691183572078604E-002
  0.14650121020341814       -3.6175494879936890E-002   3.7402842717624625E-002
  0.13982439778603203       -4.2990556117006098E-002   2.0584364446978195E-002
  0.13314758536864596       -4.2290493218809178E-002   1.2235748760139331E-002
  0.12645862256087742        0.0000000000000000        7.4201427837469899E-002
  0.12657027659234096       -1.6365012493678603E-002   5.5279530494744378E-002
  0.12668193062380448       -2.7673956433702566E-002   4.1464703465910559E-002
  0.12679358465526802       -3.3926831820071883E-002   3.2756946750968394E-002
  0.12690523868673159       -3.5123638652786560E-002   2.9156260349917917E-002
  0.10329451596959813        0.0000000000000000        5.8663293469328311E-002
  0.10683184417999540       -1.0884715479755693E-002   5.2118646640527309E-002
  0.11036917239039268       -1.9172417987468250E-002   4.7318277855702119E-002
  0.11390650060078995       -2.4863107523137667E-002   4.4262187114852761E-002
  0.11744382881118723       -2.7956784086763942E-002   4.2950374417979179E-002
   9.0362515264352378E-002   0.0000000000000000        4.9834983905915377E-002
   9.3962725383767542E-002  -5.4044184658327832E-003   5.3208532009427406E-002
   9.7562935503182693E-002  -1.0670879541233930E-002   5.4963565886999362E-002
  0.10116314562259783       -1.5799383226203449E-002   5.5100085538631265E-002
  0.10476335574201300       -2.0789929520741327E-002   5.3618090964323087E-002
  0.13617086885693042       -4.9457347784831796E-002  -7.8111603513566497E-003
  0.13296196203270416       -4.2922376317336156E-002  -3.3949961751047752E-003
  0.12975305520847796       -3.8485506889943885E-002  -3.9095080381533476E-004
  0.12654414838425171       -3.6146739502655192E-002   1.2009757625115712E-003
  0.12333524156002551       -3.5906074155469814E-002   1.3807835238760502E-003
  0.13314758536864596       -4.2290493218809178E-002   1.2235748760139331E-002
  0.12891414908226626       -3.8424324156535128E-002   1.2179932161962628E-002
  0.12468071279588658       -3.5741066901372992E-002   1.1487175444441441E-002
  0.12044727650950689       -3.4240721453322721E-002   1.0157478607575838E-002
  0.11621384022312717       -3.3923287812384392E-002   8.1908416513658822E-003
  0.12690523868673159       -3.5123638652786560E-002   2.9156260349917917E-002
  0.12242245162381643       -3.3926271995734093E-002   2.5543653210304159E-002
  0.11793966456090130       -3.2996626912802023E-002   2.2069284636964018E-002
  0.11345687749798615       -3.2334703403990285E-002   1.8733154629897508E-002
  0.10897409043507102       -3.1940501469298999E-002   1.5535263189104379E-002
  0.11744382881118723       -2.7956784086763942E-002   4.2950374417979179E-002
  0.11348686965735472       -2.9428219834933083E-002   3.6696166969919890E-002
  0.10952991050352212       -3.0252186924231064E-002   3.1355376773752296E-002
  0.10557295134968957       -3.0428685354657887E-002   2.6928003829476153E-002
  0.10161599219585706       -2.9957715126213563E-002   2.3414048137091744E-002
  0.10476335574201300       -2.0789929520741327E-002   5.3618090964323087E-002
  0.10210740318288106       -2.4930167674132066E-002   4.5637473440809831E-002
   9.9451450623749119E-002  -2.7507746935660098E-002   3.9345451854806195E-002
   9.6795498064617194E-002  -2.8522667305325454E-002   3.4742026206312129E-002
   9.4139545505485270E-002  -2.7974928783128156E-002   3.1827196495327767E-002
  0.12333524156002551       -3.5906074155469814E-002   1.3807835238760502E-003
  0.12041660773752033       -3.6406794095700828E-002   6.4598494900135195E-004
  0.11749797391501512       -3.6292182570661149E-002   9.9600838097554933E-005
  0.11457934009250996       -3.5562239580350818E-002  -2.5836880883582658E-004
  0.11166070627000474       -3.4216965124769794E-002  -4.2792399179880647E-004
  0.11621384022312717       -3.3923287812384392E-002   8.1908416513658822E-003
  0.11347002021826230       -3.4000358215090551E-002   7.8287115715500039E-003
  0.11072620021339742       -3.3683524897973674E-002   7.6277946630442794E-003
  0.10798238020853260       -3.2972787861033762E-002   7.5880909258486222E-003
  0.10523856020366770       -3.1868147104270939E-002   7.7096003599629870E-003
  0.10897409043507102       -3.1940501469298999E-002   1.5535263189104379E-002
  0.10637788295518598       -3.1593922334480204E-002   1.5324373858899624E-002
  0.10378167547530087       -3.1074867225286136E-002   1.5247496407344463E-002
  0.10118546799541581       -3.0383336141716816E-002   1.5304630834438716E-002
   9.8589260515530727E-002  -2.9519329083772139E-002   1.5495777140182590E-002
  0.10161599219585706       -2.9957715126213563E-002   2.3414048137091744E-002
   9.9140195948291279E-002  -2.9187486453869850E-002   2.3132971811050233E-002
   9.6664399700725476E-002  -2.8466209552598615E-002   2.2958706070997842E-002
   9.4188603453159714E-002  -2.7793884422399731E-002   2.2891250916934475E-002
   9.1712807205593924E-002  -2.7170511063273339E-002   2.2930606348860082E-002
   9.4139545505485270E-002  -2.7974928783128156E-002   3.1827196495327767E-002
   9.1756959197578231E-002  -2.6781050573259545E-002   3.1254505428001962E-002
   8.9374372889671178E-002  -2.5857551879911046E-002   3.0761423654004694E-002
   8.6991786581764166E-002  -2.5204432703082737E-002   3.0347951173335878E-002
   8.4609200273857127E-002  -2.4821693042774484E-002   3.0014087985995586E-002
  0.11166070627000474       -3.4216965124769794E-002  -4.2792399179880647E-004
  0.10853004196702465       -3.2691593760135473E-002  -1.6223038915250121E-004
  0.10539937766404447       -3.1421360042665727E-002   1.8347743485960799E-004
  0.10226871336106437       -3.0406263972359935E-002   6.0919948023790971E-004
   9.9138049058084210E-002  -2.9646305549218821E-002   1.1149357469823484E-003
  0.10523856020366770       -3.1868147104270939E-002   7.7096003599629870E-003
  0.10221198373868970       -3.0643960459517353E-002   7.5672391619423657E-003
   9.9185407273711654E-002  -2.9574585758605151E-002   7.5530394185600591E-003
   9.6158830808733664E-002  -2.8660023001534526E-002   7.6670011298155052E-003
   9.3132254343755605E-002  -2.7900272188305208E-002   7.9091242957093633E-003
   9.8589260515530727E-002  -2.9519329083772139E-002   1.5495777140182590E-002
   9.5714919121826864E-002  -2.8596327158899121E-002   1.5045686844818051E-002
   9.2840577728123014E-002  -2.7727811474544790E-002   1.4771905237363742E-002
   8.9966236334419192E-002  -2.6913782030708946E-002   1.4674432317819782E-002
   8.7091894940715342E-002  -2.6154238827391679E-002   1.4753268086185670E-002
   9.1712807205593924E-002  -2.7170511063273339E-002   2.2930606348860082E-002
   8.9038848116436309E-002  -2.6548693858280945E-002   2.2273112659474622E-002
   8.6364889027278666E-002  -2.5881037190484322E-002   2.1840074891271266E-002
   8.3690929938121009E-002  -2.5167541059883274E-002   2.1631493044250303E-002
   8.1016970848963393E-002  -2.4408205466478108E-002   2.1647367118411618E-002
   8.4609200273857127E-002  -2.4821693042774484E-002   3.0014087985995586E-002
   8.2183770722517799E-002  -2.4501060557662754E-002   2.9249516605911893E-002
   7.9758341171178443E-002  -2.4034262906423798E-002   2.8757548380282563E-002
   7.7332911619839115E-002  -2.3421300089057726E-002   2.8538183309107526E-002
   7.4907482068499787E-002  -2.2662172105564482E-002   2.8591421392386851E-002
   9.9138049058084210E-002  -2.9646305549218821E-002   1.1149357469823484E-003
   9.6294286272648300E-002  -2.8959901297639118E-002   8.7248759688135502E-004
   9.3450523487212445E-002  -2.8165467742017988E-002   7.9806512536073626E-004
   9.0606760701776562E-002  -2.7263004882355443E-002   8.9166833242106114E-004
   8.7762997916340679E-002  -2.6252512718651366E-002   1.1532972180623435E-003
   9.3132254343755605E-002  -2.7900272188305208E-002   7.9091242957093633E-003
   9.0453775180797613E-002  -2.7182585117950936E-002   7.7187262818602387E-003
   8.7775296017839510E-002  -2.6394213589504764E-002   7.6908698343854248E-003
   8.5096816854881491E-002  -2.5535157602967037E-002   7.8255549532860250E-003
   8.2418337691923360E-002  -2.4605417158337639E-002   8.1227816385610052E-003
   8.7091894940715342E-002  -2.6154238827391679E-002   1.4753268086185670E-002
   8.4573215288029163E-002  -2.5405268938262601E-002   1.4577575362638664E-002
   8.2054535635342998E-002  -2.4622959436991769E-002   1.4558940093260302E-002
   7.9535855982656833E-002  -2.3807310323578856E-002   1.4697362278051063E-002
   7.7017176329970655E-002  -2.2958321598023967E-002   1.4992841917010474E-002
   8.1016970848963393E-002  -2.4408205466478108E-002   2.1647367118411618E-002
   7.8652606594343144E-002  -2.3627952758574454E-002   2.1449034839216913E-002
   7.6288242339722895E-002  -2.2851705284478770E-002   2.1402275901985228E-002
   7.3923878085102673E-002  -2.2079463044190673E-002   2.1507090306716492E-002
   7.1559513830482452E-002  -2.1311226037710379E-002   2.1763478053410619E-002
   7.4907482068499787E-002  -2.2662172105564482E-002   2.8591421392386851E-002
   7.2691949099739528E-002  -2.1850636578886320E-002   2.8333104711594892E-002
   7.0476416130979269E-002  -2.1080451131965702E-002   2.8220877260560079E-002
   6.8260883162218997E-002  -2.0351615764802416E-002   2.8254739039282217E-002
   6.6045350193458752E-002  -1.9664130477396680E-002   2.8434690047761391E-002
   8.7762997916340679E-002  -2.6252512718651366E-002   1.1532972180623435E-003
   8.4322630636925466E-002  -2.5221455266268344E-002   1.0383425300745652E-003
   8.0882263357510364E-002  -2.4257296540569045E-002   1.0954170709144839E-003
   7.7441896078095235E-002  -2.3360036541553629E-002   1.3245208405813780E-003
   7.4001528798680050E-002  -2.2529675269221117E-002   1.7256538390759690E-003
   8.2418337691923360E-002  -2.4605417158337639E-002   8.1227816385610052E-003
   7.9157016238020822E-002  -2.3662797706623689E-002   7.9024298244202706E-003
   7.5895694784118201E-002  -2.2765104698831695E-002   7.8681404324771609E-003
   7.2634373330215565E-002  -2.1912338134961920E-002   8.0199134627318425E-003
   6.9373051876313041E-002  -2.1104498015014350E-002   8.3577489151840934E-003
   7.7017176329970655E-002  -2.2958321598023967E-002   1.4992841917010474E-002
   7.3948933894950941E-002  -2.2104140146978563E-002   1.4689065259477913E-002
   7.0880691459931242E-002  -2.1272912857094026E-002   1.4585384217513320E-002
   6.7812449024911486E-002  -2.0464639728370104E-002   1.4681798791116828E-002
   6.4744206589891801E-002  -1.9679320760807417E-002   1.4978308980288346E-002
   7.1559513830482452E-002  -2.1311226037710379E-002   2.1763478053410619E-002
   6.8698383607715990E-002  -2.0545482587333561E-002   2.1398248835247519E-002
   6.5837253384949501E-002  -1.9780721015356516E-002   2.1247148426022777E-002
   6.2976123162182998E-002  -1.9016941321778898E-002   2.1310176825736667E-002
   6.0114992939416551E-002  -1.8254143506600568E-002   2.1587334034388742E-002
   6.6045350193458752E-002  -1.9664130477396680E-002   2.8434690047761391E-002
   6.3405365376315859E-002  -1.8986825027688836E-002   2.8029980551729117E-002
   6.0765380559172993E-002  -1.8288529173618950E-002   2.7853433058005639E-002
   5.8125395742030087E-002  -1.7569242915187175E-002   2.7905047566590999E-002
   5.5485410924887180E-002  -1.6828966252393829E-002   2.8184824077484849E-002
   7.4001528798680050E-002  -2.2529675269221117E-002   1.7256538390759690E-003
   7.1532086224539437E-002  -2.1702761826560890E-002   1.4406106690196818E-003
   6.9062643650398770E-002  -2.0815845316560722E-002   1.3988677231134838E-003
   6.6593201076258157E-002  -1.9868925739220986E-002   1.6004250013583188E-003
   6.4123758502117489E-002  -1.8862003094541113E-002   2.0452825037529099E-003
   6.9373051876313041E-002  -2.1104498015014350E-002   8.3577489151840934E-003
   6.7124763161621415E-002  -2.0299198247651251E-002   8.1001154194185188E-003
   6.4876474446929872E-002  -1.9454052741535888E-002   8.0414894184010210E-003
   6.2628185732238204E-002  -1.8569061496667538E-002   8.1818709121310174E-003
   6.0379897017546647E-002  -1.7644224513046813E-002   8.5212599006089240E-003
   6.4744206589891801E-002  -1.9679320760807417E-002   1.4978308980288346E-002
   6.2672779005246648E-002  -1.8895634668742139E-002   1.4727927830226833E-002
   6.0601351420601524E-002  -1.8092260166511304E-002   1.4632261445510025E-002
   5.8529923835956385E-002  -1.7269197254114764E-002   1.4691309826138726E-002
   5.6458496251311219E-002  -1.6426445931552458E-002   1.4905072972112327E-002
   6.0114992939416551E-002  -1.8254143506600568E-002   2.1587334034388742E-002
   5.8176133755415221E-002  -1.7492071089832931E-002   2.1324047901443696E-002
   5.6237274571413851E-002  -1.6730467591486484E-002   2.1171183804441197E-002
   5.4298415387412480E-002  -1.5969333011561653E-002   2.1128741743381214E-002
   5.2359556203411144E-002  -1.5208667350058130E-002   2.1196721718263693E-002
   5.5485410924887180E-002  -1.6828966252393829E-002   2.8184824077484849E-002
   5.3634827412127051E-002  -1.6088507510923528E-002   2.7888475633069509E-002
   5.1784243899366839E-002  -1.5368675016461913E-002   2.7658256495194100E-002
   4.9933660386606696E-002  -1.4669468769008633E-002   2.7494166663858538E-002
   4.8083076873846498E-002  -1.3990888768563803E-002   2.7396206139062795E-002
   6.4123758502117489E-002  -1.8862003094541113E-002   2.0452825037529099E-003
   6.0052305979439335E-002  -1.7872340194480585E-002   2.0142714810833517E-003
   5.5980853456761293E-002  -1.6977199850997687E-002   2.1496361544884324E-003
   5.1909400934083333E-002  -1.6176582064092317E-002   2.4513765239683460E-003
   4.7837948411405096E-002  -1.5470486833764507E-002   2.9194925895232871E-003
   6.0379897017546647E-002  -1.7644224513046813E-002   8.5212599006089240E-003
   5.6489189005918095E-002  -1.6728390737735022E-002   8.2508910552748227E-003
   5.2598480994289432E-002  -1.5870409117794193E-002   8.1756355359653976E-003
   4.8707772982660880E-002  -1.5070279653224508E-002   8.2954933426798994E-003
   4.4817064971032217E-002  -1.4328002344025759E-002   8.6104644754190218E-003
   5.6458496251311219E-002  -1.6426445931552458E-002   1.4905072972112327E-002
   5.2777270380681640E-002  -1.5584441280989514E-002   1.4432016705320960E-002
   4.9096044510051992E-002  -1.4763618384590907E-002   1.4182811394503267E-002
   4.5414818639422393E-002  -1.3963977242357029E-002   1.4157457039659600E-002
   4.1733592768792793E-002  -1.3185517854287010E-002   1.4355953640789343E-002
   5.2359556203411144E-002  -1.5208667350058130E-002   2.1196721718263693E-002
   4.8916550103730055E-002  -1.4440491824244089E-002   2.0557648431221251E-002
   4.5473544004048863E-002  -1.3656827651387739E-002   2.0171163730102391E-002
   4.2030537904367747E-002  -1.2857674831489163E-002   2.0037267614906706E-002
   3.8587531804686617E-002  -1.2043033364548261E-002   2.0155960085634250E-002
   4.8083076873846498E-002  -1.3990888768563803E-002   2.7396206139062795E-002
   4.4907028175063313E-002  -1.3296542367498720E-002   2.6627786232976070E-002
   4.1730979476280183E-002  -1.2550036918184404E-002   2.6140692542762523E-002
   3.8554930777497054E-002  -1.1751372420621534E-002   2.5934925068421294E-002
   3.5378882078713980E-002  -1.0900548874809513E-002   2.6010483809952856E-002
   9.0362515264352378E-002   0.0000000000000000        4.9834983905915377E-002
   9.3962725383767542E-002  -5.4044184658327832E-003   5.3208532009427406E-002
   9.7562935503182693E-002  -1.0670879541233930E-002   5.4963565886999362E-002
  0.10116314562259783       -1.5799383226203449E-002   5.5100085538631265E-002
  0.10476335574201300       -2.0789929520741327E-002   5.3618090964323087E-002
   8.2424851652557335E-002   0.0000000000000000        4.4783403189071994E-002
   8.4635544067108270E-002  -4.5741981113223747E-003   4.8267060971059296E-002
   8.6846236481659206E-002  -9.0372639000131684E-003   5.0590197569258227E-002
   8.9056928896210155E-002  -1.3389197366072374E-002   5.1752812983668794E-002
   9.1267621310761077E-002  -1.7629998509500002E-002   5.1754907214291025E-002
   7.4243756341630107E-002   0.0000000000000000        4.0575455360639043E-002
   7.5522924093468530E-002  -3.7439777568119689E-003   4.4142397753301567E-002
   7.6802091845306952E-002  -7.4036482587924012E-003   4.7006812004327436E-002
   7.8081259597145375E-002  -1.0979011505941298E-002   4.9168698113716630E-002
   7.9360427348983811E-002  -1.4470067498258665E-002   5.0628056081469155E-002
   6.5819229331570694E-002   0.0000000000000000        3.7211140420616524E-002
   6.6624865462848307E-002  -2.9137574023015622E-003   4.0834542356154219E-002
   6.7430501594125905E-002  -5.7700326175716367E-003   4.4213409192206961E-002
   6.8236137725403531E-002  -8.5688256458102234E-003   4.7347740928774723E-002
   6.9041773856681116E-002  -1.1310136487017331E-002   5.0237537565857533E-002
   5.7151270622379097E-002   0.0000000000000000        3.4690458369004432E-002
   5.7941368175247587E-002  -2.0835370477911546E-003   3.8343494779617265E-002
   5.8731465728116085E-002  -4.1364169763508703E-003   4.2209989132896829E-002
   5.9521563280984582E-002  -6.1586397856791472E-003   4.6289941428843129E-002
   6.0311660833853073E-002  -8.1502054757759956E-003   5.0583351667456172E-002
  0.10476335574201300       -2.0789929520741327E-002   5.3618090964323087E-002
  0.10210740318288106       -2.4930167674132066E-002   4.5637473440809831E-002
   9.9451450623749119E-002  -2.7507746935660098E-002   3.9345451854806195E-002
   9.6795498064617194E-002  -2.8522667305325454E-002   3.4742026206312129E-002
   9.4139545505485270E-002  -2.7974928783128156E-002   3.1827196495327767E-002
   9.1267621310761077E-002  -1.7629998509500002E-002   5.1754907214291025E-002
   9.0062756215030945E-002  -2.1204888745309923E-002   4.6516995878377744E-002
   8.8857891119300814E-002  -2.3559089488516084E-002   4.2492663531758484E-002
   8.7653026023570682E-002  -2.4692600739118432E-002   3.9681910174433205E-002
   8.6448160927840523E-002  -2.4605422497117009E-002   3.8084735806401822E-002
   7.9360427348983811E-002  -1.4470067498258665E-002   5.0628056081469155E-002
   7.9131632768439791E-002  -1.7479609816487812E-002   4.7790881533897052E-002
   7.8902838187895799E-002  -1.9610432041372066E-002   4.5692269027403233E-002
   7.8674043607351807E-002  -2.0862534172911420E-002   4.4332218561987706E-002
   7.8445249026807815E-002  -2.1235916211105862E-002   4.3710730137650561E-002
   6.9041773856681116E-002  -1.1310136487017331E-002   5.0237537565857533E-002
   6.9314032843107609E-002  -1.3754330887665686E-002   4.9459130407367678E-002
   6.9586291829534089E-002  -1.5661774594228028E-002   4.8944268341740434E-002
   6.9858550815960582E-002  -1.7032467606704380E-002   4.8692951368975841E-002
   7.0130809802387076E-002  -1.7866409925094730E-002   4.8705179489073942E-002
   6.0311660833853073E-002  -8.1502054757759956E-003   5.0583351667456172E-002
   6.0609956439034371E-002  -1.0029051958843554E-002   5.1521742498789630E-002
   6.0908252044215683E-002  -1.1713117147084031E-002   5.2248661474770093E-002
   6.1206547649396981E-002  -1.3202401040497361E-002   5.2764108595397569E-002
   6.1504843254578272E-002  -1.4496903639083576E-002   5.3068083860672015E-002
   9.4139545505485270E-002  -2.7974928783128156E-002   3.1827196495327767E-002
   9.1756959197578231E-002  -2.6781050573259545E-002   3.1254505428001962E-002
   8.9374372889671178E-002  -2.5857551879911046E-002   3.0761423654004694E-002
   8.6991786581764166E-002  -2.5204432703082737E-002   3.0347951173335878E-002
   8.4609200273857127E-002  -2.4821693042774484E-002   3.0014087985995586E-002
   8.6448160927840523E-002  -2.4605422497117009E-002   3.8084735806401822E-002
   8.4191787205197391E-002  -2.3960938448041844E-002   3.7058892010135167E-002
   8.1935413482554231E-002  -2.3422532277423053E-002   3.6205864091067755E-002
   7.9679039759911044E-002  -2.2990203985260603E-002   3.5525652049199656E-002
   7.7422666037267898E-002  -2.2663953571554485E-002   3.5018255884530780E-002
   7.8445249026807815E-002  -2.1235916211105862E-002   4.3710730137650561E-002
   7.6408294473299304E-002  -2.1140826322824154E-002   4.2396035250506836E-002
   7.4371339919790808E-002  -2.0987512674935028E-002   4.1347362824433090E-002
   7.2334385366282283E-002  -2.0775975267438480E-002   4.0564712859429371E-002
   7.0297430812773787E-002  -2.0506214100334513E-002   4.0048085355495783E-002
   7.0130809802387076E-002  -1.7866409925094730E-002   4.8705179489073942E-002
   6.8406481001883943E-002  -1.8320714197606495E-002   4.7265935149116874E-002
   6.6682152201380879E-002  -1.8552493072447003E-002   4.6185919854100616E-002
   6.4957823400877787E-002  -1.8561746549616384E-002   4.5465133604025113E-002
   6.3233494600374668E-002  -1.8348474629114528E-002   4.5103576398890455E-002
   6.1504843254578272E-002  -1.4496903639083576E-002   5.3068083860672015E-002
   6.0186346790951369E-002  -1.5500602072388771E-002   5.1668591705965362E-002
   5.8867850327324472E-002  -1.6117473469958968E-002   5.0721535180070346E-002
   5.7549353863697569E-002  -1.6347517831794254E-002   5.0226914282986812E-002
   5.6230857400070666E-002  -1.6190735157894542E-002   5.0184729014714879E-002
   8.4609200273857127E-002  -2.4821693042774484E-002   3.0014087985995586E-002
   8.2183770722517799E-002  -2.4501060557662754E-002   2.9249516605911893E-002
   7.9758341171178443E-002  -2.4034262906423798E-002   2.8757548380282563E-002
   7.7332911619839115E-002  -2.3421300089057726E-002   2.8538183309107526E-002
   7.4907482068499787E-002  -2.2662172105564482E-002   2.8591421392386851E-002
   7.7422666037267898E-002  -2.2663953571554485E-002   3.5018255884530780E-002
   7.5258721826933050E-002  -2.2337163744568317E-002   3.4430526638664166E-002
   7.3094777616598189E-002  -2.1903217212565593E-002   3.4093164920352172E-002
   7.0930833406263286E-002  -2.1362113975546413E-002   3.4006170729594706E-002
   6.8766889195928479E-002  -2.0713854033510670E-002   3.4169544066391874E-002
   7.0297430812773787E-002  -2.0506214100334513E-002   4.0048085355495783E-002
   6.8372736316543670E-002  -2.0173266931473886E-002   3.9598189782735507E-002
   6.6448041820313497E-002  -1.9772171518707415E-002   3.9376426110630088E-002
   6.4523347324083394E-002  -1.9302927862035101E-002   3.9382794339179614E-002
   6.2598652827853235E-002  -1.8765535961456914E-002   3.9617294468384037E-002
   6.3233494600374668E-002  -1.8348474629114528E-002   4.5103576398890455E-002
   6.1525814191349594E-002  -1.8009370118379480E-002   4.4752506038125986E-002
   5.9818133782324485E-002  -1.7641125824849224E-002   4.4607331951116540E-002
   5.8110453373299391E-002  -1.7243741748523760E-002   4.4668054137862359E-002
   5.6402772964274289E-002  -1.6817217889403144E-002   4.4934672598363284E-002
   5.6230857400070666E-002  -1.6190735157894542E-002   5.0184729014714879E-002
   5.4717955451350858E-002  -1.5845473305285032E-002   4.9893475404835477E-002
   5.3205053502631064E-002  -1.5510080130991047E-002   4.9785882441811397E-002
   5.1692151553911256E-002  -1.5184555635012465E-002   4.9861950125642915E-002
   5.0179249605191462E-002  -1.4868899817349346E-002   5.0121678456329727E-002
   7.4907482068499787E-002  -2.2662172105564482E-002   2.8591421392386851E-002
   7.2691949099739528E-002  -2.1850636578886320E-002   2.8333104711594892E-002
   7.0476416130979269E-002  -2.1080451131965702E-002   2.8220877260560079E-002
   6.8260883162218997E-002  -2.0351615764802416E-002   2.8254739039282217E-002
   6.6045350193458752E-002  -1.9664130477396680E-002   2.8434690047761391E-002
   6.8766889195928479E-002  -2.0713854033510670E-002   3.4169544066391874E-002
   6.6705486211882437E-002  -2.0020785714646341E-002   3.3862179629495101E-002
   6.4644083227836407E-002  -1.9345257347141431E-002   3.3716985932269565E-002
   6.2582680243790392E-002  -1.8687268930995649E-002   3.3733962974715745E-002
   6.0521277259744377E-002  -1.8046820466209312E-002   3.3913110756833287E-002
   6.2598652827853235E-002  -1.8765535961456914E-002   3.9617294468384037E-002
   6.0707461338435964E-002  -1.8190934850406383E-002   3.9284692403780380E-002
   5.8816269849018686E-002  -1.7610063562317056E-002   3.9130342588762530E-002
   5.6925078359601380E-002  -1.7022922097188829E-002   3.9154245023330772E-002
   5.5033886870184096E-002  -1.6429510455021890E-002   3.9356399707485029E-002
   5.6402772964274289E-002  -1.6817217889403144E-002   4.4934672598363284E-002
   5.4697874479400194E-002  -1.6361083986166359E-002   4.4600643034450951E-002
   5.2992975994526077E-002  -1.5874869777492733E-002   4.4460947230038982E-002
   5.1288077509651961E-002  -1.5358575263382034E-002   4.4515585185127417E-002
   4.9583179024777893E-002  -1.4812200443834495E-002   4.4764556899716368E-002
   5.0179249605191462E-002  -1.4868899817349346E-002   5.0121678456329727E-002
   4.8676725634775014E-002  -1.4531233121926418E-002   4.9810031521506787E-002
   4.7174201664358581E-002  -1.4139675992668438E-002   4.9708799856098773E-002
   4.5671677693942155E-002  -1.3694228429575274E-002   4.9817983460105630E-002
   4.4169153723525728E-002  -1.3194890432647099E-002   5.0137582333527386E-002
   6.6045350193458752E-002  -1.9664130477396680E-002   2.8434690047761391E-002
   6.3405365376315859E-002  -1.8986825027688836E-002   2.8029980551729117E-002
   6.0765380559172993E-002  -1.8288529173618950E-002   2.7853433058005639E-002
   5.8125395742030087E-002  -1.7569242915187175E-002   2.7905047566590999E-002
   5.5485410924887180E-002  -1.6828966252393829E-002   2.8184824077484849E-002
   6.0521277259744377E-002  -1.8046820466209312E-002   3.3913110756833287E-002
   5.8104613832945906E-002  -1.7408520840091285E-002   3.3557359532183001E-002
   5.5687950406147380E-002  -1.6756978939950720E-002   3.3420089085912624E-002
   5.3271286979348853E-002  -1.6092194765787608E-002   3.3501299418022337E-002
   5.0854623552550382E-002  -1.5414168317601840E-002   3.3800990528512126E-002
   5.5033886870184096E-002  -1.6429510455021890E-002   3.9356399707485029E-002
   5.2830863609801215E-002  -1.5830216652493873E-002   3.9041858623877282E-002
   5.0627840349418383E-002  -1.5225428706282490E-002   3.8936117094720946E-002
   4.8424817089035524E-002  -1.4615146616387929E-002   3.9039175120015666E-002
   4.6221793828652616E-002  -1.3999370382809906E-002   3.9351032699761868E-002
   4.9583179024777893E-002  -1.4812200443834495E-002   4.4764556899716368E-002
   4.7584114706881932E-002  -1.4251912464896530E-002   4.4483477826811960E-002
   4.5585050388985963E-002  -1.3693878472614315E-002   4.4401517084430180E-002
   4.3585986071090009E-002  -1.3138098466988182E-002   4.4518674672570882E-002
   4.1586921753194034E-002  -1.2584572448018000E-002   4.4834950591234192E-002
   4.4169153723525728E-002  -1.3194890432647099E-002   5.0137582333527386E-002
   4.2364367124187924E-002  -1.2673608277298964E-002   4.9882217140987117E-002
   4.0559580524850133E-002  -1.2162328238946085E-002   4.9816289055040708E-002
   3.8754793925512336E-002  -1.1661050317588642E-002   4.9939798075687908E-002
   3.6950007326174567E-002  -1.1169774513226038E-002   5.0252744202929134E-002
   5.5485410924887180E-002  -1.6828966252393829E-002   2.8184824077484849E-002
   5.3634827412127051E-002  -1.6088507510923528E-002   2.7888475633069509E-002
   5.1784243899366839E-002  -1.5368675016461913E-002   2.7658256495194100E-002
   4.9933660386606696E-002  -1.4669468769008633E-002   2.7494166663858538E-002
   4.8083076873846498E-002  -1.3990888768563803E-002   2.7396206139062795E-002
   5.0854623552550382E-002  -1.5414168317601840E-002   3.3800990528512126E-002
   4.9089133506372451E-002  -1.4733904822204325E-002   3.3506866679274661E-002
   4.7323643460194478E-002  -1.4062409506405193E-002   3.3316800456661952E-002
   4.5558153414016582E-002  -1.3399682370205238E-002   3.3230791860673979E-002
   4.3792663367838658E-002  -1.2745723413603638E-002   3.3248840891310583E-002
   4.6221793828652616E-002  -1.3999370382809906E-002   3.9351032699761868E-002
   4.4579325569141806E-002  -1.3379302133484886E-002   3.9070991513112066E-002
   4.2936857309630948E-002  -1.2756143996348737E-002   3.8932936273171945E-002
   4.1294389050120103E-002  -1.2129895971401617E-002   3.8936866979941274E-002
   3.9651920790609224E-002  -1.1500558058643473E-002   3.9082783633419993E-002
   4.1586921753194034E-002  -1.2584572448018000E-002   4.4834950591234192E-002
   4.0105403600435088E-002  -1.2024699444765509E-002   4.4580850134581781E-002
   3.8623885447676129E-002  -1.1449878486292260E-002   4.4506663944723981E-002
   3.7142367294917183E-002  -1.0860109572598276E-002   4.4612392021660244E-002
   3.5660849142158231E-002  -1.0255392703683419E-002   4.4898034365390929E-002
   3.6950007326174567E-002  -1.1169774513226038E-002   5.0252744202929134E-002
   3.5667367600252325E-002  -1.0670096756046188E-002   5.0036442543683890E-002
   3.4384727874330070E-002  -1.0143612976235672E-002   5.0037983471318048E-002
   3.3102088148407836E-002  -9.5903231737947681E-003   5.0257366985831053E-002
   3.1819448422485574E-002  -9.0102273487231987E-003   5.0694593087223294E-002
   4.8083076873846498E-002  -1.3990888768563803E-002   2.7396206139062795E-002
   4.4907028175063313E-002  -1.3296542367498720E-002   2.6627786232976070E-002
   4.1730979476280183E-002  -1.2550036918184404E-002   2.6140692542762523E-002
   3.8554930777497054E-002  -1.1751372420621534E-002   2.5934925068421294E-002
   3.5378882078713980E-002  -1.0900548874809513E-002   2.6010483809952856E-002
   4.3792663367838658E-002  -1.2745723413603638E-002   3.3248840891310583E-002
   4.0883072762574552E-002  -1.2078056476693577E-002   3.2659395385881057E-002
   3.7973482157310459E-002  -1.1374205399567669E-002   3.2321539851617037E-002
   3.5063891552046318E-002  -1.0634170182225757E-002   3.2235274288518592E-002
   3.2154300946782288E-002  -9.8579508246681158E-003   3.2400598696584959E-002
   3.9651920790609224E-002  -1.1500558058643473E-002   3.9082783633419993E-002
   3.6979052034156717E-002  -1.0859570585888517E-002   3.8656337620614503E-002
   3.4306183277704266E-002  -1.0198373880950601E-002   3.8451745334267234E-002
   3.1633314521251843E-002  -9.5169679438300639E-003   3.8469006774377590E-002
   2.8960445764799253E-002  -8.8153527745267191E-003   3.8708121940945750E-002
   3.5660849142158231E-002  -1.0255392703683419E-002   4.4898034365390929E-002
   3.3194965989809935E-002  -9.6410846950833601E-003   4.4618612937176394E-002
   3.0729082837461702E-002  -9.0225423623336992E-003   4.4531308990712469E-002
   2.8263199685113413E-002  -8.3997657054344400E-003   4.4636122525999064E-002
   2.5797316532765110E-002  -7.7727547243852668E-003   4.4933053543036103E-002
   3.1819448422485574E-002  -9.0102273487231987E-003   5.0694593087223294E-002
   2.9530814629534136E-002  -8.4225988042783695E-003   5.0546221335566743E-002
   2.7242180836582669E-002  -7.8467108437168115E-003   5.0560230820952984E-002
   2.4953547043631188E-002  -7.2825634670385976E-003   5.0736621543382474E-002
   2.2664913250679763E-002  -6.7301566742439256E-003   5.1075393502855171E-002
   5.7151270622379097E-002   0.0000000000000000        3.4690458369004432E-002
   5.7941368175247587E-002  -2.0835370477911546E-003   3.8343494779617265E-002
   5.8731465728116085E-002  -4.1364169763508703E-003   4.2209989132896829E-002
   5.9521563280984582E-002  -6.1586397856791472E-003   4.6289941428843129E-002
   6.0311660833853073E-002  -8.1502054757759956E-003   5.0583351667456172E-002
   4.8651602304073005E-002   0.0000000000000000        3.2789987991941077E-002
   4.9589980841982656E-002  -1.7090686709318710E-003   3.6966194961235217E-002
   5.0528359379892300E-002  -3.4321243902878020E-003   4.1225505957944934E-002
   5.1466737917801958E-002  -5.1691671580678007E-003   4.5567920982070201E-002
   5.2405116455711595E-002  -6.9201969742718576E-003   4.9993440033611024E-002
   4.0731946466670124E-002   0.0000000000000000        3.1286308075564755E-002
   4.1688252074369755E-002  -1.3346002940725875E-003   3.5941041435884710E-002
   4.2644557682069387E-002  -2.7278318042247363E-003   4.0548524908369049E-002
   4.3600863289769018E-002  -4.1796945304564508E-003   4.5108758493017806E-002
   4.4557168897468649E-002  -5.6901884727677231E-003   4.9621742189830953E-002
   3.3392303110170454E-002   0.0000000000000000        3.0179418619875470E-002
   3.4236181872408900E-002  -9.6013191721330306E-004   3.5268034203565717E-002
   3.5080060634647345E-002  -2.0235392181616701E-003   4.0179045984169208E-002
   3.5923939396885797E-002  -3.1902219028451008E-003   4.4912453961685923E-002
   3.6767818159124249E-002  -4.4601799712635868E-003   4.9468258136115890E-002
   2.6632672234573988E-002   0.0000000000000000        2.9469319624873209E-002
   2.7233770236100081E-002  -5.8566354035402036E-004   3.4947173264278278E-002
   2.7834868237626174E-002  -1.3192466320986022E-003   4.0117069185345418E-002
   2.8435966239152264E-002  -2.2007492752337508E-003   4.4979007388074622E-002
   2.9037064240678361E-002  -3.2301714697594514E-003   4.9532987872465871E-002
   6.0311660833853073E-002  -8.1502054757759956E-003   5.0583351667456172E-002
   6.0609956439034371E-002  -1.0029051958843554E-002   5.1521742498789630E-002
   6.0908252044215683E-002  -1.1713117147084031E-002   5.2248661474770093E-002
   6.1206547649396981E-002  -1.3202401040497361E-002   5.2764108595397569E-002
   6.1504843254578272E-002  -1.4496903639083576E-002   5.3068083860672015E-002
   5.2405116455711595E-002  -6.9201969742718576E-003   4.9993440033611024E-002
   5.2530663132690995E-002  -8.5838381880054271E-003   5.1220923386090231E-002
   5.2656209809670389E-002  -1.0058715148373955E-002   5.2314380737518602E-002
   5.2781756486649789E-002  -1.1344827855377463E-002   5.3273812087896222E-002
   5.2907303163629175E-002  -1.2442176309015889E-002   5.4099217437222923E-002
   4.4557168897468649E-002  -5.6901884727677231E-003   4.9621742189830953E-002
   4.4587412500548346E-002  -7.1386244171672952E-003   5.1132301021993780E-002
   4.4617656103628063E-002  -8.4043131496638942E-003   5.2586279707408014E-002
   4.4647899706707767E-002  -9.4872546702575323E-003   5.3983678246073682E-002
   4.4678143309787463E-002  -1.0387448978948197E-002   5.5324496637990758E-002
   3.6767818159124249E-002  -4.4601799712635868E-003   4.9468258136115890E-002
   3.6780204542606457E-002  -5.6934106463291554E-003   5.1255875406500277E-002
   3.6792590926088678E-002  -6.7499111509538431E-003   5.3064358384438327E-002
   3.6804977309570906E-002  -7.6296814851376177E-003   5.4893707069929930E-002
   3.6817363693053114E-002  -8.3327216488805009E-003   5.6743921462975223E-002
   2.9037064240678361E-002  -3.2301714697594514E-003   4.9532987872465871E-002
   2.9109039258865307E-002  -4.2481968754910313E-003   5.1591646539609778E-002
   2.9181014277052261E-002  -5.0955091522437625E-003   5.3748616768609501E-002
   2.9252989295239205E-002  -5.7721083000177083E-003   5.6003898559465068E-002
   2.9324964313426162E-002  -6.2779943188128046E-003   5.8357491912176457E-002
   6.1504843254578272E-002  -1.4496903639083576E-002   5.3068083860672015E-002
   6.0186346790951369E-002  -1.5500602072388771E-002   5.1668591705965362E-002
   5.8867850327324472E-002  -1.6117473469958968E-002   5.0721535180070346E-002
   5.7549353863697569E-002  -1.6347517831794254E-002   5.0226914282986812E-002
   5.6230857400070666E-002  -1.6190735157894542E-002   5.0184729014714879E-002
   5.2907303163629175E-002  -1.2442176309015889E-002   5.4099217437222923E-002
   5.1988992891669042E-002  -1.3292042569786305E-002   5.3362369666531920E-002
   5.1070682619708901E-002  -1.3835708698185690E-002   5.2973458650362834E-002
   5.0152372347748747E-002  -1.4073174694214017E-002   5.2932484388715624E-002
   4.9234062075788620E-002  -1.4004440557871325E-002   5.3239446881590421E-002
   4.4678143309787463E-002  -1.0387448978948197E-002   5.5324496637990758E-002
   4.4055520355204457E-002  -1.1083483067183823E-002   5.5169666347951271E-002
   4.3432897400621458E-002  -1.1553943926412368E-002   5.5258273938144212E-002
   4.2810274446038452E-002  -1.1798831556633778E-002   5.5590319408569462E-002
   4.2187651491455452E-002  -1.1818145957848109E-002   5.6165802759226988E-002
   3.6817363693053114E-002  -8.3327216488805009E-003   5.6743921462975223E-002
   3.6385929181557634E-002  -8.8749235645813346E-003   5.7090481750223521E-002
   3.5954494670062148E-002  -9.2721791546390465E-003   5.7575981043414486E-002
   3.5523060158566648E-002  -9.5244884190535551E-003   5.8200419342548174E-002
   3.5091625647071176E-002  -9.6318513578248915E-003   5.8963796647624508E-002
   2.9324964313426162E-002  -6.2779943188128046E-003   5.8357491912176457E-002
   2.8980219370728567E-002  -6.6663640619788744E-003   5.9124815873348523E-002
   2.8635474428030969E-002  -6.9904143828657325E-003   5.9926579966173621E-002
   2.8290729485333378E-002  -7.2501452814733146E-003   6.0762784190651876E-002
   2.7945984542635777E-002  -7.4455567578016885E-003   6.1633428546783123E-002
   5.6230857400070666E-002  -1.6190735157894542E-002   5.0184729014714879E-002
   5.4717955451350858E-002  -1.5845473305285032E-002   4.9893475404835477E-002
   5.3205053502631064E-002  -1.5510080130991047E-002   4.9785882441811397E-002
   5.1692151553911256E-002  -1.5184555635012465E-002   4.9861950125642915E-002
   5.0179249605191462E-002  -1.4868899817349346E-002   5.0121678456329727E-002
   4.9234062075788620E-002  -1.4004440557871325E-002   5.3239446881590421E-002
   4.7907993077581125E-002  -1.3774931404402432E-002   5.2904490927099743E-002
   4.6581924079373629E-002  -1.3530072349052149E-002   5.2759540226778194E-002
   4.5255855081166155E-002  -1.3269863391820506E-002   5.2804594780625796E-002
   4.3929786082958666E-002  -1.2994304532707418E-002   5.3039654588642571E-002
   4.2187651491455452E-002  -1.1818145957848109E-002   5.6165802759226988E-002
   4.1054760051074002E-002  -1.1704389503519770E-002   5.5812363040321847E-002
   3.9921868610692565E-002  -1.1550064567113223E-002   5.5655273182899555E-002
   3.8788977170311115E-002  -1.1355171148628463E-002   5.5694533186960243E-002
   3.7656085729929699E-002  -1.1119709248065490E-002   5.5930143052503781E-002
   3.5091625647071176E-002  -9.6318513578248915E-003   5.8963796647624508E-002
   3.4158256371829523E-002  -9.6338476026371529E-003   5.8617091744501783E-002
   3.3224887096587871E-002  -9.5700567851743530E-003   5.8473081310175638E-002
   3.2291517821346219E-002  -9.4404789054365022E-003   5.8531765344646138E-002
   3.1358148546104553E-002  -9.2451139634235346E-003   5.8793143847913336E-002
   2.7945984542635777E-002  -7.4455567578016885E-003   6.1633428546783123E-002
   2.7218482039847662E-002  -7.5633057017544594E-003   6.1318677039639558E-002
   2.6490979537059527E-002  -7.5900490032353891E-003   6.1212964608606389E-002
   2.5763477034271405E-002  -7.5257866622444576E-003   6.1316291253683666E-002
   2.5035974531483263E-002  -7.3705186787816346E-003   6.1628656974871243E-002
   5.0179249605191462E-002  -1.4868899817349346E-002   5.0121678456329727E-002
   4.8676725634775014E-002  -1.4531233121926418E-002   4.9810031521506787E-002
   4.7174201664358581E-002  -1.4139675992668438E-002   4.9708799856098773E-002
   4.5671677693942155E-002  -1.3694228429575274E-002   4.9817983460105630E-002
   4.4169153723525728E-002  -1.3194890432647099E-002   5.0137582333527386E-002
   4.3929786082958666E-002  -1.2994304532707418E-002   5.3039654588642571E-002
   4.2633347848345146E-002  -1.2690401018718711E-002   5.2747056210263987E-002
   4.1336909613731591E-002  -1.2345158096859814E-002   5.2656214034076401E-002
   4.0040471379118064E-002  -1.1958575767131064E-002   5.2767128060079764E-002
   3.8744033144504517E-002  -1.1530654029532239E-002   5.3079798288273999E-002
   3.7656085729929699E-002  -1.1119709248065490E-002   5.5930143052503781E-002
   3.6557074163895094E-002  -1.0849568915510935E-002   5.5644042204604567E-002
   3.5458062597860496E-002  -1.0550640201051356E-002   5.5551038491672380E-002
   3.4359051031825877E-002  -1.0222923104686883E-002   5.5651131913707082E-002
   3.3260039465791293E-002  -9.8664176264173786E-003   5.5944322470708643E-002
   3.1358148546104553E-002  -9.2451139634235346E-003   5.8793143847913336E-002
   3.0447904581424913E-002  -9.0087368123031239E-003   5.8500989504528492E-002
   2.9537660616745259E-002  -8.7561223052428708E-003   5.8393273228886461E-002
   2.8627416652065606E-002  -8.4872704422426035E-003   5.8469995020987493E-002
   2.7717172687385938E-002  -8.2021812233025182E-003   5.8731154880831402E-002
   2.5035974531483263E-002  -7.3705186787816346E-003   6.1628656974871243E-002
   2.4305839100934590E-002  -7.1679047090954517E-003   6.1317898110035546E-002
   2.3575703670385903E-002  -6.9616044094343160E-003   6.1182918245718892E-002
   2.2845568239837216E-002  -6.7516177797984599E-003   6.1223717381921103E-002
   2.2115432809288529E-002  -6.5379448201876578E-003   6.1440295518642385E-002
   4.4169153723525728E-002  -1.3194890432647099E-002   5.0137582333527386E-002
   4.2364367124187924E-002  -1.2673608277298964E-002   4.9882217140987117E-002
   4.0559580524850133E-002  -1.2162328238946085E-002   4.9816289055040708E-002
   3.8754793925512336E-002  -1.1661050317588642E-002   4.9939798075687908E-002
   3.6950007326174567E-002  -1.1169774513226038E-002   5.0252744202929134E-002
   3.8744033144504517E-002  -1.1530654029532239E-002   5.3079798288273999E-002
   3.7136331119647426E-002  -1.1083391823867833E-002   5.2766877169561327E-002
   3.5528629094790314E-002  -1.0638788089942439E-002   5.2658688093216471E-002
   3.3920927069933215E-002  -1.0196842827755844E-002   5.2755231059239030E-002
   3.2313225045076124E-002  -9.7575560373081571E-003   5.3056506067629072E-002
   3.3260039465791293E-002  -9.8664176264173786E-003   5.5944322470708643E-002
   3.1864716951188622E-002  -9.4931753704367294E-003   5.5581189071080075E-002
   3.0469394436585914E-002  -9.1152479409386256E-003   5.5438082649592935E-002
   2.9074071921983261E-002  -8.7326353379231017E-003   5.5515003206246916E-002
   2.7678749407380555E-002  -8.3453375613901926E-003   5.5811950741042449E-002
   2.7717172687385938E-002  -8.2021812233025182E-003   5.8731154880831402E-002
   2.6549524618811465E-002  -7.9029589170055009E-003   5.8325152845543252E-002
   2.5381876550236958E-002  -7.5917077919349235E-003   5.8154472724170188E-002
   2.4214228481662464E-002  -7.2684278480903315E-003   5.8219114516712189E-002
   2.3046580413087978E-002  -6.9331190854723529E-003   5.8519078223169291E-002
   2.2115432809288529E-002  -6.5379448201876578E-003   6.1440295518642385E-002
   2.1190754122515976E-002  -6.3127424635744667E-003   6.0998768492950939E-002
   2.0266075435743408E-002  -6.0681676429311660E-003   6.0807858316948293E-002
   1.9341396748970854E-002  -5.8042203582576446E-003   6.0867564990634448E-002
   1.8416718062198287E-002  -5.5209006095542912E-003   6.1177888514009515E-002
   3.6950007326174567E-002  -1.1169774513226038E-002   5.0252744202929134E-002
   3.5667367600252325E-002  -1.0670096756046188E-002   5.0036442543683890E-002
   3.4384727874330070E-002  -1.0143612976235672E-002   5.0037983471318048E-002
   3.3102088148407836E-002  -9.5903231737947681E-003   5.0257366985831053E-002
   3.1819448422485574E-002  -9.0102273487231987E-003   5.0694593087223294E-002
   3.2313225045076124E-002  -9.7575560373081571E-003   5.3056506067629072E-002
   3.1232540173355125E-002  -9.3099704684365681E-003   5.2849654344717500E-002
   3.0151855301634174E-002  -8.8431288709783229E-003   5.2828869743329537E-002
   2.9071170429913206E-002  -8.3570312449334078E-003   5.2994152263464961E-002
   2.7990485558192266E-002  -7.8516775903013647E-003   5.3345501905123827E-002
   2.7678749407380555E-002  -8.3453375613901926E-003   5.5811950741042449E-002
   2.6768243924505164E-002  -7.9498441808270870E-003   5.5606998960420817E-002
   2.5857738441629776E-002  -7.5426447657209184E-003   5.5556338835967167E-002
   2.4947232958754388E-002  -7.1237393160718809E-003   5.5659970367681069E-002
   2.4036727475878997E-002  -6.6931278318796139E-003   5.5917893555562828E-002
   2.3046580413087978E-002  -6.9331190854723529E-003   5.8519078223169291E-002
   2.2274478853702435E-002  -6.5897178932175088E-003   5.8308476390794048E-002
   2.1502377294316907E-002  -6.2421606604635971E-003   5.8220390749230910E-002
   2.0730275734931344E-002  -5.8904473872102708E-003   5.8254821298479517E-002
   1.9958174175545840E-002  -5.5345780734578770E-003   5.8411768038540438E-002
   1.8416718062198287E-002  -5.5209006095542912E-003   6.1177888514009515E-002
   1.7751244960946919E-002  -5.2295916056080416E-003   6.0954086635836735E-002
   1.7085771859695544E-002  -4.9416765552062203E-003   6.0821025483120295E-002
   1.6420298758444179E-002  -4.6571554583489244E-003   6.0778705055860111E-002
   1.5754825657192786E-002  -4.3760283150359736E-003   6.0827125354056266E-002
   3.1819448422485574E-002  -9.0102273487231987E-003   5.0694593087223294E-002
   2.9530814629534136E-002  -8.4225988042783695E-003   5.0546221335566743E-002
   2.7242180836582669E-002  -7.8467108437168115E-003   5.0560230820952984E-002
   2.4953547043631188E-002  -7.2825634670385976E-003   5.0736621543382474E-002
   2.2664913250679763E-002  -6.7301566742439256E-003   5.1075393502855171E-002
   2.7990485558192266E-002  -7.8516775903013647E-003   5.3345501905123827E-002
   2.5891605548946081E-002  -7.3380821913535399E-003   5.3092450920190687E-002
   2.3792725539699890E-002  -6.8272593323598502E-003   5.3056526265624931E-002
   2.1693845530453799E-002  -6.3192090133206182E-003   5.3237727941426990E-002
   1.9594965521207541E-002  -5.8139312342355698E-003   5.3636055947595906E-002
   2.4036727475878997E-002  -6.6931278318796139E-003   5.5917893555562828E-002
   2.2182346343662555E-002  -6.2535655784286270E-003   5.5569131381282125E-002
   2.0327965211446135E-002  -5.8078078210028819E-003   5.5492240630693267E-002
   1.8473584079229711E-002  -5.3558545596024149E-003   5.5687221303796469E-002
   1.6619202947013259E-002  -4.8977057942273250E-003   5.6154073400591753E-002
   1.9958174175545840E-002  -5.5345780734578770E-003   5.8411768038540438E-002
   1.8403037013683572E-002  -5.1690489655037558E-003   5.7976262718840987E-002
   1.6847899851821301E-002  -4.7883563096459171E-003   5.7867373916158191E-002
   1.5292762689959022E-002  -4.3925001058843236E-003   5.8085101630492034E-002
   1.3737625528096781E-002  -3.9814803542190247E-003   5.8629445861841573E-002
   1.5754825657192786E-002  -4.3760283150359736E-003   6.0827125354056266E-002
   1.4553677559009132E-002  -4.0845323525788291E-003   6.0313844932867622E-002
   1.3352529460825456E-002  -3.7689047982888274E-003   6.0181926122019808E-002
   1.2151381362641784E-002  -3.4291456521662288E-003   6.0431368921513115E-002
   1.0950233264458098E-002  -3.0652549142107244E-003   6.1062173331346781E-002
   2.6632672234573988E-002   0.0000000000000000        2.9469319624873209E-002
   2.7233770236100081E-002  -5.8566354035402036E-004   3.4947173264278278E-002
   2.7834868237626174E-002  -1.3192466320986022E-003   4.0117069185345418E-002
   2.8435966239152264E-002  -2.2007492752337508E-003   4.4979007388074622E-002
   2.9037064240678361E-002  -3.2301714697594514E-003   4.9532987872465871E-002
   2.0115911743553740E-002   0.0000000000000000        2.9021578830797468E-002
   2.0448472831232238E-002  -4.3924765526566316E-004   3.4315151955473910E-002
   2.0781033918910737E-002  -9.8943497407716439E-004   3.9379608970793109E-002
   2.1113595006589238E-002  -1.6505619564345080E-003   4.4214949876755054E-002
   2.1446156094267733E-002  -2.4226286023376854E-003   4.8821174673359731E-002
   1.3504879540782729E-002   0.0000000000000000        2.8701763977887724E-002
   1.3647745323594317E-002  -2.9283177017730595E-004   3.3848036475680271E-002
   1.3790611106405908E-002  -6.5962331605572827E-004   3.8844034473096235E-002
   1.3933476889217500E-002  -1.1003746376352670E-003   4.3689757970135655E-002
   1.4076342672029087E-002  -1.6150857349159224E-003   4.8385206966798509E-002
   6.7995756262609446E-003   0.0000000000000000        2.8509875066143973E-002
   6.8315877131863139E-003  -1.4641588508895005E-004   3.3545826824897332E-002
   6.8635998001116832E-003  -3.2981165803429302E-004   3.8510345692254824E-002
   6.8956118870370526E-003  -5.5018731883602675E-004   4.3403431668216433E-002
   6.9276239739624228E-003  -8.0754286749415796E-004   4.8225084752782157E-002
  -1.1607034777760816E-014   0.0000000000000000        2.8445912095566218E-002
   8.2277934465579960E-015  -5.9240806704607962E-016   3.3408523003125128E-002
   2.8064790075221779E-014  -1.2854300956988141E-014   3.8378542628268834E-002
   4.7901569863451066E-014  -3.6784811308088194E-014   4.3355970970997360E-002
   6.7736614928204375E-014  -7.2390010652512160E-014   4.8340808031310689E-002
   2.9037064240678361E-002  -3.2301714697594514E-003   4.9532987872465871E-002
   2.9109039258865307E-002  -4.2481968754910313E-003   5.1591646539609778E-002
   2.9181014277052261E-002  -5.0955091522437625E-003   5.3748616768609501E-002
   2.9252989295239205E-002  -5.7721083000177083E-003   5.6003898559465068E-002
   2.9324964313426162E-002  -6.2779943188128046E-003   5.8357491912176457E-002
   2.1446156094267733E-002  -2.4226286023376854E-003   4.8821174673359731E-002
   2.1587366345209167E-002  -3.1861476566429864E-003   5.1221225723434467E-002
   2.1728576596150604E-002  -3.8216318642066852E-003   5.3661435677162368E-002
   2.1869786847092041E-002  -4.3290812250287667E-003   5.6141804534543337E-002
   2.2010997098033471E-002  -4.7084957391092599E-003   5.8662332295577505E-002
   1.4076342672029087E-002  -1.6150857349159224E-003   4.8385206966798509E-002
   1.4228635497522304E-002  -2.1240984377949414E-003   5.1083972117566864E-002
   1.4380928323015517E-002  -2.5477545761695792E-003   5.3764743513785671E-002
   1.4533221148508734E-002  -2.8860541500398225E-003   5.6427521155454852E-002
   1.4685513974001944E-002  -3.1389971594056806E-003   5.9072305042574512E-002
   6.9276239739624228E-003  -8.0754286749415796E-004   4.8225084752782157E-002
   7.0328467158047138E-003  -1.0620492189469034E-003   5.1179885722006935E-002
   7.1380694576470031E-003  -1.2738772881324772E-003   5.4058540278479443E-002
   7.2432921994892950E-003  -1.4430270750508899E-003   5.6861048422199634E-002
   7.3485149413315826E-003  -1.5694985797021326E-003   5.9587410153167611E-002
   6.7736614928204375E-014  -7.2390010652512160E-014   4.8340808031310689E-002
   5.6400197012695941E-014  -9.8859288810704271E-014   5.1508966536754644E-002
   4.5064212778056500E-014  -9.5391576582226634E-014   5.4542825971243616E-002
   3.3728011702982563E-014  -6.1938952231055389E-014   5.7442386334777613E-002
   2.2391810627908626E-014   1.4432899320127035E-015   6.0207647627356628E-002
   2.9324964313426162E-002  -6.2779943188128046E-003   5.8357491912176457E-002
   2.8980219370728567E-002  -6.6663640619788744E-003   5.9124815873348523E-002
   2.8635474428030969E-002  -6.9904143828657325E-003   5.9926579966173621E-002
   2.8290729485333378E-002  -7.2501452814733146E-003   6.0762784190651876E-002
   2.7945984542635777E-002  -7.4455567578016885E-003   6.1633428546783123E-002
   2.2010997098033471E-002  -4.7084957391092599E-003   5.8662332295577505E-002
   2.1713628812999566E-002  -4.9997730464836215E-003   5.9487356368596228E-002
   2.1416260527965678E-002  -5.2428107871874494E-003   6.0372693625289270E-002
   2.1118892242931776E-002  -5.4376089612207055E-003   6.1318344065656588E-002
   2.0821523957897874E-002  -5.5841675685833758E-003   6.2324307689698231E-002
   1.4685513974001944E-002  -3.1389971594056806E-003   5.9072305042574512E-002
   1.4461395398652970E-002  -3.3331820309884103E-003   5.9938949371831314E-002
   1.4237276823303991E-002  -3.4952071915092219E-003   6.0891779936783560E-002
   1.4013158247955017E-002  -3.6250726409681249E-003   6.1930796737431335E-002
   1.3789039672606040E-002  -3.7227783793650840E-003   6.3055999773774754E-002
   7.3485149413315826E-003  -1.5694985797021326E-003   5.9587410153167611E-002
   7.2235191276887574E-003  -1.6665910154931574E-003   6.0479594883053690E-002
   7.0985233140459314E-003  -1.7476035958309665E-003   6.1483838900656528E-002
   6.9735275004031072E-003  -1.8125363207155370E-003   6.2600142205976136E-002
   6.8485316867602838E-003  -1.8613891901468095E-003   6.3828504799012531E-002
   2.2391810627908626E-014   1.4432899320127035E-015   6.0207647627356628E-002
   1.0694049812354223E-013   2.0400348077487251E-015   6.1109292902263440E-002
   1.9149092034265180E-013  -1.5268689090852661E-013   6.2148870516908226E-002
   2.7603917415741641E-013  -4.6294305194871654E-013   6.3326380471291008E-002
   3.6059003005739498E-013  -9.2846563770621060E-013   6.4641822765411736E-002
   2.7945984542635777E-002  -7.4455567578016885E-003   6.1633428546783123E-002
   2.7218482039847662E-002  -7.5633057017544594E-003   6.1318677039639558E-002
   2.6490979537059527E-002  -7.5900490032353891E-003   6.1212964608606389E-002
   2.5763477034271405E-002  -7.5257866622444576E-003   6.1316291253683666E-002
   2.5035974531483263E-002  -7.3705186787816346E-003   6.1628656974871243E-002
   2.0821523957897874E-002  -5.5841675685833758E-003   6.2324307689698231E-002
   2.0296269668645596E-002  -5.6724792766787921E-003   6.2174371556594159E-002
   1.9771015379393308E-002  -5.6925367529102808E-003   6.2219892774451335E-002
   1.9245761090141034E-002  -5.6443399972777152E-003   6.2460871343269893E-002
   1.8720506800888749E-002  -5.5278890097811839E-003   6.2897307263049623E-002
   1.3789039672606040E-002  -3.7227783793650840E-003   6.3055999773774754E-002
   1.3452451871740516E-002  -3.7816528516030935E-003   6.3048127604102194E-002
   1.3115864070874995E-002  -3.7950245025850319E-003   6.3222131060241812E-002
   1.2779276270009471E-002  -3.7628933323109446E-003   6.3578010142193622E-002
   1.2442688469143939E-002  -3.6852593407807610E-003   6.4115764849957749E-002
   6.8485316867602838E-003  -1.8613891901468095E-003   6.3828504799012531E-002
   6.6870286491324208E-003  -1.8908264265274106E-003   6.3939945182163602E-002
   6.5255256115045604E-003  -1.8975122522598255E-003   6.4219679465977772E-002
   6.3640225738767018E-003  -1.8814466673441465E-003   6.4667707650455084E-002
   6.2025195362488354E-003  -1.8426296717803242E-003   6.5284029735595467E-002
   3.6059003005739498E-013  -9.2846563770621060E-013   6.4641822765411736E-002
   8.2130309497774334E-013  -1.4517276269998547E-012   6.4849824290778540E-002
   1.2820161598980917E-012  -1.9346572954770380E-012   6.5212537991659325E-002
   1.7427292248184401E-012  -2.3774133703358125E-012   6.5729963868054186E-002
   2.2034422897387884E-012  -2.7798874313589295E-012   6.6402101919963041E-002
   2.5035974531483263E-002  -7.3705186787816346E-003   6.1628656974871243E-002
   2.4305839100934590E-002  -7.1679047090954517E-003   6.1317898110035546E-002
   2.3575703670385903E-002  -6.9616044094343160E-003   6.1182918245718892E-002
   2.2845568239837216E-002  -6.7516177797984599E-003   6.1223717381921103E-002
   2.2115432809288529E-002  -6.5379448201876578E-003   6.1440295518642385E-002
   1.8720506800888749E-002  -5.5278890097811839E-003   6.2897307263049623E-002
   1.8167839085122088E-002  -5.3759285325506029E-003   6.2629112050116301E-002
   1.7615171369355441E-002  -5.2212033077154857E-003   6.2540073266228124E-002
   1.7062503653588790E-002  -5.0637133352761966E-003   6.2630190911384956E-002
   1.6509835937822133E-002  -4.9034586152325033E-003   6.2899464985586878E-002
   1.2442688469143939E-002  -3.6852593407807610E-003   6.4115764849957749E-002
   1.2070865896685424E-002  -3.5839523560056985E-003   6.3889211706556287E-002
   1.1699043324226908E-002  -3.4808022059966900E-003   6.3845192420725977E-002
   1.1327220751768393E-002  -3.3758088907539906E-003   6.3983706992466874E-002
   1.0955398179309871E-002  -3.2689724102773488E-003   6.4304755421778936E-002
   6.2025195362488354E-003  -1.8426296717803242E-003   6.5284029735595467E-002
   6.0149195356245695E-003  -1.7919761794607664E-003   6.5098197079355463E-002
   5.8273195350003054E-003  -1.7404011042778493E-003   6.5098275709212575E-002
   5.6397195343760439E-003  -1.6879044462317005E-003   6.5284265625167107E-002
   5.4521195337517755E-003  -1.6344862053221110E-003   6.5656166827218893E-002
   2.2034422897387884E-012  -2.7798874313589295E-012   6.6402101919963041E-002
   1.9395388073384368E-012  -2.9159313852389346E-012   6.6256068168513732E-002
   1.6756318554911331E-012  -2.5590779495487936E-012   6.6299323131687848E-002
   1.4117301078142575E-012  -1.7094832494013446E-012   6.6531866809485377E-002
   1.1478214212434779E-012  -3.6703973194107675E-013   6.6953699201906303E-002
   2.2115432809288529E-002  -6.5379448201876578E-003   6.1440295518642385E-002
   2.1190754122515976E-002  -6.3127424635744667E-003   6.0998768492950939E-002
   2.0266075435743408E-002  -6.0681676429311660E-003   6.0807858316948293E-002
   1.9341396748970854E-002  -5.8042203582576446E-003   6.0867564990634448E-002
   1.8416718062198287E-002  -5.5209006095542912E-003   6.1177888514009515E-002
   1.6509835937822133E-002  -4.9034586152325033E-003   6.2899464985586878E-002
   1.5830912306220586E-002  -4.7345568474422284E-003   6.2521186184291144E-002
   1.5151988674619043E-002  -4.5511257317635556E-003   6.2383800643648527E-002
   1.4473065043017501E-002  -4.3531652681962976E-003   6.2487308363659087E-002
   1.3794141411415960E-002  -4.1406754567401283E-003   6.2831709344322972E-002
   1.0955398179309871E-002  -3.2689724102773488E-003   6.4304755421778936E-002
   1.0512506013843743E-002  -3.1563712313102260E-003   6.3984881728737480E-002
   1.0069613848377613E-002  -3.0340838205960008E-003   6.3896177707313567E-002
   9.6267216829114821E-003  -2.9021101781346176E-003   6.4038643357507169E-002
   9.1838295174453445E-003  -2.7604503039260486E-003   6.4412278679318424E-002
   5.4521195337517755E-003  -1.6344862053221110E-003   6.5656166827218893E-002
   5.2355352453854441E-003  -1.5781856151780779E-003   6.5389855126290058E-002
   5.0189509570191153E-003  -1.5170419094284182E-003   6.5344989507943249E-002
   4.8023666686527813E-003  -1.4510550880729930E-003   6.5521569972178506E-002
   4.5857823802864560E-003  -1.3802251511119273E-003   6.5919596518995649E-002
   1.1478214212434779E-012  -3.6703973194107675E-013   6.6953699201906303E-002
   8.4568463343259737E-013   9.5401464506039702E-013   6.6736106376948823E-002
   5.4355304979214480E-013   1.7391504902874999E-012   6.6730236045537794E-002
   2.4142059878995425E-013   1.9885447455347816E-012   6.6936088207673120E-002
  -6.0715321659188248E-014   1.7021939413552900E-012   6.7353662863354702E-002
   1.8416718062198287E-002  -5.5209006095542912E-003   6.1177888514009515E-002
   1.7751244960946919E-002  -5.2295916056080416E-003   6.0954086635836735E-002
   1.7085771859695544E-002  -4.9416765552062203E-003   6.0821025483120295E-002
   1.6420298758444179E-002  -4.6571554583489244E-003   6.0778705055860111E-002
   1.5754825657192786E-002  -4.3760283150359736E-003   6.0827125354056266E-002
   1.3794141411415960E-002  -4.1406754567401283E-003   6.2831709344322972E-002
   1.3238315923087572E-002  -3.9221937038733667E-003   6.2636109401122825E-002
   1.2682490434759181E-002  -3.7062574160737910E-003   6.2569063958312493E-002
   1.2126664946430792E-002  -3.4928665933411131E-003   6.2630573015891713E-002
   1.1570839458102403E-002  -3.2820212356757250E-003   6.2820636573860666E-002
   9.1838295174453445E-003  -2.7604503039260486E-003   6.4412278679318424E-002
   8.7754654169733166E-003  -2.6147958021387752E-003   6.4245729159568402E-002
   8.3671013165012905E-003  -2.4708382769412507E-003   6.4245547915141255E-002
   7.9587372160292609E-003  -2.3285777283334683E-003   6.4411734946037233E-002
   7.5503731155572261E-003  -2.1880141563155042E-003   6.4744290252256295E-002
   4.5857823802864560E-003  -1.3802251511119273E-003   6.5919596518995649E-002
   4.3626934426041564E-003  -1.3073979004041419E-003   6.5782945911172952E-002
   4.1396045049218646E-003  -1.2354191378089047E-003   6.5850477353606635E-002
   3.9165155672395719E-003  -1.1642888633257402E-003   6.6122190846296738E-002
   3.6934266295572732E-003  -1.0940070769552696E-003   6.6598086389243291E-002
  -6.0715321659188248E-014   1.7021939413552900E-012   6.7353662863354702E-002
  -1.9907686610309838E-014   1.3304635171351720E-012   6.7247759655936656E-002
   2.0906887332472479E-014   1.3236772788971507E-012   6.7383852273708439E-002
   6.1719726551778820E-014   1.6819219628150250E-012   6.7761940716669952E-002
   1.0252909632413321E-013   2.4049096047917828E-012   6.8382024984821210E-002
   1.5754825657192786E-002  -4.3760283150359736E-003   6.0827125354056266E-002
   1.4553677559009132E-002  -4.0845323525788291E-003   6.0313844932867622E-002
   1.3352529460825456E-002  -3.7689047982888274E-003   6.0181926122019808E-002
   1.2151381362641784E-002  -3.4291456521662288E-003   6.0431368921513115E-002
   1.0950233264458098E-002  -3.0652549142107244E-003   6.1062173331346781E-002
   1.1570839458102403E-002  -3.2820212356757250E-003   6.2820636573860666E-002
   1.0730784323747286E-002  -3.0633992636889262E-003   6.2471722505476224E-002
   9.8907291893921626E-003  -2.8266785979926684E-003   6.2463632754408027E-002
   9.0506740550370252E-003  -2.5718592385869064E-003   6.2796367320656118E-002
   8.2106189206818947E-003  -2.2989411854714703E-003   6.3469926204220650E-002
   7.5503731155572261E-003  -2.1880141563155042E-003   6.4744290252256295E-002
   7.0308736520061088E-003  -2.0422661747990511E-003   6.4553709638552795E-002
   6.5113741884550071E-003  -1.8844523976964608E-003   6.4663416049140943E-002
   5.9918747249039202E-003  -1.7145728250075303E-003   6.5073409484020808E-002
   5.4723752613527882E-003  -1.5326274567322162E-003   6.5783689943192558E-002
   3.6934266295572732E-003  -1.0940070769552696E-003   6.6598086389243291E-002
   3.4539455437856588E-003  -1.0211330859091622E-003   6.6559806332097307E-002
   3.2144644580140483E-003  -9.4222619740027755E-004   6.6781276006218457E-002
   2.9749833722424171E-003  -8.5728641142795905E-004   6.7262495411607268E-002
   2.7355022864708305E-003  -7.6631372799301767E-004   6.8003464548262782E-002
   1.0252909632413321E-013   2.4049096047917828E-012   6.8382024984821210E-002
  -9.1412988290073827E-013   2.9805047319086952E-012   6.8490012586109816E-002
  -1.9307784537847539E-012   2.8959196152200661E-012   6.8817212625641139E-002
  -2.9474339635626734E-012   2.1512271131118865E-012   6.9363625103414692E-002
  -3.9640790649997371E-012   7.4629191715303023E-013   7.0129250019431266E-002
  -1.1607034777760816E-014   0.0000000000000000        2.8445912095566218E-002
   8.2277934465579960E-015  -5.9240806704607962E-016   3.3408523003125128E-002
   2.8064790075221779E-014  -1.2854300956988141E-014   3.8378542628268834E-002
   4.7901569863451066E-014  -3.6784811308088194E-014   4.3355970970997360E-002
   6.7736614928204375E-014  -7.2390010652512160E-014   4.8340808031310689E-002
  -6.7995756262806389E-003   0.0000000000000000        2.8509875066151380E-002
  -6.8315877131692737E-003   1.4641588508507251E-004   3.3545826824888970E-002
  -6.8635998000579086E-003   3.2981165801012399E-004   3.8510345692224793E-002
  -6.8956118869465486E-003   5.5018731877515877E-004   4.3403431668158875E-002
  -6.9276239738351834E-003   8.0754286738016819E-004   4.8225084752691195E-002
  -1.3504879540791860E-002   0.0000000000000000        2.8701763977896387E-002
  -1.3647745323575534E-002   2.9283177017073786E-004   3.3848036475664305E-002
  -1.3790611106359204E-002   6.5962331603310227E-004   3.8844034473043902E-002
  -1.3933476889142878E-002   1.1003746375870980E-003   4.3689757970035194E-002
  -1.4076342671926553E-002   1.6150857348327195E-003   4.8385206966638131E-002
  -2.0115911743545274E-002   0.0000000000000000        2.9021578830801229E-002
  -2.0448472831210547E-002   4.3924765525640255E-004   3.4315151955451123E-002
  -2.0781033918875820E-002   9.8943497405608056E-004   3.9379608970726142E-002
  -2.1113595006541089E-002   1.6505619563990377E-003   4.4214949876626268E-002
  -2.1446156094206369E-002   2.4226286022852707E-003   4.8821174673151523E-002
  -2.6632672234540876E-002   0.0000000000000000        2.9469319624865917E-002
  -2.7233770236074317E-002   5.8566354034206812E-004   3.4947173264249440E-002
  -2.7834868237607752E-002   1.3192466320790588E-003   4.0117069185271519E-002
  -2.8435966239141190E-002   2.2007492752109808E-003   4.4979007387932146E-002
  -2.9037064240674627E-002   3.2301714697378281E-003   4.9532987872231336E-002
   6.7736614928204375E-014  -7.2390010652512160E-014   4.8340808031310689E-002
   5.6400197012695941E-014  -9.8859288810704271E-014   5.1508966536754644E-002
   4.5064212778056500E-014  -9.5391576582226634E-014   5.4542825971243616E-002
   3.3728011702982563E-014  -6.1938952231055389E-014   5.7442386334777613E-002
   2.2391810627908626E-014   1.4432899320127035E-015   6.0207647627356628E-002
  -6.9276239738351834E-003   8.0754286738016819E-004   4.8225084752691195E-002
  -7.0328467156962823E-003   1.0620492187916292E-003   5.1179885721953353E-002
  -7.1380694575573812E-003   1.2738772879760105E-003   5.4058540278470950E-002
  -7.2432921994184793E-003   1.4430270749333333E-003   5.6861048422244029E-002
  -7.3485149412795816E-003   1.5694985796635558E-003   5.9587410153272555E-002
  -1.4076342671926553E-002   1.6150857348327195E-003   4.8385206966638131E-002
  -1.4228635497426980E-002   2.1240984376820998E-003   5.1083972117461469E-002
  -1.4380928322927413E-002   2.5477545760473918E-003   5.3764743513750698E-002
  -1.4533221148427854E-002   2.8860541499285950E-003   5.6427521155505818E-002
  -1.4685513973928279E-002   3.1389971593256960E-003   5.9072305042726814E-002
  -2.1446156094206369E-002   2.4226286022852707E-003   4.8821174673151523E-002
  -2.1587366345135701E-002   3.1861476565725865E-003   5.1221225723279022E-002
  -2.1728576596065037E-002   3.8216318641187833E-003   5.3661435677082828E-002
  -2.1869786846994362E-002   4.3290812249238758E-003   5.6141804534562946E-002
  -2.2010997097923694E-002   4.7084957389878293E-003   5.8662332295719377E-002
  -2.9037064240674627E-002   3.2301714697378281E-003   4.9532987872231336E-002
  -2.9109039258822435E-002   4.2481968754630580E-003   5.1591646539405976E-002
  -2.9181014276970237E-002   5.0955091521901735E-003   5.3748616768467351E-002
  -2.9252989295118045E-002   5.7721082999191318E-003   5.6003898559415496E-002
  -2.9324964313265853E-002   6.2779943186499626E-003   5.8357491912250370E-002
   2.2391810627908626E-014   1.4432899320127035E-015   6.0207647627356628E-002
   1.0694049812354223E-013   2.0400348077487251E-015   6.1109292902263440E-002
   1.9149092034265180E-013  -1.5268689090852661E-013   6.2148870516908226E-002
   2.7603917415741641E-013  -4.6294305194871654E-013   6.3326380471291008E-002
   3.6059003005739498E-013  -9.2846563770621060E-013   6.4641822765411736E-002
  -7.3485149412795816E-003   1.5694985796635558E-003   5.9587410153272555E-002
  -7.2235191274817078E-003   1.6665910154487033E-003   6.0479594882898655E-002
  -7.0985233136838348E-003   1.7476035955706661E-003   6.1483838900213424E-002
  -6.9735274998859679E-003   1.8125363200294934E-003   6.2600142205216869E-002
  -6.8485316860880906E-003   1.8613891888251966E-003   6.3828504797908969E-002
  -1.4685513973928279E-002   3.1389971593256960E-003   5.9072305042726814E-002
  -1.4461395398466418E-002   3.3331820308953111E-003   5.9938949371564507E-002
  -1.4237276823004557E-002   3.4952071912940485E-003   6.0891779936041557E-002
  -1.4013158247542701E-002   3.6250726405218747E-003   6.1930796736157930E-002
  -1.3789039672080837E-002   3.7227783785788796E-003   6.3055999771913618E-002
  -2.2010997097923694E-002   4.7084957389878293E-003   5.8662332295719377E-002
  -2.1713628812847191E-002   4.9997730463419397E-003   5.9487356368260982E-002
  -2.1416260527770667E-002   5.2428107870174023E-003   6.0372693624392557E-002
  -2.1118892242694160E-002   5.4376089610143116E-003   6.1318344064114134E-002
  -2.0821523957617633E-002   5.5841675683326077E-003   6.2324307687425674E-002
  -2.9324964313265853E-002   6.2779943186499626E-003   5.8357491912250370E-002
  -2.8980219370624012E-002   6.6663640617885753E-003   5.9124815872988068E-002
  -2.8635474427982172E-002   6.9904143827408151E-003   5.9926579965266451E-002
  -2.8290729485340341E-002   7.2501452815066795E-003   6.0762784189085484E-002
  -2.7945984542698494E-002   7.4455567580862525E-003   6.1633428544445146E-002
   3.6059003005739498E-013  -9.2846563770621060E-013   6.4641822765411736E-002
   8.2130309497774334E-013  -1.4517276269998547E-012   6.4849824290778540E-002
   1.2820161598980917E-012  -1.9346572954770380E-012   6.5212537991659325E-002
   1.7427292248184401E-012  -2.3774133703358125E-012   6.5729963868054186E-002
   2.2034422897387884E-012  -2.7798874313589295E-012   6.6402101919963041E-002
  -6.8485316860880906E-003   1.8613891888251966E-003   6.3828504797908969E-002
  -6.6870286476002974E-003   1.8908264244816841E-003   6.3939945180957206E-002
  -6.5255256091125043E-003   1.8975122495228647E-003   6.4219679464545570E-002
  -6.3640225706247120E-003   1.8814466639488492E-003   6.4667707648674119E-002
  -6.2025195321369180E-003   1.8426296677594434E-003   6.5284029733342699E-002
  -1.3789039672080837E-002   3.7227783785788796E-003   6.3055999771913618E-002
  -1.3452451870539853E-002   3.7816528504150126E-003   6.3048127601987816E-002
  -1.3115864068998867E-002   3.7950245009804127E-003   6.3222131057628320E-002
  -1.2779276267457878E-002   3.7628933302750003E-003   6.3578010138834989E-002
  -1.2442688465916896E-002   3.6852593382988297E-003   6.4115764845607978E-002
  -2.0821523957617633E-002   5.5841675683326077E-003   6.2324307687425674E-002
  -2.0296269667997358E-002   5.6724792763483550E-003   6.2174371553870345E-002
  -1.9771015378377072E-002   5.6925367524378783E-003   6.2219892770907372E-002
  -1.9245761088756797E-002   5.6443399966011791E-003   6.2460871338536818E-002
  -1.8720506799136508E-002   5.5278890088382021E-003   6.2897307256758489E-002
  -2.7945984542698494E-002   7.4455567580862525E-003   6.1633428544445146E-002
  -2.7218482039972798E-002   7.5633057022817390E-003   6.1318677036604805E-002
  -2.6490979537247127E-002   7.5900490038954965E-003   6.1212964604382913E-002
  -2.5763477034521434E-002   7.5257866629273758E-003   6.1316291247779472E-002
  -2.5035974531795756E-002   7.3705186793775745E-003   6.1628656966794509E-002
   2.2034422897387884E-012  -2.7798874313589295E-012   6.6402101919963041E-002
   1.9395388073384368E-012  -2.9159313852389346E-012   6.6256068168513732E-002
   1.6756318554911331E-012  -2.5590779495487936E-012   6.6299323131687848E-002
   1.4117301078142575E-012  -1.7094832494013446E-012   6.6531866809485377E-002
   1.1478214212434779E-012  -3.6703973194107675E-013   6.6953699201906303E-002
  -6.2025195321369180E-003   1.8426296677594434E-003   6.5284029733342699E-002
  -6.0149195319691177E-003   1.7919761751662017E-003   6.5098197077412254E-002
  -5.8273195318013209E-003   1.7404011003805397E-003   6.5098275707721781E-002
  -5.6397195316335216E-003   1.6879044434021662E-003   6.5284265624271309E-002
  -5.4521195314657239E-003   1.6344862042315111E-003   6.5656166827060741E-002
  -1.2442688465916896E-002   3.6852593382988297E-003   6.4115764845607978E-002
  -1.2070865893700834E-002   3.5839523532483833E-003   6.3889211702510912E-002
  -1.1699043321484765E-002   3.4808022033200256E-003   6.3845192417270519E-002
  -1.1327220749268698E-002   3.3758088885139283E-003   6.3983706989886660E-002
  -1.0955398177052628E-002   3.2689724088299510E-003   6.4304755420359308E-002
  -1.8720506799136508E-002   5.5278890088382021E-003   6.2897307256758489E-002
  -1.8167839083255602E-002   5.3759285313304990E-003   6.2629112043809665E-002
  -1.7615171367374696E-002   5.2212033062595774E-003   6.2540073260333964E-002
  -1.7062503651493782E-002   5.0637133336256341E-003   6.2630190906331470E-002
  -1.6509835935612883E-002   4.9034586134284186E-003   6.2899464981801961E-002
  -2.5035974531795756E-002   7.3705186793775745E-003   6.1628656966794509E-002
  -2.4305839100633435E-002   7.1679047094126841E-003   6.1317898101308527E-002
  -2.3575703669471117E-002   6.9616044091991500E-003   6.1182918236912284E-002
  -2.2845568238308793E-002   6.7516177787372341E-003   6.1223717373605706E-002
  -2.2115432807146479E-002   6.5379448180268862E-003   6.1440295511388798E-002
   1.1478214212434779E-012  -3.6703973194107675E-013   6.6953699201906303E-002
   8.4568463343259737E-013   9.5401464506039702E-013   6.6736106376948823E-002
   5.4355304979214480E-013   1.7391504902874999E-012   6.6730236045537794E-002
   2.4142059878995425E-013   1.9885447455347816E-012   6.6936088207673120E-002
  -6.0715321659188248E-014   1.7021939413552900E-012   6.7353662863354702E-002
  -5.4521195314657239E-003   1.6344862042315111E-003   6.5656166827060741E-002
  -5.2355352436678493E-003   1.5781856158501306E-003   6.5389855125301266E-002
  -5.0189509558699694E-003   1.5170419112403161E-003   6.5344989506195550E-002
  -4.8023666680720887E-003   1.4510550904018212E-003   6.5521569969743579E-002
  -4.5857823802742149E-003   1.3802251533347465E-003   6.5919596515945006E-002
  -1.0955398177052628E-002   3.2689724088299510E-003   6.4304755420359308E-002
  -1.0512506012047496E-002   3.1563712307464131E-003   6.3984881726105211E-002
  -1.0069613847042351E-002   3.0340838207414331E-003   6.3896177703611973E-002
  -9.6267216820372179E-003   2.9021101788150993E-003   6.4038643352879537E-002
  -9.1838295170320831E-003   2.7604503049673546E-003   6.4412278673908210E-002
  -1.6509835935612883E-002   4.9034586134284186E-003   6.2899464981801961E-002
  -1.5830912304293232E-002   4.7345568456425569E-003   6.2521186179360339E-002
  -1.5151988672973597E-002   4.5511257302425466E-003   6.2383800637786840E-002
  -1.4473065041653958E-002   4.3531652672284043E-003   6.2487308357081488E-002
  -1.3794141410334318E-002   4.1406754565999349E-003   6.2831709337244149E-002
  -2.2115432807146479E-002   6.5379448180268862E-003   6.1440295511388798E-002
  -2.1190754120405095E-002   6.3127424605387839E-003   6.0998768485066857E-002
  -2.0266075433663697E-002   6.0681676397437018E-003   6.0807858308720236E-002
  -1.9341396746922306E-002   5.8042203556416504E-003   6.0867564982349062E-002
  -1.8416718060180921E-002   5.5209006082325152E-003   6.1177888505953237E-002
  -6.0715321659188248E-014   1.7021939413552900E-012   6.7353662863354702E-002
  -1.9907686610309838E-014   1.3304635171351720E-012   6.7247759655936656E-002
   2.0906887332472479E-014   1.3236772788971507E-012   6.7383852273708439E-002
   6.1719726551778820E-014   1.6819219628150250E-012   6.7761940716669952E-002
   1.0252909632413321E-013   2.4049096047917828E-012   6.8382024984821210E-002
  -4.5857823802742149E-003   1.3802251533347465E-003   6.5919596515945006E-002
  -4.3626934425744900E-003   1.3073979024475491E-003   6.5782945908928164E-002
  -4.1396045048747755E-003   1.2354191401483805E-003   6.5850477352039402E-002
  -3.9165155671750584E-003   1.1642888664371645E-003   6.6122190845278817E-002
  -3.6934266294753361E-003   1.0940070813140745E-003   6.6598086388646005E-002
  -9.1838295170320831E-003   2.7604503049673546E-003   6.4412278673908210E-002
  -8.7754654167352258E-003   2.6147958035645930E-003   6.4245729155515741E-002
  -8.3671013164383704E-003   2.4708382789727992E-003   6.4245547912189560E-002
  -7.9587372161415131E-003   2.3285777311924053E-003   6.4411734943929697E-002
  -7.5503731158446576E-003   2.1880141602229342E-003   6.4744290250735928E-002
  -1.3794141410334318E-002   4.1406754565999349E-003   6.2831709337244149E-002
  -1.3238315922502106E-002   3.9221937046815467E-003   6.2636109395699163E-002
  -1.2682490434669888E-002   3.7062574177974157E-003   6.2569063954158774E-002
  -1.2126664946837677E-002   3.4928665959475915E-003   6.2630573012622856E-002
  -1.1570839459005463E-002   3.2820212391320019E-003   6.2820636571091215E-002
  -1.8416718060180921E-002   5.5209006082325152E-003   6.1177888505953237E-002
  -1.7751244959875134E-002   5.2295916057987502E-003   6.0954086629478821E-002
  -1.7085771859569311E-002   4.9416765566219212E-003   6.0821025477947072E-002
  -1.6420298759263499E-002   4.6571554607029164E-003   6.0778705051358128E-002
  -1.5754825658957701E-002   4.3760283180408477E-003   6.0827125349711686E-002
   1.0252909632413321E-013   2.4049096047917828E-012   6.8382024984821210E-002
  -9.1412988290073827E-013   2.9805047319086952E-012   6.8490012586109816E-002
  -1.9307784537847539E-012   2.8959196152200661E-012   6.8817212625641139E-002
  -2.9474339635626734E-012   2.1512271131118865E-012   6.9363625103414692E-002
  -3.9640790649997371E-012   7.4629191715303023E-013   7.0129250019431266E-002
  -3.6934266294753361E-003   1.0940070813140745E-003   6.6598086388646005E-002
  -3.4539455456370528E-003   1.0211330909896954E-003   6.6559806329929833E-002
  -3.2144644617987852E-003   9.4222620167445925E-004   6.6781276002680884E-002
  -2.9749833779604985E-003   8.5728641336881364E-004   6.7262495406898826E-002
  -2.7355022941222204E-003   7.6631372607238735E-004   6.8003464542584102E-002
  -7.5503731158446576E-003   2.1880141602229342E-003   6.4744290250735928E-002
  -7.0308736539269924E-003   2.0422661789986085E-003   6.4553709633684661E-002
  -6.5113741920093263E-003   1.8844524004529919E-003   6.4663416041324723E-002
  -5.9918747300916689E-003   1.7145728245863429E-003   6.5073409473656682E-002
  -5.4723752681739950E-003   1.5326274513983718E-003   6.5783689930680012E-002
  -1.1570839459005463E-002   3.2820212391320019E-003   6.2820636571091215E-002
  -1.0730784325783933E-002   3.0633992670074939E-003   6.2471722497374121E-002
  -9.8907291925624287E-003   2.8266785992315836E-003   6.2463632741573169E-002
  -9.0506740593409053E-003   2.5718592358039008E-003   6.2796367303688289E-002
  -8.2106189261193820E-003   2.2989411767244672E-003   6.3469926183719536E-002
  -1.5754825658957701E-002   4.3760283180408477E-003   6.0827125349711686E-002
  -1.4553677561207873E-002   4.0845323550166013E-003   6.0313844920998450E-002
  -1.3352529463458048E-002   3.7689047980099255E-003   6.0181926103425820E-002
  -1.2151381365708197E-002   3.4291456470213963E-003   6.0431368896993687E-002
  -1.0950233267958395E-002   3.0652549020504516E-003   6.1062173301702050E-002
  -2.6632672234540876E-002   0.0000000000000000        2.9469319624865917E-002
  -2.7233770236074317E-002   5.8566354034206812E-004   3.4947173264249440E-002
  -2.7834868237607752E-002   1.3192466320790588E-003   4.0117069185271519E-002
  -2.8435966239141190E-002   2.2007492752109808E-003   4.4979007387932146E-002
  -2.9037064240674627E-002   3.2301714697378281E-003   4.9532987872231336E-002
  -3.3392303110115963E-002   0.0000000000000000        3.0179418619850830E-002
  -3.4236181872380582E-002   9.6013191719807999E-004   3.5268034203518157E-002
  -3.5080060634645187E-002   2.0235392181418600E-003   4.0179045984084595E-002
  -3.5923939396909799E-002   3.1902219028313375E-003   4.4912453961550122E-002
  -3.6767818159174410E-002   4.4601799712665211E-003   4.9468258135914746E-002
  -4.0731946466607841E-002   0.0000000000000000        3.1286308075516370E-002
  -4.1688252074343068E-002   1.3346002940540906E-003   3.5941041435818277E-002
  -4.2644557682078317E-002   2.7278318042046543E-003   4.0548524908279843E-002
  -4.3600863289813545E-002   4.1796945304516941E-003   4.5108758492901038E-002
  -4.4557168897548780E-002   5.6901884727952080E-003   4.9621742189681899E-002
  -4.8651602304016495E-002   0.0000000000000000        3.2789987991862536E-002
  -4.9589980841961812E-002   1.7090686709101013E-003   3.6966194961149793E-002
  -5.0528359379907128E-002   3.4321243902674537E-003   4.1225505957857247E-002
  -5.1466737917852438E-002   5.1691671580720491E-003   4.5567920981984915E-002
  -5.2405116455797755E-002   6.9201969743238976E-003   4.9993440033532739E-002
  -5.7151270622341932E-002   0.0000000000000000        3.4690458368889329E-002
  -5.7941368175236777E-002   2.0835370477661130E-003   3.8343494779512710E-002
  -5.8731465728131621E-002   4.1364169763302479E-003   4.2209989132816851E-002
  -5.9521563281026466E-002   6.1586397856924092E-003   4.6289941428801724E-002
  -6.0311660833921310E-002   8.1502054758525889E-003   5.0583351667467330E-002
  -2.9037064240674627E-002   3.2301714697378281E-003   4.9532987872231336E-002
  -2.9109039258822435E-002   4.2481968754630580E-003   5.1591646539405976E-002
  -2.9181014276970237E-002   5.0955091521901735E-003   5.3748616768467351E-002
  -2.9252989295118045E-002   5.7721082999191318E-003   5.6003898559415496E-002
  -2.9324964313265853E-002   6.2779943186499626E-003   5.8357491912250370E-002
  -3.6767818159174410E-002   4.4601799712665211E-003   4.9468258135914746E-002
  -3.6780204542594813E-002   5.6934106463382957E-003   5.1255875406320130E-002
  -3.6792590926015230E-002   6.7499111509375809E-003   5.3064358384293568E-002
  -3.6804977309435633E-002   7.6296814850643430E-003   5.4893707069835061E-002
  -3.6817363692856049E-002   8.3327216487186218E-003   5.6743921462944623E-002
  -4.4557168897548780E-002   5.6901884727952080E-003   4.9621742189681899E-002
  -4.4587412500560489E-002   7.1386244172135238E-003   5.1132301021843650E-002
  -4.4617656103572191E-002   8.4043131496849815E-003   5.2586279707254782E-002
  -4.4647899706583886E-002   9.4872546702095637E-003   5.3983678245915240E-002
  -4.4678143309595610E-002   1.0387448978787288E-002   5.5324496637825085E-002
  -5.2405116455797755E-002   6.9201969743238976E-003   4.9993440033532739E-002
  -5.2530663132719452E-002   8.5838381880887597E-003   5.1220923385976537E-002
  -5.2656209809641134E-002   1.0058715148432387E-002   5.2314380737350979E-002
  -5.2781756486562824E-002   1.1344827855354785E-002   5.3273812087656067E-002
  -5.2907303163484520E-002   1.2442176308855957E-002   5.4099217436891854E-002
  -6.0311660833921310E-002   8.1502054758525889E-003   5.0583351667467330E-002
  -6.0609956439071674E-002   1.0029051958963985E-002   5.1521742498718763E-002
  -6.0908252044222053E-002   1.1713117147179788E-002   5.2248661474582174E-002
  -6.1206547649372431E-002   1.3202401040499998E-002   5.2764108595057535E-002
  -6.1504843254522788E-002   1.4496903638924613E-002   5.3068083860144888E-002
  -2.9324964313265853E-002   6.2779943186499626E-003   5.8357491912250370E-002
  -2.8980219370624012E-002   6.6663640617885753E-003   5.9124815872988068E-002
  -2.8635474427982172E-002   6.9904143827408151E-003   5.9926579965266451E-002
  -2.8290729485340341E-002   7.2501452815066795E-003   6.0762784189085484E-002
  -2.7945984542698494E-002   7.4455567580862525E-003   6.1633428544445146E-002
  -3.6817363692856049E-002   8.3327216487186218E-003   5.6743921462944623E-002
  -3.6385929181502893E-002   8.8749235643832934E-003   5.7090481749857105E-002
  -3.5954494670149724E-002   9.2721791545412498E-003   5.7575981042651547E-002
  -3.5523060158796554E-002   9.5244884191924735E-003   5.8200419341327983E-002
  -3.5091625647443406E-002   9.6318513583369542E-003   5.8963796645886427E-002
  -4.4678143309595610E-002   1.0387448978787288E-002   5.5324496637825085E-002
  -4.4055520355189788E-002   1.1083483066978022E-002   5.5169666347591975E-002
  -4.3432897400783974E-002   1.1553943926341683E-002   5.5258273937582175E-002
  -4.2810274446378173E-002   1.1798831556878213E-002   5.5590319407795651E-002
  -4.2187651491972358E-002   1.1818145958587670E-002   5.6165802758232519E-002
  -5.2907303163484520E-002   1.2442176308855957E-002   5.4099217436891854E-002
  -5.1988992891684717E-002   1.3292042569572766E-002   5.3362369666192733E-002
  -5.1070682619884941E-002   1.3835708698142116E-002   5.2973458650058300E-002
  -5.0152372348085145E-002   1.4073174694563952E-002   5.2932484388488438E-002
  -4.9234062076285362E-002   1.4004440558838351E-002   5.3239446881483285E-002
  -6.1504843254522788E-002   1.4496903638924613E-002   5.3068083860144888E-002
  -6.0186346790987694E-002   1.5500602072167476E-002   5.1668591705659433E-002
  -5.8867850327452606E-002   1.6117473469942578E-002   5.0721535180079921E-002
  -5.7549353863917511E-002   1.6347517832249699E-002   5.0226914283406407E-002
  -5.6230857400382403E-002   1.6190735159089087E-002   5.0184729015638835E-002
  -2.7945984542698494E-002   7.4455567580862525E-003   6.1633428544445146E-002
  -2.7218482039972798E-002   7.5633057022817390E-003   6.1318677036604805E-002
  -2.6490979537247127E-002   7.5900490038954965E-003   6.1212964604382913E-002
  -2.5763477034521434E-002   7.5257866629273758E-003   6.1316291247779472E-002
  -2.5035974531795756E-002   7.3705186793775745E-003   6.1628656966794509E-002
  -3.5091625647443406E-002   9.6318513583369542E-003   5.8963796645886427E-002
  -3.4158256372671364E-002   9.6338476035371726E-003   5.8617091742208118E-002
  -3.3224887097899329E-002   9.5700567863554985E-003   5.8473081307004036E-002
  -3.2291517823127287E-002   9.4404789067919076E-003   5.8531765340274253E-002
  -3.1358148548355252E-002   9.2451139648463965E-003   5.8793143842018628E-002
  -4.2187651491972358E-002   1.1818145958587670E-002   5.6165802758232519E-002
  -4.1054760052298182E-002   1.1704389504792544E-002   5.5812363038916082E-002
  -3.9921868612623972E-002   1.1550064568815445E-002   5.5655273180929672E-002
  -3.8788977172949789E-002   1.1355171150656327E-002   5.5694533184273309E-002
  -3.7656085733275599E-002   1.1119709250315205E-002   5.5930143048947008E-002
  -4.9234062076285362E-002   1.4004440558838351E-002   5.3239446881483285E-002
  -4.7907993078853225E-002   1.3774931406047904E-002   5.2904490926728692E-002
  -4.6581924081421082E-002   1.3530072351275447E-002   5.2759540226159855E-002
  -4.5255855083988973E-002   1.3269863394520746E-002   5.2804594779776899E-002
  -4.3929786086556816E-002   1.2994304535783992E-002   5.3039654587579803E-002
  -5.6230857400382403E-002   1.6190735159089087E-002   5.0184729015638835E-002
  -5.4717955452336542E-002   1.5845473307303320E-002   4.9893475405645885E-002
  -5.3205053504290660E-002   1.5510080133735379E-002   4.9785882442694565E-002
  -5.1692151556244778E-002   1.5184555638385274E-002   4.9861950126784849E-002
  -5.0179249608198903E-002   1.4868899821252834E-002   5.0121678457916818E-002
  -2.5035974531795756E-002   7.3705186793775745E-003   6.1628656966794509E-002
  -2.4305839100633435E-002   7.1679047094126841E-003   6.1317898101308527E-002
  -2.3575703669471117E-002   6.9616044091991500E-003   6.1182918236912284E-002
  -2.2845568238308793E-002   6.7516177787372341E-003   6.1223717373605706E-002
  -2.2115432807146479E-002   6.5379448180268862E-003   6.1440295511388798E-002
  -3.1358148548355252E-002   9.2451139648463965E-003   5.8793143842018628E-002
  -3.0447904582629422E-002   9.0087368135335077E-003   5.8500989498344952E-002
  -2.9537660616903584E-002   8.7561223058677667E-003   5.8393273222708521E-002
  -2.8627416651177746E-002   8.4872704418490381E-003   5.8469995015109494E-002
  -2.7717172685451916E-002   8.2021812214774781E-003   5.8731154875547836E-002
  -3.7656085733275599E-002   1.1119709250315205E-002   5.5930143048947008E-002
  -3.6557074166038594E-002   1.0849568917654449E-002   5.5644042200981181E-002
  -3.5458062598801611E-002   1.0550640202536276E-002   5.5551038488000304E-002
  -3.4359051031564634E-002   1.0222923104960816E-002   5.5651131910004405E-002
  -3.3260039464327623E-002   9.8664176249279867E-003   5.5944322466993476E-002
  -4.3929786086556816E-002   1.2994304535783992E-002   5.3039654587579803E-002
  -4.2633347850861023E-002   1.2690401021775332E-002   5.2747056209217283E-002
  -4.1336909615165236E-002   1.2345158099204867E-002   5.2656214032787481E-002
  -4.0040471379469450E-002   1.1958575768072606E-002   5.2767128058290175E-002
  -3.8744033143773664E-002   1.1530654028378509E-002   5.3079798285725566E-002
  -5.0179249608198903E-002   1.4868899821252834E-002   5.0121678457916818E-002
  -4.8676725637096671E-002   1.4531233125896284E-002   4.9810031523053327E-002
  -4.7174201665994446E-002   1.4139675995873444E-002   4.9708799857070080E-002
  -4.5671677694892207E-002   1.3694228431184379E-002   4.9817983459967047E-002
  -4.4169153723789975E-002   1.3194890431829087E-002   5.0137582331744313E-002
  -2.2115432807146479E-002   6.5379448180268862E-003   6.1440295511388798E-002
  -2.1190754120405095E-002   6.3127424605387839E-003   6.0998768485066857E-002
  -2.0266075433663697E-002   6.0681676397437018E-003   6.0807858308720236E-002
  -1.9341396746922306E-002   5.8042203556416504E-003   6.0867564982349062E-002
  -1.8416718060180921E-002   5.5209006082325152E-003   6.1177888505953237E-002
  -2.7717172685451916E-002   8.2021812214774781E-003   5.8731154875547836E-002
  -2.6549524616667097E-002   7.9029589139543166E-003   5.8325152840095096E-002
  -2.5381876547882272E-002   7.5917077884813250E-003   5.8154472718753944E-002
  -2.4214228479097454E-002   7.2684278450582916E-003   5.8219114511524193E-002
  -2.3046580410312628E-002   6.9331190836853240E-003   5.8519078218406045E-002
  -3.3260039464327623E-002   9.8664176249279867E-003   5.5944322466993476E-002
  -3.1864716949363277E-002   9.4931753673699742E-003   5.5581189067767087E-002
  -3.0469394434398937E-002   9.1152479372190662E-003   5.5438082646788185E-002
  -2.9074071919434577E-002   8.7326353344751566E-003   5.5515003204056973E-002
  -2.7678749404470262E-002   8.3453375591381884E-003   5.5811950739573235E-002
  -3.8744033143773664E-002   1.1530654028378509E-002   5.3079798285725566E-002
  -3.7136331118493668E-002   1.1083391820785653E-002   5.2766877168082427E-002
  -3.5528629093213679E-002   1.0638788085956832E-002   5.2658688092823022E-002
  -3.3920927067933669E-002   1.0196842823891911E-002   5.2755231059947269E-002
  -3.2313225042653701E-002   9.7575560345909973E-003   5.3056506069455195E-002
  -4.4169153723789975E-002   1.3194890431829087E-002   5.0137582331744313E-002
  -4.2364367124058250E-002   1.2673608274201220E-002   4.9882217141041518E-002
  -4.0559580524326504E-002   1.2162328234694389E-002   4.9816289056858365E-002
  -3.8754793924594771E-002   1.1661050313308680E-002   4.9939798079195158E-002
  -3.6950007324863032E-002   1.1169774510043862E-002   5.0252744208051758E-002
  -1.8416718060180921E-002   5.5209006082325152E-003   6.1177888505953237E-002
  -1.7751244959875134E-002   5.2295916057987502E-003   6.0954086629478821E-002
  -1.7085771859569311E-002   4.9416765566219212E-003   6.0821025477947072E-002
  -1.6420298759263499E-002   4.6571554607029164E-003   6.0778705051358128E-002
  -1.5754825658957701E-002   4.3760283180408477E-003   6.0827125349711686E-002
  -2.3046580410312628E-002   6.9331190836853240E-003   5.8519078218406045E-002
  -2.2274478852240768E-002   6.5897178929050504E-003   5.8308476386925351E-002
  -2.1502377294168852E-002   6.2421606612597935E-003   5.8220390746034176E-002
  -2.0730275736096936E-002   5.8904473887496853E-003   5.8254821295732458E-002
  -1.9958174178025048E-002   5.5345780753748297E-003   5.8411768036020328E-002
  -2.7678749404470262E-002   8.3453375591381884E-003   5.5811950739573235E-002
  -2.6768243922985466E-002   7.9498441800113367E-003   5.5606998958964315E-002
  -2.5857738441500668E-002   7.5426447658973883E-003   5.5556338834591587E-002
  -2.4947232960015896E-002   7.1237393167965651E-003   5.5659970366455105E-002
  -2.4036727478531104E-002   6.6931278327088672E-003   5.5917893554554982E-002
  -3.2313225042653701E-002   9.7575560345909973E-003   5.3056506069455195E-002
  -3.1232540172109247E-002   9.3099704671176023E-003   5.2849654345595777E-002
  -3.0151855301564810E-002   8.8431288705351774E-003   5.2828869743619208E-002
  -2.9071170431020348E-002   8.3570312448433895E-003   5.2994152263525753E-002
  -2.7990485560475890E-002   7.8516775900428770E-003   5.3345501905315416E-002
  -3.6950007324863032E-002   1.1169774510043862E-002   5.0252744208051758E-002
  -3.5667367599612143E-002   1.0670096754223979E-002   5.0036442546819493E-002
  -3.4384727874361226E-002   1.0143612975172842E-002   5.0037983473117220E-002
  -3.3102088149110316E-002   9.5903231728902937E-003   5.0257366986944704E-002
  -3.1819448423859420E-002   9.0102273473768313E-003   5.0694593088302098E-002
  -1.5754825658957701E-002   4.3760283180408477E-003   6.0827125349711686E-002
  -1.4553677561207873E-002   4.0845323550166013E-003   6.0313844920998450E-002
  -1.3352529463458048E-002   3.7689047980099255E-003   6.0181926103425820E-002
  -1.2151381365708197E-002   3.4291456470213963E-003   6.0431368896993687E-002
  -1.0950233267958395E-002   3.0652549020504516E-003   6.1062173301702050E-002
  -1.9958174178025048E-002   5.5345780753748297E-003   5.8411768036020328E-002
  -1.8403037015925095E-002   5.1690489668042572E-003   5.7976262707323645E-002
  -1.6847899853825114E-002   4.7883563087073588E-003   5.7867373896186514E-002
  -1.5292762691725158E-002   4.3925001010836420E-003   5.8085101602609476E-002
  -1.3737625529625215E-002   3.9814803439335300E-003   5.8629445826591575E-002
  -2.4036727478531104E-002   6.6931278327088672E-003   5.5917893554554982E-002
  -2.2182346345661821E-002   6.2535655785920796E-003   5.5569131370330399E-002
  -2.0327965212792575E-002   5.8078078194045285E-003   5.5492240610084703E-002
  -1.8473584079923278E-002   5.3558545551459467E-003   5.5687221273817818E-002
  -1.6619202947054074E-002   4.8977057858164974E-003   5.6154073361530055E-002
  -2.7990485560475890E-002   7.8516775900428770E-003   5.3345501905315416E-002
  -2.5891605550418167E-002   7.3380821903798743E-003   5.3092450910018692E-002
  -2.3792725540360386E-002   6.8272593301016635E-003   5.3056526245120028E-002
  -2.1693845530302597E-002   6.3192090092082220E-003   5.3237727910619134E-002
  -1.9594965520244888E-002   5.8139312276995203E-003   5.3636055906516822E-002
  -3.1819448423859420E-002   9.0102273473768313E-003   5.0694593088302098E-002
  -2.9530814630193983E-002   8.4225988021675580E-003   5.0546221326388641E-002
  -2.7242180836528559E-002   7.8467108407991454E-003   5.0560230801292599E-002
  -2.4953547042863136E-002   7.2825634632705284E-003   5.0736621513013877E-002
  -2.2664913249197727E-002   6.7301566695825432E-003   5.1075393461551988E-002
  -5.7151270622341932E-002   0.0000000000000000        3.4690458368889329E-002
  -5.7941368175236777E-002   2.0835370477661130E-003   3.8343494779512710E-002
  -5.8731465728131621E-002   4.1364169763302479E-003   4.2209989132816851E-002
  -5.9521563281026466E-002   6.1586397856924092E-003   4.6289941428801724E-002
  -6.0311660833921310E-002   8.1502054758525889E-003   5.0583351667467330E-002
  -6.5819229331560175E-002   0.0000000000000000        3.7211140420471411E-002
  -6.6624865462850000E-002   2.9137574022890904E-003   4.0834542356041281E-002
  -6.7430501594139811E-002   5.7700326175622414E-003   4.4213409192140486E-002
  -6.8236137725429621E-002   8.5688256458194591E-003   4.7347740928768992E-002
  -6.9041773856719432E-002   1.1310136487060729E-002   5.0237537565926832E-002
  -7.4243756341647274E-002   0.0000000000000000        4.0575455360483452E-002
  -7.5522924093483476E-002   3.7439777568120708E-003   4.4142397753185854E-002
  -7.6802091845319678E-002   7.4036482587942374E-003   4.7006812004266152E-002
  -7.8081259597155880E-002   1.0979011505946504E-002   4.9168698113724346E-002
  -7.9360427348992083E-002   1.4470067498268867E-002   5.0628056081560444E-002
  -8.2424851652603187E-002   0.0000000000000000        4.4783403188925451E-002
  -8.4635544067137219E-002   4.5741981113350495E-003   4.8267060970946421E-002
  -8.6846236481671238E-002   9.0372639000262343E-003   5.0590197569193855E-002
  -8.9056928896205256E-002   1.3389197366073555E-002   5.1752812983667774E-002
  -9.1267621310739303E-002   1.7629998509477007E-002   5.1754907214368137E-002
  -9.0362515264427956E-002   0.0000000000000000        4.9834983905797409E-002
  -9.3962725383811216E-002   5.4044184658580286E-003   5.3208532009322983E-002
  -9.7562935503194489E-002   1.0670879541258225E-002   5.4963565886923596E-002
 -0.10116314562257776        1.5799383226200600E-002   5.5100085538599269E-002
 -0.10476335574196102        2.0789929520685146E-002   5.3618090964349975E-002
  -6.0311660833921310E-002   8.1502054758525889E-003   5.0583351667467330E-002
  -6.0609956439071674E-002   1.0029051958963985E-002   5.1521742498718763E-002
  -6.0908252044222053E-002   1.1713117147179788E-002   5.2248661474582174E-002
  -6.1206547649372431E-002   1.3202401040499998E-002   5.2764108595057535E-002
  -6.1504843254522788E-002   1.4496903638924613E-002   5.3068083860144888E-002
  -6.9041773856719432E-002   1.1310136487060729E-002   5.0237537565926832E-002
  -6.9314032843147563E-002   1.3754330887735332E-002   4.9459130407307483E-002
  -6.9586291829575694E-002   1.5661774594292542E-002   4.8944268341520665E-002
  -6.9858550816003839E-002   1.7032467606732361E-002   4.8692951368566322E-002
  -7.0130809802431915E-002   1.7866409925054769E-002   4.8705179488444529E-002
  -7.9360427348992083E-002   1.4470067498268867E-002   5.0628056081560444E-002
  -7.9131632768477442E-002   1.7479609816506689E-002   4.7790881533848542E-002
  -7.8902838187962815E-002   1.9610432041405307E-002   4.5692269027189668E-002
  -7.8674043607448160E-002   2.0862534172964700E-002   4.4332218561583842E-002
  -7.8445249026933506E-002   2.1235916211184910E-002   4.3710730137031084E-002
  -9.1267621310739303E-002   1.7629998509477007E-002   5.1754907214368137E-002
  -9.0062756215061338E-002   2.1204888745278046E-002   4.6516995878341870E-002
  -8.8857891119383386E-002   2.3559089488518054E-002   4.2492663531589168E-002
  -8.7653026023705422E-002   2.4692600739197067E-002   3.9681910174110060E-002
  -8.6448160928027457E-002   2.4605422497315066E-002   3.8084735805904470E-002
 -0.10476335574196102        2.0789929520685146E-002   5.3618090964349975E-002
 -0.10210740318289922        2.4930167674049385E-002   4.5637473440787522E-002
  -9.9451450623837423E-002   2.7507746935630836E-002   3.9345451854719146E-002
  -9.6795498064775637E-002   2.8522667305429406E-002   3.4742026206144944E-002
  -9.4139545505713823E-002   2.7974928783445215E-002   3.1827196495064776E-002
  -6.1504843254522788E-002   1.4496903638924613E-002   5.3068083860144888E-002
  -6.0186346790987694E-002   1.5500602072167476E-002   5.1668591705659433E-002
  -5.8867850327452606E-002   1.6117473469942578E-002   5.0721535180079921E-002
  -5.7549353863917511E-002   1.6347517832249699E-002   5.0226914283406407E-002
  -5.6230857400382403E-002   1.6190735159089087E-002   5.0184729015638835E-002
  -7.0130809802431915E-002   1.7866409925054769E-002   4.8705179488444529E-002
  -6.8406481001940384E-002   1.8320714197548521E-002   4.7265935148913321E-002
  -6.6682152201448824E-002   1.8552493072502528E-002   4.6185919854389065E-002
  -6.4957823400957251E-002   1.8561746549916616E-002   4.5465133604871755E-002
  -6.3233494600465692E-002   1.8348474629790903E-002   4.5103576400361542E-002
  -7.8445249026933506E-002   2.1235916211184910E-002   4.3710730137031084E-002
  -7.6408294473384486E-002   2.1140826322929591E-002   4.2396035250382123E-002
  -7.4371339919835439E-002   2.0987512675062492E-002   4.1347362824841138E-002
  -7.2334385366286377E-002   2.0775975267583516E-002   4.0564712860408129E-002
  -7.0297430812737344E-002   2.0506214100492776E-002   4.0048085357083055E-002
  -8.6448160928027457E-002   2.4605422497315066E-002   3.8084735805904470E-002
  -8.4191787205319987E-002   2.3960938448310667E-002   3.7058892010065812E-002
  -8.1935413482612435E-002   2.3422532277622421E-002   3.6205864091436182E-002
  -7.9679039759904938E-002   2.2990203985250410E-002   3.5525652050015399E-002
  -7.7422666037197468E-002   2.2663953571194648E-002   3.5018255885803679E-002
  -9.4139545505713823E-002   2.7974928783445215E-002   3.1827196495064776E-002
  -9.1756959197746846E-002   2.6781050573691696E-002   3.1254505427964450E-002
  -8.9374372889779882E-002   2.5857551880182406E-002   3.0761423654174055E-002
  -8.6991786581812905E-002   2.5204432702917320E-002   3.0347951173693606E-002
  -8.4609200273845928E-002   2.4821693041896492E-002   3.0014087986523191E-002
  -5.6230857400382403E-002   1.6190735159089087E-002   5.0184729015638835E-002
  -5.4717955452336542E-002   1.5845473307303320E-002   4.9893475405645885E-002
  -5.3205053504290660E-002   1.5510080133735379E-002   4.9785882442694565E-002
  -5.1692151556244778E-002   1.5184555638385274E-002   4.9861950126784849E-002
  -5.0179249608198903E-002   1.4868899821252834E-002   5.0121678457916818E-002
  -6.3233494600465692E-002   1.8348474629790903E-002   4.5103576400361542E-002
  -6.1525814191903151E-002   1.8009370119490074E-002   4.4752506039358757E-002
  -5.9818133783340645E-002   1.7641125826378574E-002   4.4607331952347687E-002
  -5.8110453374778104E-002   1.7243741750456520E-002   4.4668054139328235E-002
  -5.6402772966215577E-002   1.6817217891723968E-002   4.4934672600300443E-002
  -7.0297430812737344E-002   2.0506214100492776E-002   4.0048085357083055E-002
  -6.8372736316708149E-002   2.0173266931676634E-002   3.9598189784042240E-002
  -6.6448041820678955E-002   1.9772171519021657E-002   3.9376426111943044E-002
  -6.4523347324649774E-002   1.9302927862527769E-002   3.9382794340785579E-002
  -6.2598652828620566E-002   1.8765535962195018E-002   3.9617294470569747E-002
  -7.7422666037197468E-002   2.2663953571194648E-002   3.5018255885803679E-002
  -7.5258721826751543E-002   2.2337163743863318E-002   3.4430526639696403E-002
  -7.3094777616305701E-002   2.1903217211664796E-002   3.4093164921480755E-002
  -7.0930833405859803E-002   2.1362113974599015E-002   3.4006170731156873E-002
  -6.8766889195413905E-002   2.0713854032666124E-002   3.4169544068724661E-002
  -8.4609200273845928E-002   2.4821693041896492E-002   3.0014087986523191E-002
  -8.2183770722033339E-002   2.4501060556049933E-002   2.9249516606321135E-002
  -7.9758341170220765E-002   2.4034262904307956E-002   2.8757548380960757E-002
  -7.7332911618408148E-002   2.3421300086670267E-002   2.8538183310442153E-002
  -7.4907482066595560E-002   2.2662172103137201E-002   2.8591421394765254E-002
  -5.0179249608198903E-002   1.4868899821252834E-002   5.0121678457916818E-002
  -4.8676725637096671E-002   1.4531233125896284E-002   4.9810031523053327E-002
  -4.7174201665994446E-002   1.4139675995873444E-002   4.9708799857070080E-002
  -4.5671677694892207E-002   1.3694228431184379E-002   4.9817983459967047E-002
  -4.4169153723789975E-002   1.3194890431829087E-002   5.0137582331744313E-002
  -5.6402772966215577E-002   1.6817217891723968E-002   4.4934672600300443E-002
  -5.4697874481178049E-002   1.6361083988631731E-002   4.4600643035816276E-002
  -5.2992975996140515E-002   1.5874869779631040E-002   4.4460947230322435E-002
  -5.1288077511102974E-002   1.5358575264721661E-002   4.4515585183818943E-002
  -4.9583179026065412E-002   1.4812200443903800E-002   4.4764556896305763E-002
  -6.2598652828620566E-002   1.8765535962195018E-002   3.9617294470569747E-002
  -6.0707461339537659E-002   1.8190934851367309E-002   3.9284692405222449E-002
  -5.8816269850454718E-002   1.7610063563388699E-002   3.9130342588975707E-002
  -5.6925078361371791E-002   1.7022922098259001E-002   3.9154245021829362E-002
  -5.5033886872288870E-002   1.6429510455978402E-002   3.9356399703783448E-002
  -6.8766889195413905E-002   2.0713854032666124E-002   3.4169544068724661E-002
  -6.6705486212175494E-002   2.0020785714102877E-002   3.3862179631271978E-002
  -6.4644083228937096E-002   1.9345257347146327E-002   3.3716985933029832E-002
  -6.2582680245698630E-002   1.8687268931796421E-002   3.3733962973998104E-002
  -6.0521277262460246E-002   1.8046820468053143E-002   3.3913110754177134E-002
  -7.4907482066595560E-002   2.2662172103137201E-002   2.8591421394765254E-002
  -7.2691949099091602E-002   2.1850636576838334E-002   2.8333104713964719E-002
  -7.0476416131587560E-002   2.1080451130904024E-002   2.8220877262484900E-002
  -6.8260883164083561E-002   2.0351615765333651E-002   2.8254739040325660E-002
  -6.6045350196579589E-002   1.9664130480127717E-002   2.8434690047486944E-002
  -4.4169153723789975E-002   1.3194890431829087E-002   5.0137582331744313E-002
  -4.2364367124058250E-002   1.2673608274201220E-002   4.9882217141041518E-002
  -4.0559580524326504E-002   1.2162328234694389E-002   4.9816289056858365E-002
  -3.8754793924594771E-002   1.1661050313308680E-002   4.9939798079195158E-002
  -3.6950007324863032E-002   1.1169774510043862E-002   5.0252744208051758E-002
  -4.9583179026065412E-002   1.4812200443903800E-002   4.4764556896305763E-002
  -4.7584114707868851E-002   1.4251912463720068E-002   4.4483477826249090E-002
  -4.5585050389672227E-002   1.3693878470713572E-002   4.4401517086602449E-002
  -4.3585986071475617E-002   1.3138098464884271E-002   4.4518674677365644E-002
  -4.1586921753279021E-002   1.2584572446232123E-002   4.4834950598538870E-002
  -5.5033886872288870E-002   1.6429510455978402E-002   3.9356399703783448E-002
  -5.2830863611737243E-002   1.5830216653238999E-002   3.9041858623429015E-002
  -5.0627840351185616E-002   1.5225428706732859E-002   3.8936117097374774E-002
  -4.8424817090633995E-002   1.4615146616459971E-002   3.9039175125620634E-002
  -4.6221793830082368E-002   1.3999370382420440E-002   3.9351032708166520E-002
  -6.0521277262460246E-002   1.8046820468053143E-002   3.3913110754177134E-002
  -5.8104613835663475E-002   1.7408520842757833E-002   3.3557359532581231E-002
  -5.5687950408866663E-002   1.6756978942752038E-002   3.3420089089175604E-002
  -5.3271286982069899E-002   1.6092194768035587E-002   3.3501299423960212E-002
  -5.0854623555273079E-002   1.5414168318608729E-002   3.3800990536935083E-002
  -6.6045350196579589E-002   1.9664130480127717E-002   2.8434690047486944E-002
  -6.3405365379647527E-002   1.8986825032276722E-002   2.8029980553705702E-002
  -6.0765380562715424E-002   1.8288529178771343E-002   2.7853433062004801E-002
  -5.8125395745783369E-002   1.7569242919611292E-002   2.7905047572384198E-002
  -5.5485410928851259E-002   1.6828966254797018E-002   2.8184824084844184E-002
  -3.6950007324863032E-002   1.1169774510043862E-002   5.0252744208051758E-002
  -3.5667367599612143E-002   1.0670096754223979E-002   5.0036442546819493E-002
  -3.4384727874361226E-002   1.0143612975172842E-002   5.0037983473117220E-002
  -3.3102088149110316E-002   9.5903231728902937E-003   5.0257366986944704E-002
  -3.1819448423859420E-002   9.0102273473768313E-003   5.0694593088302098E-002
  -4.1586921753279021E-002   1.2584572446232123E-002   4.4834950598538870E-002
  -4.0105403600571334E-002   1.2024699443410530E-002   4.4580850139472550E-002
  -3.8623885447863639E-002   1.1449878485072965E-002   4.4506663947789932E-002
  -3.7142367295155951E-002   1.0860109571219249E-002   4.4612392023491140E-002
  -3.5660849142448256E-002   1.0255392701849775E-002   4.4898034366575912E-002
  -4.6221793830082368E-002   1.3999370382420440E-002   3.9351032708166520E-002
  -4.4579325570064089E-002   1.3379302132597110E-002   3.9070991518981454E-002
  -4.2936857310045734E-002   1.2756143994973206E-002   3.8932936277033890E-002
  -4.1294389050027379E-002   1.2129895969548317E-002   3.8936866982323931E-002
  -3.9651920790009107E-002   1.1500558056322746E-002   3.9082783634851473E-002
  -5.0854623555273079E-002   1.5414168318608729E-002   3.3800990536935083E-002
  -4.9089133508090306E-002   1.4733904821783619E-002   3.3506866685346373E-002
  -4.7323643460907512E-002   1.4062409504873360E-002   3.3316800460849089E-002
  -4.5558153413724711E-002   1.3399682367877162E-002   3.3230791863443146E-002
  -4.3792663366541890E-002   1.2745723410795815E-002   3.3248840893128559E-002
  -5.5485410928851259E-002   1.6828966254797018E-002   2.8184824084844184E-002
  -5.3634827414650144E-002   1.6088507510970212E-002   2.7888475638567056E-002
  -5.1784243900448959E-002   1.5368675014773500E-002   2.7658256499235367E-002
  -4.9933660386247865E-002   1.4669468766206239E-002   2.7494166666848799E-002
  -4.8083076872046659E-002   1.3990888765268716E-002   2.7396206141407531E-002
  -3.1819448423859420E-002   9.0102273473768313E-003   5.0694593088302098E-002
  -2.9530814630193983E-002   8.4225988021675580E-003   5.0546221326388641E-002
  -2.7242180836528559E-002   7.8467108407991454E-003   5.0560230801292599E-002
  -2.4953547042863136E-002   7.2825634632705284E-003   5.0736621513013877E-002
  -2.2664913249197727E-002   6.7301566695825432E-003   5.1075393461551988E-002
  -3.5660849142448256E-002   1.0255392701849775E-002   4.4898034366575912E-002
  -3.3194965989616874E-002   9.6410846930390370E-003   4.4618612928276291E-002
  -3.0729082836785430E-002   9.0225423608617933E-003   4.4531308971491324E-002
  -2.8263199683953983E-002   8.3997657053180123E-003   4.4636122496221189E-002
  -2.5797316531122660E-002   7.7727547264079266E-003   4.4933053502465681E-002
  -3.9651920790009107E-002   1.1500558056322746E-002   3.9082783634851473E-002
  -3.6979052033314183E-002   1.0859570583910072E-002   3.8656337612958738E-002
  -3.4306183276619211E-002   1.0198373880924601E-002   3.8451745317278331E-002
  -3.1633314519924363E-002   9.5169679473654668E-003   3.8469006747810133E-002
  -2.8960445763229314E-002   8.8153527832333101E-003   3.8708121904554138E-002
  -4.3792663366541890E-002   1.2745723410795815E-002   3.3248840893128559E-002
  -4.0883072761285999E-002   1.2078056474781607E-002   3.2659395380436204E-002
  -3.7973482156030094E-002   1.1374205400987273E-002   3.2321539838653199E-002
  -3.5063891550774121E-002   1.0634170189413046E-002   3.2235274267780202E-002
  -3.2154300945518244E-002   9.8579508400586380E-003   3.2400598667816735E-002
  -4.8083076872046659E-002   1.3990888765268716E-002   2.7396206141407531E-002
  -4.4907028173532232E-002   1.3296542365652697E-002   2.6627786230708494E-002
  -4.1730979475017832E-002   1.2550036921050237E-002   2.6140692535616433E-002
  -3.8554930776503502E-002   1.1751372431460367E-002   2.5934925056131722E-002
  -3.5378882077988949E-002   1.0900548896884077E-002   2.6010483792254346E-002
  -9.0362515264427956E-002   0.0000000000000000        4.9834983905797409E-002
  -9.3962725383811216E-002   5.4044184658580286E-003   5.3208532009322983E-002
  -9.7562935503194489E-002   1.0670879541258225E-002   5.4963565886923596E-002
 -0.10116314562257776        1.5799383226200600E-002   5.5100085538599269E-002
 -0.10476335574196102        2.0789929520685146E-002   5.3618090964349975E-002
 -0.10329451596968628        0.0000000000000000        5.8663293469246369E-002
 -0.10683184418004583        1.0884715479778262E-002   5.2118646640460724E-002
 -0.11036917239040539        1.9172417987491058E-002   4.7318277855647441E-002
 -0.11390650060076493        2.4863107523138403E-002   4.4262187114806534E-002
 -0.11744382881112450        2.7956784086720310E-002   4.2950374417938017E-002
 -0.12645862256094284        0.0000000000000000        7.4201427837419370E-002
 -0.12657027659238135        1.6365012493698494E-002   5.5279530494714860E-002
 -0.12668193062381988        2.7673956433723900E-002   4.1464703465880062E-002
 -0.12679358465525836        3.3926831820076206E-002   3.2756946750914957E-002
 -0.12690523868669690        3.5123638652755446E-002   2.9156260349819559E-002
 -0.15985483503819767        0.0000000000000000        9.6449387010316440E-002
 -0.15317802262081781        2.1845309507618722E-002   6.2691183572085446E-002
 -0.14650121020343793        3.6175494879956721E-002   3.7402842717621475E-002
 -0.13982439778605810        4.2990556117013995E-002   2.0584364446924523E-002
 -0.13314758536867821        4.2290493218790581E-002   1.2235748759994666E-002
 -0.20348315340145073        0.0000000000000000       0.12540717098793755     
 -0.18665508226535515        2.7325606521538960E-002   7.4353605872572420E-002
 -0.16982701112925960        4.4677033326189566E-002   3.5132695610871657E-002
 -0.15299893999316402        5.2054280413951812E-002   7.7444402028352538E-003
 -0.13617086885706847        4.9457347784825731E-002  -7.8111603515367556E-003
 -0.10476335574196102        2.0789929520685146E-002   5.3618090964349975E-002
 -0.10210740318289922        2.4930167674049385E-002   4.5637473440787522E-002
  -9.9451450623837423E-002   2.7507746935630836E-002   3.9345451854719146E-002
  -9.6795498064775637E-002   2.8522667305429406E-002   3.4742026206144944E-002
  -9.4139545505713823E-002   2.7974928783445215E-002   3.1827196495064776E-002
 -0.11744382881112450        2.7956784086720310E-002   4.2950374417938017E-002
 -0.11348686965736603        2.9428219834866442E-002   3.6696166969874794E-002
 -0.10952991050360752        3.0252186924206621E-002   3.1355376773710864E-002
 -0.10557295134984906        3.0428685354740775E-002   2.6928003829446181E-002
 -0.10161599219609058        2.9957715126468977E-002   2.3414048137080704E-002
 -0.12690523868669690        3.5123638652755446E-002   2.9156260349819559E-002
 -0.12242245162383657        3.3926271995683523E-002   2.5543653210232380E-002
 -0.11793966456097624        3.2996626912782427E-002   2.2069284636949699E-002
 -0.11345687749811588        3.2334703404052166E-002   1.8733154629971376E-002
 -0.10897409043525558        3.1940501469492760E-002   1.5535263189297458E-002
 -0.13314758536867821        4.2290493218790581E-002   1.2235748759994666E-002
 -0.12891414908231089        3.8424324156500558E-002   1.2179932161860413E-002
 -0.12468071279594356        3.5741066901358268E-002   1.1487175444435668E-002
 -0.12044727650957623        3.4240721453363515E-002   1.0157478607720621E-002
 -0.11621384022320894        3.3923287812516544E-002   8.1908416517149814E-003
 -0.13617086885706847        4.9457347784825731E-002  -7.8111603515367556E-003
 -0.13296196203278901        4.2922376317317656E-002  -3.3949961752413188E-003
 -0.12975305520850952        3.8485506889934060E-002  -3.9095080383116931E-004
 -0.12654414838423006        3.6146739502674913E-002   1.2009757626936096E-003
 -0.12333524155995057        3.5906074155540313E-002   1.3807835243332678E-003
  -9.4139545505713823E-002   2.7974928783445215E-002   3.1827196495064776E-002
  -9.1756959197746846E-002   2.6781050573691696E-002   3.1254505427964450E-002
  -8.9374372889779882E-002   2.5857551880182406E-002   3.0761423654174055E-002
  -8.6991786581812905E-002   2.5204432702917320E-002   3.0347951173693606E-002
  -8.4609200273845928E-002   2.4821693041896492E-002   3.0014087986523191E-002
 -0.10161599219609058        2.9957715126468977E-002   2.3414048137080704E-002
  -9.9140195948480211E-002   2.9187486454220042E-002   2.3132971811073461E-002
  -9.6664399700869846E-002   2.8466209552822794E-002   2.2958706071042938E-002
  -9.4188603453259551E-002   2.7793884422277263E-002   2.2891250916989129E-002
  -9.1712807205649116E-002   2.7170511062583502E-002   2.2930606348912155E-002
 -0.10897409043525558        3.1940501469492760E-002   1.5535263189297458E-002
 -0.10637788295533508        3.1593922334748330E-002   1.5324373858990719E-002
 -0.10378167547541459        3.1074867225463182E-002   1.5247496407327536E-002
 -0.10118546799549406        3.0383336141637261E-002   1.5304630834307990E-002
  -9.8589260515573582E-002   2.9519329083270526E-002   1.5495777139931874E-002
 -0.11621384022320894        3.3923287812516544E-002   8.1908416517149814E-003
 -0.11347002021831147        3.4000358215276652E-002   7.8287115717163916E-003
 -0.11072620021341402        3.3683524898103487E-002   7.6277946630279158E-003
 -0.10798238020851657        3.2972787860997110E-002   7.5880909256500172E-003
 -0.10523856020361912        3.1868147103957502E-002   7.7096003595825188E-003
 -0.12333524155995057        3.5906074155540313E-002   1.3807835243332678E-003
 -0.12041660773740942        3.6406794095804981E-002   6.4598494925025007E-004
 -0.11749797391486819        3.6292182570744000E-002   9.9600838144288384E-005
 -0.11457934009232700        3.5562239580357161E-002  -2.5836880898443514E-004
 -0.11166070626978580        3.4216965124644561E-002  -4.2792399213620325E-004
  -8.4609200273845928E-002   2.4821693041896492E-002   3.0014087986523191E-002
  -8.2183770722033339E-002   2.4501060556049933E-002   2.9249516606321135E-002
  -7.9758341170220765E-002   2.4034262904307956E-002   2.8757548380960757E-002
  -7.7332911618408148E-002   2.3421300086670267E-002   2.8538183310442153E-002
  -7.4907482066595560E-002   2.2662172103137201E-002   2.8591421394765254E-002
  -9.1712807205649116E-002   2.7170511062583502E-002   2.2930606348912155E-002
  -8.9038848115803051E-002   2.6548693856982032E-002   2.2273112659499376E-002
  -8.6364889025956959E-002   2.5881037188713332E-002   2.1840074891311921E-002
  -8.3690929936110867E-002   2.5167541057777524E-002   2.1631493044349758E-002
  -8.1016970846264788E-002   2.4408205464174548E-002   2.1647367118613009E-002
  -9.8589260515573582E-002   2.9519329083270526E-002   1.5495777139931874E-002
  -9.5714919121310332E-002   2.8596327157913985E-002   1.5045686844536769E-002
  -9.2840577727047097E-002   2.7727811473118740E-002   1.4771905236750611E-002
  -8.9966236332783875E-002   2.6913782028884701E-002   1.4674432316573472E-002
  -8.7091894938520653E-002   2.6154238825211895E-002   1.4753268084005164E-002
 -0.10523856020361912        3.1868147103957502E-002   7.7096003595825188E-003
 -0.10221198373855515        3.0643960458846081E-002   7.5672391614334134E-003
  -9.9185407273491163E-002   2.9574585757524134E-002   7.5530394172769041E-003
  -9.6158830808427215E-002   2.8660022999991860E-002   7.6670011271129535E-003
  -9.3132254343363211E-002   2.7900272186249214E-002   7.9091242909415591E-003
 -0.11166070626978580        3.4216965124644561E-002  -4.2792399213620325E-004
 -0.10853004196753746        3.2691593759778009E-002  -1.6223038981080795E-004
 -0.10539937766528920        3.1421360041929525E-002   1.8347743289082175E-004
 -0.10226871336304093        3.0406263971099107E-002   6.0919947596846380E-004
  -9.9138049060792599E-002   2.9646305547286533E-002   1.1149357394224513E-003
  -7.4907482066595560E-002   2.2662172103137201E-002   2.8591421394765254E-002
  -7.2691949099091602E-002   2.1850636576838334E-002   2.8333104713964719E-002
  -7.0476416131587560E-002   2.1080451130904024E-002   2.8220877262484900E-002
  -6.8260883164083561E-002   2.0351615765333651E-002   2.8254739040325660E-002
  -6.6045350196579589E-002   1.9664130480127717E-002   2.8434690047486944E-002
  -8.1016970846264788E-002   2.4408205464174548E-002   2.1647367118613009E-002
  -7.8652606593102206E-002   2.3627952756449813E-002   2.1449034838957631E-002
  -7.6288242339939777E-002   2.2851705283148491E-002   2.1402275901298493E-002
  -7.3923878086777223E-002   2.2079463044270827E-002   2.1507090305635884E-002
  -7.1559513833614766E-002   2.1311226039816666E-002   2.1763478051969570E-002
  -8.7091894938520653E-002   2.6154238825211895E-002   1.4753268084005164E-002
  -8.4573215287023856E-002   2.5405268936061015E-002   1.4577575359554049E-002
  -8.2054535635527115E-002   2.4622959435393006E-002   1.4558940089775048E-002
  -7.9535855984030304E-002   2.3807310323207945E-002   1.4697362274668325E-002
  -7.7017176332533577E-002   2.2958321599505616E-002   1.4992841914233723E-002
  -9.3132254343363211E-002   2.7900272186249214E-002   7.9091242909415591E-003
  -9.0453775180856441E-002   2.7182585115672245E-002   7.7187262757540780E-003
  -8.7775296018349630E-002   2.6394213587637553E-002   7.6908698279146374E-003
  -8.5096816855842861E-002   2.5535157602145121E-002   7.8255549474230621E-003
  -8.2418337693336036E-002   2.4605417159194343E-002   8.1227816342792705E-003
  -9.9138049060792599E-002   2.9646305547286533E-002   1.1149357394224513E-003
  -9.6294286274599961E-002   2.8959901295283808E-002   8.7248758755797962E-004
  -9.3450523488407378E-002   2.8165467739882016E-002   7.9806511571706151E-004
  -9.0606760702214739E-002   2.7263004881082069E-002   8.9166832389973860E-004
  -8.7762997916022156E-002   2.6252512718883403E-002   1.1532972121063301E-003
  -6.6045350196579589E-002   1.9664130480127717E-002   2.8434690047486944E-002
  -6.3405365379647527E-002   1.8986825032276722E-002   2.8029980553705702E-002
  -6.0765380562715424E-002   1.8288529178771343E-002   2.7853433062004801E-002
  -5.8125395745783369E-002   1.7569242919611292E-002   2.7905047572384198E-002
  -5.5485410928851259E-002   1.6828966254797018E-002   2.8184824084844184E-002
  -7.1559513833614766E-002   2.1311226039816666E-002   2.1763478051969570E-002
  -6.8698383611258323E-002   2.0545482591206601E-002   2.1398248835453618E-002
  -6.5837253388901951E-002   1.9780721019860989E-002   2.1247148427705989E-002
  -6.2976123166545522E-002   1.9016941325779853E-002   2.1310176828726532E-002
  -6.0114992944189163E-002   1.8254143508963261E-002   2.1587334038515399E-002
  -7.7017176332533577E-002   2.2958321599505616E-002   1.4992841914233723E-002
  -7.3948933898064964E-002   2.2104140150136592E-002   1.4689065257901993E-002
  -7.0880691463596393E-002   2.1272912860950573E-002   1.4585384217026452E-002
  -6.7812449029127767E-002   2.0464639731948356E-002   1.4681798791607078E-002
  -6.4744206594659182E-002   1.9679320763129393E-002   1.4978308981643693E-002
  -8.2418337693336036E-002   2.4605417159194343E-002   8.1227816342792705E-003
  -7.9157016240067379E-002   2.3662797709066277E-002   7.9024298210506223E-003
  -7.5895694786798737E-002   2.2765104702040465E-002   7.8681404299662198E-003
  -7.2634373333530053E-002   2.1912338138116695E-002   8.0199134610256934E-003
  -6.9373051880261424E-002   2.1104498017295414E-002   8.3577489142294369E-003
  -8.7762997916022156E-002   2.6252512718883403E-002   1.1532972121063301E-003
  -8.4322630637265528E-002   2.5221455267996351E-002   1.0383425249001488E-003
  -8.0882263358508955E-002   2.4257296543129803E-002   1.0954170665253837E-003
  -7.7441896079752298E-002   2.3360036544285423E-002   1.3245208369825900E-003
  -7.4001528800995753E-002   2.2529675271461658E-002   1.7256538362717677E-003
  -5.5485410928851259E-002   1.6828966254797018E-002   2.8184824084844184E-002
  -5.3634827414650144E-002   1.6088507510970212E-002   2.7888475638567056E-002
  -5.1784243900448959E-002   1.5368675014773500E-002   2.7658256499235367E-002
  -4.9933660386247865E-002   1.4669468766206239E-002   2.7494166666848799E-002
  -4.8083076872046659E-002   1.3990888765268716E-002   2.7396206141407531E-002
  -6.0114992944189163E-002   1.8254143508963261E-002   2.1587334038515399E-002
  -5.8176133758551310E-002   1.7492071090244532E-002   2.1324047904878241E-002
  -5.6237274572913547E-002   1.6730467590457293E-002   2.1171183807169022E-002
  -5.4298415387275797E-002   1.5969333009601828E-002   2.1128741745388029E-002
  -5.2359556201637916E-002   1.5208667347677729E-002   2.1196721719534961E-002
  -6.4744206594659182E-002   1.9679320763129393E-002   1.4978308981643693E-002
  -6.2672779008602006E-002   1.8895634669518699E-002   1.4727927831948109E-002
  -6.0601351422544719E-002   1.8092260166141426E-002   1.4632261447163682E-002
  -5.8529923836487495E-002   1.7269197252997422E-002   1.4691309827289587E-002
  -5.6458496250430271E-002   1.6426445930086714E-002   1.4905072972326586E-002
  -6.9373051880261424E-002   2.1104498017295414E-002   8.3577489142294369E-003
  -6.7124763164801968E-002   2.0299198248793164E-002   8.1001154197771555E-003
  -6.4876474449342511E-002   1.9454052741825722E-002   8.0414894192186847E-003
  -6.2628185733882999E-002   1.8569061496393344E-002   8.1818709125538874E-003
  -6.0379897018423598E-002   1.7644224512495713E-002   8.5212598997823318E-003
  -7.4001528800995753E-002   2.2529675271461658E-002   1.7256538362717677E-003
  -7.1532086227151348E-002   2.1702761828067074E-002   1.4406106683650388E-003
  -6.9062643653306832E-002   2.0815845317509435E-002   1.3988677233345015E-003
  -6.6593201079462344E-002   1.9868925739788566E-002   1.6004250011805096E-003
  -6.4123758505617912E-002   1.8862003094904600E-002   2.0452825019026122E-003
  -4.8083076872046659E-002   1.3990888765268716E-002   2.7396206141407531E-002
  -4.4907028173532232E-002   1.3296542365652697E-002   2.6627786230708494E-002
  -4.1730979475017832E-002   1.2550036921050237E-002   2.6140692535616433E-002
  -3.8554930776503502E-002   1.1751372431460367E-002   2.5934925056131722E-002
  -3.5378882077988949E-002   1.0900548896884077E-002   2.6010483792254346E-002
  -5.2359556201637916E-002   1.5208667347677729E-002   2.1196721719534961E-002
  -4.8916550102469147E-002   1.4440491823111662E-002   2.0557648430080816E-002
  -4.5473544003300288E-002   1.3656827654330739E-002   2.0171163726328434E-002
  -4.2030537904131457E-002   1.2857674841334238E-002   2.0037267608277481E-002
  -3.8587531804962660E-002   1.2043033384122714E-002   2.0155960075928236E-002
  -5.6458496250430271E-002   1.6426445930086714E-002   1.4905072972326586E-002
  -5.2777270380512761E-002   1.5584441280570849E-002   1.4432016704889278E-002
  -4.9096044510595190E-002   1.4763618387611512E-002   1.4182811393247570E-002
  -4.5414818640677604E-002   1.3963977251207996E-002   1.4157457037402048E-002
  -4.1733592770760150E-002   1.3185517871361241E-002   1.4355953637352425E-002
  -6.0379897018423598E-002   1.7644224512495713E-002   8.5212598997823318E-003
  -5.6489189007663039E-002   1.6728390738030036E-002   8.2508910551332762E-003
  -5.2598480996902376E-002   1.5870409120892038E-002   8.1756355363742147E-003
  -4.8707772986141942E-002   1.5070279661082143E-002   8.2954933435057943E-003
  -4.4817064975381238E-002   1.4328002358599989E-002   8.6104644765267885E-003
  -6.4123758505617912E-002   1.8862003094904600E-002   2.0452825019026122E-003
  -6.0052305983920085E-002   1.7872340195489000E-002   2.0142714808135675E-003
  -5.5980853462222091E-002   1.6977199854172648E-002   2.1496361557086507E-003
  -5.1909400940524264E-002   1.6176582070955535E-002   2.4513765265886181E-003
  -4.7837948418826270E-002   1.5470486845838405E-002   2.9194925934525884E-003
 </DataArray>
 </PointData>
 </Piece>
 <Piece  NumberOfPoints="          1600 "  NumberOfCells="         1024 ">
 <Points>
 <DataArray  type="Float64" NumberOfComponents="3"  format="ascii" >
  0.50000000000000000        0.0000000000000000        0.0000000000000000     
  0.53125000000000000        0.0000000000000000        0.0000000000000000     
  0.56250000000000000        0.0000000000000000        0.0000000000000000     
  0.59375000000000000        0.0000000000000000        0.0000000000000000     
  0.62500000000000000        0.0000000000000000        0.0000000000000000     
  0.50000000000000000        3.1250000000000000E-002   0.0000000000000000     
  0.53125000000000000        3.1250000000000000E-002   0.0000000000000000     
  0.56250000000000000        3.1250000000000000E-002   0.0000000000000000     
  0.59375000000000000        3.1250000000000000E-002   0.0000000000000000     
  0.62500000000000000        3.1250000000000000E-002   0.0000000000000000     
  0.50000000000000000        6.2500000000000000E-002   0.0000000000000000     
  0.53125000000000000        6.2500000000000000E-002   0.0000000000000000     
  0.56250000000000000        6.2500000000000000E-002   0.0000000000000000     
  0.59375000000000000        6.2500000000000000E-002   0.0000000000000000     
  0.62500000000000000        6.2500000000000000E-002   0.0000000000000000     
  0.50000000000000000        9.3750000000000000E-002   0.0000000000000000     
  0.53125000000000000        9.3750000000000000E-002   0.0000000000000000     
  0.56250000000000000        9.3750000000000000E-002   0.0000000000000000     
  0.59375000000000000        9.3750000000000000E-002   0.0000000000000000     
  0.62500000000000000        9.3750000000000000E-002   0.0000000000000000     
  0.50000000000000000       0.12500000000000000        0.0000000000000000     
  0.53125000000000000       0.12500000000000000        0.0000000000000000     
  0.56250000000000000       0.12500000000000000        0.0000000000000000     
  0.59375000000000000       0.12500000000000000        0.0000000000000000     
  0.62500000000000000       0.12500000000000000        0.0000000000000000     
  0.62500000000000000        0.0000000000000000        0.0000000000000000     
  0.65625000000000000        0.0000000000000000        0.0000000000000000     
  0.68750000000000000        0.0000000000000000        0.0000000000000000     
  0.71875000000000000        0.0000000000000000        0.0000000000000000     
  0.75000000000000000        0.0000000000000000        0.0000000000000000     
  0.62500000000000000        3.1250000000000000E-002   0.0000000000000000     
  0.65625000000000000        3.1250000000000000E-002   0.0000000000000000     
  0.68750000000000000        3.1250000000000000E-002   0.0000000000000000     
  0.71875000000000000        3.1250000000000000E-002   0.0000000000000000     
  0.75000000000000000        3.1250000000000000E-002   0.0000000000000000     
  0.62500000000000000        6.2500000000000000E-002   0.0000000000000000     
  0.65625000000000000        6.2500000000000000E-002   0.0000000000000000     
  0.68750000000000000        6.2500000000000000E-002   0.0000000000000000     
  0.71875000000000000        6.2500000000000000E-002   0.0000000000000000     
  0.75000000000000000        6.2500000000000000E-002   0.0000000000000000     
  0.62500000000000000        9.3750000000000000E-002   0.0000000000000000     
  0.65625000000000000        9.3750000000000000E-002   0.0000000000000000     
  0.68750000000000000        9.3750000000000000E-002   0.0000000000000000     
  0.71875000000000000        9.3750000000000000E-002   0.0000000000000000     
  0.75000000000000000        9.3750000000000000E-002   0.0000000000000000     
  0.62500000000000000       0.12500000000000000        0.0000000000000000     
  0.65625000000000000       0.12500000000000000        0.0000000000000000     
  0.68750000000000000       0.12500000000000000        0.0000000000000000     
  0.71875000000000000       0.12500000000000000        0.0000000000000000     
  0.75000000000000000       0.12500000000000000        0.0000000000000000     
  0.75000000000000000        0.0000000000000000        0.0000000000000000     
  0.78125000000000000        0.0000000000000000        0.0000000000000000     
  0.81250000000000000        0.0000000000000000        0.0000000000000000     
  0.84375000000000000        0.0000000000000000        0.0000000000000000     
  0.87500000000000000        0.0000000000000000        0.0000000000000000     
  0.75000000000000000        3.1250000000000000E-002   0.0000000000000000     
  0.78125000000000000        3.1250000000000000E-002   0.0000000000000000     
  0.81250000000000000        3.1250000000000000E-002   0.0000000000000000     
  0.84375000000000000        3.1250000000000000E-002   0.0000000000000000     
  0.87500000000000000        3.1250000000000000E-002   0.0000000000000000     
  0.75000000000000000        6.2500000000000000E-002   0.0000000000000000     
  0.78125000000000000        6.2500000000000000E-002   0.0000000000000000     
  0.81250000000000000        6.2500000000000000E-002   0.0000000000000000     
  0.84375000000000000        6.2500000000000000E-002   0.0000000000000000     
  0.87500000000000000        6.2500000000000000E-002   0.0000000000000000     
  0.75000000000000000        9.3750000000000000E-002   0.0000000000000000     
  0.78125000000000000        9.3750000000000000E-002   0.0000000000000000     
  0.81250000000000000        9.3750000000000000E-002   0.0000000000000000     
  0.84375000000000000        9.3750000000000000E-002   0.0000000000000000     
  0.87500000000000000        9.3750000000000000E-002   0.0000000000000000     
  0.75000000000000000       0.12500000000000000        0.0000000000000000     
  0.78125000000000000       0.12500000000000000        0.0000000000000000     
  0.81250000000000000       0.12500000000000000        0.0000000000000000     
  0.84375000000000000       0.12500000000000000        0.0000000000000000     
  0.87500000000000000       0.12500000000000000        0.0000000000000000     
  0.87500000000000000        0.0000000000000000        0.0000000000000000     
  0.90625000000000000        0.0000000000000000        0.0000000000000000     
  0.93750000000000000        0.0000000000000000        0.0000000000000000     
  0.96875000000000000        0.0000000000000000        0.0000000000000000     
   1.0000000000000000        0.0000000000000000        0.0000000000000000     
  0.87500000000000000        3.1250000000000000E-002   0.0000000000000000     
  0.90625000000000000        3.1250000000000000E-002   0.0000000000000000     
  0.93750000000000000        3.1250000000000000E-002   0.0000000000000000     
  0.96875000000000000        3.1250000000000000E-002   0.0000000000000000     
   1.0000000000000000        3.1250000000000000E-002   0.0000000000000000     
  0.87500000000000000        6.2500000000000000E-002   0.0000000000000000     
  0.90625000000000000        6.2500000000000000E-002   0.0000000000000000     
  0.93750000000000000        6.2500000000000000E-002   0.0000000000000000     
  0.96875000000000000        6.2500000000000000E-002   0.0000000000000000     
   1.0000000000000000        6.2500000000000000E-002   0.0000000000000000     
  0.87500000000000000        9.3750000000000000E-002   0.0000000000000000     
  0.90625000000000000        9.3750000000000000E-002   0.0000000000000000     
  0.93750000000000000        9.3750000000000000E-002   0.0000000000000000     
  0.96875000000000000        9.3750000000000000E-002   0.0000000000000000     
   1.0000000000000000        9.3750000000000000E-002   0.0000000000000000     
  0.87500000000000000       0.12500000000000000        0.0000000000000000     
  0.90625000000000000       0.12500000000000000        0.0000000000000000     
  0.93750000000000000       0.12500000000000000        0.0000000000000000     
  0.96875000000000000       0.12500000000000000        0.0000000000000000     
   1.0000000000000000       0.12500000000000000        0.0000000000000000     
   1.0000000000000000        0.0000000000000000        0.0000000000000000     
   1.0312500000000000        0.0000000000000000        0.0000000000000000     
   1.0625000000000000        0.0000000000000000        0.0000000000000000     
   1.0937500000000000        0.0000000000000000        0.0000000000000000     
   1.1250000000000000        0.0000000000000000        0.0000000000000000     
   1.0000000000000000        3.1250000000000000E-002   0.0000000000000000     
   1.0312500000000000        3.1250000000000000E-002   0.0000000000000000     
   1.0625000000000000        3.1250000000000000E-002   0.0000000000000000     
   1.0937500000000000        3.1250000000000000E-002   0.0000000000000000     
   1.1250000000000000        3.1250000000000000E-002   0.0000000000000000     
   1.0000000000000000        6.2500000000000000E-002   0.0000000000000000     
   1.0312500000000000        6.2500000000000000E-002   0.0000000000000000     
   1.0625000000000000        6.2500000000000000E-002   0.0000000000000000     
   1.0937500000000000        6.2500000000000000E-002   0.0000000000000000     
   1.1250000000000000        6.2500000000000000E-002   0.0000000000000000     
   1.0000000000000000        9.3750000000000000E-002   0.0000000000000000     
   1.0312500000000000        9.3750000000000000E-002   0.0000000000000000     
   1.0625000000000000        9.3750000000000000E-002   0.0000000000000000     
   1.0937500000000000        9.3750000000000000E-002   0.0000000000000000     
   1.1250000000000000        9.3750000000000000E-002   0.0000000000000000     
   1.0000000000000000       0.12500000000000000        0.0000000000000000     
   1.0312500000000000       0.12500000000000000        0.0000000000000000     
   1.0625000000000000       0.12500000000000000        0.0000000000000000     
   1.0937500000000000       0.12500000000000000        0.0000000000000000     
   1.1250000000000000       0.12500000000000000        0.0000000000000000     
   1.1250000000000000        0.0000000000000000        0.0000000000000000     
   1.1562500000000000        0.0000000000000000        0.0000000000000000     
   1.1875000000000000        0.0000000000000000        0.0000000000000000     
   1.2187500000000000        0.0000000000000000        0.0000000000000000     
   1.2500000000000000        0.0000000000000000        0.0000000000000000     
   1.1250000000000000        3.1250000000000000E-002   0.0000000000000000     
   1.1562500000000000        3.1250000000000000E-002   0.0000000000000000     
   1.1875000000000000        3.1250000000000000E-002   0.0000000000000000     
   1.2187500000000000        3.1250000000000000E-002   0.0000000000000000     
   1.2500000000000000        3.1250000000000000E-002   0.0000000000000000     
   1.1250000000000000        6.2500000000000000E-002   0.0000000000000000     
   1.1562500000000000        6.2500000000000000E-002   0.0000000000000000     
   1.1875000000000000        6.2500000000000000E-002   0.0000000000000000     
   1.2187500000000000        6.2500000000000000E-002   0.0000000000000000     
   1.2500000000000000        6.2500000000000000E-002   0.0000000000000000     
   1.1250000000000000        9.3750000000000000E-002   0.0000000000000000     
   1.1562500000000000        9.3750000000000000E-002   0.0000000000000000     
   1.1875000000000000        9.3750000000000000E-002   0.0000000000000000     
   1.2187500000000000        9.3750000000000000E-002   0.0000000000000000     
   1.2500000000000000        9.3750000000000000E-002   0.0000000000000000     
   1.1250000000000000       0.12500000000000000        0.0000000000000000     
   1.1562500000000000       0.12500000000000000        0.0000000000000000     
   1.1875000000000000       0.12500000000000000        0.0000000000000000     
   1.2187500000000000       0.12500000000000000        0.0000000000000000     
   1.2500000000000000       0.12500000000000000        0.0000000000000000     
   1.2500000000000000        0.0000000000000000        0.0000000000000000     
   1.2812500000000000        0.0000000000000000        0.0000000000000000     
   1.3125000000000000        0.0000000000000000        0.0000000000000000     
   1.3437500000000000        0.0000000000000000        0.0000000000000000     
   1.3750000000000000        0.0000000000000000        0.0000000000000000     
   1.2500000000000000        3.1250000000000000E-002   0.0000000000000000     
   1.2812500000000000        3.1250000000000000E-002   0.0000000000000000     
   1.3125000000000000        3.1250000000000000E-002   0.0000000000000000     
   1.3437500000000000        3.1250000000000000E-002   0.0000000000000000     
   1.3750000000000000        3.1250000000000000E-002   0.0000000000000000     
   1.2500000000000000        6.2500000000000000E-002   0.0000000000000000     
   1.2812500000000000        6.2500000000000000E-002   0.0000000000000000     
   1.3125000000000000        6.2500000000000000E-002   0.0000000000000000     
   1.3437500000000000        6.2500000000000000E-002   0.0000000000000000     
   1.3750000000000000        6.2500000000000000E-002   0.0000000000000000     
   1.2500000000000000        9.3750000000000000E-002   0.0000000000000000     
   1.2812500000000000        9.3750000000000000E-002   0.0000000000000000     
   1.3125000000000000        9.3750000000000000E-002   0.0000000000000000     
   1.3437500000000000        9.3750000000000000E-002   0.0000000000000000     
   1.3750000000000000        9.3750000000000000E-002   0.0000000000000000     
   1.2500000000000000       0.12500000000000000        0.0000000000000000     
   1.2812500000000000       0.12500000000000000        0.0000000000000000     
   1.3125000000000000       0.12500000000000000        0.0000000000000000     
   1.3437500000000000       0.12500000000000000        0.0000000000000000     
   1.3750000000000000       0.12500000000000000        0.0000000000000000     
   1.3750000000000000        0.0000000000000000        0.0000000000000000     
   1.4062500000000000        0.0000000000000000        0.0000000000000000     
   1.4375000000000000        0.0000000000000000        0.0000000000000000     
   1.4687500000000000        0.0000000000000000        0.0000000000000000     
   1.5000000000000000        0.0000000000000000        0.0000000000000000     
   1.3750000000000000        3.1250000000000000E-002   0.0000000000000000     
   1.4062500000000000        3.1250000000000000E-002   0.0000000000000000     
   1.4375000000000000        3.1250000000000000E-002   0.0000000000000000     
   1.4687500000000000        3.1250000000000000E-002   0.0000000000000000     
   1.5000000000000000        3.1250000000000000E-002   0.0000000000000000     
   1.3750000000000000        6.2500000000000000E-002   0.0000000000000000     
   1.4062500000000000        6.2500000000000000E-002   0.0000000000000000     
   1.4375000000000000        6.2500000000000000E-002   0.0000000000000000     
   1.4687500000000000        6.2500000000000000E-002   0.0000000000000000     
   1.5000000000000000        6.2500000000000000E-002   0.0000000000000000     
   1.3750000000000000        9.3750000000000000E-002   0.0000000000000000     
   1.4062500000000000        9.3750000000000000E-002   0.0000000000000000     
   1.4375000000000000        9.3750000000000000E-002   0.0000000000000000     
   1.4687500000000000        9.3750000000000000E-002   0.0000000000000000     
   1.5000000000000000        9.3750000000000000E-002   0.0000000000000000     
   1.3750000000000000       0.12500000000000000        0.0000000000000000     
   1.4062500000000000       0.12500000000000000        0.0000000000000000     
   1.4375000000000000       0.12500000000000000        0.0000000000000000     
   1.4687500000000000       0.12500000000000000        0.0000000000000000     
   1.5000000000000000       0.12500000000000000        0.0000000000000000     
  0.50000000000000000       0.12500000000000000        0.0000000000000000     
  0.53125000000000000       0.12500000000000000        0.0000000000000000     
  0.56250000000000000       0.12500000000000000        0.0000000000000000     
  0.59375000000000000       0.12500000000000000        0.0000000000000000     
  0.62500000000000000       0.12500000000000000        0.0000000000000000     
  0.50000000000000000       0.15625000000000000        0.0000000000000000     
  0.53125000000000000       0.15625000000000000        0.0000000000000000     
  0.56250000000000000       0.15625000000000000        0.0000000000000000     
  0.59375000000000000       0.15625000000000000        0.0000000000000000     
  0.62500000000000000       0.15625000000000000        0.0000000000000000     
  0.50000000000000000       0.18750000000000000        0.0000000000000000     
  0.53125000000000000       0.18750000000000000        0.0000000000000000     
  0.56250000000000000       0.18750000000000000        0.0000000000000000     
  0.59375000000000000       0.18750000000000000        0.0000000000000000     
  0.62500000000000000       0.18750000000000000        0.0000000000000000     
  0.50000000000000000       0.21875000000000000        0.0000000000000000     
  0.53125000000000000       0.21875000000000000        0.0000000000000000     
  0.56250000000000000       0.21875000000000000        0.0000000000000000     
  0.59375000000000000       0.21875000000000000        0.0000000000000000     
  0.62500000000000000       0.21875000000000000        0.0000000000000000     
  0.50000000000000000       0.25000000000000000        0.0000000000000000     
  0.53125000000000000       0.25000000000000000        0.0000000000000000     
  0.56250000000000000       0.25000000000000000        0.0000000000000000     
  0.59375000000000000       0.25000000000000000        0.0000000000000000     
  0.62500000000000000       0.25000000000000000        0.0000000000000000     
  0.62500000000000000       0.12500000000000000        0.0000000000000000     
  0.65625000000000000       0.12500000000000000        0.0000000000000000     
  0.68750000000000000       0.12500000000000000        0.0000000000000000     
  0.71875000000000000       0.12500000000000000        0.0000000000000000     
  0.75000000000000000       0.12500000000000000        0.0000000000000000     
  0.62500000000000000       0.15625000000000000        0.0000000000000000     
  0.65625000000000000       0.15625000000000000        0.0000000000000000     
  0.68750000000000000       0.15625000000000000        0.0000000000000000     
  0.71875000000000000       0.15625000000000000        0.0000000000000000     
  0.75000000000000000       0.15625000000000000        0.0000000000000000     
  0.62500000000000000       0.18750000000000000        0.0000000000000000     
  0.65625000000000000       0.18750000000000000        0.0000000000000000     
  0.68750000000000000       0.18750000000000000        0.0000000000000000     
  0.71875000000000000       0.18750000000000000        0.0000000000000000     
  0.75000000000000000       0.18750000000000000        0.0000000000000000     
  0.62500000000000000       0.21875000000000000        0.0000000000000000     
  0.65625000000000000       0.21875000000000000        0.0000000000000000     
  0.68750000000000000       0.21875000000000000        0.0000000000000000     
  0.71875000000000000       0.21875000000000000        0.0000000000000000     
  0.75000000000000000       0.21875000000000000        0.0000000000000000     
  0.62500000000000000       0.25000000000000000        0.0000000000000000     
  0.65625000000000000       0.25000000000000000        0.0000000000000000     
  0.68750000000000000       0.25000000000000000        0.0000000000000000     
  0.71875000000000000       0.25000000000000000        0.0000000000000000     
  0.75000000000000000       0.25000000000000000        0.0000000000000000     
  0.75000000000000000       0.12500000000000000        0.0000000000000000     
  0.78125000000000000       0.12500000000000000        0.0000000000000000     
  0.81250000000000000       0.12500000000000000        0.0000000000000000     
  0.84375000000000000       0.12500000000000000        0.0000000000000000     
  0.87500000000000000       0.12500000000000000        0.0000000000000000     
  0.75000000000000000       0.15625000000000000        0.0000000000000000     
  0.78125000000000000       0.15625000000000000        0.0000000000000000     
  0.81250000000000000       0.15625000000000000        0.0000000000000000     
  0.84375000000000000       0.15625000000000000        0.0000000000000000     
  0.87500000000000000       0.15625000000000000        0.0000000000000000     
  0.75000000000000000       0.18750000000000000        0.0000000000000000     
  0.78125000000000000       0.18750000000000000        0.0000000000000000     
  0.81250000000000000       0.18750000000000000        0.0000000000000000     
  0.84375000000000000       0.18750000000000000        0.0000000000000000     
  0.87500000000000000       0.18750000000000000        0.0000000000000000     
  0.75000000000000000       0.21875000000000000        0.0000000000000000     
  0.78125000000000000       0.21875000000000000        0.0000000000000000     
  0.81250000000000000       0.21875000000000000        0.0000000000000000     
  0.84375000000000000       0.21875000000000000        0.0000000000000000     
  0.87500000000000000       0.21875000000000000        0.0000000000000000     
  0.75000000000000000       0.25000000000000000        0.0000000000000000     
  0.78125000000000000       0.25000000000000000        0.0000000000000000     
  0.81250000000000000       0.25000000000000000        0.0000000000000000     
  0.84375000000000000       0.25000000000000000        0.0000000000000000     
  0.87500000000000000       0.25000000000000000        0.0000000000000000     
  0.87500000000000000       0.12500000000000000        0.0000000000000000     
  0.90625000000000000       0.12500000000000000        0.0000000000000000     
  0.93750000000000000       0.12500000000000000        0.0000000000000000     
  0.96875000000000000       0.12500000000000000        0.0000000000000000     
   1.0000000000000000       0.12500000000000000        0.0000000000000000     
  0.87500000000000000       0.15625000000000000        0.0000000000000000     
  0.90625000000000000       0.15625000000000000        0.0000000000000000     
  0.93750000000000000       0.15625000000000000        0.0000000000000000     
  0.96875000000000000       0.15625000000000000        0.0000000000000000     
   1.0000000000000000       0.15625000000000000        0.0000000000000000     
  0.87500000000000000       0.18750000000000000        0.0000000000000000     
  0.90625000000000000       0.18750000000000000        0.0000000000000000     
  0.93750000000000000       0.18750000000000000        0.0000000000000000     
  0.96875000000000000       0.18750000000000000        0.0000000000000000     
   1.0000000000000000       0.18750000000000000        0.0000000000000000     
  0.87500000000000000       0.21875000000000000        0.0000000000000000     
  0.90625000000000000       0.21875000000000000        0.0000000000000000     
  0.93750000000000000       0.21875000000000000        0.0000000000000000     
  0.96875000000000000       0.21875000000000000        0.0000000000000000     
   1.0000000000000000       0.21875000000000000        0.0000000000000000     
  0.87500000000000000       0.25000000000000000        0.0000000000000000     
  0.90625000000000000       0.25000000000000000        0.0000000000000000     
  0.93750000000000000       0.25000000000000000        0.0000000000000000     
  0.96875000000000000       0.25000000000000000        0.0000000000000000     
   1.0000000000000000       0.25000000000000000        0.0000000000000000     
   1.0000000000000000       0.12500000000000000        0.0000000000000000     
   1.0312500000000000       0.12500000000000000        0.0000000000000000     
   1.0625000000000000       0.12500000000000000        0.0000000000000000     
   1.0937500000000000       0.12500000000000000        0.0000000000000000     
   1.1250000000000000       0.12500000000000000        0.0000000000000000     
   1.0000000000000000       0.15625000000000000        0.0000000000000000     
   1.0312500000000000       0.15625000000000000        0.0000000000000000     
   1.0625000000000000       0.15625000000000000        0.0000000000000000     
   1.0937500000000000       0.15625000000000000        0.0000000000000000     
   1.1250000000000000       0.15625000000000000        0.0000000000000000     
   1.0000000000000000       0.18750000000000000        0.0000000000000000     
   1.0312500000000000       0.18750000000000000        0.0000000000000000     
   1.0625000000000000       0.18750000000000000        0.0000000000000000     
   1.0937500000000000       0.18750000000000000        0.0000000000000000     
   1.1250000000000000       0.18750000000000000        0.0000000000000000     
   1.0000000000000000       0.21875000000000000        0.0000000000000000     
   1.0312500000000000       0.21875000000000000        0.0000000000000000     
   1.0625000000000000       0.21875000000000000        0.0000000000000000     
   1.0937500000000000       0.21875000000000000        0.0000000000000000     
   1.1250000000000000       0.21875000000000000        0.0000000000000000     
   1.0000000000000000       0.25000000000000000        0.0000000000000000     
   1.0312500000000000       0.25000000000000000        0.0000000000000000     
   1.0625000000000000       0.25000000000000000        0.0000000000000000     
   1.0937500000000000       0.25000000000000000        0.0000000000000000     
   1.1250000000000000       0.25000000000000000        0.0000000000000000     
   1.1250000000000000       0.12500000000000000        0.0000000000000000     
   1.1562500000000000       0.12500000000000000        0.0000000000000000     
   1.1875000000000000       0.12500000000000000        0.0000000000000000     
   1.2187500000000000       0.12500000000000000        0.0000000000000000     
   1.2500000000000000       0.12500000000000000        0.0000000000000000     
   1.1250000000000000       0.15625000000000000        0.0000000000000000     
   1.1562500000000000       0.15625000000000000        0.0000000000000000     
   1.1875000000000000       0.15625000000000000        0.0000000000000000     
   1.2187500000000000       0.15625000000000000        0.0000000000000000     
   1.2500000000000000       0.15625000000000000        0.0000000000000000     
   1.1250000000000000       0.18750000000000000        0.0000000000000000     
   1.1562500000000000       0.18750000000000000        0.0000000000000000     
   1.1875000000000000       0.18750000000000000        0.0000000000000000     
   1.2187500000000000       0.18750000000000000        0.0000000000000000     
   1.2500000000000000       0.18750000000000000        0.0000000000000000     
   1.1250000000000000       0.21875000000000000        0.0000000000000000     
   1.1562500000000000       0.21875000000000000        0.0000000000000000     
   1.1875000000000000       0.21875000000000000        0.0000000000000000     
   1.2187500000000000       0.21875000000000000        0.0000000000000000     
   1.2500000000000000       0.21875000000000000        0.0000000000000000     
   1.1250000000000000       0.25000000000000000        0.0000000000000000     
   1.1562500000000000       0.25000000000000000        0.0000000000000000     
   1.1875000000000000       0.25000000000000000        0.0000000000000000     
   1.2187500000000000       0.25000000000000000        0.0000000000000000     
   1.2500000000000000       0.25000000000000000        0.0000000000000000     
   1.2500000000000000       0.12500000000000000        0.0000000000000000     
   1.2812500000000000       0.12500000000000000        0.0000000000000000     
   1.3125000000000000       0.12500000000000000        0.0000000000000000     
   1.3437500000000000       0.12500000000000000        0.0000000000000000     
   1.3750000000000000       0.12500000000000000        0.0000000000000000     
   1.2500000000000000       0.15625000000000000        0.0000000000000000     
   1.2812500000000000       0.15625000000000000        0.0000000000000000     
   1.3125000000000000       0.15625000000000000        0.0000000000000000     
   1.3437500000000000       0.15625000000000000        0.0000000000000000     
   1.3750000000000000       0.15625000000000000        0.0000000000000000     
   1.2500000000000000       0.18750000000000000        0.0000000000000000     
   1.2812500000000000       0.18750000000000000        0.0000000000000000     
   1.3125000000000000       0.18750000000000000        0.0000000000000000     
   1.3437500000000000       0.18750000000000000        0.0000000000000000     
   1.3750000000000000       0.18750000000000000        0.0000000000000000     
   1.2500000000000000       0.21875000000000000        0.0000000000000000     
   1.2812500000000000       0.21875000000000000        0.0000000000000000     
   1.3125000000000000       0.21875000000000000        0.0000000000000000     
   1.3437500000000000       0.21875000000000000        0.0000000000000000     
   1.3750000000000000       0.21875000000000000        0.0000000000000000     
   1.2500000000000000       0.25000000000000000        0.0000000000000000     
   1.2812500000000000       0.25000000000000000        0.0000000000000000     
   1.3125000000000000       0.25000000000000000        0.0000000000000000     
   1.3437500000000000       0.25000000000000000        0.0000000000000000     
   1.3750000000000000       0.25000000000000000        0.0000000000000000     
   1.3750000000000000       0.12500000000000000        0.0000000000000000     
   1.4062500000000000       0.12500000000000000        0.0000000000000000     
   1.4375000000000000       0.12500000000000000        0.0000000000000000     
   1.4687500000000000       0.12500000000000000        0.0000000000000000     
   1.5000000000000000       0.12500000000000000        0.0000000000000000     
   1.3750000000000000       0.15625000000000000        0.0000000000000000     
   1.4062500000000000       0.15625000000000000        0.0000000000000000     
   1.4375000000000000       0.15625000000000000        0.0000000000000000     
   1.4687500000000000       0.15625000000000000        0.0000000000000000     
   1.5000000000000000       0.15625000000000000        0.0000000000000000     
   1.3750000000000000       0.18750000000000000        0.0000000000000000     
   1.4062500000000000       0.18750000000000000        0.0000000000000000     
   1.4375000000000000       0.18750000000000000        0.0000000000000000     
   1.4687500000000000       0.18750000000000000        0.0000000000000000     
   1.5000000000000000       0.18750000000000000        0.0000000000000000     
   1.3750000000000000       0.21875000000000000        0.0000000000000000     
   1.4062500000000000       0.21875000000000000        0.0000000000000000     
   1.4375000000000000       0.21875000000000000        0.0000000000000000     
   1.4687500000000000       0.21875000000000000        0.0000000000000000     
   1.5000000000000000       0.21875000000000000        0.0000000000000000     
   1.3750000000000000       0.25000000000000000        0.0000000000000000     
   1.4062500000000000       0.25000000000000000        0.0000000000000000     
   1.4375000000000000       0.25000000000000000        0.0000000000000000     
   1.4687500000000000       0.25000000000000000        0.0000000000000000     
   1.5000000000000000       0.25000000000000000        0.0000000000000000     
  0.50000000000000000       0.25000000000000000        0.0000000000000000     
  0.53125000000000000       0.25000000000000000        0.0000000000000000     
  0.56250000000000000       0.25000000000000000        0.0000000000000000     
  0.59375000000000000       0.25000000000000000        0.0000000000000000     
  0.62500000000000000       0.25000000000000000        0.0000000000000000     
  0.50000000000000000       0.28125000000000000        0.0000000000000000     
  0.53125000000000000       0.28125000000000000        0.0000000000000000     
  0.56250000000000000       0.28125000000000000        0.0000000000000000     
  0.59375000000000000       0.28125000000000000        0.0000000000000000     
  0.62500000000000000       0.28125000000000000        0.0000000000000000     
  0.50000000000000000       0.31250000000000000        0.0000000000000000     
  0.53125000000000000       0.31250000000000000        0.0000000000000000     
  0.56250000000000000       0.31250000000000000        0.0000000000000000     
  0.59375000000000000       0.31250000000000000        0.0000000000000000     
  0.62500000000000000       0.31250000000000000        0.0000000000000000     
  0.50000000000000000       0.34375000000000000        0.0000000000000000     
  0.53125000000000000       0.34375000000000000        0.0000000000000000     
  0.56250000000000000       0.34375000000000000        0.0000000000000000     
  0.59375000000000000       0.34375000000000000        0.0000000000000000     
  0.62500000000000000       0.34375000000000000        0.0000000000000000     
  0.50000000000000000       0.37500000000000000        0.0000000000000000     
  0.53125000000000000       0.37500000000000000        0.0000000000000000     
  0.56250000000000000       0.37500000000000000        0.0000000000000000     
  0.59375000000000000       0.37500000000000000        0.0000000000000000     
  0.62500000000000000       0.37500000000000000        0.0000000000000000     
  0.62500000000000000       0.25000000000000000        0.0000000000000000     
  0.65625000000000000       0.25000000000000000        0.0000000000000000     
  0.68750000000000000       0.25000000000000000        0.0000000000000000     
  0.71875000000000000       0.25000000000000000        0.0000000000000000     
  0.75000000000000000       0.25000000000000000        0.0000000000000000     
  0.62500000000000000       0.28125000000000000        0.0000000000000000     
  0.65625000000000000       0.28125000000000000        0.0000000000000000     
  0.68750000000000000       0.28125000000000000        0.0000000000000000     
  0.71875000000000000       0.28125000000000000        0.0000000000000000     
  0.75000000000000000       0.28125000000000000        0.0000000000000000     
  0.62500000000000000       0.31250000000000000        0.0000000000000000     
  0.65625000000000000       0.31250000000000000        0.0000000000000000     
  0.68750000000000000       0.31250000000000000        0.0000000000000000     
  0.71875000000000000       0.31250000000000000        0.0000000000000000     
  0.75000000000000000       0.31250000000000000        0.0000000000000000     
  0.62500000000000000       0.34375000000000000        0.0000000000000000     
  0.65625000000000000       0.34375000000000000        0.0000000000000000     
  0.68750000000000000       0.34375000000000000        0.0000000000000000     
  0.71875000000000000       0.34375000000000000        0.0000000000000000     
  0.75000000000000000       0.34375000000000000        0.0000000000000000     
  0.62500000000000000       0.37500000000000000        0.0000000000000000     
  0.65625000000000000       0.37500000000000000        0.0000000000000000     
  0.68750000000000000       0.37500000000000000        0.0000000000000000     
  0.71875000000000000       0.37500000000000000        0.0000000000000000     
  0.75000000000000000       0.37500000000000000        0.0000000000000000     
  0.75000000000000000       0.25000000000000000        0.0000000000000000     
  0.78125000000000000       0.25000000000000000        0.0000000000000000     
  0.81250000000000000       0.25000000000000000        0.0000000000000000     
  0.84375000000000000       0.25000000000000000        0.0000000000000000     
  0.87500000000000000       0.25000000000000000        0.0000000000000000     
  0.75000000000000000       0.28125000000000000        0.0000000000000000     
  0.78125000000000000       0.28125000000000000        0.0000000000000000     
  0.81250000000000000       0.28125000000000000        0.0000000000000000     
  0.84375000000000000       0.28125000000000000        0.0000000000000000     
  0.87500000000000000       0.28125000000000000        0.0000000000000000     
  0.75000000000000000       0.31250000000000000        0.0000000000000000     
  0.78125000000000000       0.31250000000000000        0.0000000000000000     
  0.81250000000000000       0.31250000000000000        0.0000000000000000     
  0.84375000000000000       0.31250000000000000        0.0000000000000000     
  0.87500000000000000       0.31250000000000000        0.0000000000000000     
  0.75000000000000000       0.34375000000000000        0.0000000000000000     
  0.78125000000000000       0.34375000000000000        0.0000000000000000     
  0.81250000000000000       0.34375000000000000        0.0000000000000000     
  0.84375000000000000       0.34375000000000000        0.0000000000000000     
  0.87500000000000000       0.34375000000000000        0.0000000000000000     
  0.75000000000000000       0.37500000000000000        0.0000000000000000     
  0.78125000000000000       0.37500000000000000        0.0000000000000000     
  0.81250000000000000       0.37500000000000000        0.0000000000000000     
  0.84375000000000000       0.37500000000000000        0.0000000000000000     
  0.87500000000000000       0.37500000000000000        0.0000000000000000     
  0.87500000000000000       0.25000000000000000        0.0000000000000000     
  0.90625000000000000       0.25000000000000000        0.0000000000000000     
  0.93750000000000000       0.25000000000000000        0.0000000000000000     
  0.96875000000000000       0.25000000000000000        0.0000000000000000     
   1.0000000000000000       0.25000000000000000        0.0000000000000000     
  0.87500000000000000       0.28125000000000000        0.0000000000000000     
  0.90625000000000000       0.28125000000000000        0.0000000000000000     
  0.93750000000000000       0.28125000000000000        0.0000000000000000     
  0.96875000000000000       0.28125000000000000        0.0000000000000000     
   1.0000000000000000       0.28125000000000000        0.0000000000000000     
  0.87500000000000000       0.31250000000000000        0.0000000000000000     
  0.90625000000000000       0.31250000000000000        0.0000000000000000     
  0.93750000000000000       0.31250000000000000        0.0000000000000000     
  0.96875000000000000       0.31250000000000000        0.0000000000000000     
   1.0000000000000000       0.31250000000000000        0.0000000000000000     
  0.87500000000000000       0.34375000000000000        0.0000000000000000     
  0.90625000000000000       0.34375000000000000        0.0000000000000000     
  0.93750000000000000       0.34375000000000000        0.0000000000000000     
  0.96875000000000000       0.34375000000000000        0.0000000000000000     
   1.0000000000000000       0.34375000000000000        0.0000000000000000     
  0.87500000000000000       0.37500000000000000        0.0000000000000000     
  0.90625000000000000       0.37500000000000000        0.0000000000000000     
  0.93750000000000000       0.37500000000000000        0.0000000000000000     
  0.96875000000000000       0.37500000000000000        0.0000000000000000     
   1.0000000000000000       0.37500000000000000        0.0000000000000000     
   1.0000000000000000       0.25000000000000000        0.0000000000000000     
   1.0312500000000000       0.25000000000000000        0.0000000000000000     
   1.0625000000000000       0.25000000000000000        0.0000000000000000     
   1.0937500000000000       0.25000000000000000        0.0000000000000000     
   1.1250000000000000       0.25000000000000000        0.0000000000000000     
   1.0000000000000000       0.28125000000000000        0.0000000000000000     
   1.0312500000000000       0.28125000000000000        0.0000000000000000     
   1.0625000000000000       0.28125000000000000        0.0000000000000000     
   1.0937500000000000       0.28125000000000000        0.0000000000000000     
   1.1250000000000000       0.28125000000000000        0.0000000000000000     
   1.0000000000000000       0.31250000000000000        0.0000000000000000     
   1.0312500000000000       0.31250000000000000        0.0000000000000000     
   1.0625000000000000       0.31250000000000000        0.0000000000000000     
   1.0937500000000000       0.31250000000000000        0.0000000000000000     
   1.1250000000000000       0.31250000000000000        0.0000000000000000     
   1.0000000000000000       0.34375000000000000        0.0000000000000000     
   1.0312500000000000       0.34375000000000000        0.0000000000000000     
   1.0625000000000000       0.34375000000000000        0.0000000000000000     
   1.0937500000000000       0.34375000000000000        0.0000000000000000     
   1.1250000000000000       0.34375000000000000        0.0000000000000000     
   1.0000000000000000       0.37500000000000000        0.0000000000000000     
   1.0312500000000000       0.37500000000000000        0.0000000000000000     
   1.0625000000000000       0.37500000000000000        0.0000000000000000     
   1.0937500000000000       0.37500000000000000        0.0000000000000000     
   1.1250000000000000       0.37500000000000000        0.0000000000000000     
   1.1250000000000000       0.25000000000000000        0.0000000000000000     
   1.1562500000000000       0.25000000000000000        0.0000000000000000     
   1.1875000000000000       0.25000000000000000        0.0000000000000000     
   1.2187500000000000       0.25000000000000000        0.0000000000000000     
   1.2500000000000000       0.25000000000000000        0.0000000000000000     
   1.1250000000000000       0.28125000000000000        0.0000000000000000     
   1.1562500000000000       0.28125000000000000        0.0000000000000000     
   1.1875000000000000       0.28125000000000000        0.0000000000000000     
   1.2187500000000000       0.28125000000000000        0.0000000000000000     
   1.2500000000000000       0.28125000000000000        0.0000000000000000     
   1.1250000000000000       0.31250000000000000        0.0000000000000000     
   1.1562500000000000       0.31250000000000000        0.0000000000000000     
   1.1875000000000000       0.31250000000000000        0.0000000000000000     
   1.2187500000000000       0.31250000000000000        0.0000000000000000     
   1.2500000000000000       0.31250000000000000        0.0000000000000000     
   1.1250000000000000       0.34375000000000000        0.0000000000000000     
   1.1562500000000000       0.34375000000000000        0.0000000000000000     
   1.1875000000000000       0.34375000000000000        0.0000000000000000     
   1.2187500000000000       0.34375000000000000        0.0000000000000000     
   1.2500000000000000       0.34375000000000000        0.0000000000000000     
   1.1250000000000000       0.37500000000000000        0.0000000000000000     
   1.1562500000000000       0.37500000000000000        0.0000000000000000     
   1.1875000000000000       0.37500000000000000        0.0000000000000000     
   1.2187500000000000       0.37500000000000000        0.0000000000000000     
   1.2500000000000000       0.37500000000000000        0.0000000000000000     
   1.2500000000000000       0.25000000000000000        0.0000000000000000     
   1.2812500000000000       0.25000000000000000        0.0000000000000000     
   1.3125000000000000       0.25000000000000000        0.0000000000000000     
   1.3437500000000000       0.25000000000000000        0.0000000000000000     
   1.3750000000000000       0.25000000000000000        0.0000000000000000     
   1.2500000000000000       0.28125000000000000        0.0000000000000000     
   1.2812500000000000       0.28125000000000000        0.0000000000000000     
   1.3125000000000000       0.28125000000000000        0.0000000000000000     
   1.3437500000000000       0.28125000000000000        0.0000000000000000     
   1.3750000000000000       0.28125000000000000        0.0000000000000000     
   1.2500000000000000       0.31250000000000000        0.0000000000000000     
   1.2812500000000000       0.31250000000000000        0.0000000000000000     
   1.3125000000000000       0.31250000000000000        0.0000000000000000     
   1.3437500000000000       0.31250000000000000        0.0000000000000000     
   1.3750000000000000       0.31250000000000000        0.0000000000000000     
   1.2500000000000000       0.34375000000000000        0.0000000000000000     
   1.2812500000000000       0.34375000000000000        0.0000000000000000     
   1.3125000000000000       0.34375000000000000        0.0000000000000000     
   1.3437500000000000       0.34375000000000000        0.0000000000000000     
   1.3750000000000000       0.34375000000000000        0.0000000000000000     
   1.2500000000000000       0.37500000000000000        0.0000000000000000     
   1.2812500000000000       0.37500000000000000        0.0000000000000000     
   1.3125000000000000       0.37500000000000000        0.0000000000000000     
   1.3437500000000000       0.37500000000000000        0.0000000000000000     
   1.3750000000000000       0.37500000000000000        0.0000000000000000     
   1.3750000000000000       0.25000000000000000        0.0000000000000000     
   1.4062500000000000       0.25000000000000000        0.0000000000000000     
   1.4375000000000000       0.25000000000000000        0.0000000000000000     
   1.4687500000000000       0.25000000000000000        0.0000000000000000     
   1.5000000000000000       0.25000000000000000        0.0000000000000000     
   1.3750000000000000       0.28125000000000000        0.0000000000000000     
   1.4062500000000000       0.28125000000000000        0.0000000000000000     
   1.4375000000000000       0.28125000000000000        0.0000000000000000     
   1.4687500000000000       0.28125000000000000        0.0000000000000000     
   1.5000000000000000       0.28125000000000000        0.0000000000000000     
   1.3750000000000000       0.31250000000000000        0.0000000000000000     
   1.4062500000000000       0.31250000000000000        0.0000000000000000     
   1.4375000000000000       0.31250000000000000        0.0000000000000000     
   1.4687500000000000       0.31250000000000000        0.0000000000000000     
   1.5000000000000000       0.31250000000000000        0.0000000000000000     
   1.3750000000000000       0.34375000000000000        0.0000000000000000     
   1.4062500000000000       0.34375000000000000        0.0000000000000000     
   1.4375000000000000       0.34375000000000000        0.0000000000000000     
   1.4687500000000000       0.34375000000000000        0.0000000000000000     
   1.5000000000000000       0.34375000000000000        0.0000000000000000     
   1.3750000000000000       0.37500000000000000        0.0000000000000000     
   1.4062500000000000       0.37500000000000000        0.0000000000000000     
   1.4375000000000000       0.37500000000000000        0.0000000000000000     
   1.4687500000000000       0.37500000000000000        0.0000000000000000     
   1.5000000000000000       0.37500000000000000        0.0000000000000000     
  0.50000000000000000       0.37500000000000000        0.0000000000000000     
  0.53125000000000000       0.37500000000000000        0.0000000000000000     
  0.56250000000000000       0.37500000000000000        0.0000000000000000     
  0.59375000000000000       0.37500000000000000        0.0000000000000000     
  0.62500000000000000       0.37500000000000000        0.0000000000000000     
  0.50000000000000000       0.40625000000000000        0.0000000000000000     
  0.53125000000000000       0.40625000000000000        0.0000000000000000     
  0.56250000000000000       0.40625000000000000        0.0000000000000000     
  0.59375000000000000       0.40625000000000000        0.0000000000000000     
  0.62500000000000000       0.40625000000000000        0.0000000000000000     
  0.50000000000000000       0.43750000000000000        0.0000000000000000     
  0.53125000000000000       0.43750000000000000        0.0000000000000000     
  0.56250000000000000       0.43750000000000000        0.0000000000000000     
  0.59375000000000000       0.43750000000000000        0.0000000000000000     
  0.62500000000000000       0.43750000000000000        0.0000000000000000     
  0.50000000000000000       0.46875000000000000        0.0000000000000000     
  0.53125000000000000       0.46875000000000000        0.0000000000000000     
  0.56250000000000000       0.46875000000000000        0.0000000000000000     
  0.59375000000000000       0.46875000000000000        0.0000000000000000     
  0.62500000000000000       0.46875000000000000        0.0000000000000000     
  0.50000000000000000       0.50000000000000000        0.0000000000000000     
  0.53125000000000000       0.50000000000000000        0.0000000000000000     
  0.56250000000000000       0.50000000000000000        0.0000000000000000     
  0.59375000000000000       0.50000000000000000        0.0000000000000000     
  0.62500000000000000       0.50000000000000000        0.0000000000000000     
  0.62500000000000000       0.37500000000000000        0.0000000000000000     
  0.65625000000000000       0.37500000000000000        0.0000000000000000     
  0.68750000000000000       0.37500000000000000        0.0000000000000000     
  0.71875000000000000       0.37500000000000000        0.0000000000000000     
  0.75000000000000000       0.37500000000000000        0.0000000000000000     
  0.62500000000000000       0.40625000000000000        0.0000000000000000     
  0.65625000000000000       0.40625000000000000        0.0000000000000000     
  0.68750000000000000       0.40625000000000000        0.0000000000000000     
  0.71875000000000000       0.40625000000000000        0.0000000000000000     
  0.75000000000000000       0.40625000000000000        0.0000000000000000     
  0.62500000000000000       0.43750000000000000        0.0000000000000000     
  0.65625000000000000       0.43750000000000000        0.0000000000000000     
  0.68750000000000000       0.43750000000000000        0.0000000000000000     
  0.71875000000000000       0.43750000000000000        0.0000000000000000     
  0.75000000000000000       0.43750000000000000        0.0000000000000000     
  0.62500000000000000       0.46875000000000000        0.0000000000000000     
  0.65625000000000000       0.46875000000000000        0.0000000000000000     
  0.68750000000000000       0.46875000000000000        0.0000000000000000     
  0.71875000000000000       0.46875000000000000        0.0000000000000000     
  0.75000000000000000       0.46875000000000000        0.0000000000000000     
  0.62500000000000000       0.50000000000000000        0.0000000000000000     
  0.65625000000000000       0.50000000000000000        0.0000000000000000     
  0.68750000000000000       0.50000000000000000        0.0000000000000000     
  0.71875000000000000       0.50000000000000000        0.0000000000000000     
  0.75000000000000000       0.50000000000000000        0.0000000000000000     
  0.75000000000000000       0.37500000000000000        0.0000000000000000     
  0.78125000000000000       0.37500000000000000        0.0000000000000000     
  0.81250000000000000       0.37500000000000000        0.0000000000000000     
  0.84375000000000000       0.37500000000000000        0.0000000000000000     
  0.87500000000000000       0.37500000000000000        0.0000000000000000     
  0.75000000000000000       0.40625000000000000        0.0000000000000000     
  0.78125000000000000       0.40625000000000000        0.0000000000000000     
  0.81250000000000000       0.40625000000000000        0.0000000000000000     
  0.84375000000000000       0.40625000000000000        0.0000000000000000     
  0.87500000000000000       0.40625000000000000        0.0000000000000000     
  0.75000000000000000       0.43750000000000000        0.0000000000000000     
  0.78125000000000000       0.43750000000000000        0.0000000000000000     
  0.81250000000000000       0.43750000000000000        0.0000000000000000     
  0.84375000000000000       0.43750000000000000        0.0000000000000000     
  0.87500000000000000       0.43750000000000000        0.0000000000000000     
  0.75000000000000000       0.46875000000000000        0.0000000000000000     
  0.78125000000000000       0.46875000000000000        0.0000000000000000     
  0.81250000000000000       0.46875000000000000        0.0000000000000000     
  0.84375000000000000       0.46875000000000000        0.0000000000000000     
  0.87500000000000000       0.46875000000000000        0.0000000000000000     
  0.75000000000000000       0.50000000000000000        0.0000000000000000     
  0.78125000000000000       0.50000000000000000        0.0000000000000000     
  0.81250000000000000       0.50000000000000000        0.0000000000000000     
  0.84375000000000000       0.50000000000000000        0.0000000000000000     
  0.87500000000000000       0.50000000000000000        0.0000000000000000     
  0.87500000000000000       0.37500000000000000        0.0000000000000000     
  0.90625000000000000       0.37500000000000000        0.0000000000000000     
  0.93750000000000000       0.37500000000000000        0.0000000000000000     
  0.96875000000000000       0.37500000000000000        0.0000000000000000     
   1.0000000000000000       0.37500000000000000        0.0000000000000000     
  0.87500000000000000       0.40625000000000000        0.0000000000000000     
  0.90625000000000000       0.40625000000000000        0.0000000000000000     
  0.93750000000000000       0.40625000000000000        0.0000000000000000     
  0.96875000000000000       0.40625000000000000        0.0000000000000000     
   1.0000000000000000       0.40625000000000000        0.0000000000000000     
  0.87500000000000000       0.43750000000000000        0.0000000000000000     
  0.90625000000000000       0.43750000000000000        0.0000000000000000     
  0.93750000000000000       0.43750000000000000        0.0000000000000000     
  0.96875000000000000       0.43750000000000000        0.0000000000000000     
   1.0000000000000000       0.43750000000000000        0.0000000000000000     
  0.87500000000000000       0.46875000000000000        0.0000000000000000     
  0.90625000000000000       0.46875000000000000        0.0000000000000000     
  0.93750000000000000       0.46875000000000000        0.0000000000000000     
  0.96875000000000000       0.46875000000000000        0.0000000000000000     
   1.0000000000000000       0.46875000000000000        0.0000000000000000     
  0.87500000000000000       0.50000000000000000        0.0000000000000000     
  0.90625000000000000       0.50000000000000000        0.0000000000000000     
  0.93750000000000000       0.50000000000000000        0.0000000000000000     
  0.96875000000000000       0.50000000000000000        0.0000000000000000     
   1.0000000000000000       0.50000000000000000        0.0000000000000000     
   1.0000000000000000       0.37500000000000000        0.0000000000000000     
   1.0312500000000000       0.37500000000000000        0.0000000000000000     
   1.0625000000000000       0.37500000000000000        0.0000000000000000     
   1.0937500000000000       0.37500000000000000        0.0000000000000000     
   1.1250000000000000       0.37500000000000000        0.0000000000000000     
   1.0000000000000000       0.40625000000000000        0.0000000000000000     
   1.0312500000000000       0.40625000000000000        0.0000000000000000     
   1.0625000000000000       0.40625000000000000        0.0000000000000000     
   1.0937500000000000       0.40625000000000000        0.0000000000000000     
   1.1250000000000000       0.40625000000000000        0.0000000000000000     
   1.0000000000000000       0.43750000000000000        0.0000000000000000     
   1.0312500000000000       0.43750000000000000        0.0000000000000000     
   1.0625000000000000       0.43750000000000000        0.0000000000000000     
   1.0937500000000000       0.43750000000000000        0.0000000000000000     
   1.1250000000000000       0.43750000000000000        0.0000000000000000     
   1.0000000000000000       0.46875000000000000        0.0000000000000000     
   1.0312500000000000       0.46875000000000000        0.0000000000000000     
   1.0625000000000000       0.46875000000000000        0.0000000000000000     
   1.0937500000000000       0.46875000000000000        0.0000000000000000     
   1.1250000000000000       0.46875000000000000        0.0000000000000000     
   1.0000000000000000       0.50000000000000000        0.0000000000000000     
   1.0312500000000000       0.50000000000000000        0.0000000000000000     
   1.0625000000000000       0.50000000000000000        0.0000000000000000     
   1.0937500000000000       0.50000000000000000        0.0000000000000000     
   1.1250000000000000       0.50000000000000000        0.0000000000000000     
   1.1250000000000000       0.37500000000000000        0.0000000000000000     
   1.1562500000000000       0.37500000000000000        0.0000000000000000     
   1.1875000000000000       0.37500000000000000        0.0000000000000000     
   1.2187500000000000       0.37500000000000000        0.0000000000000000     
   1.2500000000000000       0.37500000000000000        0.0000000000000000     
   1.1250000000000000       0.40625000000000000        0.0000000000000000     
   1.1562500000000000       0.40625000000000000        0.0000000000000000     
   1.1875000000000000       0.40625000000000000        0.0000000000000000     
   1.2187500000000000       0.40625000000000000        0.0000000000000000     
   1.2500000000000000       0.40625000000000000        0.0000000000000000     
   1.1250000000000000       0.43750000000000000        0.0000000000000000     
   1.1562500000000000       0.43750000000000000        0.0000000000000000     
   1.1875000000000000       0.43750000000000000        0.0000000000000000     
   1.2187500000000000       0.43750000000000000        0.0000000000000000     
   1.2500000000000000       0.43750000000000000        0.0000000000000000     
   1.1250000000000000       0.46875000000000000        0.0000000000000000     
   1.1562500000000000       0.46875000000000000        0.0000000000000000     
   1.1875000000000000       0.46875000000000000        0.0000000000000000     
   1.2187500000000000       0.46875000000000000        0.0000000000000000     
   1.2500000000000000       0.46875000000000000        0.0000000000000000     
   1.1250000000000000       0.50000000000000000        0.0000000000000000     
   1.1562500000000000       0.50000000000000000        0.0000000000000000     
   1.1875000000000000       0.50000000000000000        0.0000000000000000     
   1.2187500000000000       0.50000000000000000        0.0000000000000000     
   1.2500000000000000       0.50000000000000000        0.0000000000000000     
   1.2500000000000000       0.37500000000000000        0.0000000000000000     
   1.2812500000000000       0.37500000000000000        0.0000000000000000     
   1.3125000000000000       0.37500000000000000        0.0000000000000000     
   1.3437500000000000       0.37500000000000000        0.0000000000000000     
   1.3750000000000000       0.37500000000000000        0.0000000000000000     
   1.2500000000000000       0.40625000000000000        0.0000000000000000     
   1.2812500000000000       0.40625000000000000        0.0000000000000000     
   1.3125000000000000       0.40625000000000000        0.0000000000000000     
   1.3437500000000000       0.40625000000000000        0.0000000000000000     
   1.3750000000000000       0.40625000000000000        0.0000000000000000     
   1.2500000000000000       0.43750000000000000        0.0000000000000000     
   1.2812500000000000       0.43750000000000000        0.0000000000000000     
   1.3125000000000000       0.43750000000000000        0.0000000000000000     
   1.3437500000000000       0.43750000000000000        0.0000000000000000     
   1.3750000000000000       0.43750000000000000        0.0000000000000000     
   1.2500000000000000       0.46875000000000000        0.0000000000000000     
   1.2812500000000000       0.46875000000000000        0.0000000000000000     
   1.3125000000000000       0.46875000000000000        0.0000000000000000     
   1.3437500000000000       0.46875000000000000        0.0000000000000000     
   1.3750000000000000       0.46875000000000000        0.0000000000000000     
   1.2500000000000000       0.50000000000000000        0.0000000000000000     
   1.2812500000000000       0.50000000000000000        0.0000000000000000     
   1.3125000000000000       0.50000000000000000        0.0000000000000000     
   1.3437500000000000       0.50000000000000000        0.0000000000000000     
   1.3750000000000000       0.50000000000000000        0.0000000000000000     
   1.3750000000000000       0.37500000000000000        0.0000000000000000     
   1.4062500000000000       0.37500000000000000        0.0000000000000000     
   1.4375000000000000       0.37500000000000000        0.0000000000000000     
   1.4687500000000000       0.37500000000000000        0.0000000000000000     
   1.5000000000000000       0.37500000000000000        0.0000000000000000     
   1.3750000000000000       0.40625000000000000        0.0000000000000000     
   1.4062500000000000       0.40625000000000000        0.0000000000000000     
   1.4375000000000000       0.40625000000000000        0.0000000000000000     
   1.4687500000000000       0.40625000000000000        0.0000000000000000     
   1.5000000000000000       0.40625000000000000        0.0000000000000000     
   1.3750000000000000       0.43750000000000000        0.0000000000000000     
   1.4062500000000000       0.43750000000000000        0.0000000000000000     
   1.4375000000000000       0.43750000000000000        0.0000000000000000     
   1.4687500000000000       0.43750000000000000        0.0000000000000000     
   1.5000000000000000       0.43750000000000000        0.0000000000000000     
   1.3750000000000000       0.46875000000000000        0.0000000000000000     
   1.4062500000000000       0.46875000000000000        0.0000000000000000     
   1.4375000000000000       0.46875000000000000        0.0000000000000000     
   1.4687500000000000       0.46875000000000000        0.0000000000000000     
   1.5000000000000000       0.46875000000000000        0.0000000000000000     
   1.3750000000000000       0.50000000000000000        0.0000000000000000     
   1.4062500000000000       0.50000000000000000        0.0000000000000000     
   1.4375000000000000       0.50000000000000000        0.0000000000000000     
   1.4687500000000000       0.50000000000000000        0.0000000000000000     
   1.5000000000000000       0.50000000000000000        0.0000000000000000     
  0.50000000000000000       0.50000000000000000        0.0000000000000000     
  0.53125000000000000       0.50000000000000000        0.0000000000000000     
  0.56250000000000000       0.50000000000000000        0.0000000000000000     
  0.59375000000000000       0.50000000000000000        0.0000000000000000     
  0.62500000000000000       0.50000000000000000        0.0000000000000000     
  0.50000000000000000       0.53125000000000000        0.0000000000000000     
  0.53125000000000000       0.53125000000000000        0.0000000000000000     
  0.56250000000000000       0.53125000000000000        0.0000000000000000     
  0.59375000000000000       0.53125000000000000        0.0000000000000000     
  0.62500000000000000       0.53125000000000000        0.0000000000000000     
  0.50000000000000000       0.56250000000000000        0.0000000000000000     
  0.53125000000000000       0.56250000000000000        0.0000000000000000     
  0.56250000000000000       0.56250000000000000        0.0000000000000000     
  0.59375000000000000       0.56250000000000000        0.0000000000000000     
  0.62500000000000000       0.56250000000000000        0.0000000000000000     
  0.50000000000000000       0.59375000000000000        0.0000000000000000     
  0.53125000000000000       0.59375000000000000        0.0000000000000000     
  0.56250000000000000       0.59375000000000000        0.0000000000000000     
  0.59375000000000000       0.59375000000000000        0.0000000000000000     
  0.62500000000000000       0.59375000000000000        0.0000000000000000     
  0.50000000000000000       0.62500000000000000        0.0000000000000000     
  0.53125000000000000       0.62500000000000000        0.0000000000000000     
  0.56250000000000000       0.62500000000000000        0.0000000000000000     
  0.59375000000000000       0.62500000000000000        0.0000000000000000     
  0.62500000000000000       0.62500000000000000        0.0000000000000000     
  0.62500000000000000       0.50000000000000000        0.0000000000000000     
  0.65625000000000000       0.50000000000000000        0.0000000000000000     
  0.68750000000000000       0.50000000000000000        0.0000000000000000     
  0.71875000000000000       0.50000000000000000        0.0000000000000000     
  0.75000000000000000       0.50000000000000000        0.0000000000000000     
  0.62500000000000000       0.53125000000000000        0.0000000000000000     
  0.65625000000000000       0.53125000000000000        0.0000000000000000     
  0.68750000000000000       0.53125000000000000        0.0000000000000000     
  0.71875000000000000       0.53125000000000000        0.0000000000000000     
  0.75000000000000000       0.53125000000000000        0.0000000000000000     
  0.62500000000000000       0.56250000000000000        0.0000000000000000     
  0.65625000000000000       0.56250000000000000        0.0000000000000000     
  0.68750000000000000       0.56250000000000000        0.0000000000000000     
  0.71875000000000000       0.56250000000000000        0.0000000000000000     
  0.75000000000000000       0.56250000000000000        0.0000000000000000     
  0.62500000000000000       0.59375000000000000        0.0000000000000000     
  0.65625000000000000       0.59375000000000000        0.0000000000000000     
  0.68750000000000000       0.59375000000000000        0.0000000000000000     
  0.71875000000000000       0.59375000000000000        0.0000000000000000     
  0.75000000000000000       0.59375000000000000        0.0000000000000000     
  0.62500000000000000       0.62500000000000000        0.0000000000000000     
  0.65625000000000000       0.62500000000000000        0.0000000000000000     
  0.68750000000000000       0.62500000000000000        0.0000000000000000     
  0.71875000000000000       0.62500000000000000        0.0000000000000000     
  0.75000000000000000       0.62500000000000000        0.0000000000000000     
  0.75000000000000000       0.50000000000000000        0.0000000000000000     
  0.78125000000000000       0.50000000000000000        0.0000000000000000     
  0.81250000000000000       0.50000000000000000        0.0000000000000000     
  0.84375000000000000       0.50000000000000000        0.0000000000000000     
  0.87500000000000000       0.50000000000000000        0.0000000000000000     
  0.75000000000000000       0.53125000000000000        0.0000000000000000     
  0.78125000000000000       0.53125000000000000        0.0000000000000000     
  0.81250000000000000       0.53125000000000000        0.0000000000000000     
  0.84375000000000000       0.53125000000000000        0.0000000000000000     
  0.87500000000000000       0.53125000000000000        0.0000000000000000     
  0.75000000000000000       0.56250000000000000        0.0000000000000000     
  0.78125000000000000       0.56250000000000000        0.0000000000000000     
  0.81250000000000000       0.56250000000000000        0.0000000000000000     
  0.84375000000000000       0.56250000000000000        0.0000000000000000     
  0.87500000000000000       0.56250000000000000        0.0000000000000000     
  0.75000000000000000       0.59375000000000000        0.0000000000000000     
  0.78125000000000000       0.59375000000000000        0.0000000000000000     
  0.81250000000000000       0.59375000000000000        0.0000000000000000     
  0.84375000000000000       0.59375000000000000        0.0000000000000000     
  0.87500000000000000       0.59375000000000000        0.0000000000000000     
  0.75000000000000000       0.62500000000000000        0.0000000000000000     
  0.78125000000000000       0.62500000000000000        0.0000000000000000     
  0.81250000000000000       0.62500000000000000        0.0000000000000000     
  0.84375000000000000       0.62500000000000000        0.0000000000000000     
  0.87500000000000000       0.62500000000000000        0.0000000000000000     
  0.87500000000000000       0.50000000000000000        0.0000000000000000     
  0.90625000000000000       0.50000000000000000        0.0000000000000000     
  0.93750000000000000       0.50000000000000000        0.0000000000000000     
  0.96875000000000000       0.50000000000000000        0.0000000000000000     
   1.0000000000000000       0.50000000000000000        0.0000000000000000     
  0.87500000000000000       0.53125000000000000        0.0000000000000000     
  0.90625000000000000       0.53125000000000000        0.0000000000000000     
  0.93750000000000000       0.53125000000000000        0.0000000000000000     
  0.96875000000000000       0.53125000000000000        0.0000000000000000     
   1.0000000000000000       0.53125000000000000        0.0000000000000000     
  0.87500000000000000       0.56250000000000000        0.0000000000000000     
  0.90625000000000000       0.56250000000000000        0.0000000000000000     
  0.93750000000000000       0.56250000000000000        0.0000000000000000     
  0.96875000000000000       0.56250000000000000        0.0000000000000000     
   1.0000000000000000       0.56250000000000000        0.0000000000000000     
  0.87500000000000000       0.59375000000000000        0.0000000000000000     
  0.90625000000000000       0.59375000000000000        0.0000000000000000     
  0.93750000000000000       0.59375000000000000        0.0000000000000000     
  0.96875000000000000       0.59375000000000000        0.0000000000000000     
   1.0000000000000000       0.59375000000000000        0.0000000000000000     
  0.87500000000000000       0.62500000000000000        0.0000000000000000     
  0.90625000000000000       0.62500000000000000        0.0000000000000000     
  0.93750000000000000       0.62500000000000000        0.0000000000000000     
  0.96875000000000000       0.62500000000000000        0.0000000000000000     
   1.0000000000000000       0.62500000000000000        0.0000000000000000     
   1.0000000000000000       0.50000000000000000        0.0000000000000000     
   1.0312500000000000       0.50000000000000000        0.0000000000000000     
   1.0625000000000000       0.50000000000000000        0.0000000000000000     
   1.0937500000000000       0.50000000000000000        0.0000000000000000     
   1.1250000000000000       0.50000000000000000        0.0000000000000000     
   1.0000000000000000       0.53125000000000000        0.0000000000000000     
   1.0312500000000000       0.53125000000000000        0.0000000000000000     
   1.0625000000000000       0.53125000000000000        0.0000000000000000     
   1.0937500000000000       0.53125000000000000        0.0000000000000000     
   1.1250000000000000       0.53125000000000000        0.0000000000000000     
   1.0000000000000000       0.56250000000000000        0.0000000000000000     
   1.0312500000000000       0.56250000000000000        0.0000000000000000     
   1.0625000000000000       0.56250000000000000        0.0000000000000000     
   1.0937500000000000       0.56250000000000000        0.0000000000000000     
   1.1250000000000000       0.56250000000000000        0.0000000000000000     
   1.0000000000000000       0.59375000000000000        0.0000000000000000     
   1.0312500000000000       0.59375000000000000        0.0000000000000000     
   1.0625000000000000       0.59375000000000000        0.0000000000000000     
   1.0937500000000000       0.59375000000000000        0.0000000000000000     
   1.1250000000000000       0.59375000000000000        0.0000000000000000     
   1.0000000000000000       0.62500000000000000        0.0000000000000000     
   1.0312500000000000       0.62500000000000000        0.0000000000000000     
   1.0625000000000000       0.62500000000000000        0.0000000000000000     
   1.0937500000000000       0.62500000000000000        0.0000000000000000     
   1.1250000000000000       0.62500000000000000        0.0000000000000000     
   1.1250000000000000       0.50000000000000000        0.0000000000000000     
   1.1562500000000000       0.50000000000000000        0.0000000000000000     
   1.1875000000000000       0.50000000000000000        0.0000000000000000     
   1.2187500000000000       0.50000000000000000        0.0000000000000000     
   1.2500000000000000       0.50000000000000000        0.0000000000000000     
   1.1250000000000000       0.53125000000000000        0.0000000000000000     
   1.1562500000000000       0.53125000000000000        0.0000000000000000     
   1.1875000000000000       0.53125000000000000        0.0000000000000000     
   1.2187500000000000       0.53125000000000000        0.0000000000000000     
   1.2500000000000000       0.53125000000000000        0.0000000000000000     
   1.1250000000000000       0.56250000000000000        0.0000000000000000     
   1.1562500000000000       0.56250000000000000        0.0000000000000000     
   1.1875000000000000       0.56250000000000000        0.0000000000000000     
   1.2187500000000000       0.56250000000000000        0.0000000000000000     
   1.2500000000000000       0.56250000000000000        0.0000000000000000     
   1.1250000000000000       0.59375000000000000        0.0000000000000000     
   1.1562500000000000       0.59375000000000000        0.0000000000000000     
   1.1875000000000000       0.59375000000000000        0.0000000000000000     
   1.2187500000000000       0.59375000000000000        0.0000000000000000     
   1.2500000000000000       0.59375000000000000        0.0000000000000000     
   1.1250000000000000       0.62500000000000000        0.0000000000000000     
   1.1562500000000000       0.62500000000000000        0.0000000000000000     
   1.1875000000000000       0.62500000000000000        0.0000000000000000     
   1.2187500000000000       0.62500000000000000        0.0000000000000000     
   1.2500000000000000       0.62500000000000000        0.0000000000000000     
   1.2500000000000000       0.50000000000000000        0.0000000000000000     
   1.2812500000000000       0.50000000000000000        0.0000000000000000     
   1.3125000000000000       0.50000000000000000        0.0000000000000000     
   1.3437500000000000       0.50000000000000000        0.0000000000000000     
   1.3750000000000000       0.50000000000000000        0.0000000000000000     
   1.2500000000000000       0.53125000000000000        0.0000000000000000     
   1.2812500000000000       0.53125000000000000        0.0000000000000000     
   1.3125000000000000       0.53125000000000000        0.0000000000000000     
   1.3437500000000000       0.53125000000000000        0.0000000000000000     
   1.3750000000000000       0.53125000000000000        0.0000000000000000     
   1.2500000000000000       0.56250000000000000        0.0000000000000000     
   1.2812500000000000       0.56250000000000000        0.0000000000000000     
   1.3125000000000000       0.56250000000000000        0.0000000000000000     
   1.3437500000000000       0.56250000000000000        0.0000000000000000     
   1.3750000000000000       0.56250000000000000        0.0000000000000000     
   1.2500000000000000       0.59375000000000000        0.0000000000000000     
   1.2812500000000000       0.59375000000000000        0.0000000000000000     
   1.3125000000000000       0.59375000000000000        0.0000000000000000     
   1.3437500000000000       0.59375000000000000        0.0000000000000000     
   1.3750000000000000       0.59375000000000000        0.0000000000000000     
   1.2500000000000000       0.62500000000000000        0.0000000000000000     
   1.2812500000000000       0.62500000000000000        0.0000000000000000     
   1.3125000000000000       0.62500000000000000        0.0000000000000000     
   1.3437500000000000       0.62500000000000000        0.0000000000000000     
   1.3750000000000000       0.62500000000000000        0.0000000000000000     
   1.3750000000000000       0.50000000000000000        0.0000000000000000     
   1.4062500000000000       0.50000000000000000        0.0000000000000000     
   1.4375000000000000       0.50000000000000000        0.0000000000000000     
   1.4687500000000000       0.50000000000000000        0.0000000000000000     
   1.5000000000000000       0.50000000000000000        0.0000000000000000     
   1.3750000000000000       0.53125000000000000        0.0000000000000000     
   1.4062500000000000       0.53125000000000000        0.0000000000000000     
   1.4375000000000000       0.53125000000000000        0.0000000000000000     
   1.4687500000000000       0.53125000000000000        0.0000000000000000     
   1.5000000000000000       0.53125000000000000        0.0000000000000000     
   1.3750000000000000       0.56250000000000000        0.0000000000000000     
   1.4062500000000000       0.56250000000000000        0.0000000000000000     
   1.4375000000000000       0.56250000000000000        0.0000000000000000     
   1.4687500000000000       0.56250000000000000        0.0000000000000000     
   1.5000000000000000       0.56250000000000000        0.0000000000000000     
   1.3750000000000000       0.59375000000000000        0.0000000000000000     
   1.4062500000000000       0.59375000000000000        0.0000000000000000     
   1.4375000000000000       0.59375000000000000        0.0000000000000000     
   1.4687500000000000       0.59375000000000000        0.0000000000000000     
   1.5000000000000000       0.59375000000000000        0.0000000000000000     
   1.3750000000000000       0.62500000000000000        0.0000000000000000     
   1.4062500000000000       0.62500000000000000        0.0000000000000000     
   1.4375000000000000       0.62500000000000000        0.0000000000000000     
   1.4687500000000000       0.62500000000000000        0.0000000000000000     
   1.5000000000000000       0.62500000000000000        0.0000000000000000     
  0.50000000000000000       0.62500000000000000        0.0000000000000000     
  0.53125000000000000       0.62500000000000000        0.0000000000000000     
  0.56250000000000000       0.62500000000000000        0.0000000000000000     
  0.59375000000000000       0.62500000000000000        0.0000000000000000     
  0.62500000000000000       0.62500000000000000        0.0000000000000000     
  0.50000000000000000       0.65625000000000000        0.0000000000000000     
  0.53125000000000000       0.65625000000000000        0.0000000000000000     
  0.56250000000000000       0.65625000000000000        0.0000000000000000     
  0.59375000000000000       0.65625000000000000        0.0000000000000000     
  0.62500000000000000       0.65625000000000000        0.0000000000000000     
  0.50000000000000000       0.68750000000000000        0.0000000000000000     
  0.53125000000000000       0.68750000000000000        0.0000000000000000     
  0.56250000000000000       0.68750000000000000        0.0000000000000000     
  0.59375000000000000       0.68750000000000000        0.0000000000000000     
  0.62500000000000000       0.68750000000000000        0.0000000000000000     
  0.50000000000000000       0.71875000000000000        0.0000000000000000     
  0.53125000000000000       0.71875000000000000        0.0000000000000000     
  0.56250000000000000       0.71875000000000000        0.0000000000000000     
  0.59375000000000000       0.71875000000000000        0.0000000000000000     
  0.62500000000000000       0.71875000000000000        0.0000000000000000     
  0.50000000000000000       0.75000000000000000        0.0000000000000000     
  0.53125000000000000       0.75000000000000000        0.0000000000000000     
  0.56250000000000000       0.75000000000000000        0.0000000000000000     
  0.59375000000000000       0.75000000000000000        0.0000000000000000     
  0.62500000000000000       0.75000000000000000        0.0000000000000000     
  0.62500000000000000       0.62500000000000000        0.0000000000000000     
  0.65625000000000000       0.62500000000000000        0.0000000000000000     
  0.68750000000000000       0.62500000000000000        0.0000000000000000     
  0.71875000000000000       0.62500000000000000        0.0000000000000000     
  0.75000000000000000       0.62500000000000000        0.0000000000000000     
  0.62500000000000000       0.65625000000000000        0.0000000000000000     
  0.65625000000000000       0.65625000000000000        0.0000000000000000     
  0.68750000000000000       0.65625000000000000        0.0000000000000000     
  0.71875000000000000       0.65625000000000000        0.0000000000000000     
  0.75000000000000000       0.65625000000000000        0.0000000000000000     
  0.62500000000000000       0.68750000000000000        0.0000000000000000     
  0.65625000000000000       0.68750000000000000        0.0000000000000000     
  0.68750000000000000       0.68750000000000000        0.0000000000000000     
  0.71875000000000000       0.68750000000000000        0.0000000000000000     
  0.75000000000000000       0.68750000000000000        0.0000000000000000     
  0.62500000000000000       0.71875000000000000        0.0000000000000000     
  0.65625000000000000       0.71875000000000000        0.0000000000000000     
  0.68750000000000000       0.71875000000000000        0.0000000000000000     
  0.71875000000000000       0.71875000000000000        0.0000000000000000     
  0.75000000000000000       0.71875000000000000        0.0000000000000000     
  0.62500000000000000       0.75000000000000000        0.0000000000000000     
  0.65625000000000000       0.75000000000000000        0.0000000000000000     
  0.68750000000000000       0.75000000000000000        0.0000000000000000     
  0.71875000000000000       0.75000000000000000        0.0000000000000000     
  0.75000000000000000       0.75000000000000000        0.0000000000000000     
  0.75000000000000000       0.62500000000000000        0.0000000000000000     
  0.78125000000000000       0.62500000000000000        0.0000000000000000     
  0.81250000000000000       0.62500000000000000        0.0000000000000000     
  0.84375000000000000       0.62500000000000000        0.0000000000000000     
  0.87500000000000000       0.62500000000000000        0.0000000000000000     
  0.75000000000000000       0.65625000000000000        0.0000000000000000     
  0.78125000000000000       0.65625000000000000        0.0000000000000000     
  0.81250000000000000       0.65625000000000000        0.0000000000000000     
  0.84375000000000000       0.65625000000000000        0.0000000000000000     
  0.87500000000000000       0.65625000000000000        0.0000000000000000     
  0.75000000000000000       0.68750000000000000        0.0000000000000000     
  0.78125000000000000       0.68750000000000000        0.0000000000000000     
  0.81250000000000000       0.68750000000000000        0.0000000000000000     
  0.84375000000000000       0.68750000000000000        0.0000000000000000     
  0.87500000000000000       0.68750000000000000        0.0000000000000000     
  0.75000000000000000       0.71875000000000000        0.0000000000000000     
  0.78125000000000000       0.71875000000000000        0.0000000000000000     
  0.81250000000000000       0.71875000000000000        0.0000000000000000     
  0.84375000000000000       0.71875000000000000        0.0000000000000000     
  0.87500000000000000       0.71875000000000000        0.0000000000000000     
  0.75000000000000000       0.75000000000000000        0.0000000000000000     
  0.78125000000000000       0.75000000000000000        0.0000000000000000     
  0.81250000000000000       0.75000000000000000        0.0000000000000000     
  0.84375000000000000       0.75000000000000000        0.0000000000000000     
  0.87500000000000000       0.75000000000000000        0.0000000000000000     
  0.87500000000000000       0.62500000000000000        0.0000000000000000     
  0.90625000000000000       0.62500000000000000        0.0000000000000000     
  0.93750000000000000       0.62500000000000000        0.0000000000000000     
  0.96875000000000000       0.62500000000000000        0.0000000000000000     
   1.0000000000000000       0.62500000000000000        0.0000000000000000     
  0.87500000000000000       0.65625000000000000        0.0000000000000000     
  0.90625000000000000       0.65625000000000000        0.0000000000000000     
  0.93750000000000000       0.65625000000000000        0.0000000000000000     
  0.96875000000000000       0.65625000000000000        0.0000000000000000     
   1.0000000000000000       0.65625000000000000        0.0000000000000000     
  0.87500000000000000       0.68750000000000000        0.0000000000000000     
  0.90625000000000000       0.68750000000000000        0.0000000000000000     
  0.93750000000000000       0.68750000000000000        0.0000000000000000     
  0.96875000000000000       0.68750000000000000        0.0000000000000000     
   1.0000000000000000       0.68750000000000000        0.0000000000000000     
  0.87500000000000000       0.71875000000000000        0.0000000000000000     
  0.90625000000000000       0.71875000000000000        0.0000000000000000     
  0.93750000000000000       0.71875000000000000        0.0000000000000000     
  0.96875000000000000       0.71875000000000000        0.0000000000000000     
   1.0000000000000000       0.71875000000000000        0.0000000000000000     
  0.87500000000000000       0.75000000000000000        0.0000000000000000     
  0.90625000000000000       0.75000000000000000        0.0000000000000000     
  0.93750000000000000       0.75000000000000000        0.0000000000000000     
  0.96875000000000000       0.75000000000000000        0.0000000000000000     
   1.0000000000000000       0.75000000000000000        0.0000000000000000     
   1.0000000000000000       0.62500000000000000        0.0000000000000000     
   1.0312500000000000       0.62500000000000000        0.0000000000000000     
   1.0625000000000000       0.62500000000000000        0.0000000000000000     
   1.0937500000000000       0.62500000000000000        0.0000000000000000     
   1.1250000000000000       0.62500000000000000        0.0000000000000000     
   1.0000000000000000       0.65625000000000000        0.0000000000000000     
   1.0312500000000000       0.65625000000000000        0.0000000000000000     
   1.0625000000000000       0.65625000000000000        0.0000000000000000     
   1.0937500000000000       0.65625000000000000        0.0000000000000000     
   1.1250000000000000       0.65625000000000000        0.0000000000000000     
   1.0000000000000000       0.68750000000000000        0.0000000000000000     
   1.0312500000000000       0.68750000000000000        0.0000000000000000     
   1.0625000000000000       0.68750000000000000        0.0000000000000000     
   1.0937500000000000       0.68750000000000000        0.0000000000000000     
   1.1250000000000000       0.68750000000000000        0.0000000000000000     
   1.0000000000000000       0.71875000000000000        0.0000000000000000     
   1.0312500000000000       0.71875000000000000        0.0000000000000000     
   1.0625000000000000       0.71875000000000000        0.0000000000000000     
   1.0937500000000000       0.71875000000000000        0.0000000000000000     
   1.1250000000000000       0.71875000000000000        0.0000000000000000     
   1.0000000000000000       0.75000000000000000        0.0000000000000000     
   1.0312500000000000       0.75000000000000000        0.0000000000000000     
   1.0625000000000000       0.75000000000000000        0.0000000000000000     
   1.0937500000000000       0.75000000000000000        0.0000000000000000     
   1.1250000000000000       0.75000000000000000        0.0000000000000000     
   1.1250000000000000       0.62500000000000000        0.0000000000000000     
   1.1562500000000000       0.62500000000000000        0.0000000000000000     
   1.1875000000000000       0.62500000000000000        0.0000000000000000     
   1.2187500000000000       0.62500000000000000        0.0000000000000000     
   1.2500000000000000       0.62500000000000000        0.0000000000000000     
   1.1250000000000000       0.65625000000000000        0.0000000000000000     
   1.1562500000000000       0.65625000000000000        0.0000000000000000     
   1.1875000000000000       0.65625000000000000        0.0000000000000000     
   1.2187500000000000       0.65625000000000000        0.0000000000000000     
   1.2500000000000000       0.65625000000000000        0.0000000000000000     
   1.1250000000000000       0.68750000000000000        0.0000000000000000     
   1.1562500000000000       0.68750000000000000        0.0000000000000000     
   1.1875000000000000       0.68750000000000000        0.0000000000000000     
   1.2187500000000000       0.68750000000000000        0.0000000000000000     
   1.2500000000000000       0.68750000000000000        0.0000000000000000     
   1.1250000000000000       0.71875000000000000        0.0000000000000000     
   1.1562500000000000       0.71875000000000000        0.0000000000000000     
   1.1875000000000000       0.71875000000000000        0.0000000000000000     
   1.2187500000000000       0.71875000000000000        0.0000000000000000     
   1.2500000000000000       0.71875000000000000        0.0000000000000000     
   1.1250000000000000       0.75000000000000000        0.0000000000000000     
   1.1562500000000000       0.75000000000000000        0.0000000000000000     
   1.1875000000000000       0.75000000000000000        0.0000000000000000     
   1.2187500000000000       0.75000000000000000        0.0000000000000000     
   1.2500000000000000       0.75000000000000000        0.0000000000000000     
   1.2500000000000000       0.62500000000000000        0.0000000000000000     
   1.2812500000000000       0.62500000000000000        0.0000000000000000     
   1.3125000000000000       0.62500000000000000        0.0000000000000000     
   1.3437500000000000       0.62500000000000000        0.0000000000000000     
   1.3750000000000000       0.62500000000000000        0.0000000000000000     
   1.2500000000000000       0.65625000000000000        0.0000000000000000     
   1.2812500000000000       0.65625000000000000        0.0000000000000000     
   1.3125000000000000       0.65625000000000000        0.0000000000000000     
   1.3437500000000000       0.65625000000000000        0.0000000000000000     
   1.3750000000000000       0.65625000000000000        0.0000000000000000     
   1.2500000000000000       0.68750000000000000        0.0000000000000000     
   1.2812500000000000       0.68750000000000000        0.0000000000000000     
   1.3125000000000000       0.68750000000000000        0.0000000000000000     
   1.3437500000000000       0.68750000000000000        0.0000000000000000     
   1.3750000000000000       0.68750000000000000        0.0000000000000000     
   1.2500000000000000       0.71875000000000000        0.0000000000000000     
   1.2812500000000000       0.71875000000000000        0.0000000000000000     
   1.3125000000000000       0.71875000000000000        0.0000000000000000     
   1.3437500000000000       0.71875000000000000        0.0000000000000000     
   1.3750000000000000       0.71875000000000000        0.0000000000000000     
   1.2500000000000000       0.75000000000000000        0.0000000000000000     
   1.2812500000000000       0.75000000000000000        0.0000000000000000     
   1.3125000000000000       0.75000000000000000        0.0000000000000000     
   1.3437500000000000       0.75000000000000000        0.0000000000000000     
   1.3750000000000000       0.75000000000000000        0.0000000000000000     
   1.3750000000000000       0.62500000000000000        0.0000000000000000     
   1.4062500000000000       0.62500000000000000        0.0000000000000000     
   1.4375000000000000       0.62500000000000000        0.0000000000000000     
   1.4687500000000000       0.62500000000000000        0.0000000000000000     
   1.5000000000000000       0.62500000000000000        0.0000000000000000     
   1.3750000000000000       0.65625000000000000        0.0000000000000000     
   1.4062500000000000       0.65625000000000000        0.0000000000000000     
   1.4375000000000000       0.65625000000000000        0.0000000000000000     
   1.4687500000000000       0.65625000000000000        0.0000000000000000     
   1.5000000000000000       0.65625000000000000        0.0000000000000000     
   1.3750000000000000       0.68750000000000000        0.0000000000000000     
   1.4062500000000000       0.68750000000000000        0.0000000000000000     
   1.4375000000000000       0.68750000000000000        0.0000000000000000     
   1.4687500000000000       0.68750000000000000        0.0000000000000000     
   1.5000000000000000       0.68750000000000000        0.0000000000000000     
   1.3750000000000000       0.71875000000000000        0.0000000000000000     
   1.4062500000000000       0.71875000000000000        0.0000000000000000     
   1.4375000000000000       0.71875000000000000        0.0000000000000000     
   1.4687500000000000       0.71875000000000000        0.0000000000000000     
   1.5000000000000000       0.71875000000000000        0.0000000000000000     
   1.3750000000000000       0.75000000000000000        0.0000000000000000     
   1.4062500000000000       0.75000000000000000        0.0000000000000000     
   1.4375000000000000       0.75000000000000000        0.0000000000000000     
   1.4687500000000000       0.75000000000000000        0.0000000000000000     
   1.5000000000000000       0.75000000000000000        0.0000000000000000     
  0.50000000000000000       0.75000000000000000        0.0000000000000000     
  0.53125000000000000       0.75000000000000000        0.0000000000000000     
  0.56250000000000000       0.75000000000000000        0.0000000000000000     
  0.59375000000000000       0.75000000000000000        0.0000000000000000     
  0.62500000000000000       0.75000000000000000        0.0000000000000000     
  0.50000000000000000       0.78125000000000000        0.0000000000000000     
  0.53125000000000000       0.78125000000000000        0.0000000000000000     
  0.56250000000000000       0.78125000000000000        0.0000000000000000     
  0.59375000000000000       0.78125000000000000        0.0000000000000000     
  0.62500000000000000       0.78125000000000000        0.0000000000000000     
  0.50000000000000000       0.81250000000000000        0.0000000000000000     
  0.53125000000000000       0.81250000000000000        0.0000000000000000     
  0.56250000000000000       0.81250000000000000        0.0000000000000000     
  0.59375000000000000       0.81250000000000000        0.0000000000000000     
  0.62500000000000000       0.81250000000000000        0.0000000000000000     
  0.50000000000000000       0.84375000000000000        0.0000000000000000     
  0.53125000000000000       0.84375000000000000        0.0000000000000000     
  0.56250000000000000       0.84375000000000000        0.0000000000000000     
  0.59375000000000000       0.84375000000000000        0.0000000000000000     
  0.62500000000000000       0.84375000000000000        0.0000000000000000     
  0.50000000000000000       0.87500000000000000        0.0000000000000000     
  0.53125000000000000       0.87500000000000000        0.0000000000000000     
  0.56250000000000000       0.87500000000000000        0.0000000000000000     
  0.59375000000000000       0.87500000000000000        0.0000000000000000     
  0.62500000000000000       0.87500000000000000        0.0000000000000000     
  0.62500000000000000       0.75000000000000000        0.0000000000000000     
  0.65625000000000000       0.75000000000000000        0.0000000000000000     
  0.68750000000000000       0.75000000000000000        0.0000000000000000     
  0.71875000000000000       0.75000000000000000        0.0000000000000000     
  0.75000000000000000       0.75000000000000000        0.0000000000000000     
  0.62500000000000000       0.78125000000000000        0.0000000000000000     
  0.65625000000000000       0.78125000000000000        0.0000000000000000     
  0.68750000000000000       0.78125000000000000        0.0000000000000000     
  0.71875000000000000       0.78125000000000000        0.0000000000000000     
  0.75000000000000000       0.78125000000000000        0.0000000000000000     
  0.62500000000000000       0.81250000000000000        0.0000000000000000     
  0.65625000000000000       0.81250000000000000        0.0000000000000000     
  0.68750000000000000       0.81250000000000000        0.0000000000000000     
  0.71875000000000000       0.81250000000000000        0.0000000000000000     
  0.75000000000000000       0.81250000000000000        0.0000000000000000     
  0.62500000000000000       0.84375000000000000        0.0000000000000000     
  0.65625000000000000       0.84375000000000000        0.0000000000000000     
  0.68750000000000000       0.84375000000000000        0.0000000000000000     
  0.71875000000000000       0.84375000000000000        0.0000000000000000     
  0.75000000000000000       0.84375000000000000        0.0000000000000000     
  0.62500000000000000       0.87500000000000000        0.0000000000000000     
  0.65625000000000000       0.87500000000000000        0.0000000000000000     
  0.68750000000000000       0.87500000000000000        0.0000000000000000     
  0.71875000000000000       0.87500000000000000        0.0000000000000000     
  0.75000000000000000       0.87500000000000000        0.0000000000000000     
  0.75000000000000000       0.75000000000000000        0.0000000000000000     
  0.78125000000000000       0.75000000000000000        0.0000000000000000     
  0.81250000000000000       0.75000000000000000        0.0000000000000000     
  0.84375000000000000       0.75000000000000000        0.0000000000000000     
  0.87500000000000000       0.75000000000000000        0.0000000000000000     
  0.75000000000000000       0.78125000000000000        0.0000000000000000     
  0.78125000000000000       0.78125000000000000        0.0000000000000000     
  0.81250000000000000       0.78125000000000000        0.0000000000000000     
  0.84375000000000000       0.78125000000000000        0.0000000000000000     
  0.87500000000000000       0.78125000000000000        0.0000000000000000     
  0.75000000000000000       0.81250000000000000        0.0000000000000000     
  0.78125000000000000       0.81250000000000000        0.0000000000000000     
  0.81250000000000000       0.81250000000000000        0.0000000000000000     
  0.84375000000000000       0.81250000000000000        0.0000000000000000     
  0.87500000000000000       0.81250000000000000        0.0000000000000000     
  0.75000000000000000       0.84375000000000000        0.0000000000000000     
  0.78125000000000000       0.84375000000000000        0.0000000000000000     
  0.81250000000000000       0.84375000000000000        0.0000000000000000     
  0.84375000000000000       0.84375000000000000        0.0000000000000000     
  0.87500000000000000       0.84375000000000000        0.0000000000000000     
  0.75000000000000000       0.87500000000000000        0.0000000000000000     
  0.78125000000000000       0.87500000000000000        0.0000000000000000     
  0.81250000000000000       0.87500000000000000        0.0000000000000000     
  0.84375000000000000       0.87500000000000000        0.0000000000000000     
  0.87500000000000000       0.87500000000000000        0.0000000000000000     
  0.87500000000000000       0.75000000000000000        0.0000000000000000     
  0.90625000000000000       0.75000000000000000        0.0000000000000000     
  0.93750000000000000       0.75000000000000000        0.0000000000000000     
  0.96875000000000000       0.75000000000000000        0.0000000000000000     
   1.0000000000000000       0.75000000000000000        0.0000000000000000     
  0.87500000000000000       0.78125000000000000        0.0000000000000000     
  0.90625000000000000       0.78125000000000000        0.0000000000000000     
  0.93750000000000000       0.78125000000000000        0.0000000000000000     
  0.96875000000000000       0.78125000000000000        0.0000000000000000     
   1.0000000000000000       0.78125000000000000        0.0000000000000000     
  0.87500000000000000       0.81250000000000000        0.0000000000000000     
  0.90625000000000000       0.81250000000000000        0.0000000000000000     
  0.93750000000000000       0.81250000000000000        0.0000000000000000     
  0.96875000000000000       0.81250000000000000        0.0000000000000000     
   1.0000000000000000       0.81250000000000000        0.0000000000000000     
  0.87500000000000000       0.84375000000000000        0.0000000000000000     
  0.90625000000000000       0.84375000000000000        0.0000000000000000     
  0.93750000000000000       0.84375000000000000        0.0000000000000000     
  0.96875000000000000       0.84375000000000000        0.0000000000000000     
   1.0000000000000000       0.84375000000000000        0.0000000000000000     
  0.87500000000000000       0.87500000000000000        0.0000000000000000     
  0.90625000000000000       0.87500000000000000        0.0000000000000000     
  0.93750000000000000       0.87500000000000000        0.0000000000000000     
  0.96875000000000000       0.87500000000000000        0.0000000000000000     
   1.0000000000000000       0.87500000000000000        0.0000000000000000     
   1.0000000000000000       0.75000000000000000        0.0000000000000000     
   1.0312500000000000       0.75000000000000000        0.0000000000000000     
   1.0625000000000000       0.75000000000000000        0.0000000000000000     
   1.0937500000000000       0.75000000000000000        0.0000000000000000     
   1.1250000000000000       0.75000000000000000        0.0000000000000000     
   1.0000000000000000       0.78125000000000000        0.0000000000000000     
   1.0312500000000000       0.78125000000000000        0.0000000000000000     
   1.0625000000000000       0.78125000000000000        0.0000000000000000     
   1.0937500000000000       0.78125000000000000        0.0000000000000000     
   1.1250000000000000       0.78125000000000000        0.0000000000000000     
   1.0000000000000000       0.81250000000000000        0.0000000000000000     
   1.0312500000000000       0.81250000000000000        0.0000000000000000     
   1.0625000000000000       0.81250000000000000        0.0000000000000000     
   1.0937500000000000       0.81250000000000000        0.0000000000000000     
   1.1250000000000000       0.81250000000000000        0.0000000000000000     
   1.0000000000000000       0.84375000000000000        0.0000000000000000     
   1.0312500000000000       0.84375000000000000        0.0000000000000000     
   1.0625000000000000       0.84375000000000000        0.0000000000000000     
   1.0937500000000000       0.84375000000000000        0.0000000000000000     
   1.1250000000000000       0.84375000000000000        0.0000000000000000     
   1.0000000000000000       0.87500000000000000        0.0000000000000000     
   1.0312500000000000       0.87500000000000000        0.0000000000000000     
   1.0625000000000000       0.87500000000000000        0.0000000000000000     
   1.0937500000000000       0.87500000000000000        0.0000000000000000     
   1.1250000000000000       0.87500000000000000        0.0000000000000000     
   1.1250000000000000       0.75000000000000000        0.0000000000000000     
   1.1562500000000000       0.75000000000000000        0.0000000000000000     
   1.1875000000000000       0.75000000000000000        0.0000000000000000     
   1.2187500000000000       0.75000000000000000        0.0000000000000000     
   1.2500000000000000       0.75000000000000000        0.0000000000000000     
   1.1250000000000000       0.78125000000000000        0.0000000000000000     
   1.1562500000000000       0.78125000000000000        0.0000000000000000     
   1.1875000000000000       0.78125000000000000        0.0000000000000000     
   1.2187500000000000       0.78125000000000000        0.0000000000000000     
   1.2500000000000000       0.78125000000000000        0.0000000000000000     
   1.1250000000000000       0.81250000000000000        0.0000000000000000     
   1.1562500000000000       0.81250000000000000        0.0000000000000000     
   1.1875000000000000       0.81250000000000000        0.0000000000000000     
   1.2187500000000000       0.81250000000000000        0.0000000000000000     
   1.2500000000000000       0.81250000000000000        0.0000000000000000     
   1.1250000000000000       0.84375000000000000        0.0000000000000000     
   1.1562500000000000       0.84375000000000000        0.0000000000000000     
   1.1875000000000000       0.84375000000000000        0.0000000000000000     
   1.2187500000000000       0.84375000000000000        0.0000000000000000     
   1.2500000000000000       0.84375000000000000        0.0000000000000000     
   1.1250000000000000       0.87500000000000000        0.0000000000000000     
   1.1562500000000000       0.87500000000000000        0.0000000000000000     
   1.1875000000000000       0.87500000000000000        0.0000000000000000     
   1.2187500000000000       0.87500000000000000        0.0000000000000000     
   1.2500000000000000       0.87500000000000000        0.0000000000000000     
   1.2500000000000000       0.75000000000000000        0.0000000000000000     
   1.2812500000000000       0.75000000000000000        0.0000000000000000     
   1.3125000000000000       0.75000000000000000        0.0000000000000000     
   1.3437500000000000       0.75000000000000000        0.0000000000000000     
   1.3750000000000000       0.75000000000000000        0.0000000000000000     
   1.2500000000000000       0.78125000000000000        0.0000000000000000     
   1.2812500000000000       0.78125000000000000        0.0000000000000000     
   1.3125000000000000       0.78125000000000000        0.0000000000000000     
   1.3437500000000000       0.78125000000000000        0.0000000000000000     
   1.3750000000000000       0.78125000000000000        0.0000000000000000     
   1.2500000000000000       0.81250000000000000        0.0000000000000000     
   1.2812500000000000       0.81250000000000000        0.0000000000000000     
   1.3125000000000000       0.81250000000000000        0.0000000000000000     
   1.3437500000000000       0.81250000000000000        0.0000000000000000     
   1.3750000000000000       0.81250000000000000        0.0000000000000000     
   1.2500000000000000       0.84375000000000000        0.0000000000000000     
   1.2812500000000000       0.84375000000000000        0.0000000000000000     
   1.3125000000000000       0.84375000000000000        0.0000000000000000     
   1.3437500000000000       0.84375000000000000        0.0000000000000000     
   1.3750000000000000       0.84375000000000000        0.0000000000000000     
   1.2500000000000000       0.87500000000000000        0.0000000000000000     
   1.2812500000000000       0.87500000000000000        0.0000000000000000     
   1.3125000000000000       0.87500000000000000        0.0000000000000000     
   1.3437500000000000       0.87500000000000000        0.0000000000000000     
   1.3750000000000000       0.87500000000000000        0.0000000000000000     
   1.3750000000000000       0.75000000000000000        0.0000000000000000     
   1.4062500000000000       0.75000000000000000        0.0000000000000000     
   1.4375000000000000       0.75000000000000000        0.0000000000000000     
   1.4687500000000000       0.75000000000000000        0.0000000000000000     
   1.5000000000000000       0.75000000000000000        0.0000000000000000     
   1.3750000000000000       0.78125000000000000        0.0000000000000000     
   1.4062500000000000       0.78125000000000000        0.0000000000000000     
   1.4375000000000000       0.78125000000000000        0.0000000000000000     
   1.4687500000000000       0.78125000000000000        0.0000000000000000     
   1.5000000000000000       0.78125000000000000        0.0000000000000000     
   1.3750000000000000       0.81250000000000000        0.0000000000000000     
   1.4062500000000000       0.81250000000000000        0.0000000000000000     
   1.4375000000000000       0.81250000000000000        0.0000000000000000     
   1.4687500000000000       0.81250000000000000        0.0000000000000000     
   1.5000000000000000       0.81250000000000000        0.0000000000000000     
   1.3750000000000000       0.84375000000000000        0.0000000000000000     
   1.4062500000000000       0.84375000000000000        0.0000000000000000     
   1.4375000000000000       0.84375000000000000        0.0000000000000000     
   1.4687500000000000       0.84375000000000000        0.0000000000000000     
   1.5000000000000000       0.84375000000000000        0.0000000000000000     
   1.3750000000000000       0.87500000000000000        0.0000000000000000     
   1.4062500000000000       0.87500000000000000        0.0000000000000000     
   1.4375000000000000       0.87500000000000000        0.0000000000000000     
   1.4687500000000000       0.87500000000000000        0.0000000000000000     
   1.5000000000000000       0.87500000000000000        0.0000000000000000     
  0.50000000000000000       0.87500000000000000        0.0000000000000000     
  0.53125000000000000       0.87500000000000000        0.0000000000000000     
  0.56250000000000000       0.87500000000000000        0.0000000000000000     
  0.59375000000000000       0.87500000000000000        0.0000000000000000     
  0.62500000000000000       0.87500000000000000        0.0000000000000000     
  0.50000000000000000       0.90625000000000000        0.0000000000000000     
  0.53125000000000000       0.90625000000000000        0.0000000000000000     
  0.56250000000000000       0.90625000000000000        0.0000000000000000     
  0.59375000000000000       0.90625000000000000        0.0000000000000000     
  0.62500000000000000       0.90625000000000000        0.0000000000000000     
  0.50000000000000000       0.93750000000000000        0.0000000000000000     
  0.53125000000000000       0.93750000000000000        0.0000000000000000     
  0.56250000000000000       0.93750000000000000        0.0000000000000000     
  0.59375000000000000       0.93750000000000000        0.0000000000000000     
  0.62500000000000000       0.93750000000000000        0.0000000000000000     
  0.50000000000000000       0.96875000000000000        0.0000000000000000     
  0.53125000000000000       0.96875000000000000        0.0000000000000000     
  0.56250000000000000       0.96875000000000000        0.0000000000000000     
  0.59375000000000000       0.96875000000000000        0.0000000000000000     
  0.62500000000000000       0.96875000000000000        0.0000000000000000     
  0.50000000000000000        1.0000000000000000        0.0000000000000000     
  0.53125000000000000        1.0000000000000000        0.0000000000000000     
  0.56250000000000000        1.0000000000000000        0.0000000000000000     
  0.59375000000000000        1.0000000000000000        0.0000000000000000     
  0.62500000000000000        1.0000000000000000        0.0000000000000000     
  0.62500000000000000       0.87500000000000000        0.0000000000000000     
  0.65625000000000000       0.87500000000000000        0.0000000000000000     
  0.68750000000000000       0.87500000000000000        0.0000000000000000     
  0.71875000000000000       0.87500000000000000        0.0000000000000000     
  0.75000000000000000       0.87500000000000000        0.0000000000000000     
  0.62500000000000000       0.90625000000000000        0.0000000000000000     
  0.65625000000000000       0.90625000000000000        0.0000000000000000     
  0.68750000000000000       0.90625000000000000        0.0000000000000000     
  0.71875000000000000       0.90625000000000000        0.0000000000000000     
  0.75000000000000000       0.90625000000000000        0.0000000000000000     
  0.62500000000000000       0.93750000000000000        0.0000000000000000     
  0.65625000000000000       0.93750000000000000        0.0000000000000000     
  0.68750000000000000       0.93750000000000000        0.0000000000000000     
  0.71875000000000000       0.93750000000000000        0.0000000000000000     
  0.75000000000000000       0.93750000000000000        0.0000000000000000     
  0.62500000000000000       0.96875000000000000        0.0000000000000000     
  0.65625000000000000       0.96875000000000000        0.0000000000000000     
  0.68750000000000000       0.96875000000000000        0.0000000000000000     
  0.71875000000000000       0.96875000000000000        0.0000000000000000     
  0.75000000000000000       0.96875000000000000        0.0000000000000000     
  0.62500000000000000        1.0000000000000000        0.0000000000000000     
  0.65625000000000000        1.0000000000000000        0.0000000000000000     
  0.68750000000000000        1.0000000000000000        0.0000000000000000     
  0.71875000000000000        1.0000000000000000        0.0000000000000000     
  0.75000000000000000        1.0000000000000000        0.0000000000000000     
  0.75000000000000000       0.87500000000000000        0.0000000000000000     
  0.78125000000000000       0.87500000000000000        0.0000000000000000     
  0.81250000000000000       0.87500000000000000        0.0000000000000000     
  0.84375000000000000       0.87500000000000000        0.0000000000000000     
  0.87500000000000000       0.87500000000000000        0.0000000000000000     
  0.75000000000000000       0.90625000000000000        0.0000000000000000     
  0.78125000000000000       0.90625000000000000        0.0000000000000000     
  0.81250000000000000       0.90625000000000000        0.0000000000000000     
  0.84375000000000000       0.90625000000000000        0.0000000000000000     
  0.87500000000000000       0.90625000000000000        0.0000000000000000     
  0.75000000000000000       0.93750000000000000        0.0000000000000000     
  0.78125000000000000       0.93750000000000000        0.0000000000000000     
  0.81250000000000000       0.93750000000000000        0.0000000000000000     
  0.84375000000000000       0.93750000000000000        0.0000000000000000     
  0.87500000000000000       0.93750000000000000        0.0000000000000000     
  0.75000000000000000       0.96875000000000000        0.0000000000000000     
  0.78125000000000000       0.96875000000000000        0.0000000000000000     
  0.81250000000000000       0.96875000000000000        0.0000000000000000     
  0.84375000000000000       0.96875000000000000        0.0000000000000000     
  0.87500000000000000       0.96875000000000000        0.0000000000000000     
  0.75000000000000000        1.0000000000000000        0.0000000000000000     
  0.78125000000000000        1.0000000000000000        0.0000000000000000     
  0.81250000000000000        1.0000000000000000        0.0000000000000000     
  0.84375000000000000        1.0000000000000000        0.0000000000000000     
  0.87500000000000000        1.0000000000000000        0.0000000000000000     
  0.87500000000000000       0.87500000000000000        0.0000000000000000     
  0.90625000000000000       0.87500000000000000        0.0000000000000000     
  0.93750000000000000       0.87500000000000000        0.0000000000000000     
  0.96875000000000000       0.87500000000000000        0.0000000000000000     
   1.0000000000000000       0.87500000000000000        0.0000000000000000     
  0.87500000000000000       0.90625000000000000        0.0000000000000000     
  0.90625000000000000       0.90625000000000000        0.0000000000000000     
  0.93750000000000000       0.90625000000000000        0.0000000000000000     
  0.96875000000000000       0.90625000000000000        0.0000000000000000     
   1.0000000000000000       0.90625000000000000        0.0000000000000000     
  0.87500000000000000       0.93750000000000000        0.0000000000000000     
  0.90625000000000000       0.93750000000000000        0.0000000000000000     
  0.93750000000000000       0.93750000000000000        0.0000000000000000     
  0.96875000000000000       0.93750000000000000        0.0000000000000000     
   1.0000000000000000       0.93750000000000000        0.0000000000000000     
  0.87500000000000000       0.96875000000000000        0.0000000000000000     
  0.90625000000000000       0.96875000000000000        0.0000000000000000     
  0.93750000000000000       0.96875000000000000        0.0000000000000000     
  0.96875000000000000       0.96875000000000000        0.0000000000000000     
   1.0000000000000000       0.96875000000000000        0.0000000000000000     
  0.87500000000000000        1.0000000000000000        0.0000000000000000     
  0.90625000000000000        1.0000000000000000        0.0000000000000000     
  0.93750000000000000        1.0000000000000000        0.0000000000000000     
  0.96875000000000000        1.0000000000000000        0.0000000000000000     
   1.0000000000000000        1.0000000000000000        0.0000000000000000     
   1.0000000000000000       0.87500000000000000        0.0000000000000000     
   1.0312500000000000       0.87500000000000000        0.0000000000000000     
   1.0625000000000000       0.87500000000000000        0.0000000000000000     
   1.0937500000000000       0.87500000000000000        0.0000000000000000     
   1.1250000000000000       0.87500000000000000        0.0000000000000000     
   1.0000000000000000       0.90625000000000000        0.0000000000000000     
   1.0312500000000000       0.90625000000000000        0.0000000000000000     
   1.0625000000000000       0.90625000000000000        0.0000000000000000     
   1.0937500000000000       0.90625000000000000        0.0000000000000000     
   1.1250000000000000       0.90625000000000000        0.0000000000000000     
   1.0000000000000000       0.93750000000000000        0.0000000000000000     
   1.0312500000000000       0.93750000000000000        0.0000000000000000     
   1.0625000000000000       0.93750000000000000        0.0000000000000000     
   1.0937500000000000       0.93750000000000000        0.0000000000000000     
   1.1250000000000000       0.93750000000000000        0.0000000000000000     
   1.0000000000000000       0.96875000000000000        0.0000000000000000     
   1.0312500000000000       0.96875000000000000        0.0000000000000000     
   1.0625000000000000       0.96875000000000000        0.0000000000000000     
   1.0937500000000000       0.96875000000000000        0.0000000000000000     
   1.1250000000000000       0.96875000000000000        0.0000000000000000     
   1.0000000000000000        1.0000000000000000        0.0000000000000000     
   1.0312500000000000        1.0000000000000000        0.0000000000000000     
   1.0625000000000000        1.0000000000000000        0.0000000000000000     
   1.0937500000000000        1.0000000000000000        0.0000000000000000     
   1.1250000000000000        1.0000000000000000        0.0000000000000000     
   1.1250000000000000       0.87500000000000000        0.0000000000000000     
   1.1562500000000000       0.87500000000000000        0.0000000000000000     
   1.1875000000000000       0.87500000000000000        0.0000000000000000     
   1.2187500000000000       0.87500000000000000        0.0000000000000000     
   1.2500000000000000       0.87500000000000000        0.0000000000000000     
   1.1250000000000000       0.90625000000000000        0.0000000000000000     
   1.1562500000000000       0.90625000000000000        0.0000000000000000     
   1.1875000000000000       0.90625000000000000        0.0000000000000000     
   1.2187500000000000       0.90625000000000000        0.0000000000000000     
   1.2500000000000000       0.90625000000000000        0.0000000000000000     
   1.1250000000000000       0.93750000000000000        0.0000000000000000     
   1.1562500000000000       0.93750000000000000        0.0000000000000000     
   1.1875000000000000       0.93750000000000000        0.0000000000000000     
   1.2187500000000000       0.93750000000000000        0.0000000000000000     
   1.2500000000000000       0.93750000000000000        0.0000000000000000     
   1.1250000000000000       0.96875000000000000        0.0000000000000000     
   1.1562500000000000       0.96875000000000000        0.0000000000000000     
   1.1875000000000000       0.96875000000000000        0.0000000000000000     
   1.2187500000000000       0.96875000000000000        0.0000000000000000     
   1.2500000000000000       0.96875000000000000        0.0000000000000000     
   1.1250000000000000        1.0000000000000000        0.0000000000000000     
   1.1562500000000000        1.0000000000000000        0.0000000000000000     
   1.1875000000000000        1.0000000000000000        0.0000000000000000     
   1.2187500000000000        1.0000000000000000        0.0000000000000000     
   1.2500000000000000        1.0000000000000000        0.0000000000000000     
   1.2500000000000000       0.87500000000000000        0.0000000000000000     
   1.2812500000000000       0.87500000000000000        0.0000000000000000     
   1.3125000000000000       0.87500000000000000        0.0000000000000000     
   1.3437500000000000       0.87500000000000000        0.0000000000000000     
   1.3750000000000000       0.87500000000000000        0.0000000000000000     
   1.2500000000000000       0.90625000000000000        0.0000000000000000     
   1.2812500000000000       0.90625000000000000        0.0000000000000000     
   1.3125000000000000       0.90625000000000000        0.0000000000000000     
   1.3437500000000000       0.90625000000000000        0.0000000000000000     
   1.3750000000000000       0.90625000000000000        0.0000000000000000     
   1.2500000000000000       0.93750000000000000        0.0000000000000000     
   1.2812500000000000       0.93750000000000000        0.0000000000000000     
   1.3125000000000000       0.93750000000000000        0.0000000000000000     
   1.3437500000000000       0.93750000000000000        0.0000000000000000     
   1.3750000000000000       0.93750000000000000        0.0000000000000000     
   1.2500000000000000       0.96875000000000000        0.0000000000000000     
   1.2812500000000000       0.96875000000000000        0.0000000000000000     
   1.3125000000000000       0.96875000000000000        0.0000000000000000     
   1.3437500000000000       0.96875000000000000        0.0000000000000000     
   1.3750000000000000       0.96875000000000000        0.0000000000000000     
   1.2500000000000000        1.0000000000000000        0.0000000000000000     
   1.2812500000000000        1.0000000000000000        0.0000000000000000     
   1.3125000000000000        1.0000000000000000        0.0000000000000000     
   1.3437500000000000        1.0000000000000000        0.0000000000000000     
   1.3750000000000000        1.0000000000000000        0.0000000000000000     
   1.3750000000000000       0.87500000000000000        0.0000000000000000     
   1.4062500000000000       0.87500000000000000        0.0000000000000000     
   1.4375000000000000       0.87500000000000000        0.0000000000000000     
   1.4687500000000000       0.87500000000000000        0.0000000000000000     
   1.5000000000000000       0.87500000000000000        0.0000000000000000     
   1.3750000000000000       0.90625000000000000        0.0000000000000000     
   1.4062500000000000       0.90625000000000000        0.0000000000000000     
   1.4375000000000000       0.90625000000000000        0.0000000000000000     
   1.4687500000000000       0.90625000000000000        0.0000000000000000     
   1.5000000000000000       0.90625000000000000        0.0000000000000000     
   1.3750000000000000       0.93750000000000000        0.0000000000000000     
   1.4062500000000000       0.93750000000000000        0.0000000000000000     
   1.4375000000000000       0.93750000000000000        0.0000000000000000     
   1.4687500000000000       0.93750000000000000        0.0000000000000000     
   1.5000000000000000       0.93750000000000000        0.0000000000000000     
   1.3750000000000000       0.96875000000000000        0.0000000000000000     
   1.4062500000000000       0.96875000000000000        0.0000000000000000     
   1.4375000000000000       0.96875000000000000        0.0000000000000000     
   1.4687500000000000       0.96875000000000000        0.0000000000000000     
   1.5000000000000000       0.96875000000000000        0.0000000000000000     
   1.3750000000000000        1.0000000000000000        0.0000000000000000     
   1.4062500000000000        1.0000000000000000        0.0000000000000000     
   1.4375000000000000        1.0000000000000000        0.0000000000000000     
   1.4687500000000000        1.0000000000000000        0.0000000000000000     
   1.5000000000000000        1.0000000000000000        0.0000000000000000     
 </DataArray>
 </Points>
 <Cells>
 <DataArray  type="Int32"  Name="connectivity"  format="ascii">
           0           1           6           5
           1           2           7           6
           2           3           8           7
           3           4           9           8
           5           6          11          10
           6           7          12          11
           7           8          13          12
           8           9          14          13
          10          11          16          15
          11          12          17          16
          12          13          18          17
          13          14          19          18
          15          16          21          20
          16          17          22          21
          17          18          23          22
          18          19          24          23
          25          26          31          30
          26          27          32          31
          27          28          33          32
          28          29          34          33
          30          31          36          35
          31          32          37          36
          32          33          38          37
          33          34          39          38
          35          36          41          40
          36          37          42          41
          37          38          43          42
          38          39          44          43
          40          41          46          45
          41          42          47          46
          42          43          48          47
          43          44          49          48
          50          51          56          55
          51          52          57          56
          52          53          58          57
          53          54          59          58
          55          56          61          60
          56          57          62          61
          57          58          63          62
          58          59          64          63
          60          61          66          65
          61          62          67          66
          62          63          68          67
          63          64          69          68
          65          66          71          70
          66          67          72          71
          67          68          73          72
          68          69          74          73
          75          76          81          80
          76          77          82          81
          77          78          83          82
          78          79          84          83
          80          81          86          85
          81          82          87          86
          82          83          88          87
          83          84          89          88
          85          86          91          90
          86          87          92          91
          87          88          93          92
          88          89          94          93
          90          91          96          95
          91          92          97          96
          92          93          98          97
          93          94          99          98
         100         101         106         105
         101         102         107         106
         102         103         108         107
         103         104         109         108
         105         106         111         110
         106         107         112         111
         107         108         113         112
         108         109         114         113
         110         111         116         115
         111         112         117         116
         112         113         118         117
         113         114         119         118
         115         116         121         120
         116         117         122         121
         117         118         123         122
         118         119         124         123
         125         126         131         130
         126         127         132         131
         127         128         133         132
         128         129         134         133
         130         131         136         135
         131         132         137         136
         132         133         138         137
         133         134         139         138
         135         136         141         140
         136         137         142         141
         137         138         143         142
         138         139         144         143
         140         141         146         145
         141         142         147         146
         142         143         148         147
         143         144         149         148
         150         151         156         155
         151         152         157         156
         152         153         158         157
         153         154         159         158
         155         156         161         160
         156         157         162         161
         157         158         163         162
         158         159         164         163
         160         161         166         165
         161         162         167         166
         162         163         168         167
         163         164         169         168
         165         166         171         170
         166         167         172         171
         167         168         173         172
         168         169         174         173
         175         176         181         180
         176         177         182         181
         177         178         183         182
         178         179         184         183
         180         181         186         185
         181         182         187         186
         182         183         188         187
         183         184         189         188
         185         186         191         190
         186         187         192         191
         187         188         193         192
         188         189         194         193
         190         191         196         195
         191         192         197         196
         192         193         198         197
         193         194         199         198
         200         201         206         205
         201         202         207         206
         202         203         208         207
         203         204         209         208
         205         206         211         210
         206         207         212         211
         207         208         213         212
         208         209         214         213
         210         211         216         215
         211         212         217         216
         212         213         218         217
         213         214         219         218
         215         216         221         220
         216         217         222         221
         217         218         223         222
         218         219         224         223
         225         226         231         230
         226         227         232         231
         227         228         233         232
         228         229         234         233
         230         231         236         235
         231         232         237         236
         232         233         238         237
         233         234         239         238
         235         236         241         240
         236         237         242         241
         237         238         243         242
         238         239         244         243
         240         241         246         245
         241         242         247         246
         242         243         248         247
         243         244         249         248
         250         251         256         255
         251         252         257         256
         252         253         258         257
         253         254         259         258
         255         256         261         260
         256         257         262         261
         257         258         263         262
         258         259         264         263
         260         261         266         265
         261         262         267         266
         262         263         268         267
         263         264         269         268
         265         266         271         270
         266         267         272         271
         267         268         273         272
         268         269         274         273
         275         276         281         280
         276         277         282         281
         277         278         283         282
         278         279         284         283
         280         281         286         285
         281         282         287         286
         282         283         288         287
         283         284         289         288
         285         286         291         290
         286         287         292         291
         287         288         293         292
         288         289         294         293
         290         291         296         295
         291         292         297         296
         292         293         298         297
         293         294         299         298
         300         301         306         305
         301         302         307         306
         302         303         308         307
         303         304         309         308
         305         306         311         310
         306         307         312         311
         307         308         313         312
         308         309         314         313
         310         311         316         315
         311         312         317         316
         312         313         318         317
         313         314         319         318
         315         316         321         320
         316         317         322         321
         317         318         323         322
         318         319         324         323
         325         326         331         330
         326         327         332         331
         327         328         333         332
         328         329         334         333
         330         331         336         335
         331         332         337         336
         332         333         338         337
         333         334         339         338
         335         336         341         340
         336         337         342         341
         337         338         343         342
         338         339         344         343
         340         341         346         345
         341         342         347         346
         342         343         348         347
         343         344         349         348
         350         351         356         355
         351         352         357         356
         352         353         358         357
         353         354         359         358
         355         356         361         360
         356         357         362         361
         357         358         363         362
         358         359         364         363
         360         361         366         365
         361         362         367         366
         362         363         368         367
         363         364         369         368
         365         366         371         370
         366         367         372         371
         367         368         373         372
         368         369         374         373
         375         376         381         380
         376         377         382         381
         377         378         383         382
         378         379         384         383
         380         381         386         385
         381         382         387         386
         382         383         388         387
         383         384         389         388
         385         386         391         390
         386         387         392         391
         387         388         393         392
         388         389         394         393
         390         391         396         395
         391         392         397         396
         392         393         398         397
         393         394         399         398
         400         401         406         405
         401         402         407         406
         402         403         408         407
         403         404         409         408
         405         406         411         410
         406         407         412         411
         407         408         413         412
         408         409         414         413
         410         411         416         415
         411         412         417         416
         412         413         418         417
         413         414         419         418
         415         416         421         420
         416         417         422         421
         417         418         423         422
         418         419         424         423
         425         426         431         430
         426         427         432         431
         427         428         433         432
         428         429         434         433
         430         431         436         435
         431         432         437         436
         432         433         438         437
         433         434         439         438
         435         436         441         440
         436         437         442         441
         437         438         443         442
         438         439         444         443
         440         441         446         445
         441         442         447         446
         442         443         448         447
         443         444         449         448
         450         451         456         455
         451         452         457         456
         452         453         458         457
         453         454         459         458
         455         456         461         460
         456         457         462         461
         457         458         463         462
         458         459         464         463
         460         461         466         465
         461         462         467         466
         462         463         468         467
         463         464         469         468
         465         466         471         470
         466         467         472         471
         467         468         473         472
         468         469         474         473
         475         476         481         480
         476         477         482         481
         477         478         483         482
         478         479         484         483
         480         481         486         485
         481         482         487         486
         482         483         488         487
         483         484         489         488
         485         486         491         490
         486         487         492         491
         487         488         493         492
         488         489         494         493
         490         491         496         495
         491         492         497         496
         492         493         498         497
         493         494         499         498
         500         501         506         505
         501         502         507         506
         502         503         508         507
         503         504         509         508
         505         506         511         510
         506         507         512         511
         507         508         513         512
         508         509         514         513
         510         511         516         515
         511         512         517         516
         512         513         518         517
         513         514         519         518
         515         516         521         520
         516         517         522         521
         517         518         523         522
         518         519         524         523
         525         526         531         530
         526         527         532         531
         527         528         533         532
         528         529         534         533
         530         531         536         535
         531         532         537         536
         532         533         538         537
         533         534         539         538
         535         536         541         540
         536         537         542         541
         537         538         543         542
         538         539         544         543
         540         541         546         545
         541         542         547         546
         542         543         548         547
         543         544         549         548
         550         551         556         555
         551         552         557         556
         552         553         558         557
         553         554         559         558
         555         556         561         560
         556         557         562         561
         557         558         563         562
         558         559         564         563
         560         561         566         565
         561         562         567         566
         562         563         568         567
         563         564         569         568
         565         566         571         570
         566         567         572         571
         567         568         573         572
         568         569         574         573
         575         576         581         580
         576         577         582         581
         577         578         583         582
         578         579         584         583
         580         581         586         585
         581         582         587         586
         582         583         588         587
         583         584         589         588
         585         586         591         590
         586         587         592         591
         587         588         593         592
         588         589         594         593
         590         591         596         595
         591         592         597         596
         592         593         598         597
         593         594         599         598
         600         601         606         605
         601         602         607         606
         602         603         608         607
         603         604         609         608
         605         606         611         610
         606         607         612         611
         607         608         613         612
         608         609         614         613
         610         611         616         615
         611         612         617         616
         612         613         618         617
         613         614         619         618
         615         616         621         620
         616         617         622         621
         617         618         623         622
         618         619         624         623
         625         626         631         630
         626         627         632         631
         627         628         633         632
         628         629         634         633
         630         631         636         635
         631         632         637         636
         632         633         638         637
         633         634         639         638
         635         636         641         640
         636         637         642         641
         637         638         643         642
         638         639         644         643
         640         641         646         645
         641         642         647         646
         642         643         648         647
         643         644         649         648
         650         651         656         655
         651         652         657         656
         652         653         658         657
         653         654         659         658
         655         656         661         660
         656         657         662         661
         657         658         663         662
         658         659         664         663
         660         661         666         665
         661         662         667         666
         662         663         668         667
         663         664         669         668
         665         666         671         670
         666         667         672         671
         667         668         673         672
         668         669         674         673
         675         676         681         680
         676         677         682         681
         677         678         683         682
         678         679         684         683
         680         681         686         685
         681         682         687         686
         682         683         688         687
         683         684         689         688
         685         686         691         690
         686         687         692         691
         687         688         693         692
         688         689         694         693
         690         691         696         695
         691         692         697         696
         692         693         698         697
         693         694         699         698
         700         701         706         705
         701         702         707         706
         702         703         708         707
         703         704         709         708
         705         706         711         710
         706         707         712         711
         707         708         713         712
         708         709         714         713
         710         711         716         715
         711         712         717         716
         712         713         718         717
         713         714         719         718
         715         716         721         720
         716         717         722         721
         717         718         723         722
         718         719         724         723
         725         726         731         730
         726         727         732         731
         727         728         733         732
         728         729         734         733
         730         731         736         735
         731         732         737         736
         732         733         738         737
         733         734         739         738
         735         736         741         740
         736         737         742         741
         737         738         743         742
         738         739         744         743
         740         741         746         745
         741         742         747         746
         742         743         748         747
         743         744         749         748
         750         751         756         755
         751         752         757         756
         752         753         758         757
         753         754         759         758
         755         756         761         760
         756         757         762         761
         757         758         763         762
         758         759         764         763
         760         761         766         765
         761         762         767         766
         762         763         768         767
         763         764         769         768
         765         766         771         770
         766         767         772         771
         767         768         773         772
         768         769         774         773
         775         776         781         780
         776         777         782         781
         777         778         783         782
         778         779         784         783
         780         781         786         785
         781         782         787         786
         782         783         788         787
         783         784         789         788
         785         786         791         790
         786         787         792         791
         787         788         793         792
         788         789         794         793
         790         791         796         795
         791         792         797         796
         792         793         798         797
         793         794         799         798
         800         801         806         805
         801         802         807         806
         802         803         808         807
         803         804         809         808
         805         806         811         810
         806         807         812         811
         807         808         813         812
         808         809         814         813
         810         811         816         815
         811         812         817         816
         812         813         818         817
         813         814         819         818
         815         816         821         820
         816         817         822         821
         817         818         823         822
         818         819         824         823
         825         826         831         830
         826         827         832         831
         827         828         833         832
         828         829         834         833
         830         831         836         835
         831         832         837         836
         832         833         838         837
         833         834         839         838
         835         836         841         840
         836         837         842         841
         837         838         843         842
         838         839         844         843
         840         841         846         845
         841         842         847         846
         842         843         848         847
         843         844         849         848
         850         851         856         855
         851         852         857         856
         852         853         858         857
         853         854         859         858
         855         856         861         860
         856         857         862         861
         857         858         863         862
         858         859         864         863
         860         861         866         865
         861         862         867         866
         862         863         868         867
         863         864         869         868
         865         866         871         870
         866         867         872         871
         867         868         873         872
         868         869         874         873
         875         876         881         880
         876         877         882         881
         877         878         883         882
         878         879         884         883
         880         881         886         885
         881         882         887         886
         882         883         888         887
         883         884         889         888
         885         886         891         890
         886         887         892         891
         887         888         893         892
         888         889         894         893
         890         891         896         895
         891         892         897         896
         892         893         898         897
         893         894         899         898
         900         901         906         905
         901         902         907         906
         902         903         908         907
         903         904         909         908
         905         906         911         910
         906         907         912         911
         907         908         913         912
         908         909         914         913
         910         911         916         915
         911         912         917         916
         912         913         918         917
         913         914         919         918
         915         916         921         920
         916         917         922         921
         917         918         923         922
         918         919         924         923
         925         926         931         930
         926         927         932         931
         927         928         933         932
         928         929         934         933
         930         931         936         935
         931         932         937         936
         932         933         938         937
         933         934         939         938
         935         936         941         940
         936         937         942         941
         937         938         943         942
         938         939         944         943
         940         941         946         945
         941         942         947         946
         942         943         948         947
         943         944         949         948
         950         951         956         955
         951         952         957         956
         952         953         958         957
         953         954         959         958
         955         956         961         960
         956         957         962         961
         957         958         963         962
         958         959         964         963
         960         961         966         965
         961         962         967         966
         962         963         968         967
         963         964         969         968
         965         966         971         970
         966         967         972         971
         967         968         973         972
         968         969         974         973
         975         976         981         980
         976         977         982         981
         977         978         983         982
         978         979         984         983
         980         981         986         985
         981         982         987         986
         982         983         988         987
         983         984         989         988
         985         986         991         990
         986         987         992         991
         987         988         993         992
         988         989         994         993
         990         991         996         995
         991         992         997         996
         992         993         998         997
         993         994         999         998
        1000        1001        1006        1005
        1001        1002        1007        1006
        1002        1003        1008        1007
        1003        1004        1009        1008
        1005        1006        1011        1010
        1006        1007        1012        1011
        1007        1008        1013        1012
        1008        1009        1014        1013
        1010        1011        1016        1015
        1011        1012        1017        1016
        1012        1013        1018        1017
        1013        1014        1019        1018
        1015        1016        1021        1020
        1016        1017        1022        1021
        1017        1018        1023        1022
        1018        1019        1024        1023
        1025        1026        1031        1030
        1026        1027        1032        1031
        1027        1028        1033        1032
        1028        1029        1034        1033
        1030        1031        1036        1035
        1031        1032        1037        1036
        1032        1033        1038        1037
        1033        1034        1039        1038
        1035        1036        1041        1040
        1036        1037        1042        1041
        1037        1038        1043        1042
        1038        1039        1044        1043
        1040        1041        1046        1045
        1041        1042        1047        1046
        1042        1043        1048        1047
        1043        1044        1049        1048
        1050        1051        1056        1055
        1051        1052        1057        1056
        1052        1053        1058        1057
        1053        1054        1059        1058
        1055        1056        1061        1060
        1056        1057        1062        1061
        1057        1058        1063        1062
        1058        1059        1064        1063
        1060        1061        1066        1065
        1061        1062        1067        1066
        1062        1063        1068        1067
        1063        1064        1069        1068
        1065        1066        1071        1070
        1066        1067        1072        1071
        1067        1068        1073        1072
        1068        1069        1074        1073
        1075        1076        1081        1080
        1076        1077        1082        1081
        1077        1078        1083        1082
        1078        1079        1084        1083
        1080        1081        1086        1085
        1081        1082        1087        1086
        1082        1083        1088        1087
        1083        1084        1089        1088
        1085        1086        1091        1090
        1086        1087        1092        1091
        1087        1088        1093        1092
        1088        1089        1094        1093
        1090        1091        1096        1095
        1091        1092        1097        1096
        1092        1093        1098        1097
        1093        1094        1099        1098
        1100        1101        1106        1105
        1101        1102        1107        1106
        1102        1103        1108        1107
        1103        1104        1109        1108
        1105        1106        1111        1110
        1106        1107        1112        1111
        1107        1108        1113        1112
        1108        1109        1114        1113
        1110        1111        1116        1115
        1111        1112        1117        1116
        1112        1113        1118        1117
        1113        1114        1119        1118
        1115        1116        1121        1120
        1116        1117        1122        1121
        1117        1118        1123        1122
        1118        1119        1124        1123
        1125        1126        1131        1130
        1126        1127        1132        1131
        1127        1128        1133        1132
        1128        1129        1134        1133
        1130        1131        1136        1135
        1131        1132        1137        1136
        1132        1133        1138        1137
        1133        1134        1139        1138
        1135        1136        1141        1140
        1136        1137        1142        1141
        1137        1138        1143        1142
        1138        1139        1144        1143
        1140        1141        1146        1145
        1141        1142        1147        1146
        1142        1143        1148        1147
        1143        1144        1149        1148
        1150        1151        1156        1155
        1151        1152        1157        1156
        1152        1153        1158        1157
        1153        1154        1159        1158
        1155        1156        1161        1160
        1156        1157        1162        1161
        1157        1158        1163        1162
        1158        1159        1164        1163
        1160        1161        1166        1165
        1161        1162        1167        1166
        1162        1163        1168        1167
        1163        1164        1169        1168
        1165        1166        1171        1170
        1166        1167        1172        1171
        1167        1168        1173        1172
        1168        1169        1174        1173
        1175        1176        1181        1180
        1176        1177        1182        1181
        1177        1178        1183        1182
        1178        1179        1184        1183
        1180        1181        1186        1185
        1181        1182        1187        1186
        1182        1183        1188        1187
        1183        1184        1189        1188
        1185        1186        1191        1190
        1186        1187        1192        1191
        1187        1188        1193        1192
        1188        1189        1194        1193
        1190        1191        1196        1195
        1191        1192        1197        1196
        1192        1193        1198        1197
        1193        1194        1199        1198
        1200        1201        1206        1205
        1201        1202        1207        1206
        1202        1203        1208        1207
        1203        1204        1209        1208
        1205        1206        1211        1210
        1206        1207        1212        1211
        1207        1208        1213        1212
        1208        1209        1214        1213
        1210        1211        1216        1215
        1211        1212        1217        1216
        1212        1213        1218        1217
        1213        1214        1219        1218
        1215        1216        1221        1220
        1216        1217        1222        1221
        1217        1218        1223        1222
        1218        1219        1224        1223
        1225        1226        1231        1230
        1226        1227        1232        1231
        1227        1228        1233        1232
        1228        1229        1234        1233
        1230        1231        1236        1235
        1231        1232        1237        1236
        1232        1233        1238        1237
        1233        1234        1239        1238
        1235        1236        1241        1240
        1236        1237        1242        1241
        1237        1238        1243        1242
        1238        1239        1244        1243
        1240        1241        1246        1245
        1241        1242        1247        1246
        1242        1243        1248        1247
        1243        1244        1249        1248
        1250        1251        1256        1255
        1251        1252        1257        1256
        1252        1253        1258        1257
        1253        1254        1259        1258
        1255        1256        1261        1260
        1256        1257        1262        1261
        1257        1258        1263        1262
        1258        1259        1264        1263
        1260        1261        1266        1265
        1261        1262        1267        1266
        1262        1263        1268        1267
        1263        1264        1269        1268
        1265        1266        1271        1270
        1266        1267        1272        1271
        1267        1268        1273        1272
        1268        1269        1274        1273
        1275        1276        1281        1280
        1276        1277        1282        1281
        1277        1278        1283        1282
        1278        1279        1284        1283
        1280        1281        1286        1285
        1281        1282        1287        1286
        1282        1283        1288        1287
        1283        1284        1289        1288
        1285        1286        1291        1290
        1286        1287        1292        1291
        1287        1288        1293        1292
        1288        1289        1294        1293
        1290        1291        1296        1295
        1291        1292        1297        1296
        1292        1293        1298        1297
        1293        1294        1299        1298
        1300        1301        1306        1305
        1301        1302        1307        1306
        1302        1303        1308        1307
        1303        1304        1309        1308
        1305        1306        1311        1310
        1306        1307        1312        1311
        1307        1308        1313        1312
        1308        1309        1314        1313
        1310        1311        1316        1315
        1311        1312        1317        1316
        1312        1313        1318        1317
        1313        1314        1319        1318
        1315        1316        1321        1320
        1316        1317        1322        1321
        1317        1318        1323        1322
        1318        1319        1324        1323
        1325        1326        1331        1330
        1326        1327        1332        1331
        1327        1328        1333        1332
        1328        1329        1334        1333
        1330        1331        1336        1335
        1331        1332        1337        1336
        1332        1333        1338        1337
        1333        1334        1339        1338
        1335        1336        1341        1340
        1336        1337        1342        1341
        1337        1338        1343        1342
        1338        1339        1344        1343
        1340        1341        1346        1345
        1341        1342        1347        1346
        1342        1343        1348        1347
        1343        1344        1349        1348
        1350        1351        1356        1355
        1351        1352        1357        1356
        1352        1353        1358        1357
        1353        1354        1359        1358
        1355        1356        1361        1360
        1356        1357        1362        1361
        1357        1358        1363        1362
        1358        1359        1364        1363
        1360        1361        1366        1365
        1361        1362        1367        1366
        1362        1363        1368        1367
        1363        1364        1369        1368
        1365        1366        1371        1370
        1366        1367        1372        1371
        1367        1368        1373        1372
        1368        1369        1374        1373
        1375        1376        1381        1380
        1376        1377        1382        1381
        1377        1378        1383        1382
        1378        1379        1384        1383
        1380        1381        1386        1385
        1381        1382        1387        1386
        1382        1383        1388        1387
        1383        1384        1389        1388
        1385        1386        1391        1390
        1386        1387        1392        1391
        1387        1388        1393        1392
        1388        1389        1394        1393
        1390        1391        1396        1395
        1391        1392        1397        1396
        1392        1393        1398        1397
        1393        1394        1399        1398
        1400        1401        1406        1405
        1401        1402        1407        1406
        1402        1403        1408        1407
        1403        1404        1409        1408
        1405        1406        1411        1410
        1406        1407        1412        1411
        1407        1408        1413        1412
        1408        1409        1414        1413
        1410        1411        1416        1415
        1411        1412        1417        1416
        1412        1413        1418        1417
        1413        1414        1419        1418
        1415        1416        1421        1420
        1416        1417        1422        1421
        1417        1418        1423        1422
        1418        1419        1424        1423
        1425        1426        1431        1430
        1426        1427        1432        1431
        1427        1428        1433        1432
        1428        1429        1434        1433
        1430        1431        1436        1435
        1431        1432        1437        1436
        1432        1433        1438        1437
        1433        1434        1439        1438
        1435        1436        1441        1440
        1436        1437        1442        1441
        1437        1438        1443        1442
        1438        1439        1444        1443
        1440        1441        1446        1445
        1441        1442        1447        1446
        1442        1443        1448        1447
        1443        1444        1449        1448
        1450        1451        1456        1455
        1451        1452        1457        1456
        1452        1453        1458        1457
        1453        1454        1459        1458
        1455        1456        1461        1460
        1456        1457        1462        1461
        1457        1458        1463        1462
        1458        1459        1464        1463
        1460        1461        1466        1465
        1461        1462        1467        1466
        1462        1463        1468        1467
        1463        1464        1469        1468
        1465        1466        1471        1470
        1466        1467        1472        1471
        1467        1468        1473        1472
        1468        1469        1474        1473
        1475        1476        1481        1480
        1476        1477        1482        1481
        1477        1478        1483        1482
        1478        1479        1484        1483
        1480        1481        1486        1485
        1481        1482        1487        1486
        1482        1483        1488        1487
        1483        1484        1489        1488
        1485        1486        1491        1490
        1486        1487        1492        1491
        1487        1488        1493        1492
        1488        1489        1494        1493
        1490        1491        1496        1495
        1491        1492        1497        1496
        1492        1493        1498        1497
        1493        1494        1499        1498
        1500        1501        1506        1505
        1501        1502        1507        1506
        1502        1503        1508        1507
        1503        1504        1509        1508
        1505        1506        1511        1510
        1506        1507        1512        1511
        1507        1508        1513        1512
        1508        1509        1514        1513
        1510        1511        1516        1515
        1511        1512        1517        1516
        1512        1513        1518        1517
        1513        1514        1519        1518
        1515        1516        1521        1520
        1516        1517        1522        1521
        1517        1518        1523        1522
        1518        1519        1524        1523
        1525        1526        1531        1530
        1526        1527        1532        1531
        1527        1528        1533        1532
        1528        1529        1534        1533
        1530        1531        1536        1535
        1531        1532        1537        1536
        1532        1533        1538        1537
        1533        1534        1539        1538
        1535        1536        1541        1540
        1536        1537        1542        1541
        1537        1538        1543        1542
        1538        1539        1544        1543
        1540        1541        1546        1545
        1541        1542        1547        1546
        1542        1543        1548        1547
        1543        1544        1549        1548
        1550        1551        1556        1555
        1551        1552        1557        1556
        1552        1553        1558        1557
        1553        1554        1559        1558
        1555        1556        1561        1560
        1556        1557        1562        1561
        1557        1558        1563        1562
        1558        1559        1564        1563
        1560        1561        1566        1565
        1561        1562        1567        1566
        1562        1563        1568        1567
        1563        1564        1569        1568
        1565        1566        1571        1570
        1566        1567        1572        1571
        1567        1568        1573        1572
        1568        1569        1574        1573
        1575        1576        1581        1580
        1576        1577        1582        1581
        1577        1578        1583        1582
        1578        1579        1584        1583
        1580        1581        1586        1585
        1581        1582        1587        1586
        1582        1583        1588        1587
        1583        1584        1589        1588
        1585        1586        1591        1590
        1586        1587        1592        1591
        1587        1588        1593        1592
        1588        1589        1594        1593
        1590        1591        1596        1595
        1591        1592        1597        1596
        1592        1593        1598        1597
        1593        1594        1599        1598
 </DataArray>
 <DataArray  type="Int32"  Name="offsets"  format="ascii"> 
           4
           8
          12
          16
          20
          24
          28
          32
          36
          40
          44
          48
          52
          56
          60
          64
          68
          72
          76
          80
          84
          88
          92
          96
         100
         104
         108
         112
         116
         120
         124
         128
         132
         136
         140
         144
         148
         152
         156
         160
         164
         168
         172
         176
         180
         184
         188
         192
         196
         200
         204
         208
         212
         216
         220
         224
         228
         232
         236
         240
         244
         248
         252
         256
         260
         264
         268
         272
         276
         280
         284
         288
         292
         296
         300
         304
         308
         312
         316
         320
         324
         328
         332
         336
         340
         344
         348
         352
         356
         360
         364
         368
         372
         376
         380
         384
         388
         392
         396
         400
         404
         408
         412
         416
         420
         424
         428
         432
         436
         440
         444
         448
         452
         456
         460
         464
         468
         472
         476
         480
         484
         488
         492
         496
         500
         504
         508
         512
         516
         520
         524
         528
         532
         536
         540
         544
         548
         552
         556
         560
         564
         568
         572
         576
         580
         584
         588
         592
         596
         600
         604
         608
         612
         616
         620
         624
         628
         632
         636
         640
         644
         648
         652
         656
         660
         664
         668
         672
         676
         680
         684
         688
         692
         696
         700
         704
         708
         712
         716
         720
         724
         728
         732
         736
         740
         744
         748
         752
         756
         760
         764
         768
         772
         776
         780
         784
         788
         792
         796
         800
         804
         808
         812
         816
         820
         824
         828
         832
         836
         840
         844
         848
         852
         856
         860
         864
         868
         872
         876
         880
         884
         888
         892
         896
         900
         904
         908
         912
         916
         920
         924
         928
         932
         936
         940
         944
         948
         952
         956
         960
         964
         968
         972
         976
         980
         984
         988
         992
         996
        1000
        1004
        1008
        1012
        1016
        1020
        1024
        1028
        1032
        1036
        1040
        1044
        1048
        1052
        1056
        1060
        1064
        1068
        1072
        1076
        1080
        1084
        1088
        1092
        1096
        1100
        1104
        1108
        1112
        1116
        1120
        1124
        1128
        1132
        1136
        1140
        1144
        1148
        1152
        1156
        1160
        1164
        1168
        1172
        1176
        1180
        1184
        1188
        1192
        1196
        1200
        1204
        1208
        1212
        1216
        1220
        1224
        1228
        1232
        1236
        1240
        1244
        1248
        1252
        1256
        1260
        1264
        1268
        1272
        1276
        1280
        1284
        1288
        1292
        1296
        1300
        1304
        1308
        1312
        1316
        1320
        1324
        1328
        1332
        1336
        1340
        1344
        1348
        1352
        1356
        1360
        1364
        1368
        1372
        1376
        1380
        1384
        1388
        1392
        1396
        1400
        1404
        1408
        1412
        1416
        1420
        1424
        1428
        1432
        1436
        1440
        1444
        1448
        1452
        1456
        1460
        1464
        1468
        1472
        1476
        1480
        1484
        1488
        1492
        1496
        1500
        1504
        1508
        1512
        1516
        1520
        1524
        1528
        1532
        1536
        1540
        1544
        1548
        1552
        1556
        1560
        1564
        1568
        1572
        1576
        1580
        1584
        1588
        1592
        1596
        1600
        1604
        1608
        1612
        1616
        1620
        1624
        1628
        1632
        1636
        1640
        1644
        1648
        1652
        1656
        1660
        1664
        1668
        1672
        1676
        1680
        1684
        1688
        1692
        1696
        1700
        1704
        1708
        1712
        1716
        1720
        1724
        1728
        1732
        1736
        1740
        1744
        1748
        1752
        1756
        1760
        1764
        1768
        1772
        1776
        1780
        1784
        1788
        1792
        1796
        1800
        1804
        1808
        1812
        1816
        1820
        1824
        1828
        1832
        1836
        1840
        1844
        1848
        1852
        1856
        1860
        1864
        1868
        1872
        1876
        1880
        1884
        1888
        1892
        1896
        1900
        1904
        1908
        1912
        1916
        1920
        1924
        1928
        1932
        1936
        1940
        1944
        1948
        1952
        1956
        1960
        1964
        1968
        1972
        1976
        1980
        1984
        1988
        1992
        1996
        2000
        2004
        2008
        2012
        2016
        2020
        2024
        2028
        2032
        2036
        2040
        2044
        2048
        2052
        2056
        2060
        2064
        2068
        2072
        2076
        2080
        2084
        2088
        2092
        2096
        2100
        2104
        2108
        2112
        2116
        2120
        2124
        2128
        2132
        2136
        2140
        2144
        2148
        2152
        2156
        2160
        2164
        2168
        2172
        2176
        2180
        2184
        2188
        2192
        2196
        2200
        2204
        2208
        2212
        2216
        2220
        2224
        2228
        2232
        2236
        2240
        2244
        2248
        2252
        2256
        2260
        2264
        2268
        2272
        2276
        2280
        2284
        2288
        2292
        2296
        2300
        2304
        2308
        2312
        2316
        2320
        2324
        2328
        2332
        2336
        2340
        2344
        2348
        2352
        2356
        2360
        2364
        2368
        2372
        2376
        2380
        2384
        2388
        2392
        2396
        2400
        2404
        2408
        2412
        2416
        2420
        2424
        2428
        2432
        2436
        2440
        2444
        2448
        2452
        2456
        2460
        2464
        2468
        2472
        2476
        2480
        2484
        2488
        2492
        2496
        2500
        2504
        2508
        2512
        2516
        2520
        2524
        2528
        2532
        2536
        2540
        2544
        2548
        2552
        2556
        2560
        2564
        2568
        2572
        2576
        2580
        2584
        2588
        2592
        2596
        2600
        2604
        2608
        2612
        2616
        2620
        2624
        2628
        2632
        2636
        2640
        2644
        2648
        2652
        2656
        2660
        2664
        2668
        2672
        2676
        2680
        2684
        2688
        2692
        2696
        2700
        2704
        2708
        2712
        2716
        2720
        2724
        2728
        2732
        2736
        2740
        2744
        2748
        2752
        2756
        2760
        2764
        2768
        2772
        2776
        2780
        2784
        2788
        2792
        2796
        2800
        2804
        2808
        2812
        2816
        2820
        2824
        2828
        2832
        2836
        2840
        2844
        2848
        2852
        2856
        2860
        2864
        2868
        2872
        2876
        2880
        2884
        2888
        2892
        2896
        2900
        2904
        2908
        2912
        2916
        2920
        2924
        2928
        2932
        2936
        2940
        2944
        2948
        2952
        2956
        2960
        2964
        2968
        2972
        2976
        2980
        2984
        2988
        2992
        2996
        3000
        3004
        3008
        3012
        3016
        3020
        3024
        3028
        3032
        3036
        3040
        3044
        3048
        3052
        3056
        3060
        3064
        3068
        3072
        3076
        3080
        3084
        3088
        3092
        3096
        3100
        3104
        3108
        3112
        3116
        3120
        3124
        3128
        3132
        3136
        3140
        3144
        3148
        3152
        3156
        3160
        3164
        3168
        3172
        3176
        3180
        3184
        3188
        3192
        3196
        3200
        3204
        3208
        3212
        3216
        3220
        3224
        3228
        3232
        3236
        3240
        3244
        3248
        3252
        3256
        3260
        3264
        3268
        3272
        3276
        3280
        3284
        3288
        3292
        3296
        3300
        3304
        3308
        3312
        3316
        3320
        3324
        3328
        3332
        3336
        3340
        3344
        3348
        3352
        3356
        3360
        3364
        3368
        3372
        3376
        3380
        3384
        3388
        3392
        3396
        3400
        3404
        3408
        3412
        3416
        3420
        3424
        3428
        3432
        3436
        3440
        3444
        3448
        3452
        3456
        3460
        3464
        3468
        3472
        3476
        3480
        3484
        3488
        3492
        3496
        3500
        3504
        3508
        3512
        3516
        3520
        3524
        3528
        3532
        3536
        3540
        3544
        3548
        3552
        3556
        3560
        3564
        3568
        3572
        3576
        3580
        3584
        3588
        3592
        3596
        3600
        3604
        3608
        3612
        3616
        3620
        3624
        3628
        3632
        3636
        3640
        3644
        3648
        3652
        3656
        3660
        3664
        3668
        3672
        3676
        3680
        3684
        3688
        3692
        3696
        3700
        3704
        3708
        3712
        3716
        3720
        3724
        3728
        3732
        3736
        3740
        3744
        3748
        3752
        3756
        3760
        3764
        3768
        3772
        3776
        3780
        3784
        3788
        3792
        3796
        3800
        3804
        3808
        3812
        3816
        3820
        3824
        3828
        3832
        3836
        3840
        3844
        3848
        3852
        3856
        3860
        3864
        3868
        3872
        3876
        3880
        3884
        3888
        3892
        3896
        3900
        3904
        3908
        3912
        3916
        3920
        3924
        3928
        3932
        3936
        3940
        3944
        3948
        3952
        3956
        3960
        3964
        3968
        3972
        3976
        3980
        3984
        3988
        3992
        3996
        4000
        4004
        4008
        4012
        4016
        4020
        4024
        4028
        4032
        4036
        4040
        4044
        4048
        4052
        4056
        4060
        4064
        4068
        4072
        4076
        4080
        4084
        4088
        4092
        4096
 </DataArray>
 <DataArray  type="UInt8"  Name="types"  format="ascii">
 9
 9
 9
 9
 9
 9
 9
 9
 9
 9
 9
 9
 9
 9
 9
 9
 9
 9
 9
 9
 9
 9
 9
 9
 9
 9
 9
 9
 9
 9
 9
 9
 9
 9
 9
 9
 9
 9
 9
 9
 9
 9
 9
 9
 9
 9
 9
 9
 9
 9
 9
 9
 9
 9
 9
 9
 9
 9
 9
 9
 9
 9
 9
 9
 9
 9
 9
 9
 9
 9
 9
 9
 9
 9
 9
 9
 9
 9
 9
 9
 9
 9
 9
 9
 9
 9
 9
 9
 9
 9
 9
 9
 9
 9
 9
 9
 9
 9
 9
 9
 9
 9
 9
 9
 9
 9
 9
 9
 9
 9
 9
 9
 9
 9
 9
 9
 9
 9
 9
 9
 9
 9
 9
 9
 9
 9
 9
 9
 9
 9
 9
 9
 9
 9
 9
 9
 9
 9
 9
 9
 9
 9
 9
 9
 9
 9
 9
 9
 9
 9
 9
 9
 9
 9
 9
 9
 9
 9
 9
 9
 9
 9
 9
 9
 9
 9
 9
 9
 9
 9
 9
 9
 9
 9
 9
 9
 9
 9
 9
 9
 9
 9
 9
 9
 9
 9
 9
 9
 9
 9
 9
 9
 9
 9
 9
 9
 9
 9
 9
 9
 9
 9
 9
 9
 9
 9
 9
 9
 9
 9
 9
 9
 9
 9
 9
 9
 9
 9
 9
 9
 9
 9
 9
 9
 9
 9
 9
 9
 9
 9
 9
 9
 9
 9
 9
 9
 9
 9
 9
 9
 9
 9
 9
 9
 9
 9
 9
 9
 9
 9
 9
 9
 9
 9
 9
 9
 9
 9
 9
 9
 9
 9
 9
 9
 9
 9
 9
 9
 9
 9
 9
 9
 9
 9
 9
 9
 9
 9
 9
 9
 9
 9
 9
 9
 9
 9
 9
 9
 9
 9
 9
 9
 9
 9
 9
 9
 9
 9
 9
 9
 9
 9
 9
 9
 9
 9
 9
 9
 9
 9
 9
 9
 9
 9
 9
 9
 9
 9
 9
 9
 9
 9
 9
 9
 9
 9
 9
 9
 9
 9
 9
 9
 9
 9
 9
 9
 9
 9
 9
 9
 9
 9
 9
 9
 9
 9
 9
 9
 9
 9
 9
 9
 9
 9
 9
 9
 9
 9
 9
 9
 9
 9
 9
 9
 9
 9
 9
 9
 9
 9
 9
 9
 9
 9
 9
 9
 9
 9
 9
 9
 9
 9
 9
 9
 9
 9
 9
 9
 9
 9
 9
 9
 9
 9
 9
 9
 9
 9
 9
 9
 9
 9
 9
 9
 9
 9
 9
 9
 9
 9
 9
 9
 9
 9
 9
 9
 9
 9
 9
 9
 9
 9
 9
 9
 9
 9
 9
 9
 9
 9
 9
 9
 9
 9
 9
 9
 9
 9
 9
 9
 9
 9
 9
 9
 9
 9
 9
 9
 9
 9
 9
 9
 9
 9
 9
 9
 9
 9
 9
 9
 9
 9
 9
 9
 9
 9
 9
 9
 9
 9
 9
 9
 9
 9
 9
 9
 9
 9
 9
 9
 9
 9
 9
 9
 9
 9
 9
 9
 9
 9
 9
 9
 9
 9
 9
 9
 9
 9
 9
 9
 9
 9
 9
 9
 9
 9
 9
 9
 9
 9
 9
 9
 9
 9
 9
 9
 9
 9
 9
 9
 9
 9
 9
 9
 9
 9
 9
 9
 9
 9
 9
 9
 9
 9
 9
 9
 9
 9
 9
 9
 9
 9
 9
 9
 9
 9
 9
 9
 9
 9
 9
 9
 9
 9
 9
 9
 9
 9
 9
 9
 9
 9
 9
 9
 9
 9
 9
 9
 9
 9
 9
 9
 9
 9
 9
 9
 9
 9
 9
 9
 9
 9
 9
 9
 9
 9
 9
 9
 9
 9
 9
 9
 9
 9
 9
 9
 9
 9
 9
 9
 9
 9
 9
 9
 9
 9
 9
 9
 9
 9
 9
 9
 9
 9
 9
 9
 9
 9
 9
 9
 9
 9
 9
 9
 9
 9
 9
 9
 9
 9
 9
 9
 9
 9
 9
 9
 9
 9
 9
 9
 9
 9
 9
 9
 9
 9
 9
 9
 9
 9
 9
 9
 9
 9
 9
 9
 9
 9
 9
 9
 9
 9
 9
 9
 9
 9
 9
 9
 9
 9
 9
 9
 9
 9
 9
 9
 9
 9
 9
 9
 9
 9
 9
 9
 9
 9
 9
 9
 9
 9
 9
 9
 9
 9
 9
 9
 9
 9
 9
 9
 9
 9
 9
 9
 9
 9
 9
 9
 9
 9
 9
 9
 9
 9
 9
 9
 9
 9
 9
 9
 9
 9
 9
 9
 9
 9
 9
 9
 9
 9
 9
 9
 9
 9
 9
 9
 9
 9
 9
 9
 9
 9
 9
 9
 9
 9
 9
 9
 9
 9
 9
 9
 9
 9
 9
 9
 9
 9
 9
 9
 9
 9
 9
 9
 9
 9
 9
 9
 9
 9
 9
 9
 9
 9
 9
 9
 9
 9
 9
 9
 9
 9
 9
 9
 9
 9
 9
 9
 9
 9
 9
 9
 9
 9
 9
 9
 9
 9
 9
 9
 9
 9
 9
 9
 9
 9
 9
 9
 9
 9
 9
 9
 9
 9
 9
 9
 9
 9
 9
 9
 9
 9
 9
 9
 9
 9
 9
 9
 9
 9
 9
 9
 9
 9
 9
 9
 9
 9
 9
 9
 9
 9
 9
 9
 9
 9
 9
 9
 9
 9
 9
 9
 9
 9
 9
 9
 9
 9
 9
 9
 9
 9
 9
 9
 9
 9
 9
 9
 9
 9
 9
 9
 9
 9
 9
 9
 9
 9
 9
 9
 9
 9
 9
 9
 9
 9
 9
 9
 9
 9
 9
 9
 9
 9
 9
 9
 9
 9
 9
 9
 9
 9
 9
 9
 9
 9
 9
 9
 9
 9
 9
 9
 9
 9
 9
 9
 9
 9
 9
 9
 9
 9
 9
 9
 9
 9
 9
 9
 9
 9
 9
 9
 9
 9
 9
 9
 9
 9
 9
 9
 9
 9
 9
 9
 9
 9
 9
 9
 9
 9
 9
 9
 9
 9
 9
 9
 9
 9
 9
 9
 9
 9
 9
 9
 9
 9
 9
 9
 9
 9
 9
 9
 9
 9
 9
 9
 9
 9
 9
 9
 9
 9
 9
 9
 9
 9
 9
 9
 9
 9
 9
 9
 9
 9
 9
 9
 9
 9
 9
 9
 9
 9
 9
 9
 9
 9
 9
 9
 9
 9
 9
 9
 9
 9
 9
 9
 9
 9
 9
 9
 9
 9
 9
 9
 </DataArray>
 </Cells> 
 <PointData>
 <DataArray  type="Float64" Name="disp" NumberOfComponents="3" format="ascii">
   6.5409587167068919E-002   6.2787400816834968E-002   0.0000000000000000     
   6.8472288186223862E-002   6.8180415925555599E-002   0.0000000000000000     
   7.1427121790295575E-002   7.3749842249405548E-002   0.0000000000000000     
   7.4274087979284101E-002   7.9495679788384815E-002   0.0000000000000000     
   7.7013186753189383E-002   8.5417928542493388E-002   0.0000000000000000     
   6.0067128586326624E-002   6.1886266772127205E-002   0.0000000000000000     
   6.2997318791501583E-002   6.7303337602191066E-002   0.0000000000000000     
   6.5810285152074238E-002   7.2898545981737672E-002   0.0000000000000000     
   6.8506027668044547E-002   7.8671891910767039E-002   0.0000000000000000     
   7.1084546339412538E-002   8.4623375389279165E-002   0.0000000000000000     
   5.5008882036694559E-002   6.1040771441702446E-002   0.0000000000000000     
   5.7780034478226820E-002   6.6481639703493411E-002   0.0000000000000000     
   6.0431358500020717E-002   7.2101838269512636E-002   0.0000000000000000     
   6.2962854102076235E-002   7.7901367139760133E-002   0.0000000000000000     
   6.5374521284393361E-002   8.3880226314235931E-002   0.0000000000000000     
   5.0234847518172747E-002   6.0250914825560720E-002   0.0000000000000000     
   5.2820435246399573E-002   6.5715322229462608E-002   0.0000000000000000     
   5.5290341834135039E-002   7.1359719112730410E-002   0.0000000000000000     
   5.7644567281379143E-002   7.7184105475364084E-002   0.0000000000000000     
   5.9883111588131886E-002   8.3188481317363658E-002   0.0000000000000000     
   4.5745025030761173E-002   5.9516696923701984E-002   0.0000000000000000     
   4.8118521096019842E-002   6.5004385180098698E-002   0.0000000000000000     
   5.0387235154417204E-002   7.0672188511391010E-002   0.0000000000000000     
   5.2551167205953292E-002   7.6520106917578906E-002   0.0000000000000000     
   5.4610317250628065E-002   8.2548140398662401E-002   0.0000000000000000     
   7.7013186753189383E-002   8.5417928542493388E-002   0.0000000000000000     
   7.9658965253354891E-002   9.1508554732843653E-002   0.0000000000000000     
   8.2225970621124064E-002   9.7759524580547999E-002   0.0000000000000000     
   8.4714202856496904E-002  0.10417083808560638        0.0000000000000000     
   8.7123661959473409E-002  0.11074249524801885        0.0000000000000000     
   7.1084546339412538E-002   8.4623375389279165E-002   0.0000000000000000     
   7.3567921129017971E-002   9.0743623073147914E-002   0.0000000000000000     
   7.5978231999700635E-002   9.7023261618247175E-002   0.0000000000000000     
   7.8315478951460529E-002  0.10346229102457695        0.0000000000000000     
   8.0579661984297640E-002  0.11006071129213722        0.0000000000000000     
   6.5374521284393361E-002   8.3880226314235931E-002   0.0000000000000000     
   6.7692563230789468E-002   9.0028071922291800E-002   0.0000000000000000     
   6.9943183125081909E-002   9.6334560093279550E-002   0.0000000000000000     
   7.2126380967270684E-002  0.10279969082719917        0.0000000000000000     
   7.4242156757355765E-002  0.10942346412405071        0.0000000000000000     
   5.9883111588131886E-002   8.3188481317363658E-002   0.0000000000000000     
   6.2032891558669402E-002   8.9361901280275283E-002   0.0000000000000000     
   6.4120823997267901E-002   9.5693420005645097E-002   0.0000000000000000     
   6.6146908903927368E-002  0.10218303749347311        0.0000000000000000     
   6.8111146278647783E-002  0.10883075374375933        0.0000000000000000     
   5.4610317250628065E-002   8.2548140398662401E-002   0.0000000000000000     
   5.6588906112657759E-002   8.8745111147098404E-002   0.0000000000000000     
   5.8511154616258602E-002   9.5099841355343856E-002   0.0000000000000000     
   6.0377062761430567E-002  0.10161233102339876        0.0000000000000000     
   6.2186630548173687E-002  0.10828258015126310        0.0000000000000000     
   8.7123661959473409E-002  0.11074249524801885        0.0000000000000000     
   8.9440334178958594E-002  0.11746004365560898        0.0000000000000000     
   9.1650205763857504E-002  0.12430903089620032        0.0000000000000000     
   9.3753276714170150E-002  0.13128945696979291        0.0000000000000000     
   9.5749547029896492E-002  0.13840132187638671        0.0000000000000000     
   8.0579661984297640E-002  0.11006071129213722        0.0000000000000000     
   8.2756682612710006E-002  0.11680492923973541        0.0000000000000000     
   8.4832442351195581E-002  0.12368135168617900        0.0000000000000000     
   8.6806941199754406E-002  0.13068997863146792        0.0000000000000000     
   8.8680179158386441E-002  0.13783081007560227        0.0000000000000000     
   7.4242156757355765E-002  0.10942346412405071        0.0000000000000000     
   7.6276566637447682E-002  0.11619296989454851        0.0000000000000000     
   7.8215666749656923E-002  0.12309529804940701        0.0000000000000000     
   8.0059457093983488E-002  0.13013044858862616        0.0000000000000000     
   8.1807937670427364E-002  0.13729842151220600        0.0000000000000000     
   6.8111146278647783E-002  0.10883075374375933        0.0000000000000000     
   6.9999986253171678E-002  0.11562416562004825        0.0000000000000000     
   7.1799878959241531E-002  0.12255086998588430        0.0000000000000000     
   7.3510824396857369E-002  0.12961086684126755        0.0000000000000000     
   7.5132822566019192E-002  0.13680415618619796        0.0000000000000000     
   6.2186630548173687E-002  0.10828258015126310        0.0000000000000000     
   6.3926941459881953E-002  0.11509851641623460        0.0000000000000000     
   6.5585078979949418E-002  0.12204806749561091        0.0000000000000000     
   6.7161043108376089E-002  0.12913123338939209        0.0000000000000000     
   6.8654833845161953E-002  0.13634801409757810        0.0000000000000000     
   9.5749547029896492E-002  0.13840132187638671        0.0000000000000000     
   9.7648572285375573E-002  0.14563449659707661        0.0000000000000000     
   9.9459908054946353E-002  0.15297885211295753        0.0000000000000000     
  0.10118355433860889       0.16043438842402952        0.0000000000000000     
  0.10281951113636313       0.16800110553029246        0.0000000000000000     
   8.8680179158386441E-002  0.13783081007560227        0.0000000000000000     
   9.0461669377437451E-002  0.14509267677763771        0.0000000000000000     
   9.2160925007253078E-002  0.15246440949663009        0.0000000000000000     
   9.3777946047833363E-002  0.15994600823257943        0.0000000000000000     
   9.5312732499178265E-002  0.16753747298548566        0.0000000000000000     
   8.1807937670427364E-002  0.13729842151220600        0.0000000000000000     
   8.3470129460263165E-002  0.14458733749643454        0.0000000000000000     
   8.5055053444765535E-002  0.15198531721759975        0.0000000000000000     
   8.6562709623934461E-002  0.15949236067570166        0.0000000000000000     
   8.7993097997769942E-002  0.16710846787074027        0.0000000000000000     
   7.5132822566019192E-002  0.13680415618619796        0.0000000000000000     
   7.6673952533852729E-002  0.14411847875346709        0.0000000000000000     
   7.8142293367483712E-002  0.15154157527586654        0.0000000000000000     
   7.9537845066912180E-002  0.15907344575339624        0.0000000000000000     
   8.0860607632138135E-002  0.16671409018605626        0.0000000000000000     
   6.8654833845161953E-002  0.13634801409757810        0.0000000000000000     
   7.0073138598206103E-002  0.14368610054873540        0.0000000000000000     
   7.1422644775407634E-002  0.15113318367143042        0.0000000000000000     
   7.2703352376766547E-002  0.15868926346566317        0.0000000000000000     
   7.3915261402282828E-002  0.16635433993143367        0.0000000000000000     
  0.10281951113636313       0.16800110553029246        0.0000000000000000     
  0.10436829675840997       0.17566785535628548        0.0000000000000000     
  0.10583042951495029       0.18342348982654758        0.0000000000000000     
  0.10720590940598408       0.19126800894107873        0.0000000000000000     
  0.10849473643151133       0.19920141269987895        0.0000000000000000     
   9.5312732499178265E-002  0.16753747298548566        0.0000000000000000     
   9.6763844636359037E-002  0.17522882835841314        0.0000000000000000     
   9.8129842734446804E-002  0.18301009895442602        0.0000000000000000     
   9.9410726793441609E-002  0.19088128477352448        0.0000000000000000     
  0.10060649681334344       0.19884238581570837        0.0000000000000000     
   8.7993097997769942E-002  0.16710846787074027        0.0000000000000000     
   8.9343488987799188E-002  0.17482431394783585        0.0000000000000000     
   9.0611153015549395E-002  0.18263057405210875        0.0000000000000000     
   9.1796090081020562E-002  0.19052724818355898        0.0000000000000000     
   9.2898300184212662E-002  0.19851433634218651        0.0000000000000000     
   8.0860607632138135E-002  0.16671409018605626        0.0000000000000000     
   8.2107229812730442E-002  0.17445431212455373        0.0000000000000000     
   8.3274360358258026E-002  0.18228491511959569        0.0000000000000000     
   8.4361999268720900E-002  0.19020589917118230        0.0000000000000000     
   8.5370146544119049E-002  0.19821726427931338        0.0000000000000000     
   7.3915261402282828E-002  0.16635433993143367        0.0000000000000000     
   7.5055067111152798E-002  0.17411882288856667        0.0000000000000000     
   7.6119464762572739E-002  0.18197312215688688        0.0000000000000000     
   7.7108454356542649E-002  0.18991723773639438        0.0000000000000000     
   7.8022035893062558E-002  0.19795116962708909        0.0000000000000000     
  0.10849473643151133       0.19920141269987895        0.0000000000000000     
  0.10970260814582061       0.20722027900239004        0.0000000000000000     
  0.11083522210320051       0.21532118574805359        0.0000000000000000     
  0.11189257830365100       0.22350413293686977        0.0000000000000000     
  0.11287467674717207       0.23176912056883844        0.0000000000000000     
  0.10060649681334344       0.19884238581570837        0.0000000000000000     
  0.10172320948995939       0.20688727176117894        0.0000000000000000     
  0.10276692151909657       0.21500981229013741        0.0000000000000000     
  0.10373763290075497       0.22321000740258379        0.0000000000000000     
  0.10463534363493460       0.23148785709851805        0.0000000000000000     
   9.2898300184212662E-002  0.19851433634218651        0.0000000000000000     
   9.3923208059172036E-002  0.20658416205453844        0.0000000000000000     
   9.4876238439944929E-002  0.21472904884716187        0.0000000000000000     
   9.5757391326531341E-002  0.22294899672005691        0.0000000000000000     
   9.6566666718931271E-002  0.23124400567322329        0.0000000000000000     
   8.5370146544119049E-002  0.19821726427931338        0.0000000000000000     
   8.6302603853458573E-002  0.20631094988246854        0.0000000000000000     
   8.7163172865745597E-002  0.21447889541912704        0.0000000000000000     
   8.7951853580980108E-002  0.22272110088928898        0.0000000000000000     
   8.8668645999162105E-002  0.23103756629295424        0.0000000000000000     
   7.8022035893062558E-002  0.19795116962708909        0.0000000000000000     
   7.8861396872818998E-002  0.20606763524496918        0.0000000000000000     
   7.9627724796498572E-002  0.21425935200603285        0.0000000000000000     
   8.0321019664101254E-002  0.22252631991028007        0.0000000000000000     
   8.0941281475627097E-002  0.23086853895771084        0.0000000000000000     
  0.11287467674717207       0.23176912056883844        0.0000000000000000     
  0.11380959778217362       0.24013249322678770        0.0000000000000000     
  0.11472542175706553       0.24861059549354556        0.0000000000000000     
  0.11562214867184778       0.25720342736911206        0.0000000000000000     
  0.11649977852652038       0.26591098885348713        0.0000000000000000     
  0.10463534363493460       0.23148785709851805        0.0000000000000000     
  0.10546495219061361       0.23986675678991701        0.0000000000000000     
  0.10623135703677011       0.24837010188875747        0.0000000000000000     
  0.10693455817340418       0.25699789239503934        0.0000000000000000     
  0.10757455560051576       0.26575012830876271        0.0000000000000000     
   9.6566666718931271E-002  0.23124400567322329        0.0000000000000000     
   9.7294766806876376E-002  0.23964054007103947        0.0000000000000000     
   9.7932393780098256E-002  0.24816506427788348        0.0000000000000000     
   9.8479547638596954E-002  0.25681757829375529        0.0000000000000000     
   9.8936228382372440E-002  0.26559808211865510        0.0000000000000000     
   8.8668645999162105E-002  0.23103756629295424        0.0000000000000000     
   8.9299041630961959E-002  0.23945384307015513        0.0000000000000000     
   8.9828531987049959E-002  0.24799548266092369        0.0000000000000000     
   9.0257117067426104E-002  0.25666248506526007        0.0000000000000000     
   9.0584796872090423E-002  0.26545485028316412        0.0000000000000000     
   8.0941281475627097E-002  0.23086853895771084        0.0000000000000000     
   8.1477776662870302E-002  0.23930666578726395        0.0000000000000000     
   8.1919771657625151E-002  0.24786135703787815        0.0000000000000000     
   8.2267266459891616E-002  0.25653261270955352        0.0000000000000000     
   8.2520261069669698E-002  0.26532043280229001        0.0000000000000000     
  0.11649977852652038       0.26591098885348713        0.0000000000000000     
  0.11729870780180374       0.27489798103127555        0.0000000000000000     
  0.11795933297841825       0.28432910498708219        0.0000000000000000     
  0.11848165405636395       0.29420436072090683        0.0000000000000000     
  0.11886567103564080       0.30452374823274975        0.0000000000000000     
  0.10757455560051576       0.26575012830876271        0.0000000000000000     
  0.10813241435901190       0.27475898587058972        0.0000000000000000     
  0.10858919948979970       0.28415664132118251        0.0000000000000000     
  0.10894491099287909       0.29394309466054103        0.0000000000000000     
  0.10919954886825015       0.30411834588866538        0.0000000000000000     
   9.8936228382372440E-002  0.26559808211865510        0.0000000000000000     
   9.9313491273913729E-002  0.27460485549116703        0.0000000000000000     
   9.9622391575709832E-002  0.28393617814987560        0.0000000000000000     
   9.9862929287760749E-002  0.29359205009478095        0.0000000000000000     
  0.10003510441006647       0.30357247132588289        0.0000000000000000     
   9.0584796872090423E-002  0.26545485028316412        0.0000000000000000     
   9.0841938546509168E-002  0.27443558989300754        0.0000000000000000     
   9.1058909236148677E-002  0.28366771547316172        0.0000000000000000     
   9.1235708941008881E-002  0.29315122702362661        0.0000000000000000     
   9.1372337661089792E-002  0.30288612454440239        0.0000000000000000     
   8.2520261069669698E-002  0.26532043280229001        0.0000000000000000     
   8.2717756176798302E-002  0.27425118907611112        0.0000000000000000     
   8.2898752471116222E-002  0.28335125329104044        0.0000000000000000     
   8.3063249952623472E-002  0.29262062544707806        0.0000000000000000     
   8.3211248621320080E-002  0.30205930554422378        0.0000000000000000     
   4.5745025030761173E-002   5.9516696923701984E-002   0.0000000000000000     
   4.8118521096019842E-002   6.5004385180098698E-002   0.0000000000000000     
   5.0387235154417204E-002   7.0672188511391010E-002   0.0000000000000000     
   5.2551167205953292E-002   7.6520106917578906E-002   0.0000000000000000     
   5.4610317250628065E-002   8.2548140398662401E-002   0.0000000000000000     
   4.1433419119671661E-002   5.8840401750260306E-002   0.0000000000000000     
   4.3588379471250847E-002   6.4349801656133979E-002   0.0000000000000000     
   4.5651639502445211E-002   7.0039333662400435E-002   0.0000000000000000     
   4.7623199213254787E-002   7.5908997769059669E-002   0.0000000000000000     
   4.9503058603679526E-002   8.1958793976111707E-002   0.0000000000000000     
   3.7194034330116046E-002   5.8224313319369725E-002   0.0000000000000000     
   3.9144097816255830E-002   6.3752544758300750E-002   0.0000000000000000     
   4.1013155919797067E-002   6.9461241762664647E-002   0.0000000000000000     
   4.2801208640739746E-002   7.5350404332461443E-002   0.0000000000000000     
   4.4508255979083873E-002   8.1420032467691153E-002   0.0000000000000000     
   3.3026870662094317E-002   5.7668431631030262E-002   0.0000000000000000     
   3.4785676131034803E-002   6.3212614486598998E-002   0.0000000000000000     
   3.6471784406472758E-002   6.8937912812183672E-002   0.0000000000000000     
   3.8085195488408184E-002   7.4844326607784270E-002   0.0000000000000000     
   3.9625909376841080E-002   8.0931855873400765E-002   0.0000000000000000     
   2.8931928115606471E-002   5.7172756685241896E-002   0.0000000000000000     
   3.0513114415587742E-002   6.2730010841028763E-002   0.0000000000000000     
   3.2027524962472284E-002   6.8469346810957482E-002   0.0000000000000000     
   3.3475159756260087E-002   7.4390764595028080E-002   0.0000000000000000     
   3.4856018796951167E-002   8.0494264193240544E-002   0.0000000000000000     
   5.4610317250628065E-002   8.2548140398662401E-002   0.0000000000000000     
   5.6588906112657759E-002   8.8745111147098404E-002   0.0000000000000000     
   5.8511154616258602E-002   9.5099841355343856E-002   0.0000000000000000     
   6.0377062761430567E-002  0.10161233102339876        0.0000000000000000     
   6.2186630548173687E-002  0.10828258015126310        0.0000000000000000     
   4.9503058603679526E-002   8.1958793976111707E-002   0.0000000000000000     
   5.1311461225025064E-002   8.8177439868710308E-002   0.0000000000000000     
   5.3068650628596982E-002   9.4553653032009272E-002   0.0000000000000000     
   5.4774626814395301E-002  0.10108743346600864        0.0000000000000000     
   5.6429389782419986E-002  0.10777878117070837        0.0000000000000000     
   4.4508255979083873E-002   8.1420032467691153E-002   0.0000000000000000     
   4.6151411228041839E-002   8.7658625791060152E-002   0.0000000000000000     
   4.7747787680826055E-002   9.4054683925274885E-002   0.0000000000000000     
   4.9297385337436515E-002  0.10060820687033530        0.0000000000000000     
   5.0800204197873226E-002  0.10731919462624144        0.0000000000000000     
   3.9625909376841080E-002   8.0931855873400765E-002   0.0000000000000000     
   4.1108756121708084E-002   8.7188668914147976E-002   0.0000000000000000     
   4.2548565772945787E-002   9.3602934035140639E-002   0.0000000000000000     
   4.3945338330554230E-002  0.10017465123637878        0.0000000000000000     
   4.5299073794533386E-002  0.10690382051786240        0.0000000000000000     
   3.4856018796951167E-002   8.0494264193240544E-002   0.0000000000000000     
   3.6183495906023780E-002   8.6767569237973741E-002   0.0000000000000000     
   3.7470984904956206E-002   9.3198403361606591E-002   0.0000000000000000     
   3.8718485793748432E-002   9.9786766564139054E-002   0.0000000000000000     
   3.9925998572400478E-002  0.10653265884557117        0.0000000000000000     
   6.2186630548173687E-002  0.10828258015126310        0.0000000000000000     
   6.3926941459881953E-002  0.11509851641623460        0.0000000000000000     
   6.5585078979949418E-002  0.12204806749561091        0.0000000000000000     
   6.7161043108376089E-002  0.12913123338939209        0.0000000000000000     
   6.8654833845161953E-002  0.13634801409757810        0.0000000000000000     
   5.6429389782419986E-002  0.10777878117070837        0.0000000000000000     
   5.8020860948685617E-002  0.11461585381176316        0.0000000000000000     
   5.9536961729206729E-002  0.12158680905482777        0.0000000000000000     
   6.0977692123983344E-002  0.12869164689990220        0.0000000000000000     
   6.2343052133015442E-002  0.13593036734698638        0.0000000000000000     
   5.0800204197873226E-002  0.10731919462624144        0.0000000000000000     
   5.2245173410689738E-002  0.11417600933528953        0.0000000000000000     
   5.3621222124439608E-002  0.12116701313977579        0.0000000000000000     
   5.4928350339122856E-002  0.12829220603970021        0.0000000000000000     
   5.6166558054739447E-002  0.13555158803506276        0.0000000000000000     
   4.5299073794533386E-002  0.10690382051786240        0.0000000000000000     
   4.6599878845894310E-002  0.11377898298681370        0.0000000000000000     
   4.7837860165648061E-002  0.12078867975045493        0.0000000000000000     
   4.9013017753794602E-002  0.12793291080878610        0.0000000000000000     
   5.0125351610333976E-002  0.13521167616180724        0.0000000000000000     
   3.9925998572400478E-002  0.10653265884557117        0.0000000000000000     
   4.1084977254299354E-002  0.11342477476633565        0.0000000000000000     
   4.2186875852832061E-002  0.12045180888686526        0.0000000000000000     
   4.3231694367998619E-002  0.12761376120715998        0.0000000000000000     
   4.4219432799799022E-002  0.13491063172721982        0.0000000000000000     
   6.8654833845161953E-002  0.13634801409757810        0.0000000000000000     
   7.0073138598206103E-002  0.14368610054873540        0.0000000000000000     
   7.1422644775407634E-002  0.15113318367143042        0.0000000000000000     
   7.2703352376766547E-002  0.15868926346566317        0.0000000000000000     
   7.3915261402282828E-002  0.16635433993143367        0.0000000000000000     
   6.2343052133015442E-002  0.13593036734698638        0.0000000000000000     
   6.3638318995677873E-002  0.14329074901741942        0.0000000000000000     
   6.4868769951345467E-002  0.15076057053254036        0.0000000000000000     
   6.6034405000018240E-002  0.15833983189234910        0.0000000000000000     
   6.7135224141696176E-002  0.16602853309684573        0.0000000000000000     
   5.6166558054739447E-002  0.13555158803506276        0.0000000000000000     
   5.7340125068622592E-002  0.14293297029469923        0.0000000000000000     
   5.8453331178105437E-002  0.15042416398744515        0.0000000000000000     
   5.9506176383187996E-002  0.15802516911330064        0.0000000000000000     
   6.0498660683870255E-002  0.16573598567226572        0.0000000000000000     
   5.0125351610333976E-002  0.13521167616180724        0.0000000000000000     
   5.1178556817040262E-002  0.14261276438057469        0.0000000000000000     
   5.2176328455687537E-002  0.15012396403614489        0.0000000000000000     
   5.3118666526275823E-002  0.15774527512851788        0.0000000000000000     
   5.4005571028805092E-002  0.16547669765769354        0.0000000000000000     
   4.4219432799799022E-002  0.13491063172721982        0.0000000000000000     
   4.5153614240930860E-002  0.14233013127504593        0.0000000000000000     
   4.6037761784091753E-002  0.14985997067863960        0.0000000000000000     
   4.6871875429281687E-002  0.15750014993800071        0.0000000000000000     
   4.7655955176500682E-002  0.16525066905312930        0.0000000000000000     
   7.3915261402282828E-002  0.16635433993143367        0.0000000000000000     
   7.5055067111152798E-002  0.17411882288856667        0.0000000000000000     
   7.6119464762572739E-002  0.18197312215688688        0.0000000000000000     
   7.7108454356542649E-002  0.18991723773639438        0.0000000000000000     
   7.8022035893062558E-002  0.19795116962708909        0.0000000000000000     
   6.7135224141696176E-002  0.16602853309684573        0.0000000000000000     
   6.8168207214063248E-002  0.17381651712740087        0.0000000000000000     
   6.9130334054803455E-002  0.18169362696538521        0.0000000000000000     
   7.0021604663916756E-002  0.18965986261079876        0.0000000000000000     
   7.0842019041403193E-002  0.19771522406364145        0.0000000000000000     
   6.0498660683870255E-002  0.16573598567226572        0.0000000000000000     
   6.1427856452458768E-002  0.17354606572858261        0.0000000000000000     
   6.2290836061260062E-002  0.18144486134649368        0.0000000000000000     
   6.3087599510274137E-002  0.18943237252599901        0.0000000000000000     
   6.3818146799500985E-002  0.19750859926709849        0.0000000000000000     
   5.4005571028805092E-002  0.16547669765769354        0.0000000000000000     
   5.4834014826339358E-002  0.17330746869211178        0.0000000000000000     
   5.5600970781942594E-002  0.18122682530021225        0.0000000000000000     
   5.6306438895614784E-002  0.18923476748199511        0.0000000000000000     
   5.6950419167355937E-002  0.19733129523746015        0.0000000000000000     
   4.7655955176500682E-002  0.16525066905312930        0.0000000000000000     
   4.8386682335705020E-002  0.17310072601798843        0.0000000000000000     
   4.9060738216851037E-002  0.18103951882654098        0.0000000000000000     
   4.9678122819938698E-002  0.18906704747878703        0.0000000000000000     
   5.0238836144968026E-002  0.19718331197472655        0.0000000000000000     
   7.8022035893062558E-002  0.19795116962708909        0.0000000000000000     
   7.8861396872818998E-002  0.20606763524496918        0.0000000000000000     
   7.9627724796498572E-002  0.21425935200603285        0.0000000000000000     
   8.0321019664101254E-002  0.22252631991028007        0.0000000000000000     
   8.0941281475627097E-002  0.23086853895771084        0.0000000000000000     
   7.0842019041403193E-002  0.19771522406364145        0.0000000000000000     
   7.1590239019077268E-002  0.20585336800138332        0.0000000000000000     
   7.2264926428753498E-002  0.21406795110149421        0.0000000000000000     
   7.2866081270431857E-002  0.22235897336397425        0.0000000000000000     
   7.3393703544112371E-002  0.23072643478882335        0.0000000000000000     
   6.3818146799500985E-002  0.19750859926709849        0.0000000000000000     
   6.4479782194057381E-002  0.20566729801105360        0.0000000000000000     
   6.5069809959060018E-002  0.21390222519912597        0.0000000000000000     
   6.5588230094508912E-002  0.22221338083131545        0.0000000000000000     
   6.6035042600404062E-002  0.23060076490762207        0.0000000000000000     
   5.6950419167355937E-002  0.19733129523746015        0.0000000000000000     
   5.7530026397759310E-002  0.20550942527398031        0.0000000000000000     
   5.8042375387418146E-002  0.21376217429892808        0.0000000000000000     
   5.8487466136332440E-002  0.22208954231230368        0.0000000000000000     
   5.8865298644502191E-002  0.23049152931410702        0.0000000000000000     
   5.0238836144968026E-002  0.19718331197472655        0.0000000000000000     
   5.0740971630183068E-002  0.20537974979016319        0.0000000000000000     
   5.1182622713827862E-002  0.21364779840090065        0.0000000000000000     
   5.1563789395902421E-002  0.22198745780693899        0.0000000000000000     
   5.1884471676406752E-002  0.23039872800827813        0.0000000000000000     
   8.0941281475627097E-002  0.23086853895771084        0.0000000000000000     
   8.1477776662870302E-002  0.23930666578726395        0.0000000000000000     
   8.1919771657625151E-002  0.24786135703787815        0.0000000000000000     
   8.2267266459891616E-002  0.25653261270955352        0.0000000000000000     
   8.2520261069669698E-002  0.26532043280229001        0.0000000000000000     
   7.3393703544112371E-002  0.23072643478882335        0.0000000000000000     
   7.3844431845299152E-002  0.23918401504902753        0.0000000000000000     
   7.4214904769496298E-002  0.24774539381757268        0.0000000000000000     
   7.4505122316703809E-002  0.25641057109445886        0.0000000000000000     
   7.4715084486921712E-002  0.26517954687968615        0.0000000000000000     
   6.6035042600404062E-002  0.23060076490762207        0.0000000000000000     
   6.6412467120946145E-002  0.23907089768210749        0.0000000000000000     
   6.6722723300335782E-002  0.24763029940883327        0.0000000000000000     
   6.6965811138573000E-002  0.25627897008779954        0.0000000000000000     
   6.7141730635657787E-002  0.26501690971900610        0.0000000000000000     
   5.8865298644502191E-002  0.23049152931410702        0.0000000000000000     
   5.9181882489811294E-002  0.23896731368650381        0.0000000000000000     
   5.9443227250143622E-002  0.24751607381165988        0.0000000000000000     
   5.9649332925499184E-002  0.25613780968957522        0.0000000000000000     
   5.9800199515877978E-002  0.26483252132024993        0.0000000000000000     
   5.1884471676406752E-002  0.23039872800827813        0.0000000000000000     
   5.2152677951894606E-002  0.23887326306221651        0.0000000000000000     
   5.2376416618919820E-002  0.24740271702605252        0.0000000000000000     
   5.2555687677482373E-002  0.25598708989978625        0.0000000000000000     
   5.2690491127582270E-002  0.26462638168341757        0.0000000000000000     
   8.2520261069669698E-002  0.26532043280229001        0.0000000000000000     
   8.2717756176798302E-002  0.27425118907611112        0.0000000000000000     
   8.2898752471116222E-002  0.28335125329104044        0.0000000000000000     
   8.3063249952623472E-002  0.29262062544707806        0.0000000000000000     
   8.3211248621320080E-002  0.30205930554422378        0.0000000000000000     
   7.4715084486921712E-002  0.26517954687968615        0.0000000000000000     
   7.4885753744632799E-002  0.27404597330119701        0.0000000000000000     
   7.5058092554320013E-002  0.28300350248693423        0.0000000000000000     
   7.5232100915983285E-002  0.29205213443689787        0.0000000000000000     
   7.5407778829622643E-002  0.30119186915108781        0.0000000000000000     
   6.7141730635657787E-002  0.26501690971900610        0.0000000000000000     
   6.7290740829864540E-002  0.27381426282898425        0.0000000000000000     
   6.7453100759467602E-002  0.28264117394426513        0.0000000000000000     
   6.7628810424467015E-002  0.29149764306484877        0.0000000000000000     
   6.7817869824862750E-002  0.30038367019073514        0.0000000000000000     
   5.9800199515877978E-002  0.26483252132024993        0.0000000000000000     
   5.9932717432493433E-002  0.27355605765947283        0.0000000000000000     
   6.0083777086558987E-002  0.28226426766303314        0.0000000000000000     
   6.0253378478074646E-002  0.29095715133093075        0.0000000000000000     
   6.0441521607040402E-002  0.29963470866316572        0.0000000000000000     
   5.2690491127582270E-002  0.26462638168341757        0.0000000000000000     
   5.2811683552519521E-002  0.27327135779266282        0.0000000000000000     
   5.2950121535594155E-002  0.28187278364323820        0.0000000000000000     
   5.3105805076806178E-002  0.29043065923514388        0.0000000000000000     
   5.3278734176155584E-002  0.29894498456837970        0.0000000000000000     
   2.8931928115606471E-002   5.7172756685241896E-002   0.0000000000000000     
   3.0513114415587742E-002   6.2730010841028763E-002   0.0000000000000000     
   3.2027524962472284E-002   6.8469346810957482E-002   0.0000000000000000     
   3.3475159756260087E-002   7.4390764595028080E-002   0.0000000000000000     
   3.4856018796951167E-002   8.0494264193240544E-002   0.0000000000000000     
   2.4955048512892833E-002   5.6736692266149677E-002   0.0000000000000000     
   2.6358913924135148E-002   6.2304783598758268E-002   0.0000000000000000     
   2.7701540639821151E-002   6.8056024491253767E-002   0.0000000000000000     
   2.8982928659950846E-002   7.3990414943636229E-002   0.0000000000000000     
   3.0203077984524217E-002   8.0107954955905655E-002   0.0000000000000000     
   2.1142073676193723E-002   5.6359642157898647E-002   0.0000000000000000     
   2.2355575910897499E-002   6.1936982536955759E-002   0.0000000000000000     
   2.3514994490544863E-002   6.7698426585340213E-002   0.0000000000000000     
   2.4620329415135804E-002   7.3643974303052084E-002   0.0000000000000000     
   2.5671580684670330E-002   7.9773625690091318E-002   0.0000000000000000     
   1.7493003605509132E-002   5.6041606360488799E-002   0.0000000000000000     
   1.8503100375874795E-002   6.1626607655621238E-002   0.0000000000000000     
   1.9467886514643415E-002   6.7396553093216807E-002   0.0000000000000000     
   2.0387362021814976E-002   7.3351442673275577E-002   0.0000000000000000     
   2.1261526897389502E-002   7.9491276395797492E-002   0.0000000000000000     
   1.4007838300839064E-002   5.5782584873920141E-002   0.0000000000000000     
   1.4801487319067034E-002   6.1373658954754703E-002   0.0000000000000000     
   1.5560216712116801E-002   6.7150404014883577E-002   0.0000000000000000     
   1.6284026479988369E-002   7.3112820054306776E-002   0.0000000000000000     
   1.6972916622681734E-002   7.9260907073024245E-002   0.0000000000000000     
   3.4856018796951167E-002   8.0494264193240544E-002   0.0000000000000000     
   3.6183495906023780E-002   8.6767569237973741E-002   0.0000000000000000     
   3.7470984904956206E-002   9.3198403361606591E-002   0.0000000000000000     
   3.8718485793748432E-002   9.9786766564139054E-002   0.0000000000000000     
   3.9925998572400478E-002  0.10653265884557117        0.0000000000000000     
   3.0203077984524217E-002   8.0107954955905655E-002   0.0000000000000000     
   3.1374262658082575E-002   8.6395898196880941E-002   0.0000000000000000     
   3.2508756725167211E-002   9.2841498335381079E-002   0.0000000000000000     
   3.3606560185778109E-002   9.9444755371406110E-002   0.0000000000000000     
   3.4667673039915289E-002  0.10620566930495594        0.0000000000000000     
   2.5671580684670330E-002   7.9773625690091318E-002   0.0000000000000000     
   2.6679688454978083E-002   8.6074227225213060E-002   0.0000000000000000     
   2.7655592881888718E-002   9.2532625387172607E-002   0.0000000000000000     
   2.8599293965402228E-002   9.9148820175969848E-002   0.0000000000000000     
   2.9510791705518614E-002  0.10592281159160483        0.0000000000000000     
   2.1261526897389502E-002   7.9491276395797492E-002   0.0000000000000000     
   2.2099773296710309E-002   8.5802556322970139E-002   0.0000000000000000     
   2.2911493375120731E-002   9.2271784516981079E-002   0.0000000000000000     
   2.3696687132620776E-002   9.8898960977830311E-002   0.0000000000000000     
   2.4455354569210434E-002  0.10568408570551785        0.0000000000000000     
   1.6972916622681734E-002   7.9260907073024245E-002   0.0000000000000000     
   1.7634517183279248E-002   8.5580885490152150E-002   0.0000000000000000     
   1.8276458204863257E-002   9.2058975724806563E-002   0.0000000000000000     
   1.8898739687433760E-002   9.8695177776987511E-002   0.0000000000000000     
   1.9501361630990761E-002  0.10548949164669499        0.0000000000000000     
   3.9925998572400478E-002  0.10653265884557117        0.0000000000000000     
   4.1084977254299354E-002  0.11342477476633565        0.0000000000000000     
   4.2186875852832061E-002  0.12045180888686526        0.0000000000000000     
   4.3231694367998619E-002  0.12761376120715998        0.0000000000000000     
   4.4219432799799022E-002  0.13491063172721982        0.0000000000000000     
   3.4667673039915289E-002  0.10620566930495594        0.0000000000000000     
   3.5684843628922984E-002  0.11311306782652467        0.0000000000000000     
   3.6650820294145452E-002  0.12015577862660635        0.0000000000000000     
   3.7565603035582665E-002  0.12733380170520095        0.0000000000000000     
   3.8429191853234658E-002  0.13464713706230852        0.0000000000000000     
   2.9510791705518614E-002  0.10592281159160483        0.0000000000000000     
   3.0383852962783373E-002  0.11284354532005000        0.0000000000000000     
   3.1212244597742026E-002  0.11989996704727784        0.0000000000000000     
   3.1995966610394548E-002  0.12709207677328835        0.0000000000000000     
   3.2735019000740967E-002  0.13441987449808149        0.0000000000000000     
   2.4455354569210434E-002  0.10568408570551785        0.0000000000000000     
   2.5182005255880501E-002  0.11261620724691165        0.0000000000000000     
   2.5871148763621780E-002  0.11968437414887971        0.0000000000000000     
   2.6522785092434265E-002  0.12688858641142203        0.0000000000000000     
   2.7136914242317959E-002  0.13422884403453864        0.0000000000000000     
   1.9501361630990761E-002  0.10548949164669499        0.0000000000000000     
   2.0079300508214382E-002  0.11243105360710959        0.0000000000000000     
   2.0627532791784729E-002  0.11950899993141199        0.0000000000000000     
   2.1146058481701809E-002  0.12672333061960211        0.0000000000000000     
   2.1634877577965624E-002  0.13407404567168002        0.0000000000000000     
   4.4219432799799022E-002  0.13491063172721982        0.0000000000000000     
   4.5153614240930860E-002  0.14233013127504593        0.0000000000000000     
   4.6037761784091753E-002  0.14985997067863960        0.0000000000000000     
   4.6871875429281687E-002  0.15750014993800071        0.0000000000000000     
   4.7655955176500682E-002  0.16525066905312930        0.0000000000000000     
   3.8429191853234658E-002  0.13464713706230852        0.0000000000000000     
   3.9245021609971023E-002  0.14208339521589380        0.0000000000000000     
   4.0016527168661387E-002  0.14963018668392156        0.0000000000000000     
   4.0743708529305749E-002  0.15728751146639175        0.0000000000000000     
   4.1426565691904116E-002  0.16505536956330441        0.0000000000000000     
   3.2735019000740967E-002  0.13441987449808149        0.0000000000000000     
   3.3432503193837330E-002  0.14187088044089913        0.0000000000000000     
   3.4091520614739704E-002  0.14943261482098319        0.0000000000000000     
   3.4712071263448101E-002  0.15710507763833356        0.0000000000000000     
   3.5294155139962501E-002  0.16488826889295030        0.0000000000000000     
   2.7136914242317959E-002  0.13422884403453864        0.0000000000000000     
   2.7716058992529793E-002  0.14169258695006198        0.0000000000000000     
   2.8262742122326719E-002  0.14926725508982444        0.0000000000000000     
   2.8776963631708726E-002  0.15695284845382612        0.0000000000000000     
   2.9258723520675819E-002  0.16474936704206700        0.0000000000000000     
   2.1634877577965624E-002  0.13407404567168002        0.0000000000000000     
   2.2095689006048417E-002  0.14154851474338229        0.0000000000000000     
   2.2530191691422424E-002  0.14913410749044542        0.0000000000000000     
   2.2938385634087642E-002  0.15683082391286945        0.0000000000000000     
   2.3320270834044081E-002  0.16463866401065438        0.0000000000000000     
   4.7655955176500682E-002  0.16525066905312930        0.0000000000000000     
   4.8386682335705020E-002  0.17310072601798843        0.0000000000000000     
   4.9060738216851037E-002  0.18103951882654098        0.0000000000000000     
   4.9678122819938698E-002  0.18906704747878703        0.0000000000000000     
   5.0238836144968026E-002  0.19718331197472655        0.0000000000000000     
   4.1426565691904116E-002  0.16505536956330441        0.0000000000000000     
   4.2061561836380636E-002  0.17292295646762543        0.0000000000000000     
   4.2645160142659469E-002  0.18087946767232058        0.0000000000000000     
   4.3177360610740588E-002  0.18892490317738989        0.0000000000000000     
   4.3658163240624027E-002  0.19705926298283333        0.0000000000000000     
   3.5294155139962501E-002  0.16488826889295030        0.0000000000000000     
   3.5834356184191070E-002  0.17277127880243565        0.0000000000000000     
   3.6329258336041947E-002  0.18074319758439172        0.0000000000000000     
   3.6778861595515168E-002  0.18880402523881859        0.0000000000000000     
   3.7183165962610690E-002  0.19695376176571627        0.0000000000000000     
   2.9258723520675819E-002  0.16474936704206700        0.0000000000000000     
   2.9705065379136308E-002  0.17264569302241908        0.0000000000000000     
   3.0113032796998507E-002  0.18063070856275451        0.0000000000000000     
   3.0482625774262407E-002  0.18870441366307331        0.0000000000000000     
   3.0813844310928023E-002  0.19686680832337541        0.0000000000000000     
   2.3320270834044081E-002  0.16463866401065438        0.0000000000000000     
   2.3673689421216365E-002  0.17254619912757574        0.0000000000000000     
   2.3996483525529116E-002  0.18054200060740888        0.0000000000000000     
   2.4288653146982336E-002  0.18862606845015387        0.0000000000000000     
   2.4550198285576023E-002  0.19679840265581067        0.0000000000000000     
   5.0238836144968026E-002  0.19718331197472655        0.0000000000000000     
   5.0740971630183068E-002  0.20537974979016319        0.0000000000000000     
   5.1182622713827862E-002  0.21364779840090065        0.0000000000000000     
   5.1563789395902421E-002  0.22198745780693899        0.0000000000000000     
   5.1884471676406752E-002  0.23039872800827813        0.0000000000000000     
   4.3658163240624027E-002  0.19705926298283333        0.0000000000000000     
   4.4087001478124242E-002  0.20527205285366840        0.0000000000000000     
   4.4463308769055708E-002  0.21355277855491267        0.0000000000000000     
   4.4787085113418452E-002  0.22190144008656601        0.0000000000000000     
   4.5058330511212441E-002  0.23031803744862850        0.0000000000000000     
   3.7183165962610690E-002  0.19695376176571627        0.0000000000000000     
   3.7542499528378410E-002  0.20518011575856199        0.0000000000000000     
   3.7857190383868214E-002  0.21347079581083303        0.0000000000000000     
   3.8127238529080086E-002  0.22182580192252946        0.0000000000000000     
   3.8352643964014027E-002  0.23024513409365124        0.0000000000000000     
   3.0813844310928023E-002  0.19686680832337541        0.0000000000000000     
   3.1107465780945590E-002  0.20510393850484390        0.0000000000000000     
   3.1364267558265359E-002  0.21340185016866192        0.0000000000000000     
   3.1584249642887322E-002  0.22176054331482933        0.0000000000000000     
   3.1767412034811496E-002  0.23018001794334628        0.0000000000000000     
   2.4550198285576023E-002  0.19679840265581067        0.0000000000000000     
   2.4781900235825771E-002  0.20504352109251414        0.0000000000000000     
   2.4984540292247150E-002  0.21334594162839915        0.0000000000000000     
   2.5158118454840173E-002  0.22170566426346563        0.0000000000000000     
   2.5302634723604837E-002  0.23012268899771360        0.0000000000000000     
   5.1884471676406752E-002  0.23039872800827813        0.0000000000000000     
   5.2152677951894606E-002  0.23887326306221651        0.0000000000000000     
   5.2376416618919820E-002  0.24740271702605252        0.0000000000000000     
   5.2555687677482373E-002  0.25598708989978625        0.0000000000000000     
   5.2690491127582270E-002  0.26462638168341757        0.0000000000000000     
   4.5058330511212441E-002  0.23031803744862850        0.0000000000000000     
   4.5285770002494327E-002  0.23878732146020834        0.0000000000000000     
   4.5478128627320702E-002  0.24729404294041374        0.0000000000000000     
   4.5635406385691586E-002  0.25583820188924472        0.0000000000000000     
   4.5757603277606966E-002  0.26441979830670126        0.0000000000000000     
   3.8352643964014027E-002  0.23024513409365124        0.0000000000000000     
   3.8542075136908660E-002  0.23870806453144214        0.0000000000000000     
   3.8704200496002601E-002  0.24719386544314617        0.0000000000000000     
   3.8839020041295837E-002  0.25570253682876315        0.0000000000000000     
   3.8946533772788380E-002  0.26423407868829329        0.0000000000000000     
   3.1767412034811496E-002  0.23018001794334628        0.0000000000000000     
   3.1921593355137640E-002  0.23863549227591796        0.0000000000000000     
   3.2054632224965518E-002  0.24710218453424976        0.0000000000000000     
   3.2166528644295152E-002  0.25558009471834153        0.0000000000000000     
   3.2257282613126520E-002  0.26406922282819356        0.0000000000000000     
   2.5302634723604837E-002  0.23012268899771360        0.0000000000000000     
   2.5424324657181238E-002  0.23856960469363572        0.0000000000000000     
   2.5529423814209452E-002  0.24701900021372450        0.0000000000000000     
   2.5617932194689500E-002  0.25547087555798004        0.0000000000000000     
   2.5689849798621371E-002  0.26392523072640217        0.0000000000000000     
   5.2690491127582270E-002  0.26462638168341757        0.0000000000000000     
   5.2811683552519521E-002  0.27327135779266282        0.0000000000000000     
   5.2950121535594155E-002  0.28187278364323820        0.0000000000000000     
   5.3105805076806178E-002  0.29043065923514388        0.0000000000000000     
   5.3278734176155584E-002  0.29894498456837970        0.0000000000000000     
   4.5757603277606966E-002  0.26441979830670126        0.0000000000000000     
   4.5868885218235400E-002  0.27298886840589331        0.0000000000000000     
   4.5993418122745447E-002  0.28149544839993079        0.0000000000000000     
   4.6131201991137093E-002  0.28993953828881380        0.0000000000000000     
   4.6282236823410344E-002  0.29832113807254224        0.0000000000000000     
   3.8946533772788380E-002  0.26423407868829329        0.0000000000000000     
   3.9045568457933673E-002  0.27273729467650354        0.0000000000000000     
   3.9154950864185155E-002  0.28116098844816118        0.0000000000000000     
   3.9274680991542847E-002  0.28950516000326620        0.0000000000000000     
   3.9404758840006715E-002  0.29776980934181863        0.0000000000000000     
   3.2257282613126520E-002  0.26406922282819356        0.0000000000000000     
   3.2341733271614340E-002  0.27251663660449360        0.0000000000000000     
   3.2434719759913314E-002  0.28086940378792946        0.0000000000000000     
   3.2536242078023435E-002  0.28912752437850125        0.0000000000000000     
   3.2646300225944717E-002  0.29729099837620904        0.0000000000000000     
   2.5689849798621371E-002  0.26392523072640217        0.0000000000000000     
   2.5757379659277397E-002  0.27232689418986322        0.0000000000000000     
   2.5832724809929899E-002  0.28062069441923548        0.0000000000000000     
   2.5915885250578877E-002  0.28880663141451884        0.0000000000000000     
   2.6006860981224331E-002  0.29688470517571325        0.0000000000000000     
   1.4007838300839064E-002   5.5782584873920141E-002   0.0000000000000000     
   1.4801487319067034E-002   6.1373658954754703E-002   0.0000000000000000     
   1.5560216712116801E-002   6.7150404014883577E-002   0.0000000000000000     
   1.6284026479988369E-002   7.3112820054306776E-002   0.0000000000000000     
   1.6972916622681734E-002   7.9260907073024245E-002   0.0000000000000000     
   1.0579938715647611E-002   5.5581759834724298E-002   0.0000000000000000     
   1.1156757998209881E-002   6.1177452795756301E-002   0.0000000000000000     
   1.1709240130598091E-002   6.6959403002499390E-002   0.0000000000000000     
   1.2237385112812240E-002   7.2927610454953565E-002   0.0000000000000000     
   1.2741192944852332E-002   7.9082075153118811E-002   0.0000000000000000     
   7.1026658033988659E-003   5.5438313379432898E-002   0.0000000000000000     
   7.4749336710389991E-003   6.1037305540026156E-002   0.0000000000000000     
   7.8322118177203328E-003   6.6822973708223196E-002   0.0000000000000000     
   8.1745002434428678E-003   7.2795317884023963E-002   0.0000000000000000     
   8.5017989482066014E-003   7.8954338067428506E-002   0.0000000000000000     
   3.5760195640928264E-003   5.5352245508045933E-002   0.0000000000000000     
   3.7560143375543927E-003   6.0953217187564281E-002   0.0000000000000000     
   3.9291317734835339E-003   6.6741116132054953E-002   0.0000000000000000     
   4.0953718718802507E-003   7.2715942341517972E-002   0.0000000000000000     
   4.2547346327445421E-003   7.8877695815953303E-002   0.0000000000000000     
  -2.2705062656391828E-012   5.5323556220563425E-002   0.0000000000000000     
  -2.2439433124132879E-012   6.0925187738370655E-002   0.0000000000000000     
  -2.1123116276944298E-012   6.6713830273994690E-002   0.0000000000000000     
  -1.8756128377858672E-012   7.2689483827435564E-002   0.0000000000000000     
  -1.5338455332247758E-012   7.8852148398693214E-002   0.0000000000000000     
   1.6972916622681734E-002   7.9260907073024245E-002   0.0000000000000000     
   1.7634517183279248E-002   8.5580885490152150E-002   0.0000000000000000     
   1.8276458204863257E-002   9.2058975724806563E-002   0.0000000000000000     
   1.8898739687433760E-002   9.8695177776987511E-002   0.0000000000000000     
   1.9501361630990761E-002  0.10548949164669499        0.0000000000000000     
   1.2741192944852332E-002   7.9082075153118811E-002   0.0000000000000000     
   1.3226414915991228E-002   8.5408798541792105E-002   0.0000000000000000     
   1.3698802315501791E-002   9.1893782065770438E-002   0.0000000000000000     
   1.4158355143384021E-002   9.8537025725053795E-002   0.0000000000000000     
   1.4605073399637921E-002  0.10533852951964219        0.0000000000000000     
   8.5017989482066014E-003   7.8954338067428506E-002   0.0000000000000000     
   8.8179612961525791E-003   8.5285879292923111E-002   0.0000000000000000     
   9.1268406514218407E-003   9.1775786594994135E-002   0.0000000000000000     
   9.4284370140143917E-003   9.8424059973641551E-002   0.0000000000000000     
   9.7227503839302284E-003  0.10523069942886537        0.0000000000000000     
   4.2547346327445421E-003   7.8877695815953303E-002   0.0000000000000000     
   4.4091563237632983E-003   8.5212127743545113E-002   0.0000000000000000     
   4.5605732126234085E-003   9.1704989312477614E-002   0.0000000000000000     
   4.7089852993248710E-003   9.8356280522750750E-002   0.0000000000000000     
   4.8543925838676885E-003  0.10516600137436455        0.0000000000000000     
  -1.5338455332247758E-012   7.8852148398693214E-002   0.0000000000000000     
  -1.1766111088912234E-012   8.5187543893658166E-002   0.0000000000000000     
  -8.9350911652158471E-013   9.1681390218220901E-002   0.0000000000000000     
  -6.8453931217037078E-013   9.8333687372381434E-002   0.0000000000000000     
  -5.4970134347187560E-013  0.10514443535613971        0.0000000000000000     
   1.9501361630990761E-002  0.10548949164669499        0.0000000000000000     
   2.0079300508214382E-002  0.11243105360710959        0.0000000000000000     
   2.0627532791784729E-002  0.11950899993141199        0.0000000000000000     
   2.1146058481701809E-002  0.12672333061960211        0.0000000000000000     
   2.1634877577965624E-002  0.13407404567168002        0.0000000000000000     
   1.4605073399637921E-002  0.10533852951964219        0.0000000000000000     
   1.5034494275386575E-002  0.11228749986185922        0.0000000000000000     
   1.5442154961753069E-002  0.11937314316402857        0.0000000000000000     
   1.5828055458737406E-002  0.12659545942615016        0.0000000000000000     
   1.6192195766339582E-002  0.13395444864822406        0.0000000000000000     
   9.7227503839302284E-003  0.10523069942886537        0.0000000000000000     
   1.0006342112998666E-002  0.11218496147237589        0.0000000000000000     
   1.0275773553049015E-002  0.11927610261588337        0.0000000000000000     
   1.0531044704081272E-002  0.12650412285938778        0.0000000000000000     
   1.0772155566095443E-002  0.13386902220288915        0.0000000000000000     
   4.8543925838676885E-003  0.10516600137436455        0.0000000000000000     
   4.9948440210506543E-003  0.11212343843865957        0.0000000000000000     
   5.1283885656725611E-003  0.11921787828697637        0.0000000000000000     
   5.2550262177334132E-003  0.12644932091931496        0.0000000000000000     
   5.3747569772332080E-003  0.13381776633567535        0.0000000000000000     
  -5.4970134347187560E-013  0.10514443535613971        0.0000000000000000     
  -4.5746132576462983E-013  0.11210293076071029        0.0000000000000000     
  -3.7628559122759864E-013  0.11919847017730763        0.0000000000000000     
  -3.0617300144850090E-013  0.12643105360593171        0.0000000000000000     
  -2.4712393589809700E-013  0.13380068104658260        0.0000000000000000     
   2.1634877577965624E-002  0.13407404567168002        0.0000000000000000     
   2.2095689006048417E-002  0.14154851474338229        0.0000000000000000     
   2.2530191691422424E-002  0.14913410749044542        0.0000000000000000     
   2.2938385634087642E-002  0.15683082391286945        0.0000000000000000     
   2.3320270834044081E-002  0.16463866401065438        0.0000000000000000     
   1.6192195766339582E-002  0.13395444864822406        0.0000000000000000     
   1.6535458783856830E-002  0.14143742337435289        0.0000000000000000     
   1.6858727410586381E-002  0.14903169614863934        0.0000000000000000     
   1.7162001646528233E-002  0.15673726697108339        0.0000000000000000     
   1.7445281491682382E-002  0.16455413584168510        0.0000000000000000     
   1.0772155566095443E-002  0.13386902220288915        0.0000000000000000     
   1.0999433875418685E-002  0.14135807239646672        0.0000000000000000     
   1.1213207368378162E-002  0.14895854519019963        0.0000000000000000     
   1.1413476044973871E-002  0.15667044058408791        0.0000000000000000     
   1.1600239905205811E-002  0.16449375857813156        0.0000000000000000     
   5.3747569772332080E-003  0.13381776633567535        0.0000000000000000     
   5.4876142807339795E-003  0.14131046180972370        0.0000000000000000     
   5.5936315647977632E-003  0.14891465461512624        0.0000000000000000     
   5.6928088294245591E-003  0.15663034475188295        0.0000000000000000     
   5.7851460746143673E-003  0.16445753221999382        0.0000000000000000     
  -2.4712393589809700E-013  0.13380068104658260        0.0000000000000000     
  -1.9728663147589032E-013  0.14129459161412389        0.0000000000000000     
  -1.5481268610811894E-013  0.14890002442341915        0.0000000000000000     
  -1.1969957902473183E-013  0.15661697947446845        0.0000000000000000     
  -9.1949885205888648E-014  0.16444545676727179        0.0000000000000000     
   2.3320270834044081E-002  0.16463866401065438        0.0000000000000000     
   2.3673689421216365E-002  0.17254619912757574        0.0000000000000000     
   2.3996483525529116E-002  0.18054200060740888        0.0000000000000000     
   2.4288653146982336E-002  0.18862606845015387        0.0000000000000000     
   2.4550198285576023E-002  0.19679840265581067        0.0000000000000000     
   1.7445281491682382E-002  0.16455413584168510        0.0000000000000000     
   1.7707269931621569E-002  0.17247055716934989        0.0000000000000000     
   1.7946669951918522E-002  0.18047478536298323        0.0000000000000000     
   1.8163481552573236E-002  0.18856682042258516        0.0000000000000000     
   1.8357704733585715E-002  0.19674666234815560        0.0000000000000000     
   1.1600239905205811E-002  0.16449375857813156        0.0000000000000000     
   1.1772848531542252E-002  0.17241652719918585        0.0000000000000000     
   1.1930651506451449E-002  0.18042677447410596        0.0000000000000000     
   1.2073648829933403E-002  0.18852450040289187        0.0000000000000000     
   1.2201840501988116E-002  0.19670970498554363        0.0000000000000000     
   5.7851460746143673E-003  0.16445753221999382        0.0000000000000000     
   5.8704252209784060E-003  0.17238410921708361        0.0000000000000000     
   5.9484281891278952E-003  0.18039796794077698        0.0000000000000000     
   6.0191549790628348E-003  0.18849910839107406        0.0000000000000000     
   6.0826055907832240E-003  0.19668753056797472        0.0000000000000000     
  -9.1949885205888648E-014  0.16444545676727179        0.0000000000000000     
  -6.9960530424406642E-014  0.17237330322304312        0.0000000000000000     
  -5.2131693059620510E-014  0.18038836576299638        0.0000000000000000     
  -3.8464403103594114E-014  0.18849064438713167        0.0000000000000000     
  -2.8957305303611847E-014  0.19668013909544890        0.0000000000000000     
   2.4550198285576023E-002  0.19679840265581067        0.0000000000000000     
   2.4781900235825771E-002  0.20504352109251414        0.0000000000000000     
   2.4984540292247150E-002  0.21334594162839915        0.0000000000000000     
   2.5158118454840173E-002  0.22170566426346563        0.0000000000000000     
   2.5302634723604837E-002  0.23012268899771360        0.0000000000000000     
   1.8357704733585715E-002  0.19674666234815560        0.0000000000000000     
   1.8529907888112807E-002  0.20499755078733248        0.0000000000000000     
   1.8680659409311351E-002  0.21330272538775363        0.0000000000000000     
   1.8809959297181357E-002  0.22166218614941902        0.0000000000000000     
   1.8917807551722815E-002  0.23007593307232865        0.0000000000000000     
   1.2201840501988116E-002  0.19670970498554363        0.0000000000000000     
   1.2315593732900565E-002  0.20496471485505857        0.0000000000000000     
   1.2415275732955726E-002  0.21327185664443404        0.0000000000000000     
   1.2500886502153601E-002  0.22163113035367005        0.0000000000000000     
   1.2572426040494191E-002  0.23004253598276658        0.0000000000000000     
   6.0826055907832240E-003  0.19668753056797472        0.0000000000000000     
   6.1389577701890423E-003  0.20494501329569240        0.0000000000000000     
   6.1883892631802700E-003  0.21325333539844041        0.0000000000000000     
   6.2309000697569096E-003  0.22161249687621878        0.0000000000000000     
   6.2664901899189569E-003  0.23002249772902753        0.0000000000000000     
  -2.8957305303611847E-014  0.19668013909544890        0.0000000000000000     
  -2.1756901835701115E-014  0.20493844610923401        0.0000000000000000     
  -1.5012296961103289E-014  0.21324716164977273        0.0000000000000000     
  -8.7204549137354093E-015  0.22160628571706523        0.0000000000000000     
  -2.8831104170734534E-015  0.23001581831111140        0.0000000000000000     
   2.5302634723604837E-002  0.23012268899771360        0.0000000000000000     
   2.5424324657181238E-002  0.23856960469363572        0.0000000000000000     
   2.5529423814209452E-002  0.24701900021372450        0.0000000000000000     
   2.5617932194689500E-002  0.25547087555798004        0.0000000000000000     
   2.5689849798621371E-002  0.26392523072640217        0.0000000000000000     
   1.8917807551722815E-002  0.23007593307232865        0.0000000000000000     
   1.9008557749070735E-002  0.23851487760368151        0.0000000000000000     
   1.9086563465360112E-002  0.24694993119067668        0.0000000000000000     
   1.9151824700590951E-002  0.25538109383331414        0.0000000000000000     
   1.9204341454763251E-002  0.26380836553159392        0.0000000000000000     
   1.2572426040494191E-002  0.23004253598276658        0.0000000000000000     
   1.2632581336837416E-002  0.23847578682514153        0.0000000000000000     
   1.2684039380043201E-002  0.24690059617421264        0.0000000000000000     
   1.2726800170111543E-002  0.25531696402998000        0.0000000000000000     
   1.2760863707042446E-002  0.26372489039244362        0.0000000000000000     
   6.2664901899189569E-003  0.23002249772902753        0.0000000000000000     
   6.2963954204812711E-003  0.23845233235801566        0.0000000000000000     
   6.3218515582587108E-003  0.24687099516433236        0.0000000000000000     
   6.3428586032512752E-003  0.25527848614797760        0.0000000000000000     
   6.3594165554589658E-003  0.26367480530895143        0.0000000000000000     
  -2.8831104170734534E-015  0.23001581831111140        0.0000000000000000     
   2.3050138187041824E-015  0.23844451420230400        0.0000000000000000     
   6.6488698227673559E-015  0.24686112816103584        0.0000000000000000     
   1.0150002583211859E-014  0.25526566018730690        0.0000000000000000     
   1.2807463423136767E-014  0.26365811028111713        0.0000000000000000     
   2.5689849798621371E-002  0.26392523072640217        0.0000000000000000     
   2.5757379659277397E-002  0.27232689418986322        0.0000000000000000     
   2.5832724809929899E-002  0.28062069441923548        0.0000000000000000     
   2.5915885250578877E-002  0.28880663141451884        0.0000000000000000     
   2.6006860981224331E-002  0.29688470517571325        0.0000000000000000     
   1.9204341454763251E-002  0.26380836553159392        0.0000000000000000     
   1.9254083811564193E-002  0.27217439517716463        0.0000000000000000     
   1.9311021854680969E-002  0.28042183166167522        0.0000000000000000     
   1.9375155584113575E-002  0.28855067498512554        0.0000000000000000     
   1.9446484999862013E-002  0.29656092514751564        0.0000000000000000     
   1.2760863707042446E-002  0.26372489039244362        0.0000000000000000     
   1.2793421919116069E-002  0.27206546731094972        0.0000000000000000     
   1.2831666734612569E-002  0.28027978683484461        0.0000000000000000     
   1.2875598153531953E-002  0.28836784896412815        0.0000000000000000     
   1.2925216175874214E-002  0.29632965369880049        0.0000000000000000     
   6.3594165554589658E-003  0.26367480530895143        0.0000000000000000     
   6.3753939819330280E-003  0.27200011059121842        0.0000000000000000     
   6.3946594497247102E-003  0.28019455993874354        0.0000000000000000     
   6.4172129588340159E-003  0.28825815335152660        0.0000000000000000     
   6.4430545092609391E-003  0.29619089082956773        0.0000000000000000     
   1.2807463423136767E-014  0.26365811028111713        0.0000000000000000     
   1.5069542835810523E-014  0.27197832501797081        0.0000000000000000     
   1.7385507096456809E-014  0.28016615097337205        0.0000000000000000     
   1.9759611698602630E-014  0.28822158814732091        0.0000000000000000     
   2.2187113257743363E-014  0.29614463653981737        0.0000000000000000     
  -2.2705062656391828E-012   5.5323556220563425E-002   0.0000000000000000     
  -2.2439433124132879E-012   6.0925187738370655E-002   0.0000000000000000     
  -2.1123116276944298E-012   6.6713830273994690E-002   0.0000000000000000     
  -1.8756128377858672E-012   7.2689483827435564E-002   0.0000000000000000     
  -1.5338455332247758E-012   7.8852148398693214E-002   0.0000000000000000     
  -3.5760195682371485E-003   5.5352245515529357E-002   0.0000000000000000     
  -3.7560143416695778E-003   6.0953217191664716E-002   0.0000000000000000     
  -3.9291317773723642E-003   6.6741116133742229E-002   0.0000000000000000     
  -4.0953718753455074E-003   7.2715942341761847E-002   0.0000000000000000     
  -4.2547346355890072E-003   7.8877695815723597E-002   0.0000000000000000     
  -7.1026658063531155E-003   5.5438313391487720E-002   0.0000000000000000     
  -7.4749336740360826E-003   6.1037305546665921E-002   0.0000000000000000     
  -7.8322118206017866E-003   6.6822973710997324E-002   0.0000000000000000     
  -8.1745002460502196E-003   7.2795317884481958E-002   0.0000000000000000     
  -8.5017989503813878E-003   7.8954338067119822E-002   0.0000000000000000     
  -1.0579938716618409E-002   5.5581759848438543E-002   0.0000000000000000     
  -1.1156757999343465E-002   6.1177452803374242E-002   0.0000000000000000     
  -1.1709240131800578E-002   6.6959403005760018E-002   0.0000000000000000     
  -1.2237385113989755E-002   7.2927610455595898E-002   0.0000000000000000     
  -1.2741192945910992E-002   7.9082075152881848E-002   0.0000000000000000     
  -1.4007838299033026E-002   5.5782584886381791E-002   0.0000000000000000     
  -1.4801487317591714E-002   6.1373658961789694E-002   0.0000000000000000     
  -1.5560216710968744E-002   6.7150404018030310E-002   0.0000000000000000     
  -1.6284026479164104E-002   7.3112820055103639E-002   0.0000000000000000     
  -1.6972916622177814E-002   7.9260907073009701E-002   0.0000000000000000     
  -1.5338455332247758E-012   7.8852148398693214E-002   0.0000000000000000     
  -1.1766111088912234E-012   8.5187543893658166E-002   0.0000000000000000     
  -8.9350911652158471E-013   9.1681390218220901E-002   0.0000000000000000     
  -6.8453931217037078E-013   9.8333687372381434E-002   0.0000000000000000     
  -5.4970134347187560E-013  0.10514443535613971        0.0000000000000000     
  -4.2547346355890072E-003   7.8877695815723597E-002   0.0000000000000000     
  -4.4091563259555438E-003   8.5212127743329563E-002   0.0000000000000000     
  -4.5605732142978000E-003   9.1704989312281826E-002   0.0000000000000000     
  -4.7089853006157725E-003   9.8356280522580330E-002   0.0000000000000000     
  -4.8543925849094637E-003  0.10516600137422519        0.0000000000000000     
  -8.5017989503813878E-003   7.8954338067119822E-002   0.0000000000000000     
  -8.8179612978618992E-003   8.5285879292626626E-002   0.0000000000000000     
  -9.1268406527583550E-003   9.1775786594718120E-002   0.0000000000000000     
  -9.4284370150707637E-003   9.8424059973394332E-002   0.0000000000000000     
  -9.7227503847991184E-003  0.10523069942865525        0.0000000000000000     
  -1.2741192945910992E-002   7.9082075152881848E-002   0.0000000000000000     
  -1.3226414916895669E-002   8.5408798541549341E-002   0.0000000000000000     
  -1.3698802316275176E-002   9.1893782065529853E-002   0.0000000000000000     
  -1.4158355144049511E-002   9.8537025724823382E-002   0.0000000000000000     
  -1.4605073400218669E-002  0.10533852951942994        0.0000000000000000     
  -1.6972916622177814E-002   7.9260907073009701E-002   0.0000000000000000     
  -1.7634517183056860E-002   8.5580885490097722E-002   0.0000000000000000     
  -1.8276458204848259E-002   9.2058975724716996E-002   0.0000000000000000     
  -1.8898739687552010E-002   9.8695177776867496E-002   0.0000000000000000     
  -1.9501361631168113E-002  0.10548949164654924        0.0000000000000000     
  -5.4970134347187560E-013  0.10514443535613971        0.0000000000000000     
  -4.5746132576462983E-013  0.11210293076071029        0.0000000000000000     
  -3.7628559122759864E-013  0.11919847017730763        0.0000000000000000     
  -3.0617300144850090E-013  0.12643105360593171        0.0000000000000000     
  -2.4712393589809700E-013  0.13380068104658260        0.0000000000000000     
  -4.8543925849094637E-003  0.10516600137422519        0.0000000000000000     
  -4.9948440219203978E-003  0.11212343843855070        0.0000000000000000     
  -5.1283885663901052E-003  0.11921787828689136        0.0000000000000000     
  -5.2550262183185849E-003  0.12644932091924713        0.0000000000000000     
  -5.3747569777058378E-003  0.13381776633561804        0.0000000000000000     
  -9.7227503847991184E-003  0.10523069942865525        0.0000000000000000     
  -1.0006342113732872E-002  0.11218496147220354        0.0000000000000000     
  -1.0275773553661473E-002  0.11927610261574187        0.0000000000000000     
  -1.0531044704584925E-002  0.12650412285927032        0.0000000000000000     
  -1.0772155566503218E-002  0.13386902220278876        0.0000000000000000     
  -1.4605073400218669E-002  0.10533852951942994        0.0000000000000000     
  -1.5034494275894887E-002  0.11228749986166879        0.0000000000000000     
  -1.5442154962190393E-002  0.11937314316385920        0.0000000000000000     
  -1.5828055459105188E-002  0.12659545942600123        0.0000000000000000     
  -1.6192195766639269E-002  0.13395444864809478        0.0000000000000000     
  -1.9501361631168113E-002  0.10548949164654924        0.0000000000000000     
  -2.0079300508406436E-002  0.11243105360694644        0.0000000000000000     
  -2.0627532791976860E-002  0.11950899993124331        0.0000000000000000     
  -2.1146058481879376E-002  0.12672333061943988        0.0000000000000000     
  -2.1634877578113991E-002  0.13407404567153614        0.0000000000000000     
  -2.4712393589809700E-013  0.13380068104658260        0.0000000000000000     
  -1.9728663147589032E-013  0.14129459161412389        0.0000000000000000     
  -1.5481268610811894E-013  0.14890002442341915        0.0000000000000000     
  -1.1969957902473183E-013  0.15661697947446845        0.0000000000000000     
  -9.1949885205888648E-014  0.16444545676727179        0.0000000000000000     
  -5.3747569777058378E-003  0.13381776633561804        0.0000000000000000     
  -5.4876142811110520E-003  0.14131046180967385        0.0000000000000000     
  -5.5936315650934191E-003  0.14891465461508432        0.0000000000000000     
  -5.6928088296529433E-003  0.15663034475184953        0.0000000000000000     
  -5.7851460747896160E-003  0.16445753221996945        0.0000000000000000     
  -1.0772155566503218E-002  0.13386902220278876        0.0000000000000000     
  -1.0999433875743252E-002  0.14135807239638026        0.0000000000000000     
  -1.1213207368631913E-002  0.14895854519012772        0.0000000000000000     
  -1.1413476045169197E-002  0.15667044058403118        0.0000000000000000     
  -1.1600239905355110E-002  0.16449375857809065        0.0000000000000000     
  -1.6192195766639269E-002  0.13395444864809478        0.0000000000000000     
  -1.6535458784093886E-002  0.14143742337424309        0.0000000000000000     
  -1.6858727410770283E-002  0.14903169614854930        0.0000000000000000     
  -1.7162001646668465E-002  0.15673726697101342        0.0000000000000000     
  -1.7445281491788426E-002  0.16455413584163545        0.0000000000000000     
  -2.1634877578113991E-002  0.13407404567153614        0.0000000000000000     
  -2.2095689006162961E-002  0.14154851474326241        0.0000000000000000     
  -2.2530191691508546E-002  0.14913410749034914        0.0000000000000000     
  -2.2938385634150751E-002  0.15683082391279624        0.0000000000000000     
  -2.3320270834089569E-002  0.16463866401060381        0.0000000000000000     
  -9.1949885205888648E-014  0.16444545676727179        0.0000000000000000     
  -6.9960530424406642E-014  0.17237330322304312        0.0000000000000000     
  -5.2131693059620510E-014  0.18038836576299638        0.0000000000000000     
  -3.8464403103594114E-014  0.18849064438713167        0.0000000000000000     
  -2.8957305303611847E-014  0.19668013909544890        0.0000000000000000     
  -5.7851460747896160E-003  0.16445753221996945        0.0000000000000000     
  -5.8704252211115417E-003  0.17238410921706723        0.0000000000000000     
  -5.9484281892268160E-003  0.18039796794076612        0.0000000000000000     
  -6.0191549791354390E-003  0.18849910839106604        0.0000000000000000     
  -6.0826055908374107E-003  0.19668753056796712        0.0000000000000000     
  -1.1600239905355110E-002  0.16449375857809065        0.0000000000000000     
  -1.1772848531655028E-002  0.17241652719915870        0.0000000000000000     
  -1.1930651506534334E-002  0.18042677447408800        0.0000000000000000     
  -1.2073648829993028E-002  0.18852450040287852        0.0000000000000000     
  -1.2201840502031117E-002  0.19670970498553017        0.0000000000000000     
  -1.7445281491788426E-002  0.16455413584163545        0.0000000000000000     
  -1.7707269931700416E-002  0.17247055716931758        0.0000000000000000     
  -1.7946669951974685E-002  0.18047478536296213        0.0000000000000000     
  -1.8163481552611240E-002  0.18856682042256898        0.0000000000000000     
  -1.8357704733610071E-002  0.19674666234813823        0.0000000000000000     
  -2.3320270834089569E-002  0.16463866401060381        0.0000000000000000     
  -2.3673689421247708E-002  0.17254619912754385        0.0000000000000000     
  -2.3996483525547875E-002  0.18054200060738840        0.0000000000000000     
  -2.4288653146990063E-002  0.18862606845013752        0.0000000000000000     
  -2.4550198285574278E-002  0.19679840265579115        0.0000000000000000     
  -2.8957305303611847E-014  0.19668013909544890        0.0000000000000000     
  -2.1756901835701115E-014  0.20493844610923401        0.0000000000000000     
  -1.5012296961103289E-014  0.21324716164977273        0.0000000000000000     
  -8.7204549137354093E-015  0.22160628571706523        0.0000000000000000     
  -2.8831104170734534E-015  0.23001581831111140        0.0000000000000000     
  -6.0826055908374107E-003  0.19668753056796712        0.0000000000000000     
  -6.1389577702291977E-003  0.20494501329568404        0.0000000000000000     
  -6.1883892632072753E-003  0.21325333539843155        0.0000000000000000     
  -6.2309000697716409E-003  0.22161249687620976        0.0000000000000000     
  -6.2664901899222962E-003  0.23002249772901856        0.0000000000000000     
  -1.2201840502031117E-002  0.19670970498553017        0.0000000000000000     
  -1.2315593732930641E-002  0.20496471485504314        0.0000000000000000     
  -1.2415275732973675E-002  0.21327185664441733        0.0000000000000000     
  -1.2500886502160205E-002  0.22163113035365276        0.0000000000000000     
  -1.2572426040490241E-002  0.23004253598274937        0.0000000000000000     
  -1.8357704733610071E-002  0.19674666234813823        0.0000000000000000     
  -1.8529907888126088E-002  0.20499755078731141        0.0000000000000000     
  -1.8680659409314203E-002  0.21330272538773004        0.0000000000000000     
  -1.8809959297174415E-002  0.22166218614939423        0.0000000000000000     
  -1.8917807551706720E-002  0.23007593307230387        0.0000000000000000     
  -2.4550198285574278E-002  0.19679840265579115        0.0000000000000000     
  -2.4781900235815540E-002  0.20504352109248877        0.0000000000000000     
  -2.4984540292228866E-002  0.21334594162836976        0.0000000000000000     
  -2.5158118454814270E-002  0.22170566426343419        0.0000000000000000     
  -2.5302634723571745E-002  0.23012268899768196        0.0000000000000000     
  -2.8831104170734534E-015  0.23001581831111140        0.0000000000000000     
   2.3050138187041824E-015  0.23844451420230400        0.0000000000000000     
   6.6488698227673559E-015  0.24686112816103584        0.0000000000000000     
   1.0150002583211859E-014  0.25526566018730690        0.0000000000000000     
   1.2807463423136767E-014  0.26365811028111713        0.0000000000000000     
  -6.2664901899222962E-003  0.23002249772901856        0.0000000000000000     
  -6.2963954204744727E-003  0.23845233235800681        0.0000000000000000     
  -6.3218515582434088E-003  0.24687099516432334        0.0000000000000000     
  -6.3428586032291123E-003  0.25527848614796816        0.0000000000000000     
  -6.3594165554315745E-003  0.26367480530894116        0.0000000000000000     
  -1.2572426040490241E-002  0.23004253598274937        0.0000000000000000     
  -1.2632581336824046E-002  0.23847578682512449        0.0000000000000000     
  -1.2684039380021897E-002  0.24690059617419527        0.0000000000000000     
  -1.2726800170083786E-002  0.25531696402996168        0.0000000000000000     
  -1.2760863707009715E-002  0.26372489039242375        0.0000000000000000     
  -1.8917807551706720E-002  0.23007593307230387        0.0000000000000000     
  -1.9008557749046428E-002  0.23851487760365694        0.0000000000000000     
  -1.9086563465328804E-002  0.24694993119065148        0.0000000000000000     
  -1.9151824700553873E-002  0.25538109383328750        0.0000000000000000     
  -1.9204341454721621E-002  0.26380836553156495        0.0000000000000000     
  -2.5302634723571745E-002  0.23012268899768196        0.0000000000000000     
  -2.5424324657141593E-002  0.23856960469360428        0.0000000000000000     
  -2.5529423814164138E-002  0.24701900021369214        0.0000000000000000     
  -2.5617932194639374E-002  0.25547087555794556        0.0000000000000000     
  -2.5689849798567296E-002  0.26392523072636459        0.0000000000000000     
   1.2807463423136767E-014  0.26365811028111713        0.0000000000000000     
   1.5069542835810523E-014  0.27197832501797081        0.0000000000000000     
   1.7385507096456809E-014  0.28016615097337205        0.0000000000000000     
   1.9759611698602630E-014  0.28822158814732091        0.0000000000000000     
   2.2187113257743363E-014  0.29614463653981737        0.0000000000000000     
  -6.3594165554315745E-003  0.26367480530894116        0.0000000000000000     
  -6.3753939819011680E-003  0.27200011059120710        0.0000000000000000     
  -6.3946594496882749E-003  0.28019455993873055        0.0000000000000000     
  -6.4172129587928865E-003  0.28825815335151145        0.0000000000000000     
  -6.4430545092150071E-003  0.29619089082954986        0.0000000000000000     
  -1.2760863707009715E-002  0.26372489039242375        0.0000000000000000     
  -1.2793421919079048E-002  0.27206546731092762        0.0000000000000000     
  -1.2831666734571140E-002  0.28027978683481913        0.0000000000000000     
  -1.2875598153485995E-002  0.28836784896409845        0.0000000000000000     
  -1.2925216175823609E-002  0.29632965369876552        0.0000000000000000     
  -1.9204341454721621E-002  0.26380836553156495        0.0000000000000000     
  -1.9254083811518569E-002  0.27217439517713221        0.0000000000000000     
  -1.9311021854631214E-002  0.28042183166163798        0.0000000000000000     
  -1.9375155584059566E-002  0.28855067498508186        0.0000000000000000     
  -1.9446484999803615E-002  0.29656092514746429        0.0000000000000000     
  -2.5689849798567296E-002  0.26392523072636459        0.0000000000000000     
  -2.5757379659219728E-002  0.27232689418982109        0.0000000000000000     
  -2.5832724809868500E-002  0.28062069441918686        0.0000000000000000     
  -2.5915885250513603E-002  0.28880663141446189        0.0000000000000000     
  -2.6006860981155032E-002  0.29688470517564625        0.0000000000000000     
  -1.4007838299033026E-002   5.5782584886381791E-002   0.0000000000000000     
  -1.4801487317591714E-002   6.1373658961789694E-002   0.0000000000000000     
  -1.5560216710968744E-002   6.7150404018030310E-002   0.0000000000000000     
  -1.6284026479164104E-002   7.3112820055103639E-002   0.0000000000000000     
  -1.6972916622177814E-002   7.9260907073009701E-002   0.0000000000000000     
  -1.7493003601174444E-002   5.6041606369660248E-002   0.0000000000000000     
  -1.8503100372011888E-002   6.1626607660973179E-002   0.0000000000000000     
  -1.9467886511333708E-002   6.7396553095816311E-002   0.0000000000000000     
  -2.0387362019139901E-002   7.3351442674189637E-002   0.0000000000000000     
  -2.1261526895430469E-002   7.9491276396093158E-002   0.0000000000000000     
  -2.1142073670620130E-002   5.6359642162616672E-002   0.0000000000000000     
  -2.2355575905835031E-002   6.1936982539985620E-002   0.0000000000000000     
  -2.3514994486122903E-002   6.7698426587126159E-002   0.0000000000000000     
  -2.4620329411483757E-002   7.3643974304038268E-002   0.0000000000000000     
  -2.5671580681917574E-002   7.9773625690721994E-002   0.0000000000000000     
  -2.4955048507370091E-002   5.6736692265251062E-002   0.0000000000000000     
  -2.6358913919061151E-002   6.2304783598826990E-002   0.0000000000000000     
  -2.7701540635336343E-002   6.8056024491959827E-002   0.0000000000000000     
  -2.8982928656195665E-002   7.3990414944649571E-002   0.0000000000000000     
  -3.0203077981639126E-002   8.0107954956896224E-002   0.0000000000000000     
  -2.8931928111424324E-002   5.7172756677563413E-002   0.0000000000000000     
  -3.0513114411690245E-002   6.2730010837497324E-002   0.0000000000000000     
  -3.2027524958974013E-002   6.8469346810317355E-002   0.0000000000000000     
  -3.3475159753275648E-002   7.4390764596023506E-002   0.0000000000000000     
  -3.4856018794595135E-002   8.0494264194615819E-002   0.0000000000000000     
  -1.6972916622177814E-002   7.9260907073009701E-002   0.0000000000000000     
  -1.7634517183056860E-002   8.5580885490097722E-002   0.0000000000000000     
  -1.8276458204848259E-002   9.2058975724716996E-002   0.0000000000000000     
  -1.8898739687552010E-002   9.8695177776867496E-002   0.0000000000000000     
  -1.9501361631168113E-002  0.10548949164654924        0.0000000000000000     
  -2.1261526895430469E-002   7.9491276396093158E-002   0.0000000000000000     
  -2.2099773295427266E-002   8.5802556323181359E-002   0.0000000000000000     
  -2.2911493374352155E-002   9.2271784517108768E-002   0.0000000000000000     
  -2.3696687132205140E-002   9.8898960977875330E-002   0.0000000000000000     
  -2.4455354568986214E-002  0.10568408570548107        0.0000000000000000     
  -2.5671580681917574E-002   7.9773625690721994E-002   0.0000000000000000     
  -2.6679688453088688E-002   8.6074227225709857E-002   0.0000000000000000     
  -2.7655592880661418E-002   9.2532625387534359E-002   0.0000000000000000     
  -2.8599293964635761E-002   9.9148820176195543E-002   0.0000000000000000     
  -2.9510791705011724E-002  0.10592281159169337        0.0000000000000000     
  -3.0203077981639126E-002   8.0107954956896224E-002   0.0000000000000000     
  -3.1374262656041110E-002   8.6395898197683146E-002   0.0000000000000000     
  -3.2508756723776032E-002   9.2841498335993797E-002   0.0000000000000000     
  -3.3606560184843884E-002   9.9444755371828120E-002   0.0000000000000000     
  -3.4667673039244645E-002  0.10620566930518616        0.0000000000000000     
  -3.4856018794595135E-002   8.0494264194615819E-002   0.0000000000000000     
  -3.6183495904284560E-002   8.6767569239101311E-002   0.0000000000000000     
  -3.7470984903696006E-002   9.3198403362487053E-002   0.0000000000000000     
  -3.8718485792829480E-002   9.9786766564773102E-002   0.0000000000000000     
  -3.9925998571684988E-002  0.10653265884595940        0.0000000000000000     
  -1.9501361631168113E-002  0.10548949164654924        0.0000000000000000     
  -2.0079300508406436E-002  0.11243105360694644        0.0000000000000000     
  -2.0627532791976860E-002  0.11950899993124331        0.0000000000000000     
  -2.1146058481879376E-002  0.12672333061943988        0.0000000000000000     
  -2.1634877578113991E-002  0.13407404567153614        0.0000000000000000     
  -2.4455354568986214E-002  0.10568408570548107        0.0000000000000000     
  -2.5182005255752572E-002  0.11261620724680720        0.0000000000000000     
  -2.5871148763561426E-002  0.11968437414873488        0.0000000000000000     
  -2.6522785092412775E-002  0.12688858641126416        0.0000000000000000     
  -2.7136914242306614E-002  0.13422884403439500        0.0000000000000000     
  -2.9510791705011724E-002  0.10592281159169337        0.0000000000000000     
  -3.0383852962418339E-002  0.11284354532002176        0.0000000000000000     
  -3.1212244597484656E-002  0.11989996704717465        0.0000000000000000     
  -3.1995966610210674E-002  0.12709207677315199        0.0000000000000000     
  -3.2735019000596374E-002  0.13441987449795376        0.0000000000000000     
  -3.4667673039244645E-002  0.10620566930518616        0.0000000000000000     
  -3.5684843628403747E-002  0.11311306782659022        0.0000000000000000     
  -3.6650820293746542E-002  0.12015577862656258        0.0000000000000000     
  -3.7565603035273058E-002  0.12733380170510328        0.0000000000000000     
  -3.8429191852983276E-002  0.13464713706221240        0.0000000000000000     
  -3.9925998571684988E-002  0.10653265884595940        0.0000000000000000     
  -4.1084977253708764E-002  0.11342477476651244        0.0000000000000000     
  -4.2186875852347087E-002  0.12045180888689869        0.0000000000000000     
  -4.3231694367599938E-002  0.12761376120711815        0.0000000000000000     
  -4.4219432799467322E-002  0.13491063172717083        0.0000000000000000     
  -2.1634877578113991E-002  0.13407404567153614        0.0000000000000000     
  -2.2095689006162961E-002  0.14154851474326241        0.0000000000000000     
  -2.2530191691508546E-002  0.14913410749034914        0.0000000000000000     
  -2.2938385634150751E-002  0.15683082391279624        0.0000000000000000     
  -2.3320270834089569E-002  0.16463866401060381        0.0000000000000000     
  -2.7136914242306614E-002  0.13422884403439500        0.0000000000000000     
  -2.7716058992514732E-002  0.14169258694994544        0.0000000000000000     
  -2.8262742122308903E-002  0.14926725508973351        0.0000000000000000     
  -2.8776963631689138E-002  0.15695284845375918        0.0000000000000000     
  -2.9258723520655436E-002  0.16474936704202242        0.0000000000000000     
  -3.2735019000596374E-002  0.13441987449795376        0.0000000000000000     
  -3.3432503193713457E-002  0.14187088044079957        0.0000000000000000     
  -3.4091520614633566E-002  0.14943261482090886        0.0000000000000000     
  -3.4712071263356736E-002  0.15710507763828171        0.0000000000000000     
  -3.5294155139882932E-002  0.16488826889291808        0.0000000000000000     
  -3.8429191852983276E-002  0.13464713706221240        0.0000000000000000     
  -3.9245021609759144E-002  0.14208339521582466        0.0000000000000000     
  -4.0016527168482550E-002  0.14963018668387518        0.0000000000000000     
  -4.0743708529153516E-002  0.15728751146636383        0.0000000000000000     
  -4.1426565691772048E-002  0.16505536956329073        0.0000000000000000     
  -4.4219432799467322E-002  0.13491063172717083        0.0000000000000000     
  -4.5153614240651785E-002  0.14233013127502089        0.0000000000000000     
  -4.6037761783855838E-002  0.14985997067863249        0.0000000000000000     
  -4.6871875429079515E-002  0.15750014993800565        0.0000000000000000     
  -4.7655955176322803E-002  0.16525066905314034        0.0000000000000000     
  -2.3320270834089569E-002  0.16463866401060381        0.0000000000000000     
  -2.3673689421247708E-002  0.17254619912754385        0.0000000000000000     
  -2.3996483525547875E-002  0.18054200060738840        0.0000000000000000     
  -2.4288653146990063E-002  0.18862606845013752        0.0000000000000000     
  -2.4550198285574278E-002  0.19679840265579115        0.0000000000000000     
  -2.9258723520655436E-002  0.16474936704202242        0.0000000000000000     
  -2.9705065379114954E-002  0.17264569302239233        0.0000000000000000     
  -3.0113032796974852E-002  0.18063070856273777        0.0000000000000000     
  -3.0482625774235120E-002  0.18870441366305882        0.0000000000000000     
  -3.0813844310895771E-002  0.19686680832335543        0.0000000000000000     
  -3.5294155139882932E-002  0.16488826889291808        0.0000000000000000     
  -3.5834356184120196E-002  0.17277127880241788        0.0000000000000000     
  -3.6329258335976569E-002  0.18074319758438109        0.0000000000000000     
  -3.6778861595452031E-002  0.18880402523880754        0.0000000000000000     
  -3.7183165962546595E-002  0.19695376176569743        0.0000000000000000     
  -4.1426565691772048E-002  0.16505536956329073        0.0000000000000000     
  -4.2061561836263452E-002  0.17292295646762057        0.0000000000000000     
  -4.2645160142553026E-002  0.18087946767231830        0.0000000000000000     
  -4.3177360610640779E-002  0.18892490317738383        0.0000000000000000     
  -4.3658163240526730E-002  0.19705926298281717        0.0000000000000000     
  -4.7655955176322803E-002  0.16525066905314034        0.0000000000000000     
  -4.8386682335544703E-002  0.17310072601800036        0.0000000000000000     
  -4.9060738216704231E-002  0.18103951882654942        0.0000000000000000     
  -4.9678122819801399E-002  0.18906704747878750        0.0000000000000000     
  -5.0238836144836194E-002  0.19718331197471461        0.0000000000000000     
  -2.4550198285574278E-002  0.19679840265579115        0.0000000000000000     
  -2.4781900235815540E-002  0.20504352109248877        0.0000000000000000     
  -2.4984540292228866E-002  0.21334594162836976        0.0000000000000000     
  -2.5158118454814270E-002  0.22170566426343419        0.0000000000000000     
  -2.5302634723571745E-002  0.23012268899768196        0.0000000000000000     
  -3.0813844310895771E-002  0.19686680832335543        0.0000000000000000     
  -3.1107465780907801E-002  0.20510393850481581        0.0000000000000000     
  -3.1364267558222213E-002  0.21340185016862817        0.0000000000000000     
  -3.1584249642838999E-002  0.22176054331479253        0.0000000000000000     
  -3.1767412034758177E-002  0.23018001794330889        0.0000000000000000     
  -3.7183165962546595E-002  0.19695376176569743        0.0000000000000000     
  -3.7542499528311686E-002  0.20518011575853307        0.0000000000000000     
  -3.7857190383798776E-002  0.21347079581079703        0.0000000000000000     
  -3.8127238529007845E-002  0.22182580192248916        0.0000000000000000     
  -3.8352643963938914E-002  0.23024513409360969        0.0000000000000000     
  -4.3658163240526730E-002  0.19705926298281717        0.0000000000000000     
  -4.4087001478027202E-002  0.20527205285364053        0.0000000000000000     
  -4.4463308768958550E-002  0.21355277855487620        0.0000000000000000     
  -4.4787085113320808E-002  0.22190144008652418        0.0000000000000000     
  -4.5058330511113937E-002  0.23031803744858442        0.0000000000000000     
  -5.0238836144836194E-002  0.19718331197471461        0.0000000000000000     
  -5.0740971630054345E-002  0.20537974979013826        0.0000000000000000     
  -5.1182622713701574E-002  0.21364779840086587        0.0000000000000000     
  -5.1563789395777875E-002  0.22198745780689746        0.0000000000000000     
  -5.1884471676283260E-002  0.23039872800823305        0.0000000000000000     
  -2.5302634723571745E-002  0.23012268899768196        0.0000000000000000     
  -2.5424324657141593E-002  0.23856960469360428        0.0000000000000000     
  -2.5529423814164138E-002  0.24701900021369214        0.0000000000000000     
  -2.5617932194639374E-002  0.25547087555794556        0.0000000000000000     
  -2.5689849798567296E-002  0.26392523072636459        0.0000000000000000     
  -3.1767412034758177E-002  0.23018001794330889        0.0000000000000000     
  -3.1921593355079651E-002  0.23863549227588057        0.0000000000000000     
  -3.2054632224903332E-002  0.24710218453421101        0.0000000000000000     
  -3.2166528644229225E-002  0.25558009471830023        0.0000000000000000     
  -3.2257282613057339E-002  0.26406922282814821        0.0000000000000000     
  -3.8352643963938914E-002  0.23024513409360969        0.0000000000000000     
  -3.8542075136830667E-002  0.23870806453140012        0.0000000000000000     
  -3.8704200495921819E-002  0.24719386544310212        0.0000000000000000     
  -3.8839020041212390E-002  0.25570253682871574        0.0000000000000000     
  -3.8946533772702352E-002  0.26423407868824095        0.0000000000000000     
  -4.5058330511113937E-002  0.23031803744858442        0.0000000000000000     
  -4.5285770002394643E-002  0.23878732146016288        0.0000000000000000     
  -4.5478128627219609E-002  0.24729404294036539        0.0000000000000000     
  -4.5635406385588849E-002  0.25583820188919210        0.0000000000000000     
  -4.5757603277502334E-002  0.26441979830664292        0.0000000000000000     
  -5.1884471676283260E-002  0.23039872800823305        0.0000000000000000     
  -5.2152677951771573E-002  0.23887326306216883        0.0000000000000000     
  -5.2376416618796690E-002  0.24740271702600086        0.0000000000000000     
  -5.2555687677358597E-002  0.25598708989972935        0.0000000000000000     
  -5.2690491127457301E-002  0.26462638168335412        0.0000000000000000     
  -2.5689849798567296E-002  0.26392523072636459        0.0000000000000000     
  -2.5757379659219728E-002  0.27232689418982109        0.0000000000000000     
  -2.5832724809868500E-002  0.28062069441918686        0.0000000000000000     
  -2.5915885250513603E-002  0.28880663141446189        0.0000000000000000     
  -2.6006860981155032E-002  0.29688470517564625        0.0000000000000000     
  -3.2257282613057339E-002  0.26406922282814821        0.0000000000000000     
  -3.2341733271542043E-002  0.27251663660444236        0.0000000000000000     
  -3.2434719759837749E-002  0.28086940378787045        0.0000000000000000     
  -3.2536242077944443E-002  0.28912752437843225        0.0000000000000000     
  -3.2646300225862131E-002  0.29729099837612782        0.0000000000000000     
  -3.8946533772702352E-002  0.26423407868824095        0.0000000000000000     
  -3.9045568457845035E-002  0.27273729467644447        0.0000000000000000     
  -3.9154950864093742E-002  0.28116098844809301        0.0000000000000000     
  -3.9274680991448450E-002  0.28950516000318655        0.0000000000000000     
  -3.9404758839909196E-002  0.29776980934172526        0.0000000000000000     
  -4.5757603277502334E-002  0.26441979830664292        0.0000000000000000     
  -4.5868885218128673E-002  0.27298886840582726        0.0000000000000000     
  -4.5993418122636437E-002  0.28149544839985480        0.0000000000000000     
  -4.6131201991025626E-002  0.28993953828872515        0.0000000000000000     
  -4.6282236823296234E-002  0.29832113807243860        0.0000000000000000     
  -5.2690491127457301E-002  0.26462638168335412        0.0000000000000000     
  -5.2811683552392991E-002  0.27327135779259093        0.0000000000000000     
  -5.2950121535465876E-002  0.28187278364315549        0.0000000000000000     
  -5.3105805076675956E-002  0.29043065923504779        0.0000000000000000     
  -5.3278734176023232E-002  0.29894498456826785        0.0000000000000000     
  -2.8931928111424324E-002   5.7172756677563413E-002   0.0000000000000000     
  -3.0513114411690245E-002   6.2730010837497324E-002   0.0000000000000000     
  -3.2027524958974013E-002   6.8469346810317355E-002   0.0000000000000000     
  -3.3475159753275648E-002   7.4390764596023506E-002   0.0000000000000000     
  -3.4856018794595135E-002   8.0494264194615819E-002   0.0000000000000000     
  -3.3026870660008589E-002   5.7668431617759627E-002   0.0000000000000000     
  -3.4785676128975956E-002   6.3212614480055468E-002   0.0000000000000000     
  -3.6471784404522721E-002   6.8937912810365667E-002   0.0000000000000000     
  -3.8085195486648883E-002   7.4844326608690198E-002   0.0000000000000000     
  -3.9625909375354429E-002   8.0931855875029060E-002   0.0000000000000000     
  -3.7194034330348659E-002   5.8224313304045594E-002   0.0000000000000000     
  -3.9144097816171945E-002   6.3752544750560317E-002   0.0000000000000000     
  -4.1013155919469239E-002   6.9461241760271672E-002   0.0000000000000000     
  -4.2801208640240555E-002   7.5350404333179619E-002   0.0000000000000000     
  -4.4508255978485907E-002   8.1420032469284198E-002   0.0000000000000000     
  -4.1433419122444519E-002   5.8840401736421299E-002   0.0000000000000000     
  -4.3588379473278205E-002   6.4349801649011884E-002   0.0000000000000000     
  -4.5651639503813596E-002   7.0039333660035397E-002   0.0000000000000000     
  -4.7623199214050692E-002   7.5908997769491865E-002   0.0000000000000000     
  -4.9503058603989521E-002   8.1958793977381247E-002   0.0000000000000000     
  -4.5745025036296183E-002   5.9516696914886771E-002   0.0000000000000000     
  -4.8118521100294728E-002   6.5004385175410143E-002   0.0000000000000000     
  -5.0387235157555769E-002   7.0672188509656841E-002   0.0000000000000000     
  -5.2551167208079300E-002   7.6520106917626840E-002   0.0000000000000000     
  -5.4610317251865305E-002   8.2548140399320180E-002   0.0000000000000000     
  -3.4856018794595135E-002   8.0494264194615819E-002   0.0000000000000000     
  -3.6183495904284560E-002   8.6767569239101311E-002   0.0000000000000000     
  -3.7470984903696006E-002   9.3198403362487053E-002   0.0000000000000000     
  -3.8718485792829480E-002   9.9786766564773102E-002   0.0000000000000000     
  -3.9925998571684988E-002  0.10653265884595940        0.0000000000000000     
  -3.9625909375354429E-002   8.0931855875029060E-002   0.0000000000000000     
  -4.1108756120506636E-002   8.7188668915497994E-002   0.0000000000000000     
  -4.2548565771972711E-002   9.3602934036212698E-002   0.0000000000000000     
  -4.3945338329752642E-002  0.10017465123717319        0.0000000000000000     
  -4.5299073793846477E-002  0.10690382051837941        0.0000000000000000     
  -4.4508255978485907E-002   8.1420032469284198E-002   0.0000000000000000     
  -4.6151411227394960E-002   8.7658625792406894E-002   0.0000000000000000     
  -4.7747787680157479E-002   9.4054683926369134E-002   0.0000000000000000     
  -4.9297385336773442E-002  0.10060820687117102        0.0000000000000000     
  -5.0800204197242842E-002  0.10731919462681244        0.0000000000000000     
  -4.9503058603989521E-002   8.1958793977381247E-002   0.0000000000000000     
  -5.1311461224949562E-002   8.8177439869827984E-002   0.0000000000000000     
  -5.3068650628250336E-002   9.4553653032956458E-002   0.0000000000000000     
  -5.4774626813891857E-002  0.10108743346676663        0.0000000000000000     
  -5.6429389781874104E-002  0.10777878117125853        0.0000000000000000     
  -5.4610317251865305E-002   8.2548140399320180E-002   0.0000000000000000     
  -5.6588906113170426E-002   8.8745111147761291E-002   0.0000000000000000     
  -5.8511154616251289E-002   9.5099841355974560E-002   0.0000000000000000     
  -6.0377062761107887E-002  0.10161233102396003        0.0000000000000000     
  -6.2186630547740228E-002  0.10828258015171767        0.0000000000000000     
  -3.9925998571684988E-002  0.10653265884595940        0.0000000000000000     
  -4.1084977253708764E-002  0.11342477476651244        0.0000000000000000     
  -4.2186875852347087E-002  0.12045180888689869        0.0000000000000000     
  -4.3231694367599938E-002  0.12761376120711815        0.0000000000000000     
  -4.4219432799467322E-002  0.13491063172717083        0.0000000000000000     
  -4.5299073793846477E-002  0.10690382051837941        0.0000000000000000     
  -4.6599878845290911E-002  0.11377898298709077        0.0000000000000000     
  -4.7837860165122696E-002  0.12078867975056666        0.0000000000000000     
  -4.9013017753341839E-002  0.12793291080880703        0.0000000000000000     
  -5.0125351609948327E-002  0.13521167616181190        0.0000000000000000     
  -5.0800204197242842E-002  0.10731919462681244        0.0000000000000000     
  -5.2245173410107641E-002  0.11417600933562749        0.0000000000000000     
  -5.3621222123909788E-002  0.12116701313995017        0.0000000000000000     
  -5.4928350338649290E-002  0.12829220603978045        0.0000000000000000     
  -5.6166558054326139E-002  0.13555158803511835        0.0000000000000000     
  -5.6429389781874104E-002  0.10777878117125853        0.0000000000000000     
  -5.8020860948158955E-002  0.11461585381212260        0.0000000000000000     
  -5.9536961728708364E-002  0.12158680905504922        0.0000000000000000     
  -6.0977692123522283E-002  0.12869164690003843        0.0000000000000000     
  -6.2343052132600739E-002  0.13593036734709016        0.0000000000000000     
  -6.2186630547740228E-002  0.10828258015171767        0.0000000000000000     
  -6.3926941459444872E-002  0.11509851641657608        0.0000000000000000     
  -6.5585078979518416E-002  0.12204806749586382        0.0000000000000000     
  -6.7161043107960838E-002  0.12913123338958091        0.0000000000000000     
  -6.8654833844772140E-002  0.13634801409772737        0.0000000000000000     
  -4.4219432799467322E-002  0.13491063172717083        0.0000000000000000     
  -4.5153614240651785E-002  0.14233013127502089        0.0000000000000000     
  -4.6037761783855838E-002  0.14985997067863249        0.0000000000000000     
  -4.6871875429079515E-002  0.15750014993800565        0.0000000000000000     
  -4.7655955176322803E-002  0.16525066905314034        0.0000000000000000     
  -5.0125351609948327E-002  0.13521167616181190        0.0000000000000000     
  -5.1178556816713419E-002  0.14261276438059703        0.0000000000000000     
  -5.2176328455408365E-002  0.15012396403617828        0.0000000000000000     
  -5.3118666526033156E-002  0.15774527512855566        0.0000000000000000     
  -5.4005571028587808E-002  0.16547669765772907        0.0000000000000000     
  -5.6166558054326139E-002  0.13555158803511835        0.0000000000000000     
  -5.7340125068266128E-002  0.14293297029476215        0.0000000000000000     
  -5.8453331177795047E-002  0.15042416398751018        0.0000000000000000     
  -5.9506176382912904E-002  0.15802516911336245        0.0000000000000000     
  -6.0498660683619698E-002  0.16573598567231890        0.0000000000000000     
  -6.2343052132600739E-002  0.13593036734709016        0.0000000000000000     
  -6.3638318995309889E-002  0.14329074901751618        0.0000000000000000     
  -6.4868769951015884E-002  0.15076057053262815        0.0000000000000000     
  -6.6034404999718757E-002  0.15833983189242604        0.0000000000000000     
  -6.7135224141418481E-002  0.16602853309690990        0.0000000000000000     
  -6.8654833844772140E-002  0.13634801409772737        0.0000000000000000     
  -7.0073138597844697E-002  0.14368610054885914        0.0000000000000000     
  -7.1422644775070876E-002  0.15113318367153217        0.0000000000000000     
  -7.2703352376450717E-002  0.15868926346574644        0.0000000000000000     
  -7.3915261401984150E-002  0.16635433993150200        0.0000000000000000     
  -4.7655955176322803E-002  0.16525066905314034        0.0000000000000000     
  -4.8386682335544703E-002  0.17310072601800036        0.0000000000000000     
  -4.9060738216704231E-002  0.18103951882654942        0.0000000000000000     
  -4.9678122819801399E-002  0.18906704747878750        0.0000000000000000     
  -5.0238836144836194E-002  0.19718331197471461        0.0000000000000000     
  -5.4005571028587808E-002  0.16547669765772907        0.0000000000000000     
  -5.4834014826140136E-002  0.17330746869214045        0.0000000000000000     
  -5.5600970781758019E-002  0.18122682530023157        0.0000000000000000     
  -5.6306438895441444E-002  0.18923476748200249        0.0000000000000000     
  -5.6950419167190409E-002  0.19733129523745327        0.0000000000000000     
  -6.0498660683619698E-002  0.16573598567231890        0.0000000000000000     
  -6.1427856452225947E-002  0.17354606572862394        0.0000000000000000     
  -6.2290836061042222E-002  0.18144486134652191        0.0000000000000000     
  -6.3087599510068496E-002  0.18943237252601272        0.0000000000000000     
  -6.3818146799304809E-002  0.19750859926709644        0.0000000000000000     
  -6.7135224141418481E-002  0.16602853309690990        0.0000000000000000     
  -6.8168207213802165E-002  0.17381651712745089        0.0000000000000000     
  -6.9130334054556861E-002  0.18169362696542030        0.0000000000000000     
  -7.0021604663682610E-002  0.18965986261081810        0.0000000000000000     
  -7.0842019041179385E-002  0.19771522406364425        0.0000000000000000     
  -7.3915261401984150E-002  0.16635433993150200        0.0000000000000000     
  -7.5055067110868720E-002  0.17411882288862132        0.0000000000000000     
  -7.6119464762301914E-002  0.18197312215692685        0.0000000000000000     
  -7.7108454356283732E-002  0.18991723773641858        0.0000000000000000     
  -7.8022035892814146E-002  0.19795116962709658        0.0000000000000000     
  -5.0238836144836194E-002  0.19718331197471461        0.0000000000000000     
  -5.0740971630054345E-002  0.20537974979013826        0.0000000000000000     
  -5.1182622713701574E-002  0.21364779840086587        0.0000000000000000     
  -5.1563789395777875E-002  0.22198745780689746        0.0000000000000000     
  -5.1884471676283260E-002  0.23039872800823305        0.0000000000000000     
  -5.6950419167190409E-002  0.19733129523745327        0.0000000000000000     
  -5.7530026397599396E-002  0.20550942527395930        0.0000000000000000     
  -5.8042375387262903E-002  0.21376217429889610        0.0000000000000000     
  -5.8487466136180936E-002  0.22208954231226366        0.0000000000000000     
  -5.8865298644353463E-002  0.23049152931406208        0.0000000000000000     
  -6.3818146799304809E-002  0.19750859926709644        0.0000000000000000     
  -6.4479782193868684E-002  0.20566729801103667        0.0000000000000000     
  -6.5069809958877692E-002  0.21390222519909699        0.0000000000000000     
  -6.5588230094331845E-002  0.22221338083127740        0.0000000000000000     
  -6.6035042600231145E-002  0.23060076490757783        0.0000000000000000     
  -7.0842019041179385E-002  0.19771522406364425        0.0000000000000000     
  -7.1590239018862148E-002  0.20585336800137050        0.0000000000000000     
  -7.2264926428545900E-002  0.21406795110146862        0.0000000000000000     
  -7.2866081270230601E-002  0.22235897336393859        0.0000000000000000     
  -7.3393703543916278E-002  0.23072643478878047        0.0000000000000000     
  -7.8022035892814146E-002  0.19795116962709658        0.0000000000000000     
  -7.8861396872579856E-002  0.20606763524496075        0.0000000000000000     
  -7.9627724796267563E-002  0.21425935200601098        0.0000000000000000     
  -8.0321019663877238E-002  0.22252631991024738        0.0000000000000000     
  -8.0941281475408883E-002  0.23086853895766990        0.0000000000000000     
  -5.1884471676283260E-002  0.23039872800823305        0.0000000000000000     
  -5.2152677951771573E-002  0.23887326306216883        0.0000000000000000     
  -5.2376416618796690E-002  0.24740271702600086        0.0000000000000000     
  -5.2555687677358597E-002  0.25598708989972935        0.0000000000000000     
  -5.2690491127457301E-002  0.26462638168335412        0.0000000000000000     
  -5.8865298644353463E-002  0.23049152931406208        0.0000000000000000     
  -5.9181882489664467E-002  0.23896731368645491        0.0000000000000000     
  -5.9443227249997899E-002  0.24751607381160584        0.0000000000000000     
  -5.9649332925353751E-002  0.25613780968951499        0.0000000000000000     
  -5.9800199515732025E-002  0.26483252132018226        0.0000000000000000     
  -6.6035042600231145E-002  0.23060076490757783        0.0000000000000000     
  -6.6412467120776308E-002  0.23907089768205808        0.0000000000000000     
  -6.6722723300168041E-002  0.24763029940877768        0.0000000000000000     
  -6.6965811138406384E-002  0.25627897008773670        0.0000000000000000     
  -6.7141730635491323E-002  0.26501690971893521        0.0000000000000000     
  -7.3393703543916278E-002  0.23072643478878047        0.0000000000000000     
  -7.3844431845107070E-002  0.23918401504897832        0.0000000000000000     
  -7.4214904769307158E-002  0.24774539381751637        0.0000000000000000     
  -7.4505122316516528E-002  0.25641057109439452        0.0000000000000000     
  -7.4715084486735181E-002  0.26517954687961293        0.0000000000000000     
  -8.0941281475408883E-002  0.23086853895766990        0.0000000000000000     
  -8.1477776662656792E-002  0.23930666578721566        0.0000000000000000     
  -8.1919771657415208E-002  0.24786135703782183        0.0000000000000000     
  -8.2267266459684144E-002  0.25653261270948841        0.0000000000000000     
  -8.2520261069463599E-002  0.26532043280221540        0.0000000000000000     
  -5.2690491127457301E-002  0.26462638168335412        0.0000000000000000     
  -5.2811683552392991E-002  0.27327135779259093        0.0000000000000000     
  -5.2950121535465876E-002  0.28187278364315549        0.0000000000000000     
  -5.3105805076675956E-002  0.29043065923504779        0.0000000000000000     
  -5.3278734176023232E-002  0.29894498456826785        0.0000000000000000     
  -5.9800199515732025E-002  0.26483252132018226        0.0000000000000000     
  -5.9932717432346468E-002  0.27355605765939606        0.0000000000000000     
  -6.0083777086410800E-002  0.28226426766294488        0.0000000000000000     
  -6.0253378477925022E-002  0.29095715133082872        0.0000000000000000     
  -6.0441521606889162E-002  0.29963470866304748        0.0000000000000000     
  -6.7141730635491323E-002  0.26501690971893521        0.0000000000000000     
  -6.7290740829697604E-002  0.27381426282890359        0.0000000000000000     
  -6.7453100759299944E-002  0.28264117394417265        0.0000000000000000     
  -6.7628810424298427E-002  0.29149764306474213        0.0000000000000000     
  -6.7817869824692970E-002  0.30038367019061207        0.0000000000000000     
  -7.4715084486735181E-002  0.26517954687961293        0.0000000000000000     
  -7.4885753744446351E-002  0.27404597330111358        0.0000000000000000     
  -7.5058092554133343E-002  0.28300350248683848        0.0000000000000000     
  -7.5232100915796102E-002  0.29205213443678785        0.0000000000000000     
  -7.5407778829434668E-002  0.30119186915096158        0.0000000000000000     
  -8.2520261069463599E-002  0.26532043280221540        0.0000000000000000     
  -8.2717756176592785E-002  0.27425118907602580        0.0000000000000000     
  -8.2898752470910969E-002  0.28335125329094268        0.0000000000000000     
  -8.3063249952418122E-002  0.29262062544696610        0.0000000000000000     
  -8.3211248621114245E-002  0.30205930554409599        0.0000000000000000     
  -4.5745025036296183E-002   5.9516696914886771E-002   0.0000000000000000     
  -4.8118521100294728E-002   6.5004385175410143E-002   0.0000000000000000     
  -5.0387235157555769E-002   7.0672188509656841E-002   0.0000000000000000     
  -5.2551167208079300E-002   7.6520106917626840E-002   0.0000000000000000     
  -5.4610317251865305E-002   8.2548140399320180E-002   0.0000000000000000     
  -5.0234847524605011E-002   6.0250914823686878E-002   0.0000000000000000     
  -5.2820435251571339E-002   6.5715322228240419E-002   0.0000000000000000     
  -5.5290341838115660E-002   7.1359719112032816E-002   0.0000000000000000     
  -5.7644567284237995E-002   7.7184105475064019E-002   0.0000000000000000     
  -5.9883111589938351E-002   8.3188481317334056E-002   0.0000000000000000     
  -5.5008882040072378E-002   6.1040771447066496E-002   0.0000000000000000     
  -5.7780034481457791E-002   6.6481639705988110E-002   0.0000000000000000     
  -6.0431358502913160E-002   7.2101838270060198E-002   0.0000000000000000     
  -6.2962854104438498E-002   7.7901367139282793E-002   0.0000000000000000     
  -6.5374521286033771E-002   8.3880226313655812E-002   0.0000000000000000     
  -6.0067128582698290E-002   6.1886266785025630E-002   0.0000000000000000     
  -6.2997318789954113E-002   6.7303337608653188E-002   0.0000000000000000     
  -6.5810285151948270E-002   7.2898545983739030E-002   0.0000000000000000     
  -6.8506027668680761E-002   7.8671891910283134E-002   0.0000000000000000     
  -7.1084546340151586E-002   8.4623375388285516E-002   0.0000000000000000     
  -6.5409587152482740E-002   6.2787400837564275E-002   0.0000000000000000     
  -6.8472288177060303E-002   6.8180415936235625E-002   0.0000000000000000     
  -7.1427121785220982E-002   7.3749842253069214E-002   0.0000000000000000     
  -7.4274087976964817E-002   7.9495679788065057E-002   0.0000000000000000     
  -7.7013186752291768E-002   8.5417928541223154E-002   0.0000000000000000     
  -5.4610317251865305E-002   8.2548140399320180E-002   0.0000000000000000     
  -5.6588906113170426E-002   8.8745111147761291E-002   0.0000000000000000     
  -5.8511154616251289E-002   9.5099841355974560E-002   0.0000000000000000     
  -6.0377062761107887E-002  0.10161233102396003        0.0000000000000000     
  -6.2186630547740228E-002  0.10828258015171767        0.0000000000000000     
  -5.9883111589938351E-002   8.3188481317334056E-002   0.0000000000000000     
  -6.2032891559580729E-002   8.9361901280423400E-002   0.0000000000000000     
  -6.4120823997529150E-002   9.5693420005912605E-002   0.0000000000000000     
  -6.6146908903783608E-002  0.10218303749380170        0.0000000000000000     
  -6.8111146278344109E-002  0.10883075374409061        0.0000000000000000     
  -6.5374521286033771E-002   8.3880226313655812E-002   0.0000000000000000     
  -6.7692563231703654E-002   9.0028071922030925E-002   0.0000000000000000     
  -6.9943183125452751E-002   9.6334560093259664E-002   0.0000000000000000     
  -7.2126380967281079E-002  0.10279969082734208        0.0000000000000000     
  -7.4242156757188621E-002  0.10942346412427810        0.0000000000000000     
  -7.1084546340151586E-002   8.4623375388285516E-002   0.0000000000000000     
  -7.3567921129539207E-002   9.0743623072583851E-002   0.0000000000000000     
  -7.5978232000022100E-002   9.7023261618015721E-002   0.0000000000000000     
  -7.8315478951600292E-002  0.10346229102458117        0.0000000000000000     
  -8.0579661984273743E-002  0.11006071129228019        0.0000000000000000     
  -7.7013186752291768E-002   8.5417928541223154E-002   0.0000000000000000     
  -7.9658965253087397E-002   9.1508554732082178E-002   0.0000000000000000     
  -8.2225970621237224E-002   9.7759524580180793E-002   0.0000000000000000     
  -8.4714202856741264E-002  0.10417083808551901        0.0000000000000000     
  -8.7123661959599502E-002  0.11074249524809682        0.0000000000000000     
  -6.2186630547740228E-002  0.10828258015171767        0.0000000000000000     
  -6.3926941459444872E-002  0.11509851641657608        0.0000000000000000     
  -6.5585078979518416E-002  0.12204806749586382        0.0000000000000000     
  -6.7161043107960838E-002  0.12913123338958091        0.0000000000000000     
  -6.8654833844772140E-002  0.13634801409772737        0.0000000000000000     
  -6.8111146278344109E-002  0.10883075374409061        0.0000000000000000     
  -6.9999986252836405E-002  0.11562416562035052        0.0000000000000000     
  -7.1799878958886232E-002  0.12255086998615257        0.0000000000000000     
  -7.3510824396493604E-002  0.12961086684149675        0.0000000000000000     
  -7.5132822565658494E-002  0.13680415618638306        0.0000000000000000     
  -7.4242156757188621E-002  0.10942346412427810        0.0000000000000000     
  -7.6276566637204585E-002  0.11619296989480851        0.0000000000000000     
  -7.8215666749358120E-002  0.12309529804967403        0.0000000000000000     
  -8.0059457093649269E-002  0.13013044858887465        0.0000000000000000     
  -8.1807937670077976E-002  0.13729842151241031        0.0000000000000000     
  -8.0579661984273743E-002  0.11006071129228019        0.0000000000000000     
  -8.2756682612549384E-002  0.11680492923995010        0.0000000000000000     
  -8.4832442350934054E-002  0.12368135168642821        0.0000000000000000     
  -8.6806941199427792E-002  0.13068997863171458        0.0000000000000000     
  -8.8680179158030586E-002  0.13783081007580916        0.0000000000000000     
  -8.7123661959599502E-002  0.11074249524809682        0.0000000000000000     
  -8.9440334178870817E-002  0.11746004365577520        0.0000000000000000     
  -9.1650205763614045E-002  0.12430903089641514        0.0000000000000000     
  -9.3753276713829214E-002  0.13128945697001662        0.0000000000000000     
  -9.5749547029516310E-002  0.13840132187657961        0.0000000000000000     
  -6.8654833844772140E-002  0.13634801409772737        0.0000000000000000     
  -7.0073138597844697E-002  0.14368610054885914        0.0000000000000000     
  -7.1422644775070876E-002  0.15113318367153217        0.0000000000000000     
  -7.2703352376450717E-002  0.15868926346574644        0.0000000000000000     
  -7.3915261401984150E-002  0.16635433993150200        0.0000000000000000     
  -7.5132822565658494E-002  0.13680415618638306        0.0000000000000000     
  -7.6673952533501441E-002  0.14411847875360997        0.0000000000000000     
  -7.8142293367142915E-002  0.15154157527597600        0.0000000000000000     
  -7.9537845066582971E-002  0.15907344575348115        0.0000000000000000     
  -8.0860607631821554E-002  0.16671409018612543        0.0000000000000000     
  -8.1807937670077976E-002  0.13729842151241031        0.0000000000000000     
  -8.3470129459910961E-002  0.14458733749658773        0.0000000000000000     
  -8.5055053444414899E-002  0.15198531721771355        0.0000000000000000     
  -8.6562709623589737E-002  0.15949236067578770        0.0000000000000000     
  -8.7993097997435515E-002  0.16710846787081027        0.0000000000000000     
  -8.8680179158030586E-002  0.13783081007580916        0.0000000000000000     
  -9.0461669377073284E-002  0.14509267677779239        0.0000000000000000     
  -9.2160925006886760E-002  0.15246440949674472        0.0000000000000000     
  -9.3777946047471000E-002  0.15994600823266608        0.0000000000000000     
  -9.5312732498826019E-002  0.16753747298555660        0.0000000000000000     
  -9.5749547029516310E-002  0.13840132187657961        0.0000000000000000     
  -9.7648572284988411E-002  0.14563449659722399        0.0000000000000000     
  -9.9459908054558566E-002  0.15297885211306961        0.0000000000000000     
 -0.10118355433822679       0.16043438842411636        0.0000000000000000     
 -0.10281951113599308       0.16800110553036432        0.0000000000000000     
  -7.3915261401984150E-002  0.16635433993150200        0.0000000000000000     
  -7.5055067110868720E-002  0.17411882288862132        0.0000000000000000     
  -7.6119464762301914E-002  0.18197312215692685        0.0000000000000000     
  -7.7108454356283732E-002  0.18991723773641858        0.0000000000000000     
  -7.8022035892814146E-002  0.19795116962709658        0.0000000000000000     
  -8.0860607631821554E-002  0.16671409018612543        0.0000000000000000     
  -8.2107229812426644E-002  0.17445431212461077        0.0000000000000000     
  -8.3274360357966246E-002  0.18228491511963915        0.0000000000000000     
  -8.4361999268440277E-002  0.19020589917121070        0.0000000000000000     
  -8.5370146543848807E-002  0.19821726427932526        0.0000000000000000     
  -8.7993097997435515E-002  0.16710846787081027        0.0000000000000000     
  -8.9343488987476918E-002  0.17482431394789483        0.0000000000000000     
  -9.0611153015238657E-002  0.18263057405215496        0.0000000000000000     
  -9.1796090080720705E-002  0.19052724818359063        0.0000000000000000     
  -9.2898300183923088E-002  0.19851433634220197        0.0000000000000000     
  -9.5312732498826019E-002  0.16753747298555660        0.0000000000000000     
  -9.6763844636019503E-002  0.17522882835847345        0.0000000000000000     
  -9.8129842734119163E-002  0.18301009895447412        0.0000000000000000     
  -9.9410726793125001E-002  0.19088128477355859        0.0000000000000000     
 -0.10060649681303700       0.19884238581572686        0.0000000000000000     
 -0.10281951113599308       0.16800110553036432        0.0000000000000000     
 -0.10436829675805442       0.17566785535634671        0.0000000000000000     
 -0.10583042951460778       0.18342348982659676        0.0000000000000000     
 -0.10720590940565315       0.19126800894111443        0.0000000000000000     
 -0.10849473643119054       0.19920141269989974        0.0000000000000000     
  -7.8022035892814146E-002  0.19795116962709658        0.0000000000000000     
  -7.8861396872579856E-002  0.20606763524496075        0.0000000000000000     
  -7.9627724796267563E-002  0.21425935200601098        0.0000000000000000     
  -8.0321019663877238E-002  0.22252631991024738        0.0000000000000000     
  -8.0941281475408883E-002  0.23086853895766990        0.0000000000000000     
  -8.5370146543848807E-002  0.19821726427932526        0.0000000000000000     
  -8.6302603853197782E-002  0.20631094988246421        0.0000000000000000     
  -8.7163172865493230E-002  0.21447889541910892        0.0000000000000000     
  -8.7951853580735123E-002  0.22272110088925937        0.0000000000000000     
  -8.8668645998923462E-002  0.23103756629291555        0.0000000000000000     
  -9.2898300183923088E-002  0.19851433634220197        0.0000000000000000     
  -9.3923208058891955E-002  0.20658416205453789        0.0000000000000000     
  -9.4876238439673494E-002  0.21472904884714736        0.0000000000000000     
  -9.5757391326267677E-002  0.22294899672003035        0.0000000000000000     
  -9.6566666718674518E-002  0.23124400567318693        0.0000000000000000     
 -0.10060649681303700       0.19884238581572686        0.0000000000000000     
 -0.10172320948966239       0.20688727176118174        0.0000000000000000     
 -0.10276692151880835       0.21500981229012625        0.0000000000000000     
 -0.10373763290047493       0.22321000740256033        0.0000000000000000     
 -0.10463534363466205       0.23148785709848399        0.0000000000000000     
 -0.10849473643119054       0.19920141269989974        0.0000000000000000     
 -0.10970260814550904       0.20722027900239579        0.0000000000000000     
 -0.11083522210289781       0.21532118574804565        0.0000000000000000     
 -0.11189257830335683       0.22350413293684931        0.0000000000000000     
 -0.11287467674688609       0.23176912056880675        0.0000000000000000     
  -8.0941281475408883E-002  0.23086853895766990        0.0000000000000000     
  -8.1477776662656792E-002  0.23930666578721566        0.0000000000000000     
  -8.1919771657415208E-002  0.24786135703782183        0.0000000000000000     
  -8.2267266459684144E-002  0.25653261270948841        0.0000000000000000     
  -8.2520261069463599E-002  0.26532043280221540        0.0000000000000000     
  -8.8668645998923462E-002  0.23103756629291555        0.0000000000000000     
  -8.9299041630728548E-002  0.23945384307010814        0.0000000000000000     
  -8.9828531986820656E-002  0.24799548266086788        0.0000000000000000     
  -9.0257117067199757E-002  0.25666248506519479        0.0000000000000000     
  -9.0584796871865894E-002  0.26545485028308879        0.0000000000000000     
  -9.6566666718674518E-002  0.23124400567318693        0.0000000000000000     
  -9.7294766806625466E-002  0.23964054007099392        0.0000000000000000     
  -9.7932393779851912E-002  0.24816506427782836        0.0000000000000000     
  -9.8479547638353870E-002  0.25681757829369017        0.0000000000000000     
  -9.8936228382131342E-002  0.26559808211857933        0.0000000000000000     
 -0.10463534363466205       0.23148785709848399        0.0000000000000000     
 -0.10546495219034753       0.23986675678987301        0.0000000000000000     
 -0.10623135703650902       0.24837010188870315        0.0000000000000000     
 -0.10693455817314650       0.25699789239497456        0.0000000000000000     
 -0.10757455560025998       0.26575012830868699        0.0000000000000000     
 -0.11287467674688609       0.23176912056880675        0.0000000000000000     
 -0.11380959778189473       0.24013249322674535        0.0000000000000000     
 -0.11472542175679191       0.24861059549349238        0.0000000000000000     
 -0.11562214867157759       0.25720342736904789        0.0000000000000000     
 -0.11649977852625179       0.26591098885341180        0.0000000000000000     
  -8.2520261069463599E-002  0.26532043280221540        0.0000000000000000     
  -8.2717756176592785E-002  0.27425118907602580        0.0000000000000000     
  -8.2898752470910969E-002  0.28335125329094268        0.0000000000000000     
  -8.3063249952418122E-002  0.29262062544696610        0.0000000000000000     
  -8.3211248621114245E-002  0.30205930554409599        0.0000000000000000     
  -9.0584796871865894E-002  0.26545485028308879        0.0000000000000000     
  -9.0841938546285680E-002  0.27443558989292105        0.0000000000000000     
  -9.1058909235925758E-002  0.28366771547306274        0.0000000000000000     
  -9.1235708940786156E-002  0.29315122702351371        0.0000000000000000     
  -9.1372337660866859E-002  0.30288612454427410        0.0000000000000000     
  -9.8936228382131342E-002  0.26559808211857933        0.0000000000000000     
  -9.9313491273673782E-002  0.27460485549107994        0.0000000000000000     
  -9.9622391575470676E-002  0.28393617814977595        0.0000000000000000     
  -9.9862929287521926E-002  0.29359205009466754        0.0000000000000000     
 -0.10003510440982766       0.30357247132575460        0.0000000000000000     
 -0.10757455560025998       0.26575012830868699        0.0000000000000000     
 -0.10813241435875715       0.27475898587050240        0.0000000000000000     
 -0.10858919948954567       0.28415664132108265        0.0000000000000000     
 -0.10894491099262546       0.29394309466042773        0.0000000000000000     
 -0.10919954886799663       0.30411834588853742        0.0000000000000000     
 -0.11649977852625179       0.26591098885341180        0.0000000000000000     
 -0.11729870780153576       0.27489798103118862        0.0000000000000000     
 -0.11795933297815075       0.28432910498698272        0.0000000000000000     
 -0.11848165405609674       0.29420436072079409        0.0000000000000000     
 -0.11886567103537379       0.30452374823262268        0.0000000000000000     
 </DataArray>
 <DataArray  type="Float64" Name="stress" NumberOfComponents="3" format="ascii">
   5987759907.4639559        12737440.688596964       -132742224.10445829     
   5775479738.1709442       -4511667.0888168812       -90528900.303307950     
   5564461150.7621956       -17555501.918757200       -57717932.226958312     
   5354704145.2376709       -26394063.801251411       -34309319.875370950     
   5146208721.5973930       -31027352.736251354       -20303063.248579171     
   5753264642.5450659        49215192.636305571        94264238.869142726     
   5521079946.3338385        25498810.720448494        118163262.13419060     
   5289819093.7055836        4861907.4144830704        137645914.44963986     
   5059482084.6602917       -12695517.281600237        152712195.81549367     
   4830068919.1979752       -27173463.367772341        163362106.23174757     
   5455677593.4941082        66765409.344400167        321276978.90452564     
   5217834041.1508913        40855454.525954962        326467673.61532414     
   4980576594.0893774        16899183.979836702        332227982.15171069     
   4743905252.3095570       -5103402.2939689159        338557904.51368564     
   4507820015.8114319       -25152304.295444012        345457440.70124227     
   5094998760.3110876        65388090.812869310        548295996.00166774     
   4865742022.6221180        41558264.327725410        534384334.14007825     
   4636733651.9135771        18556327.777323008        526028270.87924767     
   4407973648.1854610       -3617718.8383326530        523227806.21919513     
   4179462011.4377613       -24963875.519254208        525982940.15990376     
   4671228142.9959974        45083237.041720629        775321290.16059875     
   4464803890.7475195        27607240.125744581        741913243.70846021     
   4258290267.1781893        9833338.8069362640        719046780.63226533     
   4051687272.2880087       -8238466.9147076607        706721900.93202293     
   3844994906.0769720       -26608177.039196253        704938604.60773170     
   5146208721.5973930       -31027352.736251354       -20303063.248579171     
   4999395923.8315763       -16255297.952402353       -20742807.407141663     
   4851915317.3396711       -3709272.2555363178       -16941650.543575652     
   4703766902.1216564        6610724.3543193340       -8899592.6578817777     
   4554950678.1775484        14704691.877176046        3383366.2499418780     
   4830068919.1979752       -27173463.367772341        163362106.23174757     
   4694021081.7996111       -13057173.589900494        160055706.97941750     
   4557434876.0566406       -735444.96071696281        160940475.83515015     
   4420310301.9690666        9791722.5197851658        166016412.79894069     
   4282647359.5368967        18524328.851641655        175283517.87079966     
   4507820015.8114319       -25152304.295444012        345457440.70124227     
   4382395044.7403193       -11734407.735625029        339435400.13355696     
   4256561145.7061090        320395.61384487152        337554794.75986886     
   4130318318.7087936        11012105.752973080        339815624.58018506     
   4003666563.7483702        20340722.681748152        346217889.59448367     
   4179462011.4377613       -24963875.519254208        525982940.15990376     
   4064517812.6537261       -12287000.389532566        517396272.05528098     
   3949294126.2880836       -541750.53183770180        512901306.23059404     
   3833790952.3408351        10271874.053834677        512498042.68583083     
   3718008290.8119779        20153873.367486238        516186481.42100024     
   3844994906.0769720       -26608177.039196253        704938604.60773170     
   3740389385.5398231       -14714951.551635981        693938322.74459016     
   3635633817.8025656       -3321883.3977665901        686980010.24730504     
   3530728202.8651981        7571027.4224002361        684063667.11588764     
   3425672540.7277222        17963780.908872128        685189293.35033560     
   4554950678.1775484        14704691.877176046        3383366.2499418780     
   4346931305.8327675        4830845.4134447575       -1588827.8038299875     
   4139443344.7637362       -3271630.1311461926       -2622026.6817986383     
   3932486794.9704332       -9602734.7566201687        283769.61602375546     
   3726061656.4528871       -14162468.462927341        7128561.0896608932     
   4282647359.5368967        18524328.851641655        175283517.87079966     
   4085441658.2819805        9241686.8665475845        168691514.78062868     
   3888673828.2265477        1418615.5463955402        166342293.24255961     
   3692343869.3705740       -4944885.1088857651        168235853.25658378     
   3496451781.7140794       -9848815.0992381573        174372194.82271308     
   4003666563.7483702        20340722.681748152        346217889.59448367     
   3818142494.6584520        11909673.497833490        337896947.37894166     
   3632962756.6917391        4626394.7246057987        334122573.09178966     
   3448127349.8482356       -1509113.6379215717        334894766.73304069     
   3263636274.1279469       -6496851.5897397995        340213528.30268139     
   3718008290.8119779        20153873.367486238        516186481.42100024     
   3545033814.9621916        12834805.307290077        506027469.99110323     
   3372310130.1593432        6351707.4035692215        500718812.86590141     
   3199837236.4034414        704579.65633261204        500260510.04538870     
   3027615133.6944809       -4106577.9344381094        504652561.52956975     
   3425672540.7277222        17963780.908872128        685189293.35033560     
   3266115619.1931911        12017082.294922948        673083082.61711526     
   3106715948.6293449        6594553.5832529068        666131012.56487751     
   2947473529.0361667        1696194.7738126516        664333083.19364059     
   2788388360.4136739       -2677994.1333488226        667689294.50338316     
   3726061656.4528871       -14162468.462927341        7128561.0896608932     
   3559727442.9001946       -7397137.1589479446        3087297.2052124855     
   3392398820.8327460       -3946500.9041349888        3254490.9639130849     
   3224075790.2505598       -3810559.6984601021        7630142.3657473195     
   3054758351.1536255       -6989313.5419421196        16214251.410727998     
   3496451781.7140794       -9848815.0992381573        174372194.82271308     
   3340587026.2934523       -3096628.7283649445        168057820.03031510     
   3184052256.8318934        1422177.5060642958        165591450.37324893     
   3026847473.3294129        3707603.6040894985        166973085.85150045     
   2868972675.7859988        3759649.5656816959        172202726.46507862     
   3263636274.1279469       -6496851.5897397995        340213528.30268139     
   3117211112.5313416       -66769.444378972054        332004502.82178766     
   2970440331.3676238        5211247.4772652388        327283029.96840662     
   2823323930.6367898        9337199.1751894951        326049109.74252284     
   2675861910.3388448        12311085.649427533        328302742.14414912     
   3027615133.6944809       -4106577.9344381094        504652561.52956975     
   2889599701.6138525        1692440.6929935217        494927345.57963341     
   2751563044.4399209        7420709.0094295740        488329229.74938005     
   2613505162.1726961        13078227.014878273        484858214.03882241     
   2475426054.8121676        18664994.709319472        484514298.44795513     
   2788388360.4136739       -2677994.1333488226        667689294.50338316     
   2657752793.5409737        2181001.6837425232        656826348.30384779     
   2527420396.0487852        8050562.1025449038        648730049.71618557     
   2397391167.9371219        14930687.123094916        643400398.74039733     
   2267665109.2059760        22821376.745370626        640837395.37648296     
   3054758351.1536255       -6989313.5419421196        16214251.410727998     
   2887541173.1079249       -9801567.7858376503        10849321.352156805     
   2721144615.4126596       -9878420.8615930080        6307555.2665321669     
   2555568678.0678926       -7219872.7690318823        2588953.1538707372     
   2390813361.0735812       -1825923.5082863569       -306484.98586207151     
   2868972675.7859988        3759649.5656816959        172202726.46507862     
   2704929560.6860409        1679116.0941792727        165348257.84477991     
   2541370470.0669227        1211997.5588226318        159943353.49309462     
   2378295403.9286718        2358293.9596705437        155988013.41001055     
   2215704362.2712512        5118005.2966330051        153482237.59554118     
   2675861910.3388448        12311085.649427533        328302742.14414912     
   2516782573.3151169        11499187.489507794        319566039.78089118     
   2357850664.9026051        11178718.033649206        312905301.98191857     
   2199066185.1013298        11349677.281909943        308320528.74720871     
   2040429133.9112720        12012065.234237552        305811720.07678735     
   2475426054.8121676        18664994.709319472        484514298.44795513     
   2323100210.9951358        19658646.400093913        473502667.16051710     
   2170585199.9197083        20021740.562889338        465193400.73301739     
   2017881021.5858901        19754277.197719693        459586499.16546839     
   1864987675.9936812        18856256.304568648        456681962.45787454     
   2267665109.2059760        22821376.745370626        640837395.37648296     
   2123882473.7261081        26157492.825979710        627158139.98363948     
   1979574075.1182387        27741065.146577716        616807649.74641132     
   1834739913.3823516        27572093.707115173        609785924.66478050     
   1689379988.5184536        25650578.507615387        606092964.73876750     
   2390813361.0735812       -1825923.5082863569       -306484.98586207151     
   2248839103.2172446        6576194.6521291733       -6801780.4141724706     
   2103521489.5104563        3833793.3110158443       -11211595.820473161     
   1954860519.9531620       -10053127.531784058       -13535931.204784639     
   1802856194.5453889       -35084567.876157641       -13774786.567076160     
   2215704362.2712512        5118005.2966330051        153482237.59554118     
   2077808831.3645642        12670379.471851468        143271281.64202631     
   1937704447.1504807        12859909.289070725        134308422.70126849     
   1795391209.6290109        5686594.7483404875        126593660.77329533     
   1650869118.8001101       -8849564.1504925489        120126995.85807794     
   2040429133.9112720        12012065.234237552        305811720.07678735     
   1904219807.0707278        17996938.559210420        293208689.89830762     
   1766936129.4658723        20400642.669805765        281016373.72335798     
   1628578101.0966825        19223177.565959513        269234771.55196112     
   1489145721.9631708        14464543.247701168        257863883.38410908     
   1864987675.9936812        18856256.304568648        456681962.45787454     
   1728072030.3357608        22555871.914245009        443010444.35467666     
   1591216536.4566071        26455993.453108668        428912257.24580330     
   1454421194.3562000        30556620.921145201        414387401.13124561     
   1317686004.0345514        34857754.318377495        399435876.01100731     
   1689379988.5184536        25650578.507615387        606092964.73876750     
   1549365501.1596529        26347179.536930740        592676545.01114106     
   1410545668.1226921        31025961.639033377        577996073.26859832     
   1272920489.4075639        39686924.813912272        562051549.51114380     
   1136489965.0142632        52330069.061559856        544842973.73877943     
   1802856194.5453889       -35084567.876157641       -13774786.567076160     
   1771724552.8331361       -16635522.215246797       -8225156.7639524126     
   1748695836.7933428        28823275.687185645       -41463419.774759099     
   1733770046.4259598        101291825.83098537       -113489575.59950519     
   1726947181.7310662        200770128.21642709       -224303624.23819453     
   1650869118.8001101       -8849564.1504925489        120126995.85807794     
   1528011381.2160668       -13871615.153474152        135660485.51710498     
   1409350278.4266787       -4904883.5075841546        124839739.62649390     
   1294885810.4319472        18050630.787151575        87664758.186265171     
   1184617977.2318957        54994927.730819643        24135541.196418792     
   1489145721.9631708        14464543.247701168        257863883.38410908     
   1310086623.5482252       -3371183.9069466591        278823893.54160547     
   1131317869.0501611       -20239098.005311489        285863325.41379386     
   952839458.46898246       -36139199.047408342        278982179.00068343     
   774651391.80469239       -51071487.033204168        258180454.30226818     
   1317686004.0345514        34857754.318377495        399435876.01100731     
   1117950279.8296244        14865771.524373055        421265067.30956000     
   914598608.66380334       -17179367.805956781        441607337.58713323     
   707630990.53707147       -61277663.672645152        460462686.84371853     
   497047425.44945598       -117429116.07562125        477831115.07932454     
   1136489965.0142632        52330069.061559856        544842973.73877943     
   951602350.06026471        40839251.140465140        562984006.82098711     
   759192497.26758015        4274307.0904166698        592071776.14652443     
   559260406.63622320       -57364763.088545293        632106281.71540809     
   351806078.16617554       -144077959.39646494        683087523.52761626     
   1726947181.7310662        200770128.21642709       -224303624.23819453     
   1456560444.2451839        184627234.74405795       -96679794.344214708     
   1153970538.8756995        61140448.326314390        60106020.134938955     
   819177465.62249231       -169690231.03713894        246053819.19929338     
   452181224.48560512       -507864803.34622478        461163602.84882420     
   1184617977.2318957        54994927.730819643        24135541.196418792     
   977624151.82563555        11886727.043519437        155555625.05714148     
   732784438.89783263       -157374432.04889056        312800266.05890679     
   450098838.44852006       -452788549.54634368        495869464.20170063     
   129567350.47769302       -874355625.44887793        704763219.48554993     
   774651391.80469239       -51071487.033204168        258180454.30226818     
   621514971.49473488       -124005647.03052470        386813619.21890813     
   424889944.02541292       -341901830.89239633        537933913.83244860     
   184776309.39672613       -704760038.61880863        711541338.14288747     
  -98825932.391351402       -1212580270.2098708        907635892.15021074     
   497047425.44945598       -117429116.07562125        477831115.07932454     
   388232903.25253874       -223049887.47790748        597094188.14106739     
   230287054.25841719       -492441748.20425403        735506963.45557082     
   23209878.467051446       -925604698.25469446        893069441.02280354     
  -232998624.12152365       -1522538737.6292019        1069781620.8428066     
   351806078.16617554       -144077959.39646494        683087523.52761626     
   277777947.09903371       -285245994.29869628        786397331.82363462     
   148975769.59681755       -608994183.98453629        905519414.92825317     
  -34600454.340462089       -1115322528.4539161        1040453772.8414862     
  -272950724.71282279       -1804231027.7068713        1191200405.5633068     
   4671228142.9959974        45083237.041720629        775321290.16059875     
   4464803890.7475195        27607240.125744581        741913243.70846021     
   4258290267.1781893        9833338.8069362640        719046780.63226533     
   4051687272.2880087       -8238466.9147076607        706721900.93202293     
   3844994906.0769720       -26608177.039196253        704938604.60773170     
   4234450224.7843523        29646807.276347399        844680742.41579020     
   4053803874.7085733        14374357.486530304        821357033.49272382     
   3873268449.1105328       -528344.04414820671        806812385.83589566     
   3692843947.9902353       -15061297.315684557        801046799.44531536     
   3512530371.3476772       -29224502.328086138        804060274.32097304     
   3828966666.3129177        23598685.433036566        911796500.25296450     
   3669062440.9535303        9019049.5324864388        898790807.29065943     
   3509469435.8704700       -4523185.4469540119        892801653.48489261     
   3350187651.0637507       -17028019.505273104        893829038.83565831     
   3191217086.5333600       -28495452.642484546        901872963.34295690     
   3454777467.5816984        26938871.511792183        976668563.67211616     
   3310579589.4823928        11541316.263616323        974214565.10227096     
   3166893227.4580069       -2151185.4014799595        977014583.57925034     
   3023718381.5085502       -14138633.483477235        985068619.10305548     
   2881055051.6340199       -24421027.982392311        998376671.67368853     
   3111882628.5906887        39667365.512607455        1039296932.6732551     
   2978355320.2951508        21941157.679907799        1047628306.9275531     
   2845539823.8731356        6587656.0922722816        1059451176.1189706     
   2713436139.3246412       -6393139.2502930164        1074765540.2475080     
   2582044266.6496620       -17001228.347798705        1093571399.3131621     
   3844994906.0769720       -26608177.039196253        704938604.60773170     
   3740389385.5398231       -14714951.551635981        693938322.74459016     
   3635633817.8025656       -3321883.3977665901        686980010.24730504     
   3530728202.8651981        7571027.4224002361        684063667.11588764     
   3425672540.7277222        17963780.908872128        685189293.35033560     
   3512530371.3476772       -29224502.328086138        804060274.32097304     
   3417648968.5513678       -17731251.231302977        796565232.47322059     
   3322674314.2148957       -6548838.6017425060        792600613.61198020     
   3227606408.3382483        4322735.5605669022        792166417.73723626     
   3132445250.9214277        14883471.255645990        795262644.84899402     
   3191217086.5333600       -28495452.642484546        901872963.34295690     
   3104598240.3940082       -17840644.261631131        897949423.11386800     
   3017942938.3744183       -7307355.4815641642        897044759.49192190     
   2931251180.4745989        3104413.6977264881        899158972.47711098     
   2844522966.6945395        13394663.276238084        904292062.06944108     
   2881055051.6340199       -24421027.982392311        998376671.67368853     
   2801237201.0677280       -15043130.642645478        998090894.66651642     
   2721439690.2811399       -5597434.0372192860        1000312447.8871217     
   2641662519.2742534        3916061.8338725567        1005041331.3355079     
   2561905688.0470719        13497356.970657825        1012277545.0116692     
   2582044266.6496620       -17001228.347798705        1093571399.3131621     
   2507565850.5725393       -9338710.3743256330        1096989647.1311719     
   2433164569.9350533       -1419074.2687252760        1102403678.7975950     
   2358840424.7372088        6757679.9690157175        1109813494.3124306     
   2284593414.9790072        15191552.338895440        1119219093.6756847     
   3425672540.7277222        17963780.908872128        685189293.35033560     
   3266115619.1931911        12017082.294922948        673083082.61711526     
   3106715948.6293449        6594553.5832529068        666131012.56487751     
   2947473529.0361667        1696194.7738126516        664333083.19364059     
   2788388360.4136739       -2677994.1333488226        667689294.50338316     
   3132445250.9214277        14883471.255645990        795262644.84899402     
   2986359373.1902170        10301014.249808311        785080554.43465865     
   2840455245.9398890        6324392.1802314520        779791839.74001420     
   2694732869.1704364        2953605.0469133854        779396500.76506436     
   2549192242.8818541        188652.84983706474        783894537.50980330     
   2844522966.6945395        13394663.276238084        904292062.06944108     
   2711163090.0200925        9952935.0545392036        896062674.73588598     
   2578009463.3367190        7198706.8030953407        892465898.16073048     
   2445062086.6444235        5131978.5219125748        893501732.34397423     
   2312320959.9432011        3752750.2109779119        899170177.28560591     
   2561905688.0470719        13497356.970657825        1012277545.0116692     
   2440526769.6828136        10972844.709120274        1006029443.5208012     
   2319378600.8198400        9217497.4518551826        1004153187.8270363     
   2198461181.4581385        8231315.1988334656        1006648777.9303651     
   2077774511.5977125        8014297.9500687122        1013516213.8308027     
   2284593414.9790072        15191552.338895440        1119219093.6756847     
   2174450412.1783881        13360743.213570356        1114980860.7893991     
   2064562658.3892422        12380764.126486063        1114853708.7389228     
   1954930153.6115813        12251615.077680349        1118837637.5242419     
   1845552897.8453856        12973296.067098141        1126932647.1453660     
   2788388360.4136739       -2677994.1333488226        667689294.50338316     
   2657752793.5409737        2181001.6837425232        656826348.30384779     
   2527420396.0487852        8050562.1025449038        648730049.71618557     
   2397391167.9371219        14930687.123094916        643400398.74039733     
   2267665109.2059760        22821376.745370626        640837395.37648296     
   2549192242.8818541        188652.84983706474        783894537.50980330     
   2426140211.4663763        4837019.5651731491        774346949.89677608     
   2303346038.6582346        10344914.971620798        767914810.20092034     
   2180809724.4574385        16712339.069214702        764598118.42221868     
   2058531268.8639784        23939291.857945800        764396874.56069613     
   2312320959.9432011        3752750.2109779119        899170177.28560591     
   2197849036.2857876        8489459.5147994757        890885085.69037867     
   2083589660.4625323        13934661.599151134        886064242.31760943     
   1969542832.4734428        20088356.464044213        884707647.16730022     
   1855708552.3185058        26950544.109465122        886815300.23945463     
   2077774511.5977125        8014297.9500687122        1013516213.8308027     
   1972879267.9992049        13138321.532634377        1006440755.6846529     
   1868151261.4616802        18819801.985139728        1003178346.0662647     
   1763590491.9851344        25058739.307571530        1003728984.9756380     
   1659196959.5695715        31855133.499956131        1008092672.4127574     
   1845552897.8453856        12973296.067098141        1126932647.1453660     
   1751230906.6066284        18783605.618664622        1121013959.8796046     
   1657030841.6556692        25000336.129563332        1119257121.4468904     
   1562952702.9925158        31623487.599814892        1121662131.8472307     
   1468996490.6171639        38653060.029398322        1128228991.0806162     
   2267665109.2059760        22821376.745370626        640837395.37648296     
   2123882473.7261081        26157492.825979710        627158139.98363948     
   1979574075.1182387        27741065.146577716        616807649.74641132     
   1834739913.3823516        27572093.707115173        609785924.66478050     
   1689379988.5184536        25650578.507615387        606092964.73876750     
   2058531268.8639784        23939291.857945800        764396874.56069613     
   1923463136.8215144        27192067.461765885        752449185.17370617     
   1788046635.6770701        29283612.725654364        743895427.23144567     
   1652281765.4306664        30213927.649660528        738735600.73392045     
   1516168526.0822668        29983012.233707786        736969705.68111193     
   1855708552.3185058        26950544.109465122        886815300.23945463     
   1729541113.1109300        30175836.055728316        876806136.55536211     
   1603202698.8274133        32831211.082204580        870256070.60512114     
   1476693309.4679587        34916669.188872397        867165102.38872838     
   1350012945.0325680        36432210.375756562        867533231.90618503     
   1659196959.5695715        31855133.499956131        1008092672.4127574     
   1542116402.5943604        35108798.607895195        1000228994.1286098     
   1425042264.5692630        38383860.216196716        995889579.86742485     
   1307974545.4942560        41680318.324805915        995074429.62921011     
   1190913245.3693495        44998172.933751106        997783543.41396797     
   1468996490.6171639        38653060.029398322        1128228991.0806162     
   1361189005.2718234        41990955.118298411        1122717757.8934460     
   1253565332.9026151        45941560.127636194        1120795955.0183682     
   1146125473.5095434        50504875.057428896        1122463582.4553797     
   1038869427.0926104        55680899.907682836        1127720640.2044761     
   1689379988.5184536        25650578.507615387        606092964.73876750     
   1549365501.1596529        26347179.536930740        592676545.01114106     
   1410545668.1226921        31025961.639033377        577996073.26859832     
   1272920489.4075639        39686924.813912272        562051549.51114380     
   1136489965.0142632        52330069.061559856        544842973.73877943     
   1516168526.0822668        29983012.233707786        736969705.68111193     
   1374388976.3610964        27992948.349393606        727795332.58750272     
   1232918726.2760592        27033883.252195477        719147270.82550061     
   1091757775.8271604        27105816.942112565        711025520.39512026     
   950906125.01437628        28208749.419098556        703430081.29636002     
   1350012945.0325680        36432210.375756562        867533231.90618503     
   1211583656.7962570        33290078.732001543        861567991.64659715     
   1072578313.5103738        28227763.589660168        857919426.06514931     
   932996915.17491734        21245264.948753953        856587535.16185606     
   792839461.78988874        12342582.809260547        857572318.93670809     
   1190913245.3693495        44998172.933751106        997783543.41396797     
   1060949542.4651226        42238570.684706151        993994522.18842137     
   929524429.82562423        34607602.651406407        994312538.98754406     
   796637907.45084596        22105268.833853751        998737593.81134653     
   662289975.34078968        4731569.2320306897        1007269686.6598293     
   1038869427.0926104        55680899.907682836        1127720640.2044761     
   922486633.36770380        54838424.207525283        1125074924.2129765     
   803757075.22180831        46173400.437419415        1128326609.5926824     
   682680752.65494561        29685828.597409874        1137475696.3435943     
   559257665.66708755        5375708.6874265969        1152522184.4657104     
   1136489965.0142632        52330069.061559856        544842973.73877943     
   951602350.06026471        40839251.140465140        562984006.82098711     
   759192497.26758015        4274307.0904166698        592071776.14652443     
   559260406.63622320       -57364763.088545293        632106281.71540809     
   351806078.16617554       -144077959.39646494        683087523.52761626     
   950906125.01437628        28208749.419098556        703430081.29636002     
   791705452.83901572        11174254.901512384        721347502.82776618     
   623866214.70719862       -34655459.470937073        749356684.85243905     
   447388410.61894917       -109280393.69816270        787457627.37038124     
   262272040.57423458       -212700547.78026086        835650330.38160050     
   792839461.78988874        12342582.809260547        857572318.93670809     
   656882944.53584516       -10968424.662016779        873963746.11324024     
   511171533.20757699       -66795745.714035362        899591958.03299320     
   355705227.80509001       -155139380.34678209        934456954.69594574     
   190484028.32839030       -275999328.56024784        978558736.10211039     
   662289975.34078968        4731569.2320306897        1007269686.6598293     
   547134825.15073717       -25588787.550130546        1020832736.6774402     
   421108452.76870006       -92146551.638923973        1042777595.6881844     
   284210858.19467151       -194941723.03435606        1073104263.6920786     
   136442041.42865831       -333974301.73639774        1111812740.6891174     
   559257665.66708755        5375708.6874265969        1152522184.4657104     
   462461094.68371290       -32686833.762815833        1161954474.5203247     
   353676973.39057505       -110707877.24558538        1178913597.8180132     
   232905301.78767484       -228687421.76090971        1203399554.3587906     
   100146079.87503073       -386625467.30870301        1235412344.1426508     
   351806078.16617554       -144077959.39646494        683087523.52761626     
   277777947.09903371       -285245994.29869628        786397331.82363462     
   148975769.59681755       -608994183.98453629        905519414.92825317     
  -34600454.340462089       -1115322528.4539161        1040453772.8414862     
  -272950724.71282279       -1804231027.7068713        1191200405.5633068     
   262272040.57423458       -212700547.78026086        835650330.38160050     
   223574709.37345338       -352376784.42975748        885024096.11607289     
   140648827.06061360       -639481524.78613567        945418864.26543617     
   13494393.635715604       -1074014768.8493783        1016834634.8296980     
  -157888590.90123969       -1655976516.6194623        1099271407.8088329     
   190484028.32839030       -275999328.56024784        978558736.10211039     
   173428147.29765555       -418290571.86589736        986299537.15187621     
   122689210.47786590       -672858667.80172312        1000270068.2228307     
   38267217.869033098       -1039703616.3676885        1020470329.3149614     
  -79837830.528849661       -1518825417.5638247        1046900320.4282576     
   136442041.42865831       -333974301.73639774        1111812740.6891174     
   127338260.87163928       -482987356.60709596        1090223654.9310334     
   95096919.848585278       -709125613.03125119        1070073026.8004220     
   39718018.359497666       -1012389071.0088599        1051360856.2972801     
  -38798443.595632911       -1392777730.5399323        1034087143.4215806     
   100146079.87503073       -386625467.30870301        1235412344.1426508     
   85305050.095406294       -546467138.65336633        1196796449.4535682     
   57871955.172763616       -748282360.47475171        1154827739.9982226     
   17846795.107095540       -992071132.77289689        1109506215.7766409     
  -34770430.101598382       -1277833455.5477946        1060831876.7888138     
   3111882628.5906887        39667365.512607455        1039296932.6732551     
   2978355320.2951508        21941157.679907799        1047628306.9275531     
   2845539823.8731356        6587656.0922722816        1059451176.1189706     
   2713436139.3246412       -6393139.2502930164        1074765540.2475080     
   2582044266.6496620       -17001228.347798705        1093571399.3131621     
   2769267860.9279661        50190412.028870583        1167942892.0310669     
   2646417901.4045663        32618198.511274338        1167431527.5374234     
   2524207825.7201018        17178931.123461962        1171606476.1663640     
   2402637633.8745670        3872609.8654079437        1180467737.9178758     
   2281707325.8679605       -7300765.2628741264        1194015312.7919693     
   2397428416.1044865        51946055.396901727        1295458036.2103829     
   2288669571.5973949        35551966.067672372        1286020016.9284508     
   2180478682.8946481        21051062.752917171        1282463128.9545546     
   2072855749.9962425        8443345.4526405334        1284787372.2886958     
   1965800772.9021783       -2271185.8331670761        1292992746.9308739     
   1996364294.1202552        44934295.616711378        1421842365.2112174     
   1905110330.8736362        30742460.349091887        1403393775.1006379     
   1814352395.3967719        18204050.980648398        1392021134.4835560     
   1724090487.6896644        7319067.5113905668        1387724443.3599656     
   1634324607.7523088       -1912490.0586844683        1390503701.7298720     
   1566075494.9752614        29155132.688288987        1547095879.0335553     
   1495740179.2332892        18189681.355531871        1519552802.0539775     
   1425828963.2264793        8637895.8066563010        1500280492.7533574     
   1356341846.9548361        499776.04167163372        1489278951.1316888     
   1287278830.4183576       -6224677.9394329786        1486548177.1889715     
   2582044266.6496620       -17001228.347798705        1093571399.3131621     
   2507565850.5725393       -9338710.3743256330        1096989647.1311719     
   2433164569.9350533       -1419074.2687252760        1102403678.7975950     
   2358840424.7372088        6757679.9690157175        1109813494.3124306     
   2284593414.9790072        15191552.338895440        1119219093.6756847     
   2281707325.8679605       -7300765.2628741264        1194015312.7919693     
   2212933067.4090128       -1728412.0275224447        1192517881.2663705     
   2144243483.4623380        4126189.5820777416        1193894825.1535945     
   2075638574.0279427        10263039.565937519        1198146144.4536462     
   2007118339.1058261        16682137.924060345        1205271839.1665223     
   1965800772.9021783       -2271185.8331670761        1292992746.9308739     
   1905240933.6740029        1964081.1478358507        1286588431.6464107     
   1844773308.0307386        6506726.7452124357        1283937083.3391836     
   1784397895.9723904        11356750.958976746        1285038702.0091913     
   1724114697.4989552        16514153.789119959        1289893287.6564322     
   1634324607.7523088       -1912490.0586844683        1390503701.7298720     
   1584489449.3675058        1738769.1517480016        1379201298.2712913     
   1534754043.6402545        5722537.2206915617        1372530453.3543556     
   1485118390.5705509        10038814.148128152        1370491166.9790614     
   1435582490.1584003        14687599.934073448        1373083439.1454146     
   1287278830.4183576       -6224677.9394329786        1486548177.1889715     
   1250678614.4895260       -2404348.0157830119        1470356481.1410146     
   1214185690.2908800        1773621.0084878802        1459674935.1991122     
   1177800057.8224249        6309229.1333937645        1454503539.3632610     
   1141521717.0841570        11202476.358923852        1454842293.6334660     
   2284593414.9790072        15191552.338895440        1119219093.6756847     
   2174450412.1783881        13360743.213570356        1114980860.7893991     
   2064562658.3892422        12380764.126486063        1114853708.7389228     
   1954930153.6115813        12251615.077680349        1118837637.5242419     
   1845552897.8453856        12973296.067098141        1126932647.1453660     
   2007118339.1058261        16682137.924060345        1205271839.1665223     
   1908161850.0337162        14468286.575887680        1199625241.8957930     
   1809448989.6616671        13066530.894578218        1198560968.7087691     
   1710979757.9896710        12476870.880116940        1202079019.6054566     
   1612754155.0177348        12699306.532515764        1210179394.5858479     
   1724114697.4989552        16514153.789119959        1289893287.6564322     
   1637691131.4350812        14321183.002017736        1282824768.9712672     
   1551499573.7598467        12901573.510383546        1280809817.6177194     
   1465540024.4732485        12255325.314206600        1283848433.5957778     
   1379812483.5752916        12382438.413490713        1291940616.9054475     
   1435582490.1584003        14687599.934073448        1373083439.1454146     
   1363038256.3824840        12919432.491966665        1364579442.0158303     
   1290714410.6837871        11885891.973917007        1361600255.4657581     
   1218610953.0623105        11586978.379938304        1364145879.4952018     
   1146727883.5180564        12022691.710033834        1372216314.1041615     
   1141521717.0841570        11202476.358923852        1454842293.6334660     
   1084203224.8759196        10263035.045712113        1444889261.0294716     
   1027093500.4334908        10019486.285189450        1440932282.2528982     
   970192543.75685704        10471830.077319503        1442971357.3037398     
   913500354.84602654        11620066.422128677        1451006486.1819985     
   1845552897.8453856        12973296.067098141        1126932647.1453660     
   1751230906.6066284        18783605.618664622        1121013959.8796046     
   1657030841.6556692        25000336.129563332        1119257121.4468904     
   1562952702.9925158        31623487.599814892        1121662131.8472307     
   1468996490.6171639        38653060.029398322        1128228991.0806162     
   1612754155.0177348        12699306.532515764        1210179394.5858479     
   1529206222.6103029        17881066.002136350        1204408089.0533419     
   1445781269.8420801        23472757.602458656        1202907722.2692540     
   1362479296.7130609        29474381.333450735        1205678294.2335861     
   1279300303.2232394        35885937.195107698        1212719804.9463348     
   1379812483.5752916        12382438.413490713        1291940616.9054475     
   1307350295.4716697        17029153.442932427        1286317922.0161676     
   1235012140.3586531        22089311.774399459        1285075255.7906785     
   1162798018.2362406        27562913.407873750        1288212618.2289696     
   1090707929.1044331        33449958.343365848        1295730009.3310471     
   1146727883.5180564        12022691.710033834        1372216314.1041615     
   1085663125.1907175        16227867.941021204        1366743458.7680824     
   1024723453.2053857        20849998.645376444        1365759722.0111542     
   963908867.56206179        25889083.823084235        1369265103.8333824     
   903219368.26074600        31345123.474156439        1377259604.2347589     
   913500354.84602654        11620066.422128677        1451006486.1819985     
   864144711.76744699        15477209.496411264        1445684699.3090858     
   814915208.38228464        19754818.215414107        1444961120.9306915     
   765811844.69052482        24452892.579096556        1448835751.0468192     
   716834620.69217539        29571432.587475359        1457308589.6574621     
   1468996490.6171639        38653060.029398322        1128228991.0806162     
   1361189005.2718234        41990955.118298411        1122717757.8934460     
   1253565332.9026151        45941560.127636194        1120795955.0183682     
   1146125473.5095434        50504875.057428896        1122463582.4553797     
   1038869427.0926104        55680899.907682836        1127720640.2044761     
   1279300303.2232394        35885937.195107698        1212719804.9463348     
   1181285576.5339875        38116346.029520273        1208038876.6161888     
   1083325610.6006274        40529290.716908455        1207556982.9989011     
   985420405.42316198        43124771.257274687        1211274124.0944788     
   887569961.00159061        45902787.650625259        1219190299.9029062     
   1090707929.1044331        33449958.343365848        1295730009.3310471     
   1004227687.9306066        35095398.981091857        1291728824.9343150     
   917673155.29242551        36493201.404309541        1292536279.6512086     
   831044331.18990386        37643365.613050908        1298152373.4817255     
   744341215.62303329        38545891.607303023        1308577106.4258733     
   903219368.26074600        31345123.474156439        1377259604.2347589     
   830015339.46167314        32928113.972981155        1373787602.8478231     
   756607966.97801530        33833292.189854890        1375733844.9752784     
   682997250.80977082        34060658.124774545        1383098330.6171312     
   609183190.95693529        33610211.777723640        1395881059.7733672     
   716834620.69217539        29571432.587475359        1457308589.6574621     
   658648531.12720037        31614491.005228549        1454215210.3567045     
   600130045.65739298        32549563.073534966        1457149678.9711113     
   541279164.28276050        32376648.792426348        1466111995.5006814     
   482095887.00329655        31095748.161881998        1481102159.9454031     
   1038869427.0926104        55680899.907682836        1127720640.2044761     
   922486633.36770380        54838424.207525283        1125074924.2129765     
   803757075.22180831        46173400.437419415        1128326609.5926824     
   682680752.65494561        29685828.597409874        1137475696.3435943     
   559257665.66708755        5375708.6874265969        1152522184.4657104     
   887569961.00159061        45902787.650625259        1219190299.9029062     
   786203413.39920032        44212353.682590067        1216631435.1783373     
   682531366.97029233        34836923.626165330        1219921810.3155475     
   576553821.71485376        17776497.481304288        1229061425.3145292     
   468270777.63289928       -6968924.7519432604        1244050280.1752987     
   744341215.62303329        38545891.607303023        1308577106.4258733     
   657853309.83050990        35966218.077625364        1306153236.1617703     
   569101170.80591750        25839100.441046953        1309530444.2500117     
   478084798.54925716        8164538.6975739896        1318708730.6905990     
   384804193.06052285       -17057467.152799517        1333688095.4835374     
   609183190.95693529        33610211.777723640        1395881059.7733672     
   537436322.66161966        30100017.392594039        1393640327.1632619     
   463466486.72869104        19179930.882083073        1397152511.3960781     
   387273683.15814477        849952.24618227780        1406417612.4717996     
   308857911.94998628       -24889918.515092179        1421435630.3904479     
   482095887.00329655        31095748.161881998        1481102159.9454031     
   424952451.89252895        26613751.627492592        1479092708.1828251     
   365627314.73860329        14859414.949245855        1482788011.7537329     
   304120475.54152095       -4167261.8728566170        1492188070.6581318     
   240431934.30127823       -30466278.838829607        1507292884.8960140     
   559257665.66708755        5375708.6874265969        1152522184.4657104     
   462461094.68371290       -32686833.762815833        1161954474.5203247     
   353676973.39057505       -110707877.24558538        1178913597.8180132     
   232905301.78767484       -228687421.76090971        1203399554.3587906     
   100146079.87503073       -386625467.30870301        1235412344.1426508     
   468270777.63289928       -6968924.7519432604        1244050280.1752987     
   390581334.72628444       -41416189.125467241        1242610219.1259007     
   302749090.10146910       -109672792.55966802        1247506820.7209229     
   204774043.75844169       -211738735.05456859        1258740084.9603608     
   96656195.697215915       -347614016.61013615        1276310011.8442051     
   384804193.06052285       -17057467.152799517        1333688095.4835374     
   322821390.80592394       -48909599.677003309        1323527890.0202842     
   252540535.42467272       -108421909.29005197        1318514176.6027732     
   173961626.91676047       -195594395.99196875        1318646955.2310140     
   87084665.282194495       -310427059.78273129        1323926225.9050131     
   308857911.94998628       -24889918.515092179        1421435630.3904479     
   259181262.92264247       -55167065.417403132        1404707487.2034657     
   203051309.36018550       -106955227.43675275        1391935665.4635756     
   140468051.26262462       -180254404.57311520        1383120165.1707652     
   71431488.629961729       -275064596.82648987        1378260986.3250413     
   240431934.30127823       -30466278.838829607        1507292884.8960140     
   199660951.07642028       -60188586.346705198        1486149010.6754594     
   154281411.90801167       -105272746.99974950        1467771287.3033202     
   104293316.79604977       -165718760.79797417        1452159714.7796075     
   49696665.740529060       -241526627.74139500        1439314293.1043050     
   100146079.87503073       -386625467.30870301        1235412344.1426508     
   85305050.095406294       -546467138.65336633        1196796449.4535682     
   57871955.172763616       -748282360.47475171        1154827739.9982226     
   17846795.107095540       -992071132.77289689        1109506215.7766409     
  -34770430.101598382       -1277833455.5477946        1060831876.7888138     
   96656195.697215915       -347614016.61013615        1276310011.8442051     
   79749531.735244244       -488775731.99231356        1221982153.3453708     
   51458336.047725827       -667885886.45964968        1165107401.1734622     
   11782608.634662747       -884944480.01213324        1105685755.3285062     
  -39277650.503949344       -1139951512.6497910        1043717215.8105084     
   87084665.282194495       -310427059.78273129        1323926225.9050131     
   70414998.832711428       -432218029.69398195        1255295192.5834606     
   43568334.075168282       -587932327.29877865        1184923186.6820502     
   6544671.0095531642       -777569952.59715617        1112810208.2007813     
  -40655990.364150584       -1001130905.5891294        1038956257.1396424     
   71431488.629961729       -275064596.82648987        1378260986.3250413     
   57301451.387819335       -376794031.75834644        1296735567.1678460     
   34201949.255085319       -508421682.99216443        1214275096.5239773     
   2132982.2317435741       -669947550.52801085        1130879574.3934522     
  -38905449.682183146       -861371634.36582363        1046549000.7762594     
   49696665.740529060       -241526627.74139500        1439314293.1043050     
   40408889.400554389       -322503738.18542945        1346303277.0985107     
   23359181.587465554       -429353953.53984457        1253163130.6992538     
  -1452457.6987375617       -562077273.80464184        1159893853.9065189     
  -34026028.458070397       -720673698.97987425        1066495446.7203212     
   1566075494.9752614        29155132.688288987        1547095879.0335553     
   1495740179.2332892        18189681.355531871        1519552802.0539775     
   1425828963.2264793        8637895.8066563010        1500280492.7533574     
   1356341846.9548361        499776.04167163372        1489278951.1316888     
   1287278830.4183576       -6224677.9394329786        1486548177.1889715     
   1133743402.4992590        9622386.0420178175        1513829973.7524004     
   1084900631.7699347        2570911.3915812969        1495786899.5989184     
   1036375935.9341458       -3420313.6137338877        1485102559.3110621     
   988169314.99190032       -8351288.9739057422        1481776952.8888304     
   940280768.94319057       -12222014.688958645        1485810080.3322256     
   728620122.97378075       -1747716.7190895379        1479651382.9026489     
   698664086.36187613       -5666957.9557820857        1470984615.9267004     
   668920099.80188262       -8879365.6861020625        1468764549.0030439     
   639388163.29380512       -11384939.910037398        1472991182.1316855     
   610068276.83763874       -13183680.627601415        1483664515.3126247     
   350705656.39882040       -4955175.5950464606        1444560106.4843028     
   337030543.00911337       -6523926.6865542382        1445145951.0373197     
   323461454.82968926       -7739260.4104480892        1451266461.8293042     
   309998391.86055285       -8601176.7667179555        1462921638.8602555     
   296641354.10170442       -9109675.7553597391        1480111482.1301744     
   2.7743841107270013        9.4141571369945218        1408556144.4973629     
   1.7116433728245797        5.1992564557708363        1418270904.9307837     
   1.0175635059836154        2.2132211814156673        1432608297.7898433     
  0.69214682062702393       0.45606491339854871        1451568323.0745416     
  0.73538748350883065       -7.2232833267851460E-002   1475150980.7848744     
   1287278830.4183576       -6224677.9394329786        1486548177.1889715     
   1250678614.4895260       -2404348.0157830119        1470356481.1410146     
   1214185690.2908800        1773621.0084878802        1459674935.1991122     
   1177800057.8224249        6309229.1333937645        1454503539.3632610     
   1141521717.0841570        11202476.358923852        1454842293.6334660     
   940280768.94319057       -12222014.688958645        1485810080.3322256     
   916860671.45221913       -8147747.9042034149        1475132686.3476779     
   893521042.75944829       -3805251.7921153903        1469025094.0874865     
   870261882.86488605        805473.64733731747        1467487303.5516450     
   847083191.76852655        5684428.4141297936        1470519314.7401626     
   610068276.83763874       -13183680.627601415        1483664515.3126247     
   597141588.12252486       -9661489.8803510070        1478470129.9708428     
   584268545.27363348       -5960479.5790272951        1476905197.9717126     
   571449148.29096234       -2080649.7236347497        1478969719.3152373     
   558683397.17450953        1977999.6858179569        1484663694.0014150     
   296641354.10170442       -9109675.7553597391        1480111482.1301744     
   291521364.50044906       -6945573.9442075640        1480368812.0105083     
   286428197.83343226       -4692062.3522599638        1483315246.8517938     
   281361854.10065043       -2349140.9795298576        1488950786.6540334     
   276322333.30210757        83190.173998162150        1497275431.4172244     
  0.73538748350883065       -7.2232833267851460E-002   1475150980.7848744     
  0.58599059670583942       -9.5775585264832347E-002   1480828732.4666765     
  0.43884767614726505      -0.11180511644709029        1488255240.7277286     
  0.29395684604420602      -0.12032802638899215        1497430505.5680339     
  0.15131549859257978      -0.12135196693672759        1508354526.9875927     
   1141521717.0841570        11202476.358923852        1454842293.6334660     
   1084203224.8759196        10263035.045712113        1444889261.0294716     
   1027093500.4334908        10019486.285189450        1440932282.2528982     
   970192543.75685704        10471830.077319503        1442971357.3037398     
   913500354.84602654        11620066.422128677        1451006486.1819985     
   847083191.76852655        5684428.4141297936        1470519314.7401626     
   805190950.35959470        5308835.7635083795        1462765015.0783999     
   763455284.77423573        5455162.5247948468        1460750889.4357741     
   721876195.01244259        6123408.6979676783        1464476937.8122945     
   680453681.07421935        7313574.2830412388        1473943160.2079577     
   558683397.17450953        1977999.6858179569        1484663694.0014150     
   531486321.39838558        1946930.1478409767        1479047236.6826043     
   504393629.50359821        2263806.8809853792        1478915073.5746663     
   477405321.49014699        2928629.8852514923        1484267204.6775928     
   450521397.35803396        3941399.1606419683        1495103629.9913902     
   276322333.30210757        83190.173998162150        1497275431.4172244     
   263089337.99228913        177318.19870156050        1493735925.8421032     
   249908534.62157750        445419.35376100242        1495424834.6695747     
   236779923.18997306        887493.63917848468        1502342157.8996420     
   223703503.69747037        1503541.0549350679        1514487895.5323026     
  0.15131549859257978      -0.12135196693672759        1508354526.9875927     
  0.14131058960338697       -8.3895802393120084E-002   1506831082.5568860     
  0.12817498893759768       -5.6874582882110503E-002   1510280172.7204976     
  0.11191491872425101       -4.0268955752349254E-002   1518701797.4784307     
   9.2523607822922058E-002  -3.4100103693138602E-002   1532095956.8306823     
   913500354.84602654        11620066.422128677        1451006486.1819985     
   864144711.76744699        15477209.496411264        1445684699.3090858     
   814915208.38228464        19754818.215414107        1444961120.9306915     
   765811844.69052482        24452892.579096556        1448835751.0468192     
   716834620.69217539        29571432.587475359        1457308589.6574621     
   680453681.07421935        7313574.2830412388        1473943160.2079577     
   642882398.42335165        10040066.488085002        1469904874.9977481     
   605405720.54259777        13081907.926841944        1470594193.3610835     
   568023647.43196213        16439098.599325418        1476011115.2979610     
   530736179.09143651        20111638.505513430        1486155640.8083816     
   450521397.35803396        3941399.1606419683        1495103629.9913902     
   425104175.36065966        5648150.5641681403        1492312055.7000406     
   399750023.21010780        7565134.7904350758        1494377480.0612650     
   374458940.90637666        9692351.8394373059        1501299903.0750585     
   349230928.44947016        12029801.711189911        1513079324.7414179     
   223703503.69747037        1503541.0549350679        1514487895.5323026     
   210810042.57937384        2301461.7246689796        1512906241.4159670     
   197948116.38481072        3204498.8061796129        1516310981.0312347     
   185117725.11377722        4212652.2994567379        1524702114.3780942     
   172318868.76626745        5325922.2044788599        1538079641.4565473     
   9.2523607822922058E-002  -3.4100103693138602E-002   1532095956.8306823     
   7.9500554491222536E-002  -3.0393110189769139E-002   1531687432.1455274     
   6.6711380009875351E-002  -2.5906520518558494E-002   1536394696.2709911     
   5.4155375239173853E-002  -2.0643045423224076E-002   1546217749.2070792     
   4.1839059689324470E-002  -1.4579912368992233E-002   1561156590.9537818     
   716834620.69217539        29571432.587475359        1457308589.6574621     
   658648531.12720037        31614491.005228549        1454215210.3567045     
   600130045.65739298        32549563.073534966        1457149678.9711113     
   541279164.28276050        32376648.792426348        1466111995.5006814     
   482095887.00329655        31095748.161881998        1481102159.9454031     
   530736179.09143651        20111638.505513430        1486155640.8083816     
   487898248.84660017        21884423.399695039        1484237033.2150164     
   444811021.67291212        22826218.531043500        1488159224.9197218     
   401474497.57038254        22937023.899586767        1497922215.9225008     
   357888676.53900957        22216839.505315959        1513526006.2233558     
   349230928.44947016        12029801.711189911        1513079324.7414179     
   321206732.90451872        13371985.695697188        1512432437.6607485     
   293016339.40671247        14160176.504023880        1517439301.2610710     
   264659747.95605075        14394374.136164546        1528099915.5423822     
   236136958.55253005        14074578.592108808        1544414280.5046880     
   172318868.76626745        5325922.2044788599        1538079641.4565473     
   158573983.30097204        6077177.8932830840        1538801423.6938989     
   144745998.85879973        6551436.9924965650        1544989907.9951568     
   130834915.43975617        6748699.5021384135        1556645094.3603199     
   116840733.04384834        6668965.4222326763        1573766982.7893918     
   4.1839059689324470E-002  -1.4579912368992233E-002   1561156590.9537818     
   3.5945971474108100E-002  -7.5948405074124092E-003   1563343991.3144681     
   2.9170759214751721E-002  -3.5522637944704668E-003   1570811045.1219790     
   2.1511958880893189E-002  -2.4542867738119867E-003   1583557752.3763108     
   1.2969021461146696E-002  -4.3027394833896468E-003   1601584113.0774648     
   482095887.00329655        31095748.161881998        1481102159.9454031     
   424952451.89252895        26613751.627492592        1479092708.1828251     
   365627314.73860329        14859414.949245855        1482788011.7537329     
   304120475.54152095       -4167261.8728566170        1492188070.6581318     
   240431934.30127823       -30466278.838829607        1507292884.8960140     
   357888676.53900957        22216839.505315959        1513526006.2233558     
   315758562.97736174        19073580.935834870        1510063952.0022659     
   271992172.88335782        10476067.258497387        1512136911.8012640     
   226589506.25700685       -3575701.5266609043        1519744885.6203473     
   179550563.09830773       -23081725.419649050        1532887873.4595268     
   236136958.55253005        14074578.592108808        1544414280.5046880     
   208535191.35886121        12124565.433182128        1540135953.5876892     
   179842573.14364260        6538382.2024221420        1541222899.3773773     
   150059103.90688953       -2683971.1001193076        1547675117.8737588     
   119184783.64858416       -15542494.474501058        1559492609.0768332     
   116840733.04384834        6668965.4222326763        1573766982.7893918     
   103282337.03701599        5766705.1195035055        1569308712.9390934     
   89178515.519450307        3046359.7809967063        1570045974.4820910     
   74529268.491155639       -1492070.5932761021        1575978767.4183760     
   59334595.952111535       -7848586.0033777803        1587107091.7479537     
   1.2969021461146696E-002  -4.3027394833896468E-003   1601584113.0774648     
   1.1848031713233278E-002  -5.1319754306972422E-003   1597582230.0564816     
   1.0786014938344936E-002  -5.7653286906449762E-003   1598606137.1153886     
   9.8054348523508028E-003  -6.1265324315549589E-003   1604655834.2541890     
   8.8895923589326804E-003  -6.2726380866019562E-003   1615731321.4728839     
   240431934.30127823       -30466278.838829607        1507292884.8960140     
   199660951.07642028       -60188586.346705198        1486149010.6754594     
   154281411.90801167       -105272746.99974950        1467771287.3033202     
   104293316.79604977       -165718760.79797417        1452159714.7796075     
   49696665.740529060       -241526627.74139500        1439314293.1043050     
   179550563.09830773       -23081725.419649050        1532887873.4595268     
   148336407.65437248       -45564231.458109953        1507294079.2631116     
   113665835.25274959       -79568127.355525583        1484614816.7875862     
   75538845.893441096       -125093413.11189452        1464850086.0329413     
   33955439.576440550       -182140088.72724113        1447999886.9991977     
   119184783.64858416       -15542494.474501058        1559492609.0768332     
   97951401.335475951       -30658015.438575998        1530793057.0547464     
   74413741.050546110       -53454462.975389086        1505156417.6260145     
   48571802.793792799       -83931837.084946305        1482582690.7906373     
   20425586.565220311       -122090137.76723345        1463071876.5486050     
   59334595.952111535       -7848586.0033777803        1587107091.7479537     
   48505932.119732603       -15469938.288106076        1556645944.0503707     
   36525129.301406033       -26931753.859327737        1529396089.8186059     
   23392187.497110594       -42234032.717111796        1505357529.0526638     
   9107106.7068746872       -61376774.861366659        1484530261.7525363     
   8.8895923589326804E-003  -6.2726380866019562E-003   1615731321.4728839     
   7.1539843646120805E-003  -6.6567630528692415E-003   1584852740.2499826     
   5.3229856420080948E-003  -7.3609387815856461E-003   1557333833.3653622     
   3.4033902070200444E-003  -8.3593960508300119E-003   1533174600.8190262     
   1.4017175698543497E-003  -9.6314439939998633E-003   1512375042.6109858     
   49696665.740529060       -241526627.74139500        1439314293.1043050     
   40408889.400554389       -322503738.18542945        1346303277.0985107     
   23359181.587465554       -429353953.53984457        1253163130.6992538     
  -1452457.6987375617       -562077273.80464184        1159893853.9065189     
  -34026028.458070397       -720673698.97987425        1066495446.7203212     
   33955439.576440550       -182140088.72724113        1447999886.9991977     
   29804662.410892189       -242028405.03372195        1347510790.1243072     
   19832436.640474454       -321321550.02310497        1246235716.6683869     
   4038762.2651688755       -420019523.69545013        1144174666.6314583     
  -17576360.715024143       -538122326.05074370        1041327640.0134939     
   20425586.565220311       -122090137.76723345        1463071876.5486050     
   19535105.181110226       -161452670.95403373        1357368595.4842196     
   14763658.060354322       -213751756.59631735        1250222491.6512649     
   6111245.2029523849       -278987394.69408524        1141633565.0497396     
  -6422133.3910914063       -357159585.24733365        1031601815.6796426     
   9107106.7068746872       -61376774.861366659        1484530261.7525363     
   9600217.7111981958       -80776535.946392804        1375876693.1782668     
   8152845.8471117318       -106644573.25945322        1265123455.6478691     
   4764991.1146155447       -138980886.80054820        1152270549.1613593     
  -563346.48628895730       -177785476.56966278        1037317973.7187243     
   1.4017175698543497E-003  -9.6314439939998633E-003   1512375042.6109858     
   1.1555774652190474E-003  -1.0804406819769359E-002   1403035083.2064412     
   7.3823731011063952E-004  -1.2546648701668420E-002   1290938608.6582196     
   1.5136701416094793E-004  -1.4860583002247145E-002   1176085618.9663291     
  -6.0885362685624694E-004  -1.7741943445528350E-002   1058476114.1307703     
   2.7743841107270013        9.4141571369945218        1408556144.4973629     
   1.7116433728245797        5.1992564557708363        1418270904.9307837     
   1.0175635059836154        2.2132211814156673        1432608297.7898433     
  0.69214682062702393       0.45606491339854871        1451568323.0745416     
  0.73538748350883065       -7.2232833267851460E-002   1475150980.7848744     
  -350705652.73024523        4955188.2682535350        1444560104.2139075     
  -337030540.63821125        6523933.7719869167        1445145949.4476509     
  -323461453.26608217        7739263.5427011400        1451266460.9012859     
  -309998390.61386067        8601177.5803909153        1462921638.5748093     
  -296641352.68154407        9109675.8850640506        1480111482.4682181     
  -728620121.25937712        1747723.2150025070        1479651379.5034719     
  -698664085.17185092        5666961.6895802021        1470984613.6008801     
  -668920098.89279509        8879367.4692550898        1468764547.7124293     
  -639388162.42221427        11384940.554014951        1472991181.8381178     
  -610068275.76010132        13183680.943881601        1483664515.9779475     
  -1133743402.8130093       -9622385.7456002831        1513829970.3660610     
  -1084900631.8892717       -2570911.0479558706        1495786897.3904696     
  -1036375935.8625730        3420313.9928892255        1485102558.2232721     
  -988169314.73291171        8351289.3769465685        1481776952.8644652     
  -940280768.50029016        12222015.104202151        1485810081.3140507     
  -1566075497.3911440       -29155138.613553762        1547095876.8016689     
  -1495740180.7904785       -18189684.440632820        1519552800.8164213     
  -1425828964.1754155       -8637896.8863911629        1500280492.4338181     
  -1356341847.5459604       -499775.95084524155        1489278951.6538565     
  -1287278830.9021041        6224678.3660451174        1486548178.4765389     
  0.73538748350883065       -7.2232833267851460E-002   1475150980.7848744     
  0.58599059670583942       -9.5775585264832347E-002   1480828732.4666765     
  0.43884767614726505      -0.11180511644709029        1488255240.7277286     
  0.29395684604420602      -0.12032802638899215        1497430505.5680339     
  0.15131549859257978      -0.12135196693672759        1508354526.9875927     
  -296641352.68154407        9109675.8850640506        1480111482.4682181     
  -291521363.35992259        6945574.0017277598        1480368812.2607744     
  -286428196.96991289        4692062.3463537842        1483315247.0348089     
  -281361853.51151335        2349140.9189444035        1488950786.7903287     
  -276322332.98472720       -83190.280508533120        1497275431.5273302     
  -610068275.76010132        13183680.943881601        1483664515.9779475     
  -597141587.24680483        9661490.1169437170        1478470130.4584115     
  -584268544.59898341        5960479.7384233773        1476905198.3225884     
  -571449147.81663561        2080649.8083246946        1478969719.5704789     
  -558683396.89976358       -1977999.6733598709        1484663694.2020860     
  -940280768.50029016        12222015.104202151        1485810081.3140507     
  -916860671.07465851        8147748.2498649359        1475132687.0595860     
  -893521042.44836450        3805252.0644046068        1469025094.5910666     
  -870261882.62140977       -805473.45218902826        1467487303.9084930     
  -847083191.59379661       -5684428.2999185324        1470519315.0118608     
  -1287278830.9021041        6224678.3660451174        1486548178.4765389     
  -1250678614.8434818        2404348.4004969001        1470356482.0643063     
  -1214185690.5180640       -1773620.6757312417        1459674935.8402474     
  -1177800057.9258373       -6309228.8625974655        1454503539.8043616     
  -1141521717.0668211       -11202476.160164654        1454842293.9566510     
  0.15131549859257978      -0.12135196693672759        1508354526.9875927     
  0.14131058960338697       -8.3895802393120084E-002   1506831082.5568860     
  0.12817498893759768       -5.6874582882110503E-002   1510280172.7204976     
  0.11191491872425101       -4.0268955752349254E-002   1518701797.4784307     
   9.2523607822922058E-002  -3.4100103693138602E-002   1532095956.8306823     
  -276322332.98472720       -83190.280508533120        1497275431.5273302     
  -263089337.70478666       -177318.27789932489        1493735925.9288993     
  -249908534.36614278       -445419.41294527054        1495424834.7364571     
  -236779922.96878353       -887493.68560557067        1502342157.9500031     
  -223703503.51271147       -1503541.0958911479        1514487895.5695333     
  -558683396.89976358       -1977999.6733598709        1484663694.2020860     
  -531486321.15368640       -1946930.1527485847        1479047236.8414087     
  -504393629.28706408       -2263806.8969870508        1478915073.6983876     
  -477405321.29989070       -2928629.9060547948        1484267204.7730231     
  -450521397.19216937       -3941399.1799623370        1495103630.0653148     
  -847083191.59379661       -5684428.2999185324        1470519315.0118608     
  -805190950.20538735       -5308835.7084440291        1462765015.2944145     
  -763455284.63459182       -5455162.5090124309        1460750889.6062934     
  -721876194.88141239       -6123408.7016334236        1464476937.9474928     
  -680453680.94584584       -7313574.2862990797        1473943160.3180196     
  -1141521717.0668211       -11202476.160164654        1454842293.9566510     
  -1084203224.8598835       -10263034.944958031        1444889261.2879148     
  -1027093500.4087278       -10019486.249024391        1440932282.4601691     
  -970192543.71334612       -10471830.072336674        1442971357.4734147     
  -913500354.77373755       -11620066.414893746        1451006486.3276498     
   9.2523607822922058E-002  -3.4100103693138602E-002   1532095956.8306823     
   7.9500554491222536E-002  -3.0393110189769139E-002   1531687432.1455274     
   6.6711380009875351E-002  -2.5906520518558494E-002   1536394696.2709911     
   5.4155375239173853E-002  -2.0643045423224076E-002   1546217749.2070792     
   4.1839059689324470E-002  -1.4579912368992233E-002   1561156590.9537818     
  -223703503.51271147       -1503541.0958911479        1514487895.5695333     
  -210810042.42004663       -2301461.7598919049        1512906241.4475129     
  -197948116.25070876       -3204498.8349819332        1516310981.0579476     
  -185117725.00470451       -4212652.3211850747        1524702114.4008372     
  -172318868.68203449       -5325922.2185008749        1538079641.4761822     
  -450521397.19216937       -3941399.1799623370        1495103630.0653148     
  -425104175.21713793       -5648150.5786472708        1492312055.7622669     
  -399750023.08900237       -7565134.8003193885        1494377480.1135063     
  -374458940.80777037       -9692351.8450022191        1501299903.1190426     
  -349230928.37343109       -12029801.712662116        1513079324.7788672     
  -680453680.94584584       -7313574.2862990797        1473943160.3180196     
  -642882398.31177402       -10040066.486662775        1469904875.0897806     
  -605405720.44817257       -13081907.921926469        1470594193.4376690     
  -568023647.35503376       -16439098.592065275        1476011115.3616836     
  -530736179.03236175       -20111638.497095197        1486155640.8618281     
  -913500354.77373755       -11620066.414893746        1451006486.3276498     
  -864144711.70395756       -15477209.483945787        1445684699.4300647     
  -814915208.32821321       -19754818.199784696        1444961121.0304391     
  -765811844.64650488       -24452892.562408179        1448835751.1287777     
  -716834620.65881848       -29571432.571772784        1457308589.7250772     
   4.1839059689324470E-002  -1.4579912368992233E-002   1561156590.9537818     
   3.5945971474108100E-002  -7.5948405074124092E-003   1563343991.3144681     
   2.9170759214751721E-002  -3.5522637944704668E-003   1570811045.1219790     
   2.1511958880893189E-002  -2.4542867738119867E-003   1583557752.3763108     
   1.2969021461146696E-002  -4.3027394833896468E-003   1601584113.0774648     
  -172318868.68203449       -5325922.2185008749        1538079641.4761822     
  -158573983.22902924       -6077177.8977227509        1538801423.7088978     
  -144745998.80061960       -6551436.9922624975        1544989908.0061429     
  -130834915.39679523       -6748699.5020866394        1556645094.3679178     
  -116840733.01756516       -6668965.4272257574        1573766982.7942238     
  -349230928.37343109       -12029801.712662116        1513079324.7788672     
  -321206732.83950937       -13371985.691505477        1512432437.6892803     
  -293016339.35388499       -14160176.498008609        1517439301.2819321     
  -264659747.91655743       -14394374.132165477        1528099915.5568302     
  -236136958.52752751       -14074578.593983881        1544414280.5139587     
  -530736179.03236175       -20111638.497095197        1486155640.8618281     
  -487898248.79549336       -21884423.388941020        1484237033.2556205     
  -444811021.63063169       -22826218.520809084        1488159224.9493606     
  -401474497.53776950       -22937023.892677620        1497922215.9430511     
  -357888676.51691341       -22216839.504562408        1513526006.2366943     
  -716834620.65881848       -29571432.571772784        1457308589.7250772     
  -658648531.09697771       -31614490.990016669        1454215210.4079173     
  -600130045.63085246       -32549563.060643464        1457149679.0084212     
  -541279164.26042831       -32376648.783605039        1466111995.5265772     
  -482095886.98572540       -31095748.158975437        1481102159.9624023     
   1.2969021461146696E-002  -4.3027394833896468E-003   1601584113.0774648     
   1.1848031713233278E-002  -5.1319754306972422E-003   1597582230.0564816     
   1.0786014938344936E-002  -5.7653286906449762E-003   1598606137.1153886     
   9.8054348523508028E-003  -6.1265324315549589E-003   1604655834.2541890     
   8.8895923589326804E-003  -6.2726380866019562E-003   1615731321.4728839     
  -116840733.01756516       -6668965.4272257574        1573766982.7942238     
  -103282337.01322399       -5766705.1271765567        1569308712.9435956     
  -89178515.497924581       -3046359.7905998938        1570045974.4863012     
  -74529268.471664280        1492070.5825116895        1575978767.4223421     
  -59334595.934451051        7848585.9921358265        1587107091.7517216     
  -236136958.52752751       -14074578.593983881        1544414280.5139587     
  -208535191.33644691       -12124565.438633092        1540135953.5963898     
  -179842573.12352765       -6538382.2104880363        1541222899.3855958     
  -150059103.88876322        2683971.0904746801        1547675117.8815846     
  -119184783.63215902        15542494.464234084        1559492609.0843458     
  -357888676.51691341       -22216839.504562408        1513526006.2366943     
  -315758562.95783871       -19073580.939566955        1510063952.0148728     
  -271992172.86602801       -10476067.265445799        1512136911.8132753     
  -226589506.24150017        3575701.5177294910        1519744885.6318979     
  -179550563.08423853        23081725.410017550        1532887873.4707422     
  -482095886.98572540       -31095748.158975437        1481102159.9624023     
  -424952451.87738454       -26613751.629920378        1479092708.1990325     
  -365627314.72542769       -14859414.955480009        1482788011.7693346     
  -304120475.52986163        4167261.8643252850        1492188070.6732965     
  -240431934.29068744        30466278.829490200        1507292884.9109251     
   8.8895923589326804E-003  -6.2726380866019562E-003   1615731321.4728839     
   7.1539843646120805E-003  -6.6567630528692415E-003   1584852740.2499826     
   5.3229856420080948E-003  -7.3609387815856461E-003   1557333833.3653622     
   3.4033902070200444E-003  -8.3593960508300119E-003   1533174600.8190262     
   1.4017175698543497E-003  -9.6314439939998633E-003   1512375042.6109858     
  -59334595.934451051        7848585.9921358265        1587107091.7517216     
  -48505932.105467051        15469938.276018839        1556645944.0535781     
  -36525129.290705703        26931753.845827043        1529396089.8213286     
  -23392187.490165196        42234032.701566808        1505357529.0549796     
  -9107106.7038522400        61376774.843211986        1484530261.7545226     
  -119184783.63215902        15542494.464234084        1559492609.0843458     
  -97951401.322144061        30658015.427482642        1530793057.0611341     
  -74413741.040485263        53454462.962875605        1505156417.6314368     
  -48571802.787182242        83931837.070418298        1482582690.7952387     
  -20425586.562234558        122090137.75010690        1463071876.5525460     
  -179550563.08423853        23081725.410017550        1532887873.4707422     
  -148336407.64287809        45564231.447736830        1507294079.2726536     
  -113665835.24400964        79568127.343807802        1484614816.7956748     
  -75538845.887628555        125093413.09826109        1464850086.0398142     
  -33955439.573743470        182140088.71105552        1447999887.0050592     
  -240431934.29068744        30466278.829490200        1507292884.9109251     
  -199660951.06767204        60188586.336759716        1486149010.6881263     
  -154281411.90128019        105272746.98861948        1467771287.3140514     
  -104293316.79150948        165718760.78507435        1452159714.7886989     
  -49696665.738366589        241526627.72610319        1439314293.1120706     
   1.4017175698543497E-003  -9.6314439939998633E-003   1512375042.6109858     
   1.1555774652190474E-003  -1.0804406819769359E-002   1403035083.2064412     
   7.3823731011063952E-004  -1.2546648701668420E-002   1290938608.6582196     
   1.5136701416094793E-004  -1.4860583002247145E-002   1176085618.9663291     
  -6.0885362685624694E-004  -1.7741943445528350E-002   1058476114.1307703     
  -9107106.7038522400        61376774.843211986        1484530261.7545226     
  -9600217.7086671107        80776535.925884143        1375876693.1797774     
  -8152845.8453862593        106644573.23554206        1265123455.6489131     
  -4764991.1140072569        138980886.77219310        1152270549.1619253     
   563346.48545382172        177785476.53578582        1037317973.7188312     
  -20425586.562234558        122090137.75010690        1463071876.5525460     
  -19535105.178608187        161452670.93453053        1357368595.4872422     
  -14763658.058620527        213751756.57349032        1250222491.6533842     
  -6111245.2022786885        278987394.66696942        1141633565.0509527     
   6422133.3904265165        357159585.21498662        1031601815.6799629     
  -33955439.573743470        182140088.71105552        1447999887.0050592     
  -29804662.408668354        242028405.01513124        1347510790.1288500     
  -19832436.638963148        321321550.00130987        1246235716.6716232     
  -4038762.2646418810        420019523.66953999        1144174666.6333928     
   17576360.714305699        538122326.01985931        1041327640.0141492     
  -49696665.738366589        241526627.72610319        1439314293.1120706     
  -40408889.398843482        322503738.16770405        1346303277.1045880     
  -23359181.586414516        429353953.51899183        1253163130.7036567     
   1452457.6988931596        562077273.77987206        1159893853.9092557     
   34026028.457094997        720673698.95040500        1066495446.7214075     
  -1566075497.3911440       -29155138.613553762        1547095876.8016689     
  -1495740180.7904785       -18189684.440632820        1519552800.8164213     
  -1425828964.1754155       -8637896.8863911629        1500280492.4338181     
  -1356341847.5459604       -499775.95084524155        1489278951.6538565     
  -1287278830.9021041        6224678.3660451174        1486548178.4765389     
  -1996364297.4804943       -44934304.058662415        1421842363.3877745     
  -1905110333.2224917       -30742464.898660064        1403393773.9985518     
  -1814352397.0805371       -18204052.792151093        1392021134.0537679     
  -1724090489.0546343       -7319067.7391449213        1387724443.5534275     
  -1634324609.1447771        1912490.2603701353        1390503702.4975309     
  -2397428420.2334156       -51946066.302845716        1295458035.2383909     
  -2288669574.4843583       -35551972.005644202        1286020016.2930048     
  -2180478684.9817986       -21051065.196752071        1282463128.6338551     
  -2072855751.7257326       -8443345.8761773109        1284787372.2609508     
  -1965800774.7161565        2271185.9560915232        1292992747.1742890     
  -2769267865.6498947       -50190425.346094847        1167942892.3535149     
  -2646417904.5760746       -32618205.761582971        1167431527.6997793     
  -2524207827.8791962       -17178934.100196004        1171606476.1740818     
  -2402637635.5592518       -3872610.3619334698        1180467737.7764277     
  -2281707327.6162462        7300765.4531990290        1194015312.5068183     
  -3111882633.7299409       -39667381.188413978        1039296934.7331496     
  -2978355323.4976449       -21941166.166477799        1047628308.2188791     
  -2845539825.7727304       -6587659.5024777651        1059451176.6744461     
  -2713436140.5551963        6393138.8035762310        1074765540.0998573     
  -2582044267.8450475        17001228.751689792        1093571398.4951138     
  -1287278830.9021041        6224678.3660451174        1486548178.4765389     
  -1250678614.8434818        2404348.4004969001        1470356482.0643063     
  -1214185690.5180640       -1773620.6757312417        1459674935.8402474     
  -1177800057.9258373       -6309228.8625974655        1454503539.8043616     
  -1141521717.0668211       -11202476.160164654        1454842293.9566510     
  -1634324609.1447771        1912490.2603701353        1390503702.4975309     
  -1584489450.4489369       -1738768.9470464587        1379201298.8247786     
  -1534754044.4124830       -5722537.0190858841        1372530453.7406046     
  -1485118391.0354016       -10038813.955704510        1370491167.2450106     
  -1435582490.3177044       -14687599.756928921        1373083439.3379934     
  -1965800774.7161565        2271185.9560915232        1292992747.1742890     
  -1905240935.0962307       -1964081.0071439743        1286588431.8271427     
  -1844773309.0618689       -6506726.5889239311        1283937083.4689798     
  -1784397896.6130631       -11356750.789224029        1285038702.0997992     
  -1724114697.7498188       -16514153.608064055        1289893287.7196016     
  -2281707327.6162462        7300765.4531990290        1194015312.5068183     
  -2212933068.7853670        1728412.2202072144        1192517881.0714002     
  -2144243484.4662275       -4126189.3852572441        1193894825.0253720     
  -2075638574.6588254       -10263039.363178730        1198146144.3687277     
  -2007118339.3631654       -16682137.713567972        1205271839.1014743     
  -2582044267.8450475        17001228.751689792        1093571398.4951138     
  -2507565851.5163426        9338710.7350047827        1096989646.5575488     
  -2433164570.6255569        1419074.5919184685        1102403678.4097772     
  -2358840425.1726923       -6757679.6775732040        1109813494.0517943     
  -2284593415.1577411       -15191552.073440671        1119219093.4836087     
  -1141521717.0668211       -11202476.160164654        1454842293.9566510     
  -1084203224.8598835       -10263034.944958031        1444889261.2879148     
  -1027093500.4087278       -10019486.249024391        1440932282.4601691     
  -970192543.71334612       -10471830.072336674        1442971357.4734147     
  -913500354.77373755       -11620066.414893746        1451006486.3276498     
  -1435582490.3177044       -14687599.756928921        1373083439.3379934     
  -1363038256.5126438       -12919432.401447415        1364579442.1816325     
  -1290714410.7753475       -11885891.938514531        1361600255.6120017     
  -1218610953.1058125       -11586978.368123591        1364145879.6291053     
  -1146727883.5040398       -12022691.690265536        1372216314.2329354     
  -1724114697.7498188       -16514153.608064055        1289893287.7196016     
  -1637691131.6445181       -14321182.901672661        1282824769.0449615     
  -1551499573.9189658       -12901573.461107254        1280809817.7027984     
  -1465540024.5731645       -12255325.286376178        1283848433.6931050     
  -1379812483.6071091       -12382438.377470851        1291940617.0158851     
  -2007118339.3631654       -16682137.713567972        1205271839.1014743     
  -1908161850.2555060       -14468286.445629597        1199625241.8779082     
  -1809448989.8395810       -13066530.816795826        1198560968.7325568     
  -1710979758.1153951       -12476870.827095509        1202079019.6654186     
  -1612754155.0829399       -12699306.476502776        1210179394.6764958     
  -2284593415.1577411       -15191552.073440671        1119219093.4836087     
  -2174450412.3456116       -13360743.033321738        1114980860.6804671     
  -2064562658.5371983       -12380764.005594254        1114853708.7012792     
  -1954930153.7325094       -12251614.990278244        1118837637.5460477     
  -1845552897.9315393       -12973295.987362027        1126932647.2147670     
  -913500354.77373755       -11620066.414893746        1451006486.3276498     
  -864144711.70395756       -15477209.483945787        1445684699.4300647     
  -814915208.32821321       -19754818.199784696        1444961121.0304391     
  -765811844.64650488       -24452892.562408179        1448835751.1287777     
  -716834620.65881848       -29571432.571772784        1457308589.7250772     
  -1146727883.5040398       -12022691.690265536        1372216314.2329354     
  -1085663125.1774740       -16227867.917587101        1366743458.8755662     
  -1024723453.1936601       -20849998.620750904        1365759722.1004393     
  -963908867.55260146       -25889083.799758375        1369265103.9075556     
  -903219368.25428534       -31345123.454579085        1377259604.2969120     
  -1379812483.6071091       -12382438.377470851        1291940617.0158851     
  -1307350295.4972367       -17029153.405100703        1286317922.1085615     
  -1235012140.3788373       -22089311.737636149        1285075255.8677592     
  -1162798018.2519040       -27562913.375060439        1288212618.2934811     
  -1090707929.1164401       -33449958.317381561        1295730009.3857303     
  -1612754155.0829399       -12699306.476502776        1210179394.6764958     
  -1529206222.6632476       -17881065.946486175        1204408089.1290421     
  -1445781269.8837399       -23472757.550432384        1202907722.3323951     
  -1362479296.7444232       -29474381.288342357        1205678294.2865565     
  -1279300303.2452888       -35885937.160190821        1212719804.9915185     
  -1845552897.9315393       -12973295.987362027        1126932647.2147670     
  -1751230906.6755064       -18783605.541756034        1121013959.9370177     
  -1657030841.7083733       -25000336.059150279        1119257121.4943523     
  -1562952703.0301509       -31623487.539579213        1121662131.8867779     
  -1468996490.6408303       -38653059.983014405        1128228991.1142919     
  -716834620.65881848       -29571432.571772784        1457308589.7250772     
  -658648531.09697771       -31614490.990016669        1454215210.4079173     
  -600130045.63085246       -32549563.060643464        1457149679.0084212     
  -541279164.26042831       -32376648.783605039        1466111995.5265772     
  -482095886.98572540       -31095748.158975437        1481102159.9624023     
  -903219368.25428534       -31345123.454579085        1377259604.2969120     
  -830015339.45374119       -32928113.957015753        1373787602.8958142     
  -756607966.96865582       -33833292.177652091        1375733845.0108769     
  -682997250.79901898       -34060658.116445780        1383098330.6420960     
  -609183190.94484580       -33610211.773452282        1395881059.7894747     
  -1090707929.1164401       -33449958.317381561        1295730009.3857303     
  -1004227687.9386234       -35095398.962445438        1291728824.9776573     
  -917673155.29600966       -36493201.391513377        1292536279.6842430     
  -831044331.18859529       -37643365.604582489        1298152373.5054815     
  -744341215.61637998       -38545891.601646632        1308577106.4413834     
  -1279300303.2452888       -35885937.160190821        1212719804.9915185     
  -1181285576.5516372       -38116346.006330490        1208038876.6534359     
  -1083325610.6129215       -40529290.702251732        1207556983.0285120     
  -985420405.42915606       -43124771.248007774        1211274124.1167409     
  -887569961.00033021       -45902787.643565804        1219190299.9181325     
  -1468996490.6408303       -38653059.983014405        1128228991.1142919     
  -1361189005.2927620       -41990955.088615477        1122717757.9231594     
  -1253565332.9193854       -45941560.109852254        1120795955.0436852     
  -1146125473.5206962       -50504875.046714306        1122463582.4758685     
  -1038869427.0966986       -55680899.899217010        1127720640.2197051     
  -482095886.98572540       -31095748.158975437        1481102159.9624023     
  -424952451.87738454       -26613751.629920378        1479092708.1990325     
  -365627314.72542769       -14859414.955480009        1482788011.7693346     
  -304120475.52986163        4167261.8643252850        1492188070.6732965     
  -240431934.29068744        30466278.829490200        1507292884.9109251     
  -609183190.94484580       -33610211.773452282        1395881059.7894747     
  -537436322.65123701       -30100017.392846584        1393640327.1790593     
  -463466486.71969295       -19179930.885791883        1397152511.4117537     
  -387273683.15019774       -849952.25222891569        1406417612.4875529     
  -308857911.94276536        24889918.507784382        1421435630.4064620     
  -744341215.61637998       -38545891.601646632        1308577106.4413834     
  -657853309.82480872       -35966218.075691849        1306153236.1773021     
  -569101170.80096304       -25839100.442165196        1309530444.2657690     
  -478084798.54485208       -8164538.7010852695        1318708730.7067916     
  -384804193.05646861        17057467.147574291        1333688095.5003669     
  -887569961.00033021       -45902787.643565804        1219190299.9181325     
  -786203413.39809775       -44212353.678460658        1216631435.1937592     
  -682531366.96925497       -34836923.624651760        1219921810.3313870     
  -576553821.71382093       -17776497.482205987        1229061425.3310137     
  -468270777.63179439        6968924.7488791049        1244050280.1926377     
  -1038869427.0966986       -55680899.899217010        1127720640.2197051     
  -922486633.37109864       -54838424.201119721        1125074924.2284334     
  -803757075.22457433       -46173400.433274835        1128326609.6086068     
  -682680752.65711880       -29685828.595659107        1137475696.3602221     
  -559257665.66873646       -5375708.6882876158        1152522184.4832733     
  -240431934.29068744        30466278.829490200        1507292884.9109251     
  -199660951.06767204        60188586.336759716        1486149010.6881263     
  -154281411.90128019        105272746.98861948        1467771287.3140514     
  -104293316.79150948        165718760.78507435        1452159714.7886989     
  -49696665.738366589        241526627.72610319        1439314293.1120706     
  -308857911.94276536        24889918.507784382        1421435630.4064620     
  -259181262.91663557        55167065.409042507        1404707487.2171416     
  -203051309.35551667        106955227.42693610        1391935665.4751856     
  -140468051.25937593        180254404.56156576        1383120165.1805940     
  -71431488.628248349        275064596.81281519        1378260986.3333769     
  -384804193.05646861        17057467.147574291        1333688095.5003669     
  -322821390.80253154        48909599.670215607        1323527890.0347488     
  -252540535.42196828        108421909.28161320        1318514176.6151407     
  -173961626.91477650        195594395.98176986        1318646955.2415504     
  -87084665.280961141        310427059.77067459        1323926225.9139631     
  -468270777.63179439        6968924.7488791049        1244050280.1926377     
  -390581334.72534376        41416189.120342106        1242610219.1409533     
  -302749090.10065126        109672792.55260837        1247506820.7339239     
  -204774043.75770122        211738735.04573029        1258740084.9715512     
  -96656195.696503371        347614016.59968674        1276310011.8538361     
  -559257665.66873646       -5375708.6882876158        1152522184.4832733     
  -462461094.68508613        32686833.759359628        1161954474.5357535     
  -353676973.39155829        110707877.23993468        1178913597.8315320     
  -232905301.78814894        228687421.75344670        1203399554.3706067     
  -100146079.87486970        386625467.29985839        1235412344.1529889     
  -49696665.738366589        241526627.72610319        1439314293.1120706     
  -40408889.398843482        322503738.16770405        1346303277.1045880     
  -23359181.586414516        429353953.51899183        1253163130.7036567     
   1452457.6988931596        562077273.77987206        1159893853.9092557     
   34026028.457094997        720673698.95040500        1066495446.7214075     
  -71431488.628248349        275064596.81281519        1378260986.3333769     
  -57301451.386435404        376794031.74253631        1296735567.1742444     
  -34201949.254197419        508421682.97367662        1214275096.5284576     
  -2132982.2315308750        669947550.50625479        1130879574.3960214     
   38905449.681577146        861371634.34028220        1046549000.7769229     
  -87084665.280961141        310427059.77067459        1323926225.9139631     
  -70414998.831722111        432218029.68001014        1255295192.5903165     
  -43568334.074509472        587932327.28258860        1184923186.6868198     
  -6544671.0093128383        777569952.57843661        1112810208.2034729     
   40655990.363843799        1001130905.5675079        1038956257.1402700     
  -96656195.696503371        347614016.59968674        1276310011.8538361     
  -79749531.734683454        488775731.98018664        1221982153.3528008     
  -51458336.047336638        667885886.44577312        1165107401.1787205     
  -11782608.634483039        884944479.99639201        1105685755.3315914     
   39277650.503892422        1139951512.6320615        1043717215.8114064     
  -100146079.87486970        386625467.29985839        1235412344.1529889     
  -85305050.095310986        546467138.64308989        1196796449.4616978     
  -57871955.172702342        748282360.46315432        1154827740.0041602     
  -17846795.107015908        992071132.76014483        1109506215.7803795     
   34770430.101714075        1277833455.5339470        1060831876.7903512     
  -3111882633.7299409       -39667381.188413978        1039296934.7331496     
  -2978355323.4976449       -21941166.166477799        1047628308.2188791     
  -2845539825.7727304       -6587659.5024777651        1059451176.6744461     
  -2713436140.5551963        6393138.8035762310        1074765540.0998573     
  -2582044267.8450475        17001228.751689792        1093571398.4951138     
  -3454777469.9716935       -26938879.568618059        976668567.74880922     
  -3310579590.9575968       -11541320.746796370        974214567.92283070     
  -3166893228.3287487        2151183.4575194120        977014585.15919697     
  -3023718382.0851550        14138633.044318557        985068619.45790279     
  -2881055052.2268181        24421028.013608098        998376670.81894815     
  -3828966665.7484388       -23598685.809318066        911796504.88501811     
  -3669062440.5454011       -9019049.9654688835        898790810.55649316     
  -3509469435.6054826        4523185.0013017654        892801655.38280582     
  -3350187650.9286942        17028019.090985060        893829039.36395431     
  -3191217086.5150318        28495452.303588629        901872962.49994051     
  -4234450221.0601683       -29646799.910513639        844680746.14179170     
  -4053803872.2610617       -14374353.822501183        821357036.11986482     
  -3873268447.6029425        528345.12886643410        806812387.34527314     
  -3692843947.0858183        15061296.943575382        801046799.81801641     
  -3512530370.7096944        29224501.621638536        804060273.53809488     
  -4671228135.9068899       -45083221.872208357        775321291.51911843     
  -4464803886.1045704       -27607232.317891121        741913244.61294186     
  -4258290264.3211107       -9833336.1597814560        719046781.04659545     
  -4051687270.5565233        8238466.6020929813        706721900.82008553     
  -3844994904.8108015        26608175.967748404        704938603.93340182     
  -2582044267.8450475        17001228.751689792        1093571398.4951138     
  -2507565851.5163426        9338710.7350047827        1096989646.5575488     
  -2433164570.6255569        1419074.5919184685        1102403678.4097772     
  -2358840425.1726923       -6757679.6775732040        1109813494.0517943     
  -2284593415.1577411       -15191552.073440671        1119219093.4836087     
  -2881055052.2268181        24421028.013608098        998376670.81894815     
  -2801237201.5401502        15043130.711296320        998090894.05780315     
  -2721439690.6353211        5597434.1361930370        1000312447.4635177     
  -2641662519.5123358       -3916061.7117248774        1005041331.0360951     
  -2561905688.1711841       -13497356.832427025        1012277544.7755293     
  -3191217086.5150318        28495452.303588629        901872962.49994051     
  -3104598240.3930578        17840644.038868904        897949422.51397014     
  -3017942938.3968506        7307355.3549445868        897044759.07193124     
  -2931251180.5264044       -3104413.7481974363        899158972.17382181     
  -2844522966.7817240       -13394663.270548820        904292061.81964219     
  -3512530370.7096944        29224501.621638536        804060273.53809488     
  -3417648968.0750780        17731250.717705488        796565231.92605579     
  -3322674313.9101467        6548838.2481596470        792600613.23501861     
  -3227606408.2149019       -4322735.7870054245        792166417.46497905     
  -3132445250.9893394       -14883471.387789965        795262644.61593914     
  -3844994904.8108015        26608175.967748404        704938603.93340182     
  -3740389384.5862055        14714950.747803211        693938322.29405820     
  -3635633817.1752067        3321882.8158535957        686980009.95277774     
  -3530728202.5778279       -7571027.8281514645        684063666.90956676     
  -3425672540.7940493       -17963781.184159756        685189293.16442275     
  -2284593415.1577411       -15191552.073440671        1119219093.4836087     
  -2174450412.3456116       -13360743.033321738        1114980860.6804671     
  -2064562658.5371983       -12380764.005594254        1114853708.7012792     
  -1954930153.7325094       -12251614.990278244        1118837637.5460477     
  -1845552897.9315393       -12973295.987362027        1126932647.2147670     
  -2561905688.1711841       -13497356.832427025        1012277544.7755293     
  -2440526769.8022408       -10972844.590214133        1006029443.3680158     
  -2319378600.9341407       -9217497.3508292437        1004153187.7489985     
  -2198461181.5668840       -8231315.1142586470        1006648777.9184824     
  -2077774511.7004807       -8014297.8805218935        1013516213.8764633     
  -2844522966.7817240       -13394663.270548820        904292061.81964219     
  -2711163090.1001172       -9952934.9994924068        896062674.56110370     
  -2578009463.4164858       -7198706.7216788530        892465898.05561197     
  -2445062086.7308259       -5131978.4371191263        893501732.30316198     
  -2312320960.0431442       -3752750.1458001137        899170177.30375493     
  -3132445250.9893394       -14883471.387789965        795262644.61593914     
  -2986359373.2392402       -10301014.261142135        785080554.25973570     
  -2840455245.9842358       -6324392.1181529760        779791839.62111485     
  -2694732869.2243309       -2953604.9588302374        779396500.70008838     
  -2549192242.9595313       -188652.78319454193        783894537.49664199     
  -3425672540.7940493       -17963781.184159756        685189293.16442275     
  -3266115619.2196088       -12017082.375162363        673083082.46390319     
  -3106715948.6373935       -6594553.5402553082        666131012.44551396     
  -2947473529.0474048       -1696194.6794368029        664333083.10925710     
  -2788388360.4496427        2677994.2072969675        667689294.45512938     
  -1845552897.9315393       -12973295.987362027        1126932647.2147670     
  -1751230906.6755064       -18783605.541756034        1121013959.9370177     
  -1657030841.7083733       -25000336.059150279        1119257121.4943523     
  -1562952703.0301509       -31623487.539579213        1121662131.8867779     
  -1468996490.6408303       -38653059.983014405        1128228991.1142919     
  -2077774511.7004807       -8014297.8805218935        1013516213.8764633     
  -1972879268.0836794       -13138321.473481059        1006440755.7238365     
  -1868151261.5276549       -18819801.935695648        1003178346.0994629     
  -1763590492.0324171       -25058739.267207861        1003728985.0033369     
  -1659196959.5979612       -31855133.467985392        1008092672.4354601     
  -2312320960.0431442       -3752750.1458001137        899170177.30375493     
  -2197849036.3708243       -8489459.4688926935        890885085.70906532     
  -2083589660.5311592       -13934661.567505002        886064242.33578932     
  -1969542832.5241573       -20088356.441662312        884707647.18392408     
  -1855708552.3498182       -26950544.091357589        886815300.25346911     
  -2549192242.9595313       -188652.78319454193        783894537.49664199     
  -2426140211.5369468       -4837019.5279999971        774346949.89269829     
  -2303346038.7188940       -10344914.954591632        767914810.20333028     
  -2180809724.5053787       -16712339.062972546        764598118.42853630     
  -2058531268.8964009       -23939291.853135824        764396874.56831408     
  -2788388360.4496427        2677994.2072969675        667689294.45512938     
  -2657752793.5820408       -2181001.6507953405        656826348.27474165     
  -2527420396.0908480       -8050562.0969266891        648730049.70209301     
  -2397391167.9760723       -14930687.131108403        643400398.73717821     
  -2267665109.2377186       -22821376.753367901        640837395.37999547     
  -1468996490.6408303       -38653059.983014405        1128228991.1142919     
  -1361189005.2927620       -41990955.088615477        1122717757.9231594     
  -1253565332.9193854       -45941560.109852254        1120795955.0436852     
  -1146125473.5206962       -50504875.046714306        1122463582.4758685     
  -1038869427.0966986       -55680899.899217010        1127720640.2197051     
  -1659196959.5979612       -31855133.467985392        1008092672.4354601     
  -1542116402.6195810       -35108798.587240577        1000228994.1493889     
  -1425042264.5903068       -38383860.203522503        995889579.88582289     
  -1307974545.5101449       -41680318.316844642        995074429.64476025     
  -1190913245.3790836       -44998172.927163899        997783543.42620778     
  -1855708552.3498182       -26950544.091357589        886815300.25346911     
  -1729541113.1387010       -30175836.043552756        876806136.56896698     
  -1603202698.8511012       -32831211.074161351        870256070.61781931     
  -1476693309.4870288       -34916669.183182120        867165102.40003276     
  -1350012945.0464735       -36432210.370605648        867533231.91559684     
  -2058531268.8964009       -23939291.853135824        764396874.56831408     
  -1923463136.8501112       -27192067.457550168        752449185.18189645     
  -1788046635.7017612       -29283612.721763253        743895427.23968804     
  -1652281765.4513464       -30213927.645754874        738735600.74168313     
  -1516168526.0988686       -29983012.229548931        736969705.68788970     
  -2267665109.2377186       -22821376.753367901        640837395.37999547     
  -2123882473.7538204       -26157492.829230785        627158139.98817694     
  -1979574075.1422832       -27741065.146306992        616807649.75141633     
  -1834739913.4031019       -27572093.704564691        609785924.66970992     
  -1689379988.5362723       -25650578.503994823        606092964.74306655     
  -1038869427.0966986       -55680899.899217010        1127720640.2197051     
  -922486633.37109864       -54838424.201119721        1125074924.2284334     
  -803757075.22457433       -46173400.433274835        1128326609.6086068     
  -682680752.65711880       -29685828.595659107        1137475696.3602221     
  -559257665.66873646       -5375708.6882876158        1152522184.4832733     
  -1190913245.3790836       -44998172.927163899        997783543.42620778     
  -1060949542.4734591       -42238570.679528296        993994522.20129097     
  -929524429.83264196       -34607602.647917002        994312539.00121307     
  -796637907.45660913       -22105268.832250565        998737593.82597136     
  -662289975.34538269       -4731569.2326108813        1007269686.6755642     
  -1350012945.0464735       -36432210.370605648        867533231.91559684     
  -1211583656.8082781       -33290078.727702498        861567991.65702784     
  -1072578313.5205969       -28227763.586524487        857919426.07669044     
  -932996915.18343949       -21245264.947083771        856587535.17458737     
  -792839461.79679644       -12342582.809364438        857572318.95071602     
  -1516168526.0988686       -29983012.229548931        736969705.68788970     
  -1374388976.3755374       -27992948.345594943        727795332.59565306     
  -1232918726.2884402       -27033883.249102294        719147270.83504450     
  -1091757775.8375909       -27105816.940086842        711025520.40606797     
  -950906125.02297854       -28208749.418545127        703430081.30871916     
  -1689379988.5362723       -25650578.503994823        606092964.74306655     
  -1549365501.1752427       -26347179.533224344        592676545.01715922     
  -1410545668.1361737       -31025961.635655522        577996073.27627552     
  -1272920489.4190695       -39686924.811301649        562051549.52041399     
  -1136489965.0239296       -52330069.060163140        544842973.74957848     
  -559257665.66873646       -5375708.6882876158        1152522184.4832733     
  -462461094.68508613        32686833.759359628        1161954474.5357535     
  -353676973.39155829        110707877.23993468        1178913597.8315320     
  -232905301.78814894        228687421.75344670        1203399554.3706067     
  -100146079.87486970        386625467.29985839        1235412344.1529889     
  -662289975.34538269       -4731569.2326108813        1007269686.6755642     
  -547134825.15444481        25588787.547356218        1020832736.6913636     
  -421108452.77142251        92146551.634286553        1042777595.7004608     
  -284210858.19629300        194941723.02823490        1073104263.7028697     
  -136442041.42907724        333974301.72913438        1111812740.6985819     
  -792839461.79679644       -12342582.809364438        857572318.95071602     
  -656882944.54142237        10968424.660048842        873963746.12575006     
  -511171533.21173298        66795745.710518688        899591958.04409456     
  -355705227.80772871        155139380.34203571        934456954.70575321     
  -190484028.32941583        275999328.55458111        978558736.11072338     
  -950906125.02297854       -28208749.418545127        703430081.30871916     
  -791705452.84600544       -11174254.902537704        721347502.83891475     
  -623866214.71248841        34655459.468610317        749356684.86242366     
  -447388410.62244731        109280393.69483832        787457627.37925518     
  -262272040.57586920        212700547.77619502        835650330.38940108     
  -1136489965.0239296       -52330069.060163140        544842973.74957848     
  -951602350.06818771       -40839251.140390635        562984006.83085608     
  -759192497.27369261       -4274307.0914294124        592071776.15545702     
  -559260406.64044654        57364763.086690813        632106281.72337925     
  -351806078.16845649        144077959.39396876        683087523.53462613     
  -100146079.87486970        386625467.29985839        1235412344.1529889     
  -85305050.095310986        546467138.64308989        1196796449.4616978     
  -57871955.172702342        748282360.46315432        1154827740.0041602     
  -17846795.107015908        992071132.76014483        1109506215.7803795     
   34770430.101714075        1277833455.5339470        1060831876.7903512     
  -136442041.42907724        333974301.72913438        1111812740.6985819     
  -127338260.87204158        482987356.59859204        1090223654.9383607     
  -95096919.848899037        709125613.02175879        1070073026.8056141     
  -39718018.359637737        1012389070.9986379        1051360856.3003632     
   38798443.595724821        1392777730.5292017        1034087143.4225855     
  -190484028.32941583        275999328.55458111        978558736.11072338     
  -173428147.29853928        418290571.85917068        986299537.15846264     
  -122689210.47849923        672858667.79431629        1000270068.2274101     
  -38267217.869288385        1039703616.3600091        1020470329.3175678     
   79837830.529075444        1518825417.5562451        1046900320.4289289     
  -262272040.57586920        212700547.77619502        835650330.38940108     
  -223574709.37479371        352376784.42483234        885024096.12199652     
  -140648827.06150374        639481524.78084552        945418864.26953387     
  -13494393.635991931        1074014768.8442514        1016834634.8320100     
   157888590.90174115        1655976516.6150830        1099271407.8094163     
  -351806078.16845649        144077959.39396876        683087523.53462613     
  -277777947.10081100        285245994.29555851        786397331.82898676     
  -148975769.59789658        608994183.98137820        905519414.93199897     
   34600454.340292215        1115322528.4514344        1040453772.8436781     
   272950724.71374810        1804231027.7057366        1191200405.5640345     
  -4671228135.9068899       -45083221.872208357        775321291.51911843     
  -4464803886.1045704       -27607232.317891121        741913244.61294186     
  -4258290264.3211107       -9833336.1597814560        719046781.04659545     
  -4051687270.5565233        8238466.6020929813        706721900.82008553     
  -3844994904.8108015        26608175.967748404        704938603.93340182     
  -5094998753.0908680       -65388075.034732103        548295997.32631290     
  -4865742017.7623796       -41558255.973856688        534384334.95983499     
  -4636733648.7514610       -18556324.638187885        526028271.31059384     
  -4407973646.0581036        3617718.9722630978        523227806.37859446     
  -4179462009.6823049        24963874.857516527        525982940.16383761     
  -5455677588.7112875       -66765393.728184462        321276980.15981448     
  -5217834038.2068939       -40855446.265833139        326467674.31788331     
  -4980576592.3187771       -16899180.857690811        332227982.57060510     
  -4743905251.0469103        5103402.4962704182        338557904.91797429     
  -4507820014.3913012        25152303.796031952        345457441.35999411     
  -5753264642.7681561       -49215177.952578783        94264240.019615397     
  -5521079947.4381275       -25498803.193835974        118163262.68709481     
  -5289819095.0230656       -4861904.8182718754        137645914.82663077     
  -5059482085.5229464        12695517.174114704        152712196.43822351     
  -4830068918.9377890        27173462.783303976        163362107.52187893     
  -5987759915.2614737       -12737427.707900763       -132742223.09427404     
  -5775479745.4560604        4511673.2421715260       -90528899.932532743     
  -5564461156.8643188        17555503.480048656       -57717931.921330355     
  -5354704149.4862185        26394063.005766153       -34309319.060656153     
  -5146208723.3217640        31027351.819326162       -20303061.350516696     
  -3844994904.8108015        26608175.967748404        704938603.93340182     
  -3740389384.5862055        14714950.747803211        693938322.29405820     
  -3635633817.1752067        3321882.8158535957        686980009.95277774     
  -3530728202.5778279       -7571027.8281514645        684063666.90956676     
  -3425672540.7940493       -17963781.184159756        685189293.16442275     
  -4179462009.6823049        24963874.857516527        525982940.16383761     
  -4064517811.3159404        12286999.904073000        517396272.01674533     
  -3949294125.3809404        541750.17941546440        512901306.15759498     
  -3833790951.8772969       -10271874.316432476        512498042.58638793     
  -3718008290.8050132       -20153873.583480835        516186481.30312735     
  -4507820014.3913012        25152303.796031952        345457441.35999411     
  -4382395043.6263857        11734407.386106968        339435400.48444152     
  -4256561144.9105792       -320395.85418438911        337554794.88671070     
  -4130318318.2438869       -11012105.924856186        339815624.56680298     
  -4003666563.6263065       -20340722.825901270        346217889.52471417     
  -4830068918.9377890        27173462.783303976        163362107.52187893     
  -4694021081.5175266        13057173.193943501        160055707.69715518     
  -4557434875.7641277        735444.71504139900        160940476.14013398     
  -4420310301.6775961       -9791722.6534228325        166016412.85080627     
  -4282647359.2579217       -18524328.911402702        175283517.82918185     
  -5146208723.3217640        31027351.819326162       -20303061.350516696     
  -4999395924.9893675        16255297.327577114       -20742806.345116835     
  -4851915317.9415884        3709271.8870797157       -16941650.082143795     
  -4703766902.1784220       -6610724.5021054745       -8899592.5615931749     
  -4554950677.6998730       -14704691.840035200        3383366.2165352670     
  -3425672540.7940493       -17963781.184159756        685189293.16442275     
  -3266115619.2196088       -12017082.375162363        673083082.46390319     
  -3106715948.6373935       -6594553.5402553082        666131012.44551396     
  -2947473529.0474048       -1696194.6794368029        664333083.10925710     
  -2788388360.4496427        2677994.2072969675        667689294.45512938     
  -3718008290.8050132       -20153873.583480835        516186481.30312735     
  -3545033814.9335036       -12834805.376900196        506027469.89622271     
  -3372310130.1247959       -6351707.3796455860        500718812.79009932     
  -3199837236.3788805       -704579.59169995785        500260509.98476332     
  -3027615133.6957645        4106577.9869041443        504652561.48021048     
  -4003666563.6263065       -20340722.825901270        346217889.52471417     
  -3818142494.5473003       -11909673.548616886        337896947.32909083     
  -3632962756.6016536       -4626394.7158722878        334122573.05290622     
  -3448127349.7893724        1509113.6723253727        334894766.69616050     
  -3263636274.1104655        6496851.6159355640        340213528.25885266     
  -4282647359.2579217       -18524328.911402702        175283517.82918185     
  -4085441658.0609674       -9241686.8902626038        168691514.76251328     
  -3888673828.0679517       -1418615.5489115715        166342293.23393208     
  -3692343869.2788749        4944885.1126408577        168235853.24344176     
  -3496451781.6937323        9848815.0944118500        174372194.79104427     
  -4554950677.6998730       -14704691.840035200        3383366.2165352670     
  -4346931305.4745407       -4830845.4019198418       -1588827.8035186981     
  -4139443344.5237131        3271630.1211802959       -2622026.6668285620     
  -3932486794.8473907        9602734.7292680740        283769.62661079952     
  -3726061656.4455886        14162468.422284365        7128561.0767917000     
  -2788388360.4496427        2677994.2072969675        667689294.45512938     
  -2657752793.5820408       -2181001.6507953405        656826348.27474165     
  -2527420396.0908480       -8050562.0969266891        648730049.70209301     
  -2397391167.9760723       -14930687.131108403        643400398.73717821     
  -2267665109.2377186       -22821376.753367901        640837395.37999547     
  -3027615133.6957645        4106577.9869041443        504652561.48021048     
  -2889599701.6255050       -1692440.6681771278        494927345.54832000     
  -2751563044.4593682       -7420709.0036612749        488329229.73311263     
  -2613505162.1973615       -13078227.019575596        484858214.03459632     
  -2475426054.8394761       -18664994.715906620        484514298.45277274     
  -3263636274.1104655        6496851.6159355640        340213528.25885266     
  -3117211112.5262518        66769.457258343697        332004502.79311830     
  -2970440331.3738685       -5211247.4741737843        327283029.95303571     
  -2823323930.6533365       -9337199.1784453392        326049109.73859239     
  -2675861910.3646317       -12311085.655474901        328302742.14978755     
  -3496451781.6937323        9848815.0944118500        174372194.79104427     
  -3340587026.2842803        3096628.7255117893        168057820.00915608     
  -3184052256.8343649       -1422177.5085098743        165591450.36185664     
  -3026847473.3440032       -3707603.6077208519        166973085.84914714     
  -2868972675.8131862       -3759649.5720576048        172202726.47104293     
  -3726061656.4455886        14162468.422284365        7128561.0767917000     
  -3559727442.8995876        7397137.1365678310        3087297.1964041465     
  -3392398820.8408384        3946500.8933806419        3254490.9595665615     
  -3224075790.2693605        3810559.6926097870        7630142.3662815075     
  -3054758351.1851330        6989313.5343284607        16214251.416538736     
  -2267665109.2377186       -22821376.753367901        640837395.37999547     
  -2123882473.7538204       -26157492.829230785        627158139.98817694     
  -1979574075.1422832       -27741065.146306992        616807649.75141633     
  -1834739913.4031019       -27572093.704564691        609785924.66970992     
  -1689379988.5362723       -25650578.503994823        606092964.74306655     
  -2475426054.8394761       -18664994.715906620        484514298.45277274     
  -2323100211.0199194       -19658646.403430700        473502667.16513681     
  -2170585199.9421830       -20021740.563679814        465193400.73717511     
  -2017881021.6062717       -19754277.196692467        459586499.16889220     
  -1864987676.0121827       -18856256.302441955        456681962.46028608     
  -2675861910.3646317       -12311085.655474901        328302742.14978755     
  -2516782573.3390698       -11499187.493526220        319566039.78528476     
  -2357850664.9248009       -11178718.035887957        312905301.98508275     
  -2199066185.1218200       -11349677.282543778        308320528.74917299     
  -2040429133.9301343       -12012065.233518004        305811720.07755917     
  -2868972675.8131862       -3759649.5720576048        172202726.47104293     
  -2704929560.7112908       -1679116.0995794535        165348257.84863606     
  -2541370470.0901442       -1211997.5629172325        159943353.49514121     
  -2378295403.9497523       -2358293.9621183872        155988013.41055444     
  -2215704362.2901216       -5118005.2971765995        153482237.59489122     
  -3054758351.1851330        6989313.5343284607        16214251.416538736     
  -2887541173.1365447        9801567.7785241604        10849321.355168499     
  -2721144615.4381871        9878420.8552837372        6307555.2673462592     
  -2555568678.0900574        7219872.7646049261        2588953.1530475174     
  -2390813361.0921597        1825923.5065096617       -306484.98772212205     
  -1689379988.5362723       -25650578.503994823        606092964.74306655     
  -1549365501.1752427       -26347179.533224344        592676545.01715922     
  -1410545668.1361737       -31025961.635655522        577996073.27627552     
  -1272920489.4190695       -39686924.811301649        562051549.52041399     
  -1136489965.0239296       -52330069.060163140        544842973.74957848     
  -1864987676.0121827       -18856256.302441955        456681962.46028608     
  -1728072030.3521068       -22555871.911539793        443010444.35874134     
  -1591216536.4709494       -26455993.450367033        428912257.25139910     
  -1454421194.3687172       -30556620.918937564        414387401.13827634     
  -1317686004.0454099       -34857754.317271888        399435876.01935548     
  -2040429133.9301343       -12012065.233518004        305811720.07755917     
  -1904219807.0876241       -17996938.557456374        293208689.90058595     
  -1766936129.4809911       -20400642.667657495        281016373.72701210     
  -1628578101.1102428       -19223177.564150035        269234771.55683208     
  -1489145721.9753783       -14464543.246920288        257863883.39004919     
  -2215704362.2901216       -5118005.2971765995        153482237.59489122     
  -2077808831.3817911       -12670379.470955253        143271281.64270669     
  -1937704447.1662951       -12859909.287533760        134308422.70311007     
  -1795391209.6436446       -5686594.7469053268        126593660.77608745     
  -1650869118.8138297        8849564.1509031057        120126995.86165231     
  -2390813361.0921597        1825923.5065096617       -306484.98772212205     
  -2248839103.2346177       -6576194.6520853043       -6801780.4149052175     
  -2103521489.5268610       -3833793.3099654913       -11211595.820311110     
  -1954860519.9689128        10053127.532788396       -13535931.203963341     
  -1802856194.5607862        35084567.876148105       -13774786.565836126     
  -1136489965.0239296       -52330069.060163140        544842973.74957848     
  -951602350.06818771       -40839251.140390635        562984006.83085608     
  -759192497.27369261       -4274307.0914294124        592071776.15545702     
  -559260406.64044654        57364763.086690813        632106281.72337925     
  -351806078.16845649        144077959.39396876        683087523.53462613     
  -1317686004.0454099       -34857754.317271888        399435876.01935548     
  -1117950279.8386242       -14865771.524418473        421265067.31705207     
  -914598608.67085886        17179367.805019975        441607337.59381425     
  -707630990.54211378        61277663.671056062        460462686.84966063     
  -497047425.45239627        117429116.07368338        477831115.08458668     
  -1489145721.9753783       -14464543.246920288        257863883.39004919     
  -1310086623.5582530        3371183.9067893624        278823893.54674882     
  -1131317869.0579264        20239098.004503965        285863325.41828674     
  -952839458.47438896        36139199.046238542        278982179.00465113     
  -774651391.80765891        51071487.031981111        258180454.30584481     
  -1650869118.8138297        8849564.1509031057        120126995.86165231     
  -1528011381.2270863        13871615.153219283        135660485.51997080     
  -1409350278.4348915        4904883.5070329309        124839739.62886572     
  -1294885810.4372849       -18050630.787778437        87664758.188345149     
  -1184617977.2342203       -54994927.731060743        24135541.198419433     
  -1802856194.5607862        35084567.876148105       -13774786.565836126     
  -1771724552.8451118        16635522.214918137       -8225156.7633118993     
  -1748695836.8017786       -28823275.687471390       -41463419.774445891     
  -1733770046.4307606       -101291825.83091187       -113489575.59923922     
  -1726947181.7321146       -200770128.21556908       -224303624.23770261     
  -351806078.16845649        144077959.39396876        683087523.53462613     
  -277777947.10081100        285245994.29555851        786397331.82898676     
  -148975769.59789658        608994183.98137820        905519414.93199897     
   34600454.340292215        1115322528.4514344        1040453772.8436781     
   272950724.71374810        1804231027.7057366        1191200405.5640345     
  -497047425.45239627        117429116.07368338        477831115.08458668     
  -388232903.25482029        223049887.47553435        597094188.14507449     
  -230287054.25985178        492441748.20202434        735506963.45832324     
  -23209878.467517197        925604698.25311065        893069441.02433491     
   232998624.12224486        1522538737.6288719        1069781620.8430988     
  -774651391.80765891        51071487.031981111        258180454.30584481     
  -621514971.49702406        124005647.02904192        386813619.22161430     
  -424889944.02688897        341901830.89112580        537933913.83424079     
  -184776309.39723921        704760038.61825299        711541338.14373100     
   98825932.391911387        1212580270.2103717        907635892.15004933     
  -1184617977.2342203       -54994927.731060743        24135541.198419433     
  -977624151.82739985       -11886727.043863893        155555625.05859688     
  -732784438.89896154        157374432.04875335        312800266.05973482     
  -450098838.44890463        452788549.54678571        495869464.20182300     
  -129567350.47720182        874355625.45023775        704763219.48485112     
  -1726947181.7321146       -200770128.21556908       -224303624.23770261     
  -1456560444.2459762       -184627234.74325645       -96679794.343958497     
  -1153970538.8761163       -61140448.325193644        60106020.134816617     
  -819177465.62247705        169690231.03876048        246053819.19866005     
  -452181224.48513949        507864803.34844279        461163602.84751242     
 </DataArray>
 <DataArray  type="Float64" Name="VM" NumberOfComponents="1" format="ascii">
   5985818549.6496439     
   5779864189.4416733     
   5574156176.6333818     
   5368278767.0506277     
   5161912124.3250637     
   5731141718.2672834     
   5512175673.9229898     
   5292762063.8846912     
   5072742446.4141302     
   4851970259.1226540     
   5451080788.9610243     
   5228195452.8797741     
   5005335893.6433764     
   4782545086.9467278     
   4559877029.4949722     
   5150924307.9330320     
   4932713307.7689676     
   4716324816.2016973     
   4501943312.8256741     
   4289852634.9445939     
   4838923442.8188915     
   4632848023.9465389     
   4431968445.4397936     
   4236506208.1944547     
   4046951622.7424564     
   5161912124.3250637     
   5007672243.7113037     
   4853859715.6055336     
   4700490301.3412533     
   4547619938.3695765     
   4851970259.1226540     
   4708731096.8318310     
   4566319135.0557432     
   4424775806.6992979     
   4284186191.5392485     
   4559877029.4949722     
   4427482129.5398197     
   4296368096.9701891     
   4166604271.3871870     
   4038306911.1470809     
   4289852634.9445939     
   4168152283.5322905     
   4048242479.3260155     
   3930221506.6210036     
   3814237146.7557449     
   4046951622.7424564     
   3935787103.1308770     
   3826976097.0140438     
   3720644705.5481009     
   3616969743.5697603     
   4547619938.3695765     
   4344518769.0533009     
   4141082619.4024630     
   3937296975.6335673     
   3733183456.9240580     
   4284186191.5392485     
   4091275236.5199676     
   3898625257.3465147     
   3706291384.2204380     
   3514388276.0864363     
   4038306911.1470809     
   3856864550.4481912     
   3676485544.2193127     
   3497320635.6523662     
   3319608867.6108675     
   3814237146.7557449     
   3645561831.0195556     
   3478973127.1763105     
   3314737701.4507165     
   3153240558.9861441     
   3616969743.5697603     
   3462301110.0047469     
   3310956303.9272861     
   3163324031.5412564     
   3019935610.2071114     
   3733183456.9240580     
   3563435781.9007502     
   3394378472.5049000     
   3226009828.2760487     
   3058387942.0708084     
   3514388276.0864363     
   3354788535.7686648     
   3196235925.9975605     
   3038788748.2877626     
   2882567146.5731859     
   3319608867.6108675     
   3169841357.0213361     
   3021490652.7653475     
   2874683865.8555222     
   2729614227.7556362     
   3153240558.9861441     
   3013263688.4296064     
   2875088175.2841372     
   2738916340.8312569     
   2605022271.8540421     
   3019935610.2071114     
   2890003574.4794526     
   2762267826.8535490     
   2637006799.2666707     
   2514575973.1803551     
   3058387942.0708084     
   2892515453.8893261     
   2726119140.5888071     
   2559190181.2151337     
   2391726904.4779468     
   2882567146.5731859     
   2719214040.1340199     
   2555822926.0338674     
   2392421921.6509557     
   2229058639.8917804     
   2729614227.7556362     
   2571332953.8040051     
   2413908895.9601026     
   2257486845.0223432     
   2102272103.4089961     
   2605022271.8540421     
   2454409577.5824299     
   2305991497.5385008     
   2160099886.1944342     
   2017186939.5001206     
   2514575973.1803551     
   2374023490.5546689     
   2237391924.2172213     
   2105222024.1693165     
   1978225257.5167434     
   2391726904.4779468     
   2245589131.4889674     
   2101696930.5372984     
   1960046643.3887227     
   1820808350.6720641     
   2229058639.8917804     
   2086313359.0808525     
   1945266422.7760160     
   1805915317.9462802     
   1668336932.3269367     
   2102272103.4089961     
   1962146998.5866365     
   1823003962.1836958     
   1684871449.8583872     
   1547806751.0567696     
   2017186939.5001206     
   1880568610.6690476     
   1744267738.7541881     
   1608410170.0834696     
   1473169016.2372088     
   1978225257.5167434     
   1847756120.2834382     
   1717287552.6561637     
   1587163872.2958648     
   1457887813.3953557     
   1820808350.6720641     
   1780157620.6843252     
   1735950003.3644502     
   1696832792.4694757     
   1681330471.1783869     
   1668336932.3269367     
   1552874267.4973290     
   1428271628.8895037     
   1294888764.0016634     
   1158854515.0523167     
   1547806751.0567696     
   1397849476.8221781     
   1244323156.4175885     
   1084959491.7659347     
   917729325.60516644     
   1473169016.2372088     
   1328836858.5739102     
   1198978354.0053663     
   1088088324.8165727     
   1002088471.0844043     
   1457887813.3953557     
   1348779124.0683570     
   1274673864.1952012     
   1243712110.3208916     
   1262948601.9871297     
   1681330471.1783869     
   1383754228.3200870     
   1129455658.2184982     
   1010188276.4726096     
   1153280994.6769097     
   1158854515.0523167     
   1008395846.1484512     
   985186936.56529081     
   1161492837.5886066     
   1544230224.5609291     
   917729325.60516644     
   963121983.19144094     
   1144909456.3522639     
   1476456969.6245975     
   1957470776.0194895     
   1002088471.0844043     
   1164747077.0055718     
   1425428161.0085466     
   1808724691.0215471     
   2334729381.3767600     
   1262948601.9871297     
   1446728448.0407908     
   1715718306.0540724     
   2110493550.7972994     
   2663486578.0668120     
   4838923442.8188915     
   4632848023.9465389     
   4431968445.4397936     
   4236506208.1944547     
   4046951622.7424564     
   4466135508.4062033     
   4289422313.0957799     
   4117899203.9817643     
   3951957769.5404077     
   3792217610.7674060     
   4131017141.5062399     
   3981517779.5393791     
   3837128423.5728302     
   3698362524.6120200     
   3565913373.2596455     
   3834682476.6600409     
   3710679726.2486339     
   3591615570.4329748     
   3478060458.1587811     
   3370712218.3323636     
   3578038729.6873512     
   3478262277.7831249     
   3383150193.5982409     
   3293248674.0327582     
   3209179767.0234060     
   4046951622.7424564     
   3935787103.1308770     
   3826976097.0140438     
   3720644705.5481009     
   3616969743.5697603     
   3792217610.7674060     
   3693885024.0292525     
   3598140400.4755940     
   3505152296.8858218     
   3415134130.8595047     
   3565913373.2596455     
   3480398835.6277475     
   3397668915.6240177     
   3317921620.1502223     
   3241391876.6946392     
   3370712218.3323636     
   3298158854.8234925     
   3228524953.9769249     
   3162020796.9883647     
   3098883905.8443217     
   3209179767.0234060     
   3149849202.0144396     
   3093481257.8179941     
   3040278195.0667820     
   2990459074.0446224     
   3616969743.5697603     
   3462301110.0047469     
   3310956303.9272861     
   3163324031.5412564     
   3019935610.2071114     
   3415134130.8595047     
   3276696555.5467067     
   3142369772.8232927     
   3012641946.7939301     
   2888143374.5904369     
   3241391876.6946392     
   3119664290.0496125     
   3002850715.2888350     
   2891512229.9138174     
   2786339133.1846166     
   3098883905.8443217     
   2994294160.4490995     
   2895374598.1697993     
   2802718034.3939929     
   2717021272.1106029     
   2990459074.0446224     
   2903258133.6619434     
   2822358546.6953936     
   2748334756.4022279     
   2681831925.1234388     
   3019935610.2071114     
   2890003574.4794526     
   2762267826.8535490     
   2637006799.2666707     
   2514575973.1803551     
   2888143374.5904369     
   2770069318.8483553     
   2655327011.7493930     
   2544325995.8364439     
   2437570930.0973868     
   2786339133.1846166     
   2681973641.6543489     
   2582215222.5737991     
   2487581254.0280786     
   2398685543.7924018     
   2717021272.1106029     
   2627788782.1388950     
   2544461724.1918511     
   2467610511.2624154     
   2397884039.7405138     
   2681831925.1234388     
   2608502439.3571596     
   2542274456.2133684     
   2483701470.6678472     
   2433385606.0856314     
   2514575973.1803551     
   2374023490.5546689     
   2237391924.2172213     
   2105222024.1693165     
   1978225257.5167434     
   2437570930.0973868     
   2312290257.8770595     
   2192201873.9348216     
   2078031966.8995090     
   1970680015.2014296     
   2398685543.7924018     
   2290502062.2660875     
   2188775589.4588785     
   2094327347.0585072     
   2008113549.4462762     
   2397884039.7405138     
   2307940184.3999848     
   2225513046.3140264     
   2151403548.0786285     
   2086486585.6080909     
   2433385606.0856314     
   2361975150.9329247     
   2298803306.5147939     
   2244558509.2414055     
   2199946906.5422335     
   1978225257.5167434     
   1847756120.2834382     
   1717287552.6561637     
   1587163872.2958648     
   1457887813.3953557     
   1970680015.2014296     
   1854808238.6816711     
   1743274856.9710913     
   1636993784.9405303     
   1537086841.1868734     
   2008113549.4462762     
   1911964352.2101743     
   1824560709.6078579     
   1747094575.1542430     
   1680848568.8572726     
   2086486585.6080909     
   2011631270.0616593     
   1949106722.3847232     
   1899984486.0594716     
   1865286410.5294039     
   2199946906.5422335     
   2144943328.7300994     
   2104853447.4716277     
   2080437740.9506891     
   2072369123.8812392     
   1457887813.3953557     
   1348779124.0683570     
   1274673864.1952012     
   1243712110.3208916     
   1262948601.9871297     
   1537086841.1868734     
   1476178284.9636614     
   1447976777.5908616     
   1456453885.5599856     
   1504907962.9635882     
   1680848568.8572726     
   1652349348.2951536     
   1651574752.9641428     
   1680894918.0686190     
   1742918488.7249560     
   1865286410.5294039     
   1854807334.6199946     
   1867292786.3536890     
   1904951685.4658682     
   1970813565.8856976     
   2072369123.8812392     
   2068929598.7767696     
   2084708678.9060702     
   2122337577.2354259     
   2185625424.0827603     
   1262948601.9871297     
   1446728448.0407908     
   1715718306.0540724     
   2110493550.7972994     
   2663486578.0668120     
   1504907962.9635882     
   1613301130.6521578     
   1788885554.2519403     
   2066407758.4531424     
   2476069489.3389716     
   1742918488.7249560     
   1787721458.9123752     
   1884665635.0840836     
   2060658543.6929638     
   2340928415.1100125     
   1970813565.8856976     
   1968948308.7808590     
   2003623484.8054905     
   2093513360.4188731     
   2257278489.3014894     
   2185625424.0827603     
   2156266429.7605014     
   2146499835.6914349     
   2166850493.0788746     
   2228391643.4309497     
   3578038729.6873512     
   3478262277.7831249     
   3383150193.5982409     
   3293248674.0327582     
   3209179767.0234060     
   3409493315.0260868     
   3317673791.3426557     
   3232111117.4751859     
   3153393467.2679911     
   3082193623.5776620     
   3265035838.1570148     
   3181107998.6569924     
   3105344436.8700414     
   3038311404.2477083     
   2980659871.0254874     
   3156373139.6871433     
   3079020129.3326912     
   3012033524.9127131     
   2955885693.9861951     
   2911124841.7512746     
   3096498072.9262576     
   3022827263.6258941     
   2961970856.4409900     
   2914247925.4979720     
   2880037305.1937833     
   3209179767.0234060     
   3149849202.0144396     
   3093481257.8179941     
   3040278195.0667820     
   2990459074.0446224     
   3082193623.5776620     
   3027737984.0056028     
   2977432475.6867056     
   2931508316.4765987     
   2890217970.1194382     
   2980659871.0254874     
   2931234245.5868211     
   2887336274.4256139     
   2849195195.3860865     
   2817063363.2856154     
   2911124841.7512746     
   2866085037.2169561     
   2828115904.7886200     
   2797410713.6050558     
   2774184915.0551605     
   2880037305.1937833     
   2837790406.1392751     
   2804291226.0205274     
   2779669658.4668832     
   2764074484.1694393     
   2990459074.0446224     
   2903258133.6619434     
   2822358546.6953936     
   2748334756.4022279     
   2681831925.1234388     
   2890217970.1194382     
   2816200509.1508827     
   2749596033.3161631     
   2690955525.3042121     
   2640882215.9986091     
   2817063363.2856154     
   2756030084.6558599     
   2703464806.2979560     
   2659849147.5851960     
   2625696487.4755282     
   2774184915.0551605     
   2725190209.8894892     
   2685630175.4659929     
   2655881931.8365664     
   2636337509.9208655     
   2764074484.1694393     
   2725360467.3402371     
   2696959032.9874454     
   2679127199.9894023     
   2672126953.9964252     
   2681831925.1234388     
   2608502439.3571596     
   2542274456.2133684     
   2483701470.6678472     
   2433385606.0856314     
   2640882215.9986091     
   2581326035.4564743     
   2529398929.0278978     
   2485566492.0364699     
   2450317561.4412761     
   2625696487.4755282     
   2578959694.8869848     
   2540219989.5778341     
   2509837463.5850778     
   2488177510.3023171     
   2636337509.9208655     
   2601013804.9477510     
   2573912634.5284958     
   2555287969.2675300     
   2545389611.3788204     
   2672126953.9964252     
   2646436061.4984455     
   2629090426.5347624     
   2620250848.9043512     
   2620071276.2927399     
   2433385606.0856314     
   2361975150.9329247     
   2298803306.5147939     
   2244558509.2414055     
   2199946906.5422335     
   2450317561.4412761     
   2393728464.4702992     
   2346468023.4225135     
   2309106342.9055743     
   2282196426.3125005     
   2488177510.3023171     
   2445434774.5051122     
   2412864904.0212421     
   2390892542.9861188     
   2379907659.0499172     
   2545389611.3788204     
   2514866998.0636120     
   2495181878.2538600     
   2486617182.7712626     
   2489419777.6837034     
   2620071276.2927399     
   2599657700.4738517     
   2590663454.7467589     
   2593252730.7854128     
   2607562670.7927699     
   2199946906.5422335     
   2144943328.7300994     
   2104853447.4716277     
   2080437740.9506891     
   2072369123.8812392     
   2282196426.3125005     
   2241848965.3121920     
   2215381017.9951329     
   2203237882.5777531     
   2205804327.1611137     
   2379907659.0499172     
   2351278988.0192666     
   2335476116.9114094     
   2332746566.1010804     
   2343309799.6572146     
   2489419777.6837034     
   2469871869.9136443     
   2462191141.8873968     
   2466512510.8057814     
   2482969576.9601045     
   2607562670.7927699     
   2594827357.9056873     
   2593154833.5783734     
   2602623617.4331684     
   2623329239.3645077     
   2072369123.8812392     
   2068929598.7767696     
   2084708678.9060702     
   2122337577.2354259     
   2185625424.0827603     
   2205804327.1611137     
   2191503123.4781532     
   2192192572.3752251     
   2209842551.4898481     
   2247371511.8173766     
   2343309799.6572146     
   2318959484.6134253     
   2306155211.8576107     
   2306303343.5230556     
   2321491781.1367874     
   2482969576.9601045     
   2450331809.2984848     
   2426281381.9199667     
   2411764309.0985141     
   2408157242.1444898     
   2623329239.3645077     
   2584844505.4780421     
   2552290028.3588257     
   2526247548.1460762     
   2507525641.2613597     
   2185625424.0827603     
   2156266429.7605014     
   2146499835.6914349     
   2166850493.0788746     
   2228391643.4309497     
   2247371511.8173766     
   2182650335.9517570     
   2134364913.2412441     
   2112182635.4864957     
   2127038891.8997386     
   2321491781.1367874     
   2224747938.7290101     
   2141332932.6091781     
   2079612098.8912399     
   2049757142.6820688     
   2408157242.1444898     
   2282852916.2143202     
   2168050604.5261626     
   2070490060.7426507     
   1998938995.7684813     
   2507525641.2613597     
   2357174388.7867804     
   2214988334.5477533     
   2085947706.6522434     
   1976927995.8685961     
   3096498072.9262576     
   3022827263.6258941     
   2961970856.4409900     
   2914247925.4979720     
   2880037305.1937833     
   2854750592.3680758     
   2808266752.6505508     
   2773845768.0390263     
   2751688507.2553639     
   2742018273.4452715     
   2664632883.6190562     
   2642633183.1841593     
   2631592755.4352360     
   2631603181.3228168     
   2642760155.4350200     
   2526859418.9314842     
   2526098052.4304333     
   2534899128.3748455     
   2553283865.6327305     
   2581273209.9310803     
   2439690807.5827618     
   2456517266.2368064     
   2481350359.1167727     
   2514190086.2226605     
   2555036447.5544634     
   2880037305.1937833     
   2837790406.1392751     
   2804291226.0205274     
   2779669658.4668832     
   2764074484.1694393     
   2742018273.4452715     
   2715919651.4735017     
   2697387363.2685080     
   2686486995.8364282     
   2683290559.7065630     
   2642760155.4350200     
   2630601162.0371084     
   2624620862.6072721     
   2624843183.0592046     
   2631293375.5160990     
   2581273209.9310803     
   2580994612.3289919     
   2585358665.9409366     
   2594369731.8040152     
   2608032247.5145984     
   2555036447.5544634     
   2564870601.9401040     
   2577733691.5710759     
   2593625716.4473853     
   2612546676.5690317     
   2764074484.1694393     
   2725360467.3402371     
   2696959032.9874454     
   2679127199.9894023     
   2672126953.9964252     
   2683290559.7065630     
   2657655073.8905835     
   2641989485.3975554     
   2636437084.0664024     
   2641139805.1759787     
   2631293375.5160990     
   2616140080.0881510     
   2610525922.6974349     
   2614512130.2094827     
   2628157904.8237715     
   2608032247.5145984     
   2600559637.6806183     
   2602158617.0748105     
   2612843519.4635653     
   2632627950.9155626     
   2612546676.5690317     
   2609907993.4125400     
   2615881992.8158011     
   2630468674.7788215     
   2653668039.3015952     
   2672126953.9964252     
   2646436061.4984455     
   2629090426.5347624     
   2620250848.9043512     
   2620071276.2927399     
   2641139805.1759787     
   2624653314.9617863     
   2616621716.1691895     
   2617137701.5180492     
   2626287714.9588890     
   2628157904.8237715     
   2619032306.7669501     
   2618458574.8595653     
   2626478297.8779316     
   2643129377.7592621     
   2632627950.9155626     
   2628805220.1485715     
   2633658363.3185930     
   2647197781.5696769     
   2669432777.1045489     
   2653668039.3015952     
   2652960453.7907610     
   2661113674.4207101     
   2678127701.1914535     
   2704002534.1029735     
   2620071276.2927399     
   2599657700.4738517     
   2590663454.7467589     
   2593252730.7854128     
   2607562670.7927699     
   2626287714.9588890     
   2614713171.5853896     
   2613824432.4761763     
   2623701992.2204275     
   2644411021.7604742     
   2643129377.7592621     
   2638448983.5682216     
   2643818454.7560058     
   2659268776.2627487     
   2684824321.6746559     
   2669432777.1045489     
   2669821796.0478988     
   2679743920.3478951     
   2699205846.8932219     
   2728212706.7997327     
   2704002534.1029735     
   2707791222.6641765     
   2720724539.2416358     
   2742802483.8353453     
   2774025056.4453068     
   2607562670.7927699     
   2594827357.9056873     
   2593154833.5783734     
   2602623617.4331684     
   2623329239.3645077     
   2644411021.7604742     
   2633424394.6781950     
   2632662948.7827902     
   2642165656.9068975     
   2661982570.4447160     
   2684824321.6746559     
   2675287236.7560182     
   2675315738.1462283     
   2684925046.2761636     
   2704135833.1128559     
   2728212706.7997327     
   2719980589.4104609     
   2720813022.6197863     
   2730713325.6947656     
   2749686281.9762368     
   2774025056.4453068     
   2767093591.7270169     
   2768867050.7752724     
   2779345433.5900788     
   2798528740.1714377     
   2623329239.3645077     
   2584844505.4780421     
   2552290028.3588257     
   2526247548.1460762     
   2507525641.2613597     
   2661982570.4447160     
   2616609437.3408298     
   2576924261.4647503     
   2543257992.2120342     
   2516073061.1062732     
   2704135833.1128559     
   2653962987.1363382     
   2609379247.1768651     
   2570532007.0051885     
   2537627812.9084744     
   2749686281.9762368     
   2696809654.6852083     
   2649566056.7130184     
   2607992086.8733773     
   2572139052.7924614     
   2798528740.1714377     
   2745045468.6277304     
   2697381323.7348108     
   2655536305.4926853     
   2619510413.9013729     
   2507525641.2613597     
   2357174388.7867804     
   2214988334.5477533     
   2085947706.6522434     
   1976927995.8685961     
   2516073061.1062732     
   2348198379.6423111     
   2183878164.6040387     
   2026212248.0560985     
   1879764904.3715520     
   2537627812.9084744     
   2357318623.3986053     
   2176748118.8193579     
   1997387760.2103620     
   1821515139.9243381     
   2572139052.7924614     
   2384638863.5942612     
   2194064963.6595840     
   2000795564.2995505     
   1805434455.7514646     
   2619510413.9013729     
   2430128048.9151835     
   2235971259.6483121     
   2037040046.1007733     
   1833334408.2725677     
   2439690807.5827618     
   2456517266.2368064     
   2481350359.1167727     
   2514190086.2226605     
   2555036447.5544634     
   2526859415.4292054     
   2526098049.8737307     
   2534899126.7884312     
   2553283865.0407581     
   2581273210.3547859     
   2664632878.3794756     
   2642633179.4859376     
   2631592753.2742848     
   2631603180.6972260     
   2642760156.3422227     
   2854750587.1628418     
   2808266749.2337546     
   2773845766.3363476     
   2751688507.1961946     
   2742018274.9615111     
   3096498069.3488150     
   3022827261.7806864     
   2961970856.1541181     
   2914247926.5946975     
   2880037307.5005436     
   2555036447.5544634     
   2564870601.9401040     
   2577733691.5710759     
   2593625716.4473853     
   2612546676.5690317     
   2581273210.3547859     
   2580994612.6326709     
   2585358666.1591544     
   2594369731.9711819     
   2608032247.6649733     
   2642760156.3422227     
   2630601162.6865163     
   2624620863.0667515     
   2624843183.3964863     
   2631293375.7988567     
   2742018274.9615111     
   2715919652.5648618     
   2697387364.0334878     
   2686486996.3739247     
   2683290560.1160688     
   2880037307.5005436     
   2837790407.8156905     
   2804291227.1918087     
   2779669659.2597771     
   2764074484.7128673     
   2612546676.5690317     
   2609907993.4125400     
   2615881992.8158011     
   2630468674.7788215     
   2653668039.3015952     
   2608032247.6649733     
   2600559637.7971063     
   2602158617.1627774     
   2612843519.5283413     
   2632627950.9624529     
   2631293375.7988567     
   2616140080.3073773     
   2610525922.8644309     
   2614512130.3355012     
   2628157904.9199986     
   2683290560.1160688     
   2657655074.2089300     
   2641989485.6424336     
   2636437084.2554827     
   2641139805.3269391     
   2764074484.7128673     
   2725360467.7646012     
   2696959033.3170352     
   2679127200.2487731     
   2672126954.2103477     
   2653668039.3015952     
   2652960453.7907610     
   2661113674.4207101     
   2678127701.1914535     
   2704002534.1029735     
   2632627950.9624529     
   2628805220.1889482     
   2633658363.3536873     
   2647197781.6007085     
   2669432777.1327109     
   2628157904.9199986     
   2619032306.8490343     
   2618458574.9299693     
   2626478297.9391031     
   2643129377.8136120     
   2641139805.3269391     
   2624653315.0894632     
   2616621716.2772503     
   2617137701.6101513     
   2626287715.0386958     
   2672126954.2103477     
   2646436061.6781259     
   2629090426.6849756     
   2620250849.0299282     
   2620071276.3985972     
   2704002534.1029735     
   2707791222.6641765     
   2720724539.2416358     
   2742802483.8353453     
   2774025056.4453068     
   2669432777.1327109     
   2669821796.0695205     
   2679743920.3638315     
   2699205846.9043398     
   2728212706.8069067     
   2643129377.8136120     
   2638448983.6097717     
   2643818454.7865138     
   2659268776.2840090     
   2684824321.6884480     
   2626287715.0386958     
   2614713171.6461272     
   2613824432.5205712     
   2623701992.2512455     
   2644411021.7805243     
   2620071276.3985972     
   2599657700.5540633     
   2590663454.8050647     
   2593252730.8256226     
   2607562670.8188272     
   2774025056.4453068     
   2767093591.7270169     
   2768867050.7752724     
   2779345433.5900788     
   2798528740.1714377     
   2728212706.8069067     
   2719980589.4172459     
   2720813022.6262345     
   2730713325.7009425     
   2749686281.9822016     
   2684824321.6884480     
   2675287236.7691603     
   2675315738.1588531     
   2684925046.2883959     
   2704135833.1247969     
   2644411021.7805243     
   2633424394.6974154     
   2632662948.8013997     
   2642165656.9250937     
   2661982570.4626727     
   2607562670.8188272     
   2594827357.9308267     
   2593154833.6029129     
   2602623617.4573679     
   2623329239.3886418     
   2798528740.1714377     
   2745045468.6277304     
   2697381323.7348108     
   2655536305.4926853     
   2619510413.9013729     
   2749686281.9822016     
   2696809654.6902866     
   2649566056.7173009     
   2607992086.8769474     
   2572139052.7953887     
   2704135833.1247969     
   2653962987.1464896     
   2609379247.1854239     
   2570532007.0123057     
   2537627812.9143023     
   2661982570.4626727     
   2616609437.3560934     
   2576924261.4775896     
   2543257992.2227211     
   2516073061.1149778     
   2623329239.3886418     
   2584844505.4984975     
   2552290028.3759985     
   2526247548.1603055     
   2507525641.2729607     
   2619510413.9013729     
   2430128048.9151835     
   2235971259.6483121     
   2037040046.1007733     
   1833334408.2725677     
   2572139052.7953887     
   2384638863.5960870     
   2194064963.6601348     
   2000795564.2985024     
   1805434455.7483590     
   2537627812.9143023     
   2357318623.4023037     
   2176748118.8205938     
   1997387760.2085640     
   1821515139.9186597     
   2516073061.1149778     
   2348198379.6479545     
   2183878164.6061482     
   2026212248.0539234     
   1879764904.3640401     
   2507525641.2729607     
   2357174388.7944698     
   2214988334.5509610     
   2085947706.6501222     
   1976927995.8600261     
   3096498069.3488150     
   3022827261.7806864     
   2961970856.1541181     
   2914247926.5946975     
   2880037307.5005436     
   3156373136.7747974     
   3079020127.9052539     
   3012033524.7913399     
   2955885694.9872775     
   2911124843.6902399     
   3265035836.1685090     
   3181107997.8775392     
   3105344437.0897412     
   3038311405.2467351     
   2980659872.5799360     
   3409493313.9457226     
   3317673791.2078772     
   3232111118.0174856     
   3153393468.2031546     
   3082193624.6134686     
   3578038729.2805719     
   3478262278.1021676     
   3383150194.2884674     
   3293248674.7183948     
   3209179767.3166947     
   2880037307.5005436     
   2837790407.8156905     
   2804291227.1918087     
   2779669659.2597771     
   2764074484.7128673     
   2911124843.6902399     
   2866085038.6699853     
   2828115905.8235641     
   2797410714.2922707     
   2774184915.4680223     
   2980659872.5799360     
   2931234246.7943749     
   2887336275.3059888     
   2849195195.9611282     
   2817063363.5795321     
   3082193624.6134686     
   3027737984.8521042     
   2977432476.3253307     
   2931508316.8891368     
   2890217970.2879004     
   3209179767.3166947     
   3149849202.3125057     
   3093481258.0739036     
   3040278195.2311602     
   2990459074.0651031     
   2764074484.7128673     
   2725360467.7646012     
   2696959033.3170352     
   2679127200.2487731     
   2672126954.2103477     
   2774184915.4680223     
   2725190210.2255554     
   2685630175.7405787     
   2655881932.0654225     
   2636337510.1200910     
   2817063363.5795321     
   2756030084.9119649     
   2703464806.5237207     
   2659849147.7884898     
   2625696487.6644859     
   2890217970.2879004     
   2816200509.3211951     
   2749596033.4891529     
   2690955525.4808269     
   2640882216.1797237     
   2990459074.0651031     
   2903258133.7279706     
   2822358546.8023767     
   2748334756.5453029     
   2681831925.2970581     
   2672126954.2103477     
   2646436061.6781259     
   2629090426.6849756     
   2620250849.0299282     
   2620071276.3985972     
   2636337510.1200910     
   2601013805.1164465     
   2573912634.6707058     
   2555287969.3874106     
   2545389611.4806895     
   2625696487.6644859     
   2578959695.0474510     
   2540219989.7131600     
   2509837463.6988239     
   2488177510.3982754     
   2640882216.1797237     
   2581326035.6097164     
   2529398929.1559873     
   2485566492.1423874     
   2450317561.5283175     
   2681831925.2970581     
   2608502439.5024362     
   2542274456.3324027     
   2483701470.7630563     
   2433385606.1598349     
   2620071276.3985972     
   2599657700.5540633     
   2590663454.8050647     
   2593252730.8256226     
   2607562670.8188272     
   2545389611.4806895     
   2514866998.1421189     
   2495181878.3116522     
   2486617182.8110704     
   2489419777.7083879     
   2488177510.3982754     
   2445434774.5805907     
   2412864904.0779061     
   2390892543.0257082     
   2379907659.0742674     
   2450317561.5283175     
   2393728464.5406141     
   2346468023.4769292     
   2309106342.9449148     
   2282196426.3376565     
   2433385606.1598349     
   2361975150.9952016     
   2298803306.5652947     
   2244558509.2802076     
   2199946906.5693169     
   2607562670.8188272     
   2594827357.9308267     
   2593154833.6029129     
   2602623617.4573679     
   2623329239.3886418     
   2489419777.7083879     
   2469871869.9381657     
   2462191141.9121027     
   2466512510.8310103     
   2482969576.9861450     
   2379907659.0742674     
   2351278988.0438409     
   2335476116.9366117     
   2332746566.1272993     
   2343309799.6848021     
   2282196426.3376565     
   2241848965.3375669     
   2215381018.0211978     
   2203237882.6049638     
   2205804327.1898794     
   2199946906.5693169     
   2144943328.7570522     
   2104853447.4989636     
   2080437740.9789228     
   2072369123.9108701     
   2623329239.3886418     
   2584844505.4984975     
   2552290028.3759985     
   2526247548.1603055     
   2507525641.2729607     
   2482969576.9861450     
   2450331809.3206716     
   2426281381.9386110     
   2411764309.1139135     
   2408157242.1568885     
   2343309799.6848021     
   2318959484.6370683     
   2306155211.8776054     
   2306303343.5396447     
   2321491781.1501327     
   2205804327.1898794     
   2191503123.5030279     
   2192192572.3964458     
   2209842551.5076103     
   2247371511.8318582     
   2072369123.9108701     
   2068929598.8026416     
   2084708678.9284184     
   2122337577.2543895     
   2185625424.0985022     
   2507525641.2729607     
   2357174388.7944698     
   2214988334.5509610     
   2085947706.6501222     
   1976927995.8600261     
   2408157242.1568885     
   2282852916.2222672     
   2168050604.5290909     
   2070490060.7397749     
   1998938995.7588847     
   2321491781.1501327     
   2224747938.7375526     
   2141332932.6123819     
   2079612098.8884861     
   2049757142.6727462     
   2247371511.8318582     
   2182650335.9612160     
   2134364913.2452753     
   2112182635.4846632     
   2127038891.8917367     
   2185625424.0985022     
   2156266429.7712140     
   2146499835.6968064     
   2166850493.0787077     
   2228391643.4252815     
   3578038729.2805719     
   3478262278.1021676     
   3383150194.2884674     
   3293248674.7183948     
   3209179767.3166947     
   3834682478.3470688     
   3710679727.7980905     
   3591615571.6321664     
   3478060458.7700582     
   3370712218.0952606     
   4131017143.8795676     
   3981517781.1769152     
   3837128424.4507780     
   3698362524.6828556     
   3565913372.4491849     
   4466135510.4446392     
   4289422314.0150838     
   4117899203.9611053     
   3951957768.7449279     
   3792217609.3434229     
   4838923443.8420668     
   4632848023.6361656     
   4431968444.1653471     
   4236506206.3307061     
   4046951620.6668916     
   3209179767.3166947     
   3149849202.3125057     
   3093481258.0739036     
   3040278195.2311602     
   2990459074.0651031     
   3370712218.0952606     
   3298158854.7026534     
   3228524953.9239264     
   3162020796.9524879     
   3098883905.7717829     
   3565913372.4491849     
   3480398835.0620770     
   3397668915.2548056     
   3317921619.9271441     
   3241391876.5643730     
   3792217609.3434229     
   3693885022.9933987     
   3598140399.7808867     
   3505152296.4837527     
   3415134130.6988091     
   4046951620.6668916     
   3935787101.5995455     
   3826976095.9822540     
   3720644704.9701972     
   3616969743.3977604     
   2990459074.0651031     
   2903258133.7279706     
   2822358546.8023767     
   2748334756.5453029     
   2681831925.2970581     
   3098883905.7717829     
   2994294160.4402437     
   2895374598.2201285     
   2802718034.4992523     
   2717021272.2665253     
   3241391876.5643730     
   3119664289.9921660     
   3002850715.2982488     
   2891512229.9846692     
   2786339133.3120174     
   3415134130.6988091     
   3276696555.4604478     
   3142369772.8027501     
   3012641946.8309889     
   2888143374.6776853     
   3616969743.3977604     
   3462301109.9026990     
   3310956303.8828735     
   3163324031.5424776     
   3019935610.2425370     
   2681831925.2970581     
   2608502439.5024362     
   2542274456.3324027     
   2483701470.7630563     
   2433385606.1598349     
   2717021272.2665253     
   2627788782.2690368     
   2544461724.2970972     
   2467610511.3437824     
   2397884039.7992387     
   2786339133.3120174     
   2681973641.7611876     
   2582215222.6603007     
   2487581254.0944438     
   2398685543.8387952     
   2888143374.6776853     
   2770069318.9228964     
   2655327011.8113036     
   2544325995.8857069     
   2437570930.1337590     
   3019935610.2425370     
   2890003574.5124831     
   2762267826.8845992     
   2637006799.2960181     
   2514575973.2079883     
   2433385606.1598349     
   2361975150.9952016     
   2298803306.5652947     
   2244558509.2802076     
   2199946906.5693169     
   2397884039.7992387     
   2307940184.4502468     
   2225513046.3558578     
   2151403548.1119771     
   2086486585.6328394     
   2398685543.8387952     
   2290502062.3069348     
   2188775589.4940224     
   2094327347.0877476     
   2008113549.4693344     
   2437570930.1337590     
   2312290257.9103789     
   2192201873.9647217     
   2078031966.9255767     
   1970680015.2232168     
   2514575973.2079883     
   2374023490.5814862     
   2237391924.2426019     
   2105222024.1926265     
   1978225257.5372953     
   2199946906.5693169     
   2144943328.7570522     
   2104853447.4989636     
   2080437740.9789228     
   2072369123.9108701     
   2086486585.6328394     
   2011631270.0863028     
   1949106722.4096968     
   1899984486.0852349     
   1865286410.5564184     
   2008113549.4693344     
   1911964352.2330754     
   1824560709.6309419     
   1747094575.1778944     
   1680848568.8819225     
   1970680015.2232168     
   1854808238.7032070     
   1743274856.9926090     
   1636993784.9623077     
   1537086841.2092454     
   1978225257.5372953     
   1847756120.3036911     
   1717287552.6761935     
   1587163872.3157785     
   1457887813.4153192     
   2072369123.9108701     
   2068929598.8026416     
   2084708678.9284184     
   2122337577.2543895     
   2185625424.0985022     
   1865286410.5564184     
   1854807334.6436558     
   1867292786.3741853     
   1904951685.4833465     
   1970813565.9002979     
   1680848568.8819225     
   1652349348.3168349     
   1651574752.9829671     
   1680894918.0847156     
   1742918488.7384496     
   1537086841.2092454     
   1476178284.9834602     
   1447976777.6081488     
   1456453885.5748248     
   1504907962.9760544     
   1457887813.4153192     
   1348779124.0862091     
   1274673864.2109807     
   1243712110.3345394     
   1262948601.9986370     
   2185625424.0985022     
   2156266429.7712140     
   2146499835.6968064     
   2166850493.0787077     
   2228391643.4252815     
   1970813565.9002979     
   1968948308.7907448     
   2003623484.8102951     
   2093513360.4185145     
   2257278489.2963152     
   1742918488.7384496     
   1787721458.9215658     
   1884665635.0886440     
   2060658543.6929593     
   2340928415.1060591     
   1504907962.9760544     
   1613301130.6608217     
   1788885554.2565672     
   2066407758.4539475     
   2476069489.3368239     
   1262948601.9986370     
   1446728448.0491152     
   1715718306.0590303     
   2110493550.7992923     
   2663486578.0668597     
   4838923443.8420668     
   4632848023.6361656     
   4431968444.1653471     
   4236506206.3307061     
   4046951620.6668916     
   5150924308.8631620     
   4932713307.3119478     
   4716324814.7742233     
   4501943310.8631191     
   4289852632.9044442     
   5451080792.0488367     
   5228195454.1420527     
   5005335893.5107450     
   4782545085.8800163     
   4559877027.9872484     
   5731141725.7911549     
   5512175678.7966337     
   5292762066.5252476     
   5072742447.2779789     
   4851970258.6990385     
   5985818563.8390198     
   5779864199.7858315     
   5574156183.5092125     
   5368278770.8826075     
   5161912125.5643959     
   4046951620.6668916     
   3935787101.5995455     
   3826976095.9822540     
   3720644704.9701972     
   3616969743.3977604     
   4289852632.9044442     
   4168152281.9733191     
   4048242478.2412868     
   3930221506.0031514     
   3814237146.5969872     
   4559877027.9872484     
   4427482128.3425503     
   4296368096.0929174     
   4166604270.8389306     
   4038306910.9376950     
   4851970258.6990385     
   4708731096.4249687     
   4566319134.6733837     
   4424775806.3478260     
   4284186191.2262573     
   5161912125.5643959     
   5007672244.5419378     
   4853859716.0181723     
   4700490301.3237343     
   4547619937.9103098     
   3616969743.3977604     
   3462301109.9026990     
   3310956303.8828735     
   3163324031.5424776     
   3019935610.2425370     
   3814237146.5969872     
   3645561830.9185996     
   3478973127.1216755     
   3314737701.4307432     
   3153240558.9889345     
   4038306910.9376950     
   3856864550.3002448     
   3676485544.1240530     
   3497320635.6006980     
   3319608867.5931163     
   4284186191.2262573     
   4091275236.2854910     
   3898625257.1859941     
   3706291384.1291089     
   3514388276.0590363     
   4547619937.9103098     
   4344518768.7008266     
   4141082619.1574230     
   3937296975.4968009     
   3733183456.8962493     
   3019935610.2425370     
   2890003574.5124831     
   2762267826.8845992     
   2637006799.2960181     
   2514575973.2079883     
   3153240558.9889345     
   3013263688.4372330     
   2875088175.2971802     
   2738916340.8502707     
   2605022271.8794994     
   3319608867.5931163     
   3169841357.0136552     
   3021490652.7680001     
   2874683865.8688207     
   2729614227.7799554     
   3514388276.0590363     
   3354788535.7549248     
   3196235925.9970341     
   3038788748.3000951     
   2882567146.5981317     
   3733183456.8962493     
   3563435781.8888955     
   3394378472.5075936     
   3226009828.2919226     
   3058387942.0985870     
   2514575973.2079883     
   2374023490.5814862     
   2237391924.2426019     
   2105222024.1926265     
   1978225257.5372953     
   2605022271.8794994     
   2454409577.6069098     
   2305991497.5617099     
   2160099886.2160363     
   2017186939.5197408     
   2729614227.7799554     
   2571332953.8270860     
   2413908895.9818792     
   2257486845.0427513     
   2102272103.4279313     
   2882567146.5981317     
   2719214040.1571503     
   2555822926.0553026     
   2392421921.6707935     
   2229058639.9101129     
   3058387942.0985870     
   2892515453.9143033     
   2726119140.6111684     
   2559190181.2350731     
   2391726904.4956369     
   1978225257.5372953     
   1847756120.3036911     
   1717287552.6761935     
   1587163872.3157785     
   1457887813.4153192     
   2017186939.5197408     
   1880568610.6880531     
   1744267738.7725000     
   1608410170.1010597     
   1473169016.2540517     
   2102272103.4279313     
   1962146998.6048126     
   1823003962.2009721     
   1684871449.8746059     
   1547806751.0717945     
   2229058639.9101129     
   2086313359.0985377     
   1945266422.7928534     
   1805915317.9621017     
   1668336932.3415265     
   2391726904.4956369     
   2245589131.5063686     
   2101696930.5542235     
   1960046643.4049611     
   1820808350.6874251     
   1457887813.4153192     
   1348779124.0862091     
   1274673864.2109807     
   1243712110.3345394     
   1262948601.9986370     
   1473169016.2540517     
   1328836858.5885382     
   1198978354.0178106     
   1088088324.8269315     
   1002088471.0928549     
   1547806751.0717945     
   1397849476.8345921     
   1244323156.4274278     
   1084959491.7732811     
   917729325.61018717     
   1668336932.3415265     
   1552874267.5088446     
   1428271628.8979700     
   1294888764.0070815     
   1158854515.0546513     
   1820808350.6874251     
   1780157620.6961248     
   1735950003.3727160     
   1696832792.4742177     
   1681330471.1795423     
   1262948601.9986370     
   1446728448.0491152     
   1715718306.0590303     
   2110493550.7992923     
   2663486578.0668597     
   1002088471.0928549     
   1164747077.0118632     
   1425428161.0123365     
   1808724691.0231197     
   2334729381.3767996     
   917729325.61018717     
   963121983.19565690     
   1144909456.3549430     
   1476456969.6257038     
   1957470776.0194175     
   1158854515.0546513     
   1008395846.1506619     
   985186936.56693649     
   1161492837.5892453     
   1544230224.5606191     
   1681330471.1795423     
   1383754228.3211293     
   1129455658.2194052     
   1010188276.4730630     
   1153280994.6764624     
 </DataArray>
 <DataArray  type="Float64" Name="strain" NumberOfComponents="3" format="ascii">
   9.9732311254289607E-002  -2.9726508859176493E-002  -5.7521630445265259E-003
   9.6280553971626492E-002  -2.8952593142335004E-002  -3.9229190131433445E-003
   9.2828796688963711E-002  -2.8114897452456933E-002  -2.5011103965015269E-003
   8.9377039406300762E-002  -2.7213421789542544E-002  -1.4867371945994079E-003
   8.5925282123637814E-002  -2.6248166153591157E-002  -8.7979940743843077E-004
   9.5641668079236242E-002  -2.7946070002120238E-002   4.0847836843295182E-003
   9.1890505051961724E-002  -2.7180419552995050E-002   5.1204080258149265E-003
   8.8139342024687317E-002  -2.6368063678286535E-002   5.9646562928177271E-003
   8.4388178997412855E-002  -2.5509002377994791E-002   6.6175284853380589E-003
   8.0637015970138448E-002  -2.4603235652119415E-002   7.0790246033757276E-003
   9.0594132844846464E-002  -2.6165631145063872E-002   1.3922002419196111E-002
   8.6759623413218412E-002  -2.5408245963655207E-002   1.4146932523330713E-002
   8.2925113981590443E-002  -2.4621229904116276E-002   1.4396545893240797E-002
   7.9090604549962459E-002  -2.3804582966447267E-002   1.4670842528926378E-002
   7.5256095118334421E-002  -2.2958305150647895E-002   1.4969822430387164E-002
   8.4589705551120456E-002  -2.4385192288007618E-002   2.3759493160072268E-002
   8.0887909055396681E-002  -2.3636072374315170E-002   2.3156654479403391E-002
   7.7186112559673004E-002  -2.2874396129945837E-002   2.2794558404767400E-002
   7.3484316063949354E-002  -2.2100163554899518E-002   2.2673204936165123E-002
   6.9782519568225621E-002  -2.1313374649176375E-002   2.2792594073595830E-002
   7.7628386198058008E-002  -2.2604753430951308E-002   3.3597255906959278E-002
   7.4275361978496601E-002  -2.1863898784975189E-002   3.2149573894033279E-002
   7.0922337758935139E-002  -2.1127562355775342E-002   3.1158693827398165E-002
   6.7569313539373677E-002  -2.0395744143351838E-002   3.0624615707054326E-002
   6.4216289319812186E-002  -1.9668444147704800E-002   3.0547339533001705E-002
   8.5925282123637814E-002  -2.6248166153591157E-002  -8.7979940743843077E-004
   8.3404541886954953E-002  -2.5267901251697922E-002  -8.9885498764280536E-004
   8.0883801650272202E-002  -2.4321397790957294E-002  -7.3413819022161153E-004
   7.8363061413589341E-002  -2.3408655771369628E-002  -3.8564901517487704E-004
   7.5842321176906591E-002  -2.2529675192934806E-002   1.4661253749748138E-004
   8.0637015970138448E-002  -2.4603235652119415E-002   7.0790246033757276E-003
   7.8298970564609688E-002  -2.3687724968829732E-002   6.9357473024414251E-003
   7.5960925159080928E-002  -2.2799431796295150E-002   6.9740872861898395E-003
   7.3622879753552181E-002  -2.1938356134515578E-002   7.1940445546207626E-003
   7.1284834348023407E-002  -2.1104497983490456E-002   7.5956191077346524E-003
   7.5256095118334421E-002  -2.2958305150647895E-002   1.4969822430387164E-002
   7.3098589451016785E-002  -2.2107548685962014E-002   1.4708867339120801E-002
   7.0941083783699260E-002  -2.1277465801633130E-002   1.4627374439594318E-002
   6.8783578116381708E-002  -2.0468056497661088E-002   1.4725343731808019E-002
   6.6626072449064100E-002  -1.9679320774046050E-002   1.5002775215760961E-002
   6.9782519568225621E-002  -2.1313374649176375E-002   2.2792594073595830E-002
   6.7803398546176424E-002  -2.0527372403094171E-002   2.2420505122395511E-002
   6.5824277524127256E-002  -1.9755499806971048E-002   2.2225723269992410E-002
   6.3845156502078074E-002  -1.8997756860806930E-002   2.2208248516386003E-002
   6.1866035480028864E-002  -1.8254143564601782E-002   2.2368080861576677E-002
   6.4216289319812186E-002  -1.9668444147704800E-002   3.0547339533001705E-002
   6.2413397850088564E-002  -1.8947196120226384E-002   3.0070660652265574E-002
   6.0610506380364929E-002  -1.8233533812308939E-002   2.9769133777383217E-002
   5.8807614910641300E-002  -1.7527457223952651E-002   2.9642758908355132E-002
   5.7004723440917671E-002  -1.6828966355157404E-002   2.9691536045181210E-002
   7.5842321176906591E-002  -2.2529675192934806E-002   1.4661253749748138E-004
   7.2424700870145575E-002  -2.1654142438939761E-002  -6.8849204832632793E-005
   6.9007080563384671E-002  -2.0751743892671121E-002  -1.1362115621127433E-004
   6.5589460256623655E-002  -1.9822479554129170E-002   1.2296683361029404E-005
   6.2171839949862751E-002  -1.8866349423313222E-002   3.0890431388530537E-004
   7.1284834348023407E-002  -2.1104497983490456E-002   7.5956191077346524E-003
   6.8044485870366933E-002  -2.0273180176967442E-002   7.3099656404939095E-003
   6.4804137392710487E-002  -1.9419725548692812E-002   7.2081660405109160E-003
   6.1563788915053999E-002  -1.8544134098667633E-002   7.2902203077852973E-003
   5.8323440437397511E-002  -1.7646405826891032E-002   7.5561284423175668E-003
   6.6626072449064100E-002  -1.9679320774046050E-002   1.5002775215760961E-002
   6.3576159876818375E-002  -1.8892217914995041E-002   1.4642201053087472E-002
   6.0526247304572622E-002  -1.8087707204715267E-002   1.4478644833977553E-002
   5.7476334732326870E-002  -1.7265788643206537E-002   1.4512106558431763E-002
   5.4426422160081145E-002  -1.6426462230468730E-002   1.4742586226449528E-002
   6.1866035480028864E-002  -1.8254143564601782E-002   2.2368080861576677E-002
   5.9019722889500081E-002  -1.7511255653022792E-002   2.1927857032947806E-002
   5.6173410298971209E-002  -1.6755688860737229E-002   2.1697815224189062E-002
   5.3327097708442364E-002  -1.5987443187744997E-002   2.1677955435300177E-002
   5.0480785117913540E-002  -1.5206518634046373E-002   2.1868277666281355E-002
   5.7004723440917671E-002  -1.6828966355157404E-002   2.9691536045181210E-002
   5.4375174908411900E-002  -1.6130293391050571E-002   2.9166933580074994E-002
   5.1745626375906156E-002  -1.5423670516759178E-002   2.8865677211144691E-002
   4.9116077843400385E-002  -1.4709097732283957E-002   2.8787766938391093E-002
   4.6486529310894642E-002  -1.3986575037624183E-002   2.8933202761813270E-002
   6.2171839949862751E-002  -1.8866349423313222E-002   3.0890431388530537E-004
   5.9365776400797987E-002  -1.7921922833816772E-002   1.3378287889254104E-004
   5.6559712851733113E-002  -1.7027769119232650E-002   1.4102794176956701E-004
   5.3753649302668294E-002  -1.6183888279560465E-002   3.3063950251571717E-004
   5.0947585753603475E-002  -1.5390280314800497E-002   7.0261756113154661E-004
   5.8323440437397511E-002  -1.7646405826891032E-002   7.5561284423175668E-003
   5.5691933581866027E-002  -1.6754545610273341E-002   7.2825055346469880E-003
   5.3060426726334570E-002  -1.5896558325725063E-002   7.1756295161741201E-003
   5.0428919870803099E-002  -1.5072443973245572E-002   7.2355003868983525E-003
   4.7797413015271573E-002  -1.4282202552835299E-002   7.4621181468200737E-003
   5.4426422160081145E-002  -1.6426462230468730E-002   1.4742586226449528E-002
   5.1953852389410915E-002  -1.5587168386729688E-002   1.4386861788944133E-002
   4.9481282618740741E-002  -1.4765347532217032E-002   1.4182264631964286E-002
   4.7008712848070552E-002  -1.3960999666930790E-002   1.4128794755509322E-002
   4.4536143077400281E-002  -1.3174124790870434E-002   1.4226452159579794E-002
   5.0480785117913540E-002  -1.5206518634046373E-002   2.1868277666281355E-002
   4.8151532823432569E-002  -1.4419791163186035E-002   2.1446851641784115E-002
   4.5822280528951535E-002  -1.3634136738709113E-002   2.1160933289139802E-002
   4.3493028234470543E-002  -1.2849555360615508E-002   2.1010522608348972E-002
   4.1163775939989530E-002  -1.2066047028905513E-002   2.0995619599411389E-002
   4.6486529310894642E-002  -1.3986575037624183E-002   2.8933202761813270E-002
   4.4284974883930850E-002  -1.3252413939642493E-002   2.8462475093166739E-002
   4.2083420456967030E-002  -1.2502925945201512E-002   2.8111635487701375E-002
   3.9881866030003224E-002  -1.1738111054300695E-002   2.7880683945417220E-002
   3.7680311603039418E-002  -1.0957969266940371E-002   2.7769620466314260E-002
   5.0947585753603475E-002  -1.5390280314800497E-002   7.0261756113154661E-004
   4.8174694057394607E-002  -1.4601065328636920E-002   4.7013725859346156E-004
   4.5401802361185628E-002  -1.3770363424756515E-002   2.7332739488306057E-004
   4.2628910664976705E-002  -1.2898174603156662E-002   1.1218797000106528E-004
   3.9856018968767781E-002  -1.1984498863839343E-002  -1.3281016054023098E-005
   4.7797413015271573E-002  -1.4282202552835299E-002   7.4621181468200737E-003
   4.5073763764296448E-002  -1.3496662535193882E-002   7.1650911732737965E-003
   4.2350114513321269E-002  -1.2686652391020903E-002   6.9308786513674336E-003
   3.9626465262346172E-002  -1.1852172120315516E-002   6.7594805811004577E-003
   3.6902816011371020E-002  -1.0993221723079039E-002   6.6508969624734515E-003
   4.4536143077400281E-002  -1.3174124790870434E-002   1.4226452159579794E-002
   4.1888880284471075E-002  -1.2392259741750455E-002   1.3847861723838617E-002
   3.9241617491541841E-002  -1.1602941357285540E-002   1.3559229752549806E-002
   3.6594354698612622E-002  -1.0806169637474820E-002   1.3360556245712377E-002
   3.3947091905683346E-002  -1.0001944582319067E-002   1.3251841203327452E-002
   4.1163775939989530E-002  -1.2066047028905513E-002   2.0995619599411389E-002
   3.8620043617918459E-002  -1.1287856948307445E-002   2.0518448910289075E-002
   3.6076311295847353E-002  -1.0519230323550385E-002   2.0158380698430754E-002
   3.3532578973776234E-002  -9.7601671546341216E-003   1.9915414963836964E-002
   3.0988846651705176E-002  -9.0106674415589283E-003   1.9789551706507896E-002
   3.7680311603039418E-002  -1.0957969266940371E-002   2.7769620466314260E-002
   3.5267253764638573E-002  -1.0183454154864213E-002   2.7176852732624379E-002
   3.2854195926237756E-002  -9.4355192898148976E-003   2.6728331489011159E-002
   3.0441138087836953E-002  -8.7141646717931731E-003   2.6424056735473822E-002
   2.8028080249436149E-002  -8.0193903007986789E-003   2.6264028472013257E-002
   3.9856018968767781E-002  -1.1984498863839343E-002  -1.3281016054023098E-005
   3.7447770747026765E-002  -1.1134592271884070E-002  -2.9474381794747373E-004
   3.5039522525285860E-002  -1.0453710892368684E-002  -4.8583581888717031E-004
   3.2631274303544955E-002  -9.9418547252955458E-003  -5.8655701887400102E-004
   3.0223026081803939E-002  -9.5990237706629067E-003  -5.9690741790663360E-004
   3.6902816011371020E-002  -1.0993221723079039E-002   6.6508969624734515E-003
   3.4566795292050145E-002  -1.0177871165625296E-002   6.2084222044878068E-003
   3.2230774572729326E-002  -9.4741904142678912E-003   5.8200316503883021E-003
   2.9894753853408479E-002  -8.8821794690060463E-003   5.4857253001761308E-003
   2.7558733134087632E-002  -8.4018383298420929E-003   5.2055031538500440E-003
   3.3947091905683346E-002  -1.0001944582319067E-002   1.3251841203327452E-002
   3.1647012091716081E-002  -9.2211500593668005E-003   1.2705709895593331E-002
   2.9346932277748844E-002  -8.4946699361659328E-003   1.2177376194678846E-002
   2.7046852463781579E-002  -7.8225042127174210E-003   1.1666840100584983E-002
   2.4746772649814341E-002  -7.2046528890208350E-003   1.1174101613311394E-002
   3.0988846651705176E-002  -9.0106674415589283E-003   1.9789551706507896E-002
   2.8688421146024788E-002  -8.2644289531080550E-003   1.9197119255369322E-002
   2.6387995640344573E-002  -7.5151494580645573E-003   1.8586197813984809E-002
   2.4087570134664275E-002  -6.7628289564285807E-003   1.7956787382353977E-002
   2.1787144628983970E-002  -6.0074674481997992E-003   1.7308887960476985E-002
   2.8028080249436149E-002  -8.0193903007986789E-003   2.6264028472013257E-002
   2.5691022454976231E-002  -7.3077078468494205E-003   2.5682650283816111E-002
   2.3353964660516369E-002  -6.5356289799629042E-003   2.5046496508305927E-002
   2.1016906866056506E-002  -5.7031537001392824E-003   2.4355567145482898E-002
   1.8679849071596588E-002  -4.8102820073786523E-003   2.3609862195347109E-002
   3.0223026081803939E-002  -9.5990237706629067E-003  -5.9690741790663360E-004
   2.9611920158295169E-002  -9.1358814677531264E-003  -3.5642345977127121E-004
   2.9000814234786454E-002  -8.2630912558469549E-003  -1.7967481902395610E-003
   2.8389708311277739E-002  -6.9806531349467099E-003  -4.9178816093118916E-003
   2.7778602387768969E-002  -5.2885671050482141E-003  -9.7198237169884294E-003
   2.7558733134087632E-002  -8.4018383298420929E-003   5.2055031538500440E-003
   2.5536214429368487E-002  -7.8712504919715709E-003   5.8786210390745497E-003
   2.3513695724649231E-002  -7.1284994505931287E-003   5.4097220504814025E-003
   2.1491177019930030E-002  -6.1735852057072105E-003   3.7988061880714907E-003
   1.9468658315210829E-002  -5.0065077573124839E-003   1.0458734518448143E-003
   2.4746772649814341E-002  -7.2046528890208350E-003   1.1174101613311394E-002
   2.1851632978671820E-002  -6.6066195161902375E-003   1.2082368720136238E-002
   1.8956493307529243E-002  -5.9939076453393303E-003   1.2387410767931067E-002
   1.6061353636386749E-002  -5.3665172764683841E-003   1.2089227756696283E-002
   1.3166213965244228E-002  -4.7244484095768646E-003   1.1187819686431622E-002
   2.1787144628983970E-002  -6.0074674481997992E-003   1.7308887960476985E-002
   1.8558175806205210E-002  -5.3419885404085710E-003   1.8254819583414267E-002
   1.5329206983426505E-002  -4.8593158400849629E-003   1.9136317962109108E-002
   1.2100238160647751E-002  -4.5594493472294433E-003   1.9953383096561136E-002
   8.8712693378690394E-003  -4.4423890618409678E-003   2.0706014986770729E-002
   1.8679849071596588E-002  -4.8102820073786523E-003   2.3609862195347109E-002
   1.5655842911968754E-002  -4.0773575646269045E-003   2.4395973628909440E-002
   1.2631836752340919E-002  -3.7247240348309563E-003   2.5656443633016057E-002
   9.6078305927131125E-003  -3.7523814179902040E-003   2.7391272207667683E-002
   6.5838244330852502E-003  -4.1603297141052931E-003   2.9600459352863373E-002
   2.7778602387768969E-002  -5.2885671050482141E-003  -9.7198237169884294E-003
   2.3352871230366112E-002  -4.2056816421582877E-003  -4.1894577549159706E-003
   1.8927140072963422E-002  -4.7508452222732589E-003   2.6045942058473548E-003
   1.4501408915560565E-002  -6.9240578453981100E-003   1.0662332165302713E-002
   1.0075677758157875E-002  -1.0725319511531772E-002   1.9983756123449048E-002
   1.9468658315210829E-002  -5.0065077573124839E-003   1.0458734518448143E-003
   1.6234302228542996E-002  -4.6900086417361875E-003   6.7407437524761304E-003
   1.2999946141874996E-002  -6.2868293953040055E-003   1.3554678195885961E-002
   9.7655900552070518E-003  -9.7969700180149943E-003   2.1487676782073695E-002
   6.5312339685392740E-003  -1.5220430509869765E-002   3.0539739511040498E-002
   1.3166213965244228E-002  -4.7244484095768646E-003   1.1187819686431622E-002
   1.0978611093398205E-002  -5.1743356413157526E-003   1.6761923499486020E-002
   8.7910082215521962E-003  -7.8228135683336697E-003   2.3310469599406108E-002
   6.6034053497061457E-003  -1.2669882190630442E-002   3.0833457986191790E-002
   4.4158024778601646E-003  -1.9715541508207757E-002   3.9330888659842467E-002
   8.8712693378690394E-003  -4.4423890618409678E-003   2.0706014986770729E-002
   7.5857978249318503E-003  -5.6586626408944851E-003   2.5874081486112921E-002
   6.3003263119948902E-003  -9.3587977413629869E-003   3.1871968416408068E-002
   5.0148547990576629E-003  -1.5542794363246831E-002   3.8699675777654818E-002
   3.7293832861206161E-003  -2.4210652506545749E-002   4.6357203569854954E-002
   6.5838244330852502E-003  -4.1603297141052931E-003   2.9600459352863373E-002
   6.0558624231440428E-003  -6.1429896404734396E-003   3.4077217712357499E-002
   5.5279004132029741E-003  -1.0894781914393026E-002   3.9239174646890973E-002
   4.9999384032618777E-003  -1.8415706535862955E-002   4.5086330156464405E-002
   4.4719763933206425E-003  -2.8705763504883741E-002   5.1618684241076629E-002
   7.7628386198058008E-002  -2.2604753430951308E-002   3.3597255906959278E-002
   7.4275361978496601E-002  -2.1863898784975189E-002   3.2149573894033279E-002
   7.0922337758935139E-002  -2.1127562355775342E-002   3.1158693827398165E-002
   6.7569313539373677E-002  -2.0395744143351838E-002   3.0624615707054326E-002
   6.4216289319812186E-002  -1.9668444147704800E-002   3.0547339533001705E-002
   7.0425936376690812E-002  -2.0678137669315977E-002   3.6602832171350907E-002
   6.7491526124376894E-002  -2.0029446748767360E-002   3.5592138118018035E-002
   6.4557115872062948E-002  -1.9375147979621796E-002   3.4961870052888810E-002
   6.1622705619749016E-002  -1.8715241361879253E-002   3.4712027975963664E-002
   5.8688295367435056E-002  -1.8049726895539825E-002   3.4842611887242164E-002
   6.3698117678050115E-002  -1.8751521907680646E-002   3.9511181677628460E-002
   6.1105945434896405E-002  -1.8194994712559545E-002   3.8947601649261906E-002
   5.8513773191742599E-002  -1.7622733603468249E-002   3.8688071651012013E-002
   5.5921600948588876E-002  -1.7034738580406640E-002   3.8732591682878528E-002
   5.3329428705435090E-002  -1.6431009643374878E-002   3.9081161744861467E-002
   5.7444930102136013E-002  -1.6824906146045288E-002   4.2322304425791699E-002
   5.5118619910055136E-002  -1.6360542676351696E-002   4.2215964487765073E-002
   5.2792309717974183E-002  -1.5870319227314703E-002   4.2337298621767515E-002
   5.0465999525893229E-002  -1.5354235798934041E-002   4.2686306827799073E-002
   4.8139689333812297E-002  -1.4812292391209972E-002   4.3262989105859836E-002
   5.1666373648948438E-002  -1.4898290384409985E-002   4.5036200415841054E-002
   4.9529549549852975E-002  -1.4526090640143957E-002   4.5397226633527299E-002
   4.7392725450757567E-002  -1.4117904851161142E-002   4.5909550965155393E-002
   4.5255901351662159E-002  -1.3673733017461425E-002   4.6573173410725352E-002
   4.3119077252566695E-002  -1.3193575139044955E-002   4.7388093970237022E-002
   6.4216289319812186E-002  -1.9668444147704800E-002   3.0547339533001705E-002
   6.2413397850088564E-002  -1.8947196120226384E-002   3.0070660652265574E-002
   6.0610506380364929E-002  -1.8233533812308939E-002   2.9769133777383217E-002
   5.8807614910641300E-002  -1.7527457223952651E-002   2.9642758908355132E-002
   5.7004723440917671E-002  -1.6828966355157404E-002   2.9691536045181210E-002
   5.8688295367435056E-002  -1.8049726895539825E-002   3.4842611887242164E-002
   5.7049472398679316E-002  -1.7383765696611889E-002   3.4517826740506227E-002
   5.5410649429923645E-002  -1.6722518881103522E-002   3.4346026589852474E-002
   5.3771826461167974E-002  -1.6065986449015128E-002   3.4327211435280239E-002
   5.2133003492412233E-002  -1.5414168400346373E-002   3.4461381276789743E-002
   5.3329428705435090E-002  -1.6431009643374878E-002   3.9081161744861467E-002
   5.1832507227874962E-002  -1.5820335272997227E-002   3.8911141668267611E-002
   5.0335585750314799E-002  -1.5211503949898161E-002   3.8871939577983280E-002
   4.8838664272754684E-002  -1.4604515674077553E-002   3.8963555474008142E-002
   4.7341742795194472E-002  -1.3999370445535397E-002   3.9185989356342446E-002
   4.8139689333812297E-002  -1.4812292391209972E-002   4.3262989105859836E-002
   4.6762502337675364E-002  -1.4256904849382732E-002   4.3250605435549046E-002
   4.5385315341538432E-002  -1.3700489018692689E-002   4.3346872741775275E-002
   4.4008128345401527E-002  -1.3143044899140059E-002   4.3551791024538676E-002
   4.2630941349264574E-002  -1.2584572490724394E-002   4.3865360283839000E-002
   4.3119077252566695E-002  -1.3193575139044955E-002   4.7388093970237022E-002
   4.1839457728080620E-002  -1.2693474425768125E-002   4.7536218042350781E-002
   4.0559838203594517E-002  -1.2189474087487356E-002   4.7770826081229123E-002
   3.9280218679108400E-002  -1.1681574124202447E-002   4.8091918086871993E-002
   3.8000599154622311E-002  -1.1169774535913446E-002   4.8499494059279669E-002
   5.7004723440917671E-002  -1.6828966355157404E-002   2.9691536045181210E-002
   5.4375174908411900E-002  -1.6130293391050571E-002   2.9166933580074994E-002
   5.1745626375906156E-002  -1.5423670516759178E-002   2.8865677211144691E-002
   4.9116077843400385E-002  -1.4709097732283957E-002   2.8787766938391093E-002
   4.6486529310894642E-002  -1.3986575037624183E-002   2.8933202761813270E-002
   5.2133003492412233E-002  -1.5414168400346373E-002   3.4461381276789743E-002
   4.9721151148587911E-002  -1.4760113295120947E-002   3.4020157358835207E-002
   4.7309298804763658E-002  -1.4096869693362254E-002   3.3790979722067280E-002
   4.4897446460939371E-002  -1.3424437595070293E-002   3.3773848366486121E-002
   4.2485594117115055E-002  -1.2742817000245321E-002   3.3968763292091475E-002
   4.7341742795194472E-002  -1.3999370445535397E-002   3.9185989356342446E-002
   4.5136286825062176E-002  -1.3389933199191476E-002   3.8829382571888393E-002
   4.2930830854929838E-002  -1.2770068869965338E-002   3.8673522253631652E-002
   4.0725374884797494E-002  -1.2139777457856908E-002   3.8718408401572216E-002
   3.8519918914665136E-002  -1.1499058962866376E-002   3.8964041015709591E-002
   4.2630941349264574E-002  -1.2584572490724394E-002   4.3865360283839000E-002
   4.0620581937834632E-002  -1.2019753103262067E-002   4.3594609219234720E-002
   3.8610222526404725E-002  -1.1443268046568280E-002   4.3513304805838239E-002
   3.6599863114974804E-002  -1.0855117320643468E-002   4.3621447043649154E-002
   3.4589503703544869E-002  -1.0255300925487418E-002   4.3919035932668118E-002
   3.8000599154622311E-002  -1.1169774535913446E-002   4.8499494059279669E-002
   3.6174036486905287E-002  -1.0649573007332436E-002   4.8315837300873965E-002
   3.4347473819188276E-002  -1.0116467223171444E-002   4.8310327378686652E-002
   3.2520911151471286E-002  -9.5704571834299007E-003   4.8482964292717146E-002
   3.0694348483754269E-002  -9.0115428881086257E-003   4.8833748042965863E-002
   4.6486529310894642E-002  -1.3986575037624183E-002   2.8933202761813270E-002
   4.4284974883930850E-002  -1.3252413939642493E-002   2.8462475093166739E-002
   4.2083420456967030E-002  -1.2502925945201512E-002   2.8111635487701375E-002
   3.9881866030003224E-002  -1.1738111054300695E-002   2.7880683945417220E-002
   3.7680311603039418E-002  -1.0957969266940371E-002   2.7769620466314260E-002
   4.2485594117115055E-002  -1.2742817000245321E-002   3.3968763292091475E-002
   4.0411485093280408E-002  -1.2050084064578998E-002   3.3555034495526964E-002
   3.8337376069445803E-002  -1.1344314943764158E-002   3.3276308442039881E-002
   3.6263267045611232E-002  -1.0625509637800280E-002   3.3132585131629477E-002
   3.4189158021776578E-002  -9.8936681466874621E-003   3.3123864564296834E-002
   3.8519918914665136E-002  -1.1499058962866376E-002   3.8964041015709591E-002
   3.6588369973855797E-002  -1.0847754189515613E-002   3.8605020379916408E-002
   3.4656821033046452E-002  -1.0185703942326811E-002   3.8396117167096407E-002
   3.2725272092237162E-002  -9.5129082212998105E-003   3.8337331377249678E-002
   3.0793723151427768E-002  -8.8293670264347757E-003   3.8428663010376368E-002
   3.4589503703544869E-002  -1.0255300925487418E-002   4.3919035932668118E-002
   3.2815629525656906E-002  -9.6454243144521168E-003   4.3612432746334959E-002
   3.1041755347768971E-002  -9.0270929408894050E-003   4.3471061662871471E-002
   2.9267881169881049E-002  -8.4003068047994803E-003   4.3494922682277649E-002
   2.7494006991993076E-002  -7.7650659061819227E-003   4.3684015804552820E-002
   3.0694348483754269E-002  -9.0115428881086257E-003   4.8833748042965863E-002
   2.9093263748683817E-002  -8.4430944393887319E-003   4.8577271594782867E-002
   2.7492179013613338E-002  -7.8684819394522904E-003   4.8501141929365249E-002
   2.5891094278542859E-002  -7.2877053882989991E-003   4.8605359046713328E-002
   2.4290009543472407E-002  -6.7007647859291808E-003   4.8889922946826703E-002
   3.7680311603039418E-002  -1.0957969266940371E-002   2.7769620466314260E-002
   3.5267253764638573E-002  -1.0183454154864213E-002   2.7176852732624379E-002
   3.2854195926237756E-002  -9.4355192898148976E-003   2.6728331489011159E-002
   3.0441138087836953E-002  -8.7141646717931731E-003   2.6424056735473822E-002
   2.8028080249436149E-002  -8.0193903007986789E-003   2.6264028472013257E-002
   3.4189158021776578E-002  -9.8936681466874621E-003   3.3123864564296834E-002
   3.1921758609716411E-002  -9.1641145597448070E-003   3.2606131357527268E-002
   2.9654359197656230E-002  -8.4521729662911105E-003   3.2235468513362647E-002
   2.7386959785596139E-002  -7.7578433663256577E-003   3.2011876031803221E-002
   2.5119560373535910E-002  -7.0811257598495381E-003   3.1935353912848186E-002
   3.0793723151427768E-002  -8.8293670264347757E-003   3.8428663010376368E-002
   2.8674806038236855E-002  -8.1447749646258449E-003   3.7994932584065694E-002
   2.6555888925045866E-002  -7.4688266427669903E-003   3.7711096392888582E-002
   2.4436971811854950E-002  -6.8015220608585863E-003   3.7577154436844895E-002
   2.2318054698664019E-002  -6.1428612189002307E-003   3.7593106715934688E-002
   2.7494006991993076E-002  -7.7650659061819227E-003   4.3684015804552820E-002
   2.5526396050199865E-002  -7.1254353695068828E-003   4.3343256412239760E-002
   2.3558785108406734E-002  -6.4854803192430366E-003   4.3155215127588409E-002
   2.1591174166613571E-002  -5.8452007553911819E-003   4.3119891950599107E-002
   1.9623563224820402E-002  -5.2045966779508956E-003   4.3237286881271944E-002
   2.4290009543472407E-002  -6.7007647859291808E-003   4.8889922946826703E-002
   2.2476528645605565E-002  -6.1060957743874766E-003   4.8651102842049321E-002
   2.0663047747738736E-002  -5.5021339957191384E-003   4.8567824717462627E-002
   1.8849566849871914E-002  -4.8888794499239024E-003   4.8640088573066453E-002
   1.7036085952005092E-002  -4.2663321370016716E-003   4.8867894408860635E-002
   2.8028080249436149E-002  -8.0193903007986789E-003   2.6264028472013257E-002
   2.5691022454976231E-002  -7.3077078468494205E-003   2.5682650283816111E-002
   2.3353964660516369E-002  -6.5356289799629042E-003   2.5046496508305927E-002
   2.1016906866056506E-002  -5.7031537001392824E-003   2.4355567145482898E-002
   1.8679849071596588E-002  -4.8102820073786523E-003   2.3609862195347109E-002
   2.5119560373535910E-002  -7.0811257598495381E-003   3.1935353912848186E-002
   2.2766518197604640E-002  -6.4053957426489228E-003   3.1537797745458451E-002
   2.0413476021673344E-002  -5.7140289105103714E-003   3.1163048402438359E-002
   1.8060433845742109E-002  -5.0070252634339257E-003   3.0811105883788548E-002
   1.5707391669810777E-002  -4.2843848014202379E-003   3.0481970189508933E-002
   2.2318054698664019E-002  -6.1428612189002307E-003   3.7593106715934688E-002
   2.0026610552944274E-002  -5.5030836384479254E-003   3.7334612971352543E-002
   1.7735166407224598E-002  -4.8924288410575334E-003   3.7176508462823138E-002
   1.5443722261504852E-002  -4.3108968267286871E-003   3.7118793190347096E-002
   1.3152278115785176E-002  -3.7584875954617680E-003   3.7161467153924016E-002
   1.9623563224820402E-002  -5.2045966779508956E-003   4.3237286881271944E-002
   1.7471299520995180E-002  -4.6007715342471778E-003   4.3073095961498262E-002
   1.5319035817170038E-002  -4.0708287716046815E-003   4.3086876689460242E-002
   1.3166772113344830E-002  -3.6147683900233339E-003   4.3278629065158350E-002
   1.1014508409519674E-002  -3.2325903895034369E-003   4.3648353088592599E-002
   1.7036085952005092E-002  -4.2663321370016716E-003   4.8867894408860635E-002
   1.5100585101757436E-002  -3.6984594300464302E-003   4.8753246715895648E-002
   1.3165084251509709E-002  -3.2492287021520516E-003   4.8894153082349567E-002
   1.1229583401262046E-002  -2.9186399533178975E-003   4.9290613508222419E-002
   9.2940825510143266E-003  -2.7066931835449948E-003   4.9942627993514122E-002
   1.8679849071596588E-002  -4.8102820073786523E-003   2.3609862195347109E-002
   1.5655842911968754E-002  -4.0773575646269045E-003   2.4395973628909440E-002
   1.2631836752340919E-002  -3.7247240348309563E-003   2.5656443633016057E-002
   9.6078305927131125E-003  -3.7523814179902040E-003   2.7391272207667683E-002
   6.5838244330852502E-003  -4.1603297141052931E-003   2.9600459352863373E-002
   1.5707391669810777E-002  -4.2843848014202379E-003   3.0481970189508933E-002
   1.3139219606142699E-002  -3.7722896825032048E-003   3.1258391789203199E-002
   1.0571047542474662E-002  -3.6969220647182777E-003   3.2472123010272358E-002
   8.0028754788066328E-003  -4.0582819480641241E-003   3.4123163852716520E-002
   5.4347034151385476E-003  -4.8563693325421875E-003   3.6211514316536020E-002
   1.3152278115785176E-002  -3.7584875954617680E-003   3.7161467153924016E-002
   1.1002891198907502E-002  -3.4672218003795052E-003   3.7871762331573744E-002
   8.8535042820297935E-003  -3.6691200946051411E-003   3.8982318181429707E-002
   6.7041173651520777E-003  -4.3641824781384848E-003   4.0493134703490981E-002
   4.5547304482744105E-003  -5.5524089509794150E-003   4.2404211897758115E-002
   1.1014508409519674E-002  -3.2325903895034369E-003   4.3648353088592599E-002
   9.2468576902629378E-003  -3.1621539182558611E-003   4.4236085256022406E-002
   7.4792069710062879E-003  -3.6413181244922335E-003   4.5187029146487992E-002
   5.7115562517496398E-003  -4.6700830082126252E-003   4.6501184759990072E-002
   3.9439055324929605E-003  -6.2484485694165870E-003   4.8178552096528424E-002
   9.2940825510143266E-003  -2.7066931835449948E-003   4.9942627993514122E-002
   7.8711190802092934E-003  -2.8570860361321615E-003   5.0351360562547409E-002
   6.4481556094041770E-003  -3.6135161543792982E-003   5.1086255905447242E-002
   5.0251921385991299E-003  -4.9759835382868697E-003   5.2147314022214258E-002
   3.6022286677940274E-003  -6.9444881878535369E-003   5.3534534912848208E-002
   6.5838244330852502E-003  -4.1603297141052931E-003   2.9600459352863373E-002
   6.0558624231440428E-003  -6.1429896404734396E-003   3.4077217712357499E-002
   5.5279004132029741E-003  -1.0894781914393026E-002   3.9239174646890973E-002
   4.9999384032618777E-003  -1.8415706535862955E-002   4.5086330156464405E-002
   4.4719763933206425E-003  -2.8705763504883741E-002   5.1618684241076629E-002
   5.4347034151385476E-003  -4.8563693325421875E-003   3.6211514316536020E-002
   5.4881290783730108E-003  -6.9908199540298921E-003   3.8351044165029824E-002
   5.5415547416075711E-003  -1.1361269548405328E-002   4.0968150784835566E-002
   5.5949804048421523E-003  -1.7967718115668219E-002   4.4062834175953580E-002
   5.6484060680766501E-003  -2.6810165655818174E-002   4.7635094338382755E-002
   4.5547304482744105E-003  -5.5524089509794150E-003   4.2404211897758115E-002
   4.9819219809570797E-003  -7.8386502675865666E-003   4.2739646609914639E-002
   5.4091135136397142E-003  -1.1827757182418047E-002   4.3345036289655997E-002
   5.8363050463223279E-003  -1.7519729695473309E-002   4.4220380936981663E-002
   6.2634965790049624E-003  -2.4914567806752830E-002   4.5365680551891163E-002
   3.9439055324929605E-003  -6.2484485694165870E-003   4.8178552096528424E-002
   4.5372411308961351E-003  -8.6864805811431300E-003   4.7243025047011444E-002
   5.1305767292993444E-003  -1.2294244816430447E-002   4.6369831161351620E-002
   5.7239123277025936E-003  -1.7071741275278485E-002   4.5558970439548804E-002
   6.3172479261057804E-003  -2.3018969957687374E-002   4.4810442881601825E-002
   3.6022286677940274E-003  -6.9444881878535369E-003   5.3534534912848208E-002
   4.1540865281902706E-003  -9.5343108946998045E-003   5.1861179476321295E-002
   4.7059443885864860E-003  -1.2760732450443013E-002   5.0042535399922983E-002
   5.2578022489827431E-003  -1.6623752855083759E-002   4.8078602683654437E-002
   5.8096601093790001E-003  -2.1123372108621918E-002   4.5969381327515269E-002
   5.1666373648948438E-002  -1.4898290384409985E-002   4.5036200415841054E-002
   4.9529549549852975E-002  -1.4526090640143957E-002   4.5397226633527299E-002
   4.7392725450757567E-002  -1.4117904851161142E-002   4.5909550965155393E-002
   4.5255901351662159E-002  -1.3673733017461425E-002   4.6573173410725352E-002
   4.3119077252566695E-002  -1.3193575139044955E-002   4.7388093970237022E-002
   4.5903512288655079E-002  -1.3009832437491986E-002   5.0610858654679569E-002
   4.3943874030853064E-002  -1.2688452865168259E-002   5.0588699526621678E-002
   4.1984235773051048E-002  -1.2334723609876141E-002   5.0769613967209110E-002
   4.0024597515249075E-002  -1.1948644671616035E-002   5.1153601976441282E-002
   3.8064959257447045E-002  -1.1530216050387704E-002   5.1740663554318667E-002
   3.9697409991423599E-002  -1.1121374490574071E-002   5.6136514902449933E-002
   3.7966733029618220E-002  -1.0850815090192437E-002   5.5727534066899537E-002
   3.6236056067812883E-002  -1.0551542368591287E-002   5.5573402254697361E-002
   3.4505379106007504E-002  -1.0223556325770536E-002   5.5674119465843483E-002
   3.2774702144202139E-002  -9.8668569617303414E-003   5.6029685700337867E-002
   3.3048066757254031E-002  -9.2329165436560862E-003   6.1613169159152756E-002
   3.1598126546148478E-002  -9.0131773152166486E-003   6.0813730254360973E-002
   3.0148186335042956E-002  -8.7683611273063865E-003   6.0320915827620759E-002
   2.8698246123937454E-002  -8.4984679799251471E-003   6.0134725878931837E-002
   2.7248305912831901E-002  -8.2034978730729513E-003   6.0255160408294449E-002
   2.5955482586146245E-002  -7.3444585967381570E-003   6.7040821424787400E-002
   2.4838054580443830E-002  -7.1755395402409161E-003   6.5847288089005696E-002
   2.3720626574741374E-002  -6.9851798860214587E-003   6.5012154685978818E-002
   2.2603198569038911E-002  -6.7733796340796529E-003   6.4535421215706518E-002
   2.1485770563336462E-002  -6.5401387844156722E-003   6.4417087678188767E-002
   4.3119077252566695E-002  -1.3193575139044955E-002   4.7388093970237022E-002
   4.1839457728080620E-002  -1.2693474425768125E-002   4.7536218042350781E-002
   4.0559838203594517E-002  -1.2189474087487356E-002   4.7770826081229123E-002
   3.9280218679108400E-002  -1.1681574124202447E-002   4.8091918086871993E-002
   3.8000599154622311E-002  -1.1169774535913446E-002   4.8499494059279669E-002
   3.8064959257447045E-002  -1.1530216050387704E-002   5.1740663554318667E-002
   3.6890859850287824E-002  -1.1093472204170438E-002   5.1675774854876053E-002
   3.5716760443128576E-002  -1.0652447590943727E-002   5.1735442423322425E-002
   3.4542661035969355E-002  -1.0207142210707421E-002   5.1919666259658007E-002
   3.3368561628810134E-002  -9.7575560634614589E-003   5.2228446363882630E-002
   3.2774702144202139E-002  -9.8668569617303414E-003   5.6029685700337867E-002
   3.1744195155494204E-002  -9.4934699825727498E-003   5.5752165371344468E-002
   3.0713688166786247E-002  -9.1154210944001529E-003   5.5637273611364627E-002
   2.9683181178078291E-002  -8.7327102972123392E-003   5.5685010420398286E-002
   2.8652674189370321E-002  -8.3453375910094441E-003   5.5895375798445390E-002
   2.7248305912831901E-002  -8.2034978730729513E-003   6.0255160408294449E-002
   2.6399463643699689E-002  -7.8934677609750620E-003   5.9765389591755959E-002
   2.5550621374567449E-002  -7.5783945978564124E-003   5.9476319645355408E-002
   2.4701779105435206E-002  -7.2582783837172853E-003   5.9387950569092657E-002
   2.3852936836302970E-002  -6.9331191185574431E-003   5.9500282362967963E-002
   2.1485770563336462E-002  -6.5401387844156722E-003   6.4417087678188767E-002
   2.0856665314904349E-002  -6.2934655393773464E-003   6.3715447516110635E-002
   2.0227560066472229E-002  -6.0413681013129356E-003   6.3252580525294866E-002
   1.9598454818040113E-002  -5.7838464702222279E-003   6.3028486705741307E-002
   1.8969349569607996E-002  -5.5209006461053867E-003   6.3043166057450195E-002
   3.8000599154622311E-002  -1.1169774535913446E-002   4.8499494059279669E-002
   3.6174036486905287E-002  -1.0649573007332436E-002   4.8315837300873965E-002
   3.4347473819188276E-002  -1.0116467223171444E-002   4.8310327378686652E-002
   3.2520911151471286E-002  -9.5704571834299007E-003   4.8482964292717146E-002
   3.0694348483754269E-002  -9.0115428881086257E-003   4.8833748042965863E-002
   3.3368561628810134E-002  -9.7575560634614589E-003   5.2228446363882630E-002
   3.1730356067682500E-002  -9.2996711405704535E-003   5.1983760482151031E-002
   3.0092150506554893E-002  -8.8294694333986984E-003   5.1937641977379989E-002
   2.8453944945427266E-002  -8.3469509419464051E-003   5.2090090849569781E-002
   2.6815739384299667E-002  -7.8521156662134106E-003   5.2441107098720074E-002
   2.8652674189370321E-002  -8.3453375910094441E-003   5.5895375798445390E-002
   2.7223246275574597E-002  -7.9497692738084436E-003   5.5589073322088248E-002
   2.5793818361778863E-002  -7.5424716436261752E-003   5.5501758763434508E-002
   2.4364390447983109E-002  -7.1234447004627985E-003   5.5633432122483700E-002
   2.2934962534187406E-002  -6.6926884443182788E-003   5.5984093399236060E-002
   2.3852936836302970E-002  -6.9331191185574431E-003   5.9500282362967963E-002
   2.2652707110581566E-002  -6.5998674070463087E-003   5.9131775820685975E-002
   2.1452477384860200E-002  -6.2554738538536520E-003   5.9002677736849522E-002
   2.0252247659138817E-002  -5.8999384589792474E-003   5.9112988111458750E-002
   1.9052017933417435E-002  -5.5332612224230499E-003   5.9462706944513666E-002
   1.8969349569607996E-002  -5.5209006461053867E-003   6.3043166057450195E-002
   1.8018738572703433E-002  -5.2499655402843959E-003   6.2611867977943769E-002
   1.7068127575798897E-002  -4.9684760640809622E-003   6.2440398897625593E-002
   1.6117516578894354E-002  -4.6764322174956269E-003   6.2528758816495389E-002
   1.5166905581989798E-002  -4.3738340005279874E-003   6.2876947734553268E-002
   3.0694348483754269E-002  -9.0115428881086257E-003   4.8833748042965863E-002
   2.9093263748683817E-002  -8.4430944393887319E-003   4.8577271594782867E-002
   2.7492179013613338E-002  -7.8684819394522904E-003   4.8501141929365249E-002
   2.5891094278542859E-002  -7.2877053882989991E-003   4.8605359046713328E-002
   2.4290009543472407E-002  -6.7007647859291808E-003   4.8889922946826703E-002
   2.6815739384299667E-002  -7.8521156662134106E-003   5.2441107098720074E-002
   2.5397365046827700E-002  -7.3480133463492414E-003   5.2191017192311479E-002
   2.3978990709355712E-002  -6.8376937225027579E-003   5.2126001298334335E-002
   2.2560616371883762E-002  -6.3211567946744596E-003   5.2246059416788726E-002
   2.1142242034411785E-002  -5.7984025628644020E-003   5.2551191547674514E-002
   2.2934962534187406E-002  -6.6926884443182788E-003   5.5984093399236060E-002
   2.1704025823979831E-002  -6.2529322533094733E-003   5.5740443287367269E-002
   2.0473089113772221E-002  -5.8069055055532739E-003   5.5686594417596068E-002
   1.9242152403564642E-002  -5.3546082010499738E-003   5.5822546789922017E-002
   1.8011215693357056E-002  -4.8960403397994012E-003   5.6148300404345375E-002
   1.9052017933417435E-002  -5.5332612224230499E-003   5.9462706944513666E-002
   1.8013246080140183E-002  -5.1578511602698995E-003   5.9225549879950240E-002
   1.6974474226862879E-002  -4.7761172886039878E-003   5.9182921287150018E-002
   1.5935702373585610E-002  -4.3880596074255722E-003   5.9334821166113237E-002
   1.4896930520308318E-002  -3.9936781167344559E-003   5.9681249516839549E-002
   1.5166905581989798E-002  -4.3738340005279874E-003   6.2876947734553268E-002
   1.4325025815308728E-002  -4.0627700672303813E-003   6.2646336970060390E-002
   1.3483146048627673E-002  -3.7453290716545212E-003   6.2614981906996631E-002
   1.2641266281946596E-002  -3.4215110138010145E-003   6.2782882545362170E-002
   1.1799386515265547E-002  -3.0913158936696217E-003   6.3150038885156690E-002
   2.4290009543472407E-002  -6.7007647859291808E-003   4.8889922946826703E-002
   2.2476528645605565E-002  -6.1060957743874766E-003   4.8651102842049321E-002
   2.0663047747738736E-002  -5.5021339957191384E-003   4.8567824717462627E-002
   1.8849566849871914E-002  -4.8888794499239024E-003   4.8640088573066453E-002
   1.7036085952005092E-002  -4.2663321370016716E-003   4.8867894408860635E-002
   2.1142242034411785E-002  -5.7984025628644020E-003   5.2551191547674514E-002
   1.9497511212085525E-002  -5.2711554488446000E-003   5.2348351320034847E-002
   1.7852780389759251E-002  -4.7411398743879979E-003   5.2327469263285714E-002
   1.6208049567432992E-002  -4.2083558394945646E-003   5.2488545377427420E-002
   1.4563318745106718E-002  -3.6728033441641994E-003   5.2831579662459272E-002
   1.8011215693357056E-002  -4.8960403397994012E-003   5.6148300404345375E-002
   1.6561651137271316E-002  -4.4362151233015013E-003   5.5974915747153645E-002
   1.5112086581185544E-002  -3.9801457530569684E-003   5.6009905451552378E-002
   1.3662522025099809E-002  -3.5278322290653377E-003   5.6253269517541435E-002
   1.2212957469014039E-002  -3.0792745513267827E-003   5.6705007945121177E-002
   1.4896930520308318E-002  -3.9936781167344559E-003   5.9681249516839549E-002
   1.3668948421162981E-002  -3.6012747977586801E-003   5.9530796123405672E-002
   1.2440966322017646E-002  -3.2191516317258279E-003   5.9615133282262069E-002
   1.1212984222872306E-002  -2.8473086186359443E-003   5.9934260993409025E-002
   9.9850021237269711E-003  -2.4857457584892828E-003   6.0488179256845909E-002
   1.1799386515265547E-002  -3.0913158936696217E-003   6.3150038885156690E-002
   1.0819403063760530E-002  -2.7663344722155259E-003   6.3015992448790525E-002
   9.8394196122555400E-003  -2.4581575103947151E-003   6.3143152755414822E-002
   8.8594361607505431E-003  -2.1667850082066967E-003   6.3531519805029524E-002
   7.8794527092455324E-003  -1.8922169656517829E-003   6.4181093597634131E-002
   1.7036085952005092E-002  -4.2663321370016716E-003   4.8867894408860635E-002
   1.5100585101757436E-002  -3.6984594300464302E-003   4.8753246715895648E-002
   1.3165084251509709E-002  -3.2492287021520516E-003   4.8894153082349567E-002
   1.1229583401262046E-002  -2.9186399533178975E-003   4.9290613508222419E-002
   9.2940825510143266E-003  -2.7066931835449948E-003   4.9942627993514122E-002
   1.4563318745106718E-002  -3.6728033441641994E-003   5.2831579662459272E-002
   1.2882328454907055E-002  -3.1941445056195006E-003   5.2720695524394623E-002
   1.1201338164707378E-002  -2.8320414410820394E-003   5.2863278447007056E-002
   9.5203478745077078E-003  -2.5864941505525305E-003   5.3259328430296266E-002
   7.8393575843080376E-003  -2.4575026340302175E-003   5.3908845474262945E-002
   1.2212957469014039E-002  -3.0792745513267827E-003   5.6705007945121177E-002
   1.0784390740120373E-002  -2.6898295811921269E-003   5.6599973567010048E-002
   9.3558240112267231E-003  -2.4148541800121381E-003   5.6746319250833843E-002
   7.9272572823330823E-003  -2.2543483477867193E-003   5.7144044996592619E-002
   6.4986905534393791E-003  -2.2083120845159399E-003   5.7793150804286625E-002
   9.9850021237269711E-003  -2.4857457584892828E-003   6.0488179256845909E-002
   8.8067719573973573E-003  -2.1855146567648642E-003   6.0391080843741347E-002
   7.6285417910677686E-003  -1.9976669189420704E-003   6.0543275493830054E-002
   6.4503116247381677E-003  -1.9222025450210192E-003   6.0944763207111320E-002
   5.2720814584085660E-003  -1.9591215350014679E-003   6.1595543983586069E-002
   7.8794527092455324E-003  -1.8922169656517829E-003   6.4181093597634131E-002
   6.9494721067380194E-003  -1.6811997323377681E-003   6.4094017354589083E-002
   6.0194915042304925E-003  -1.5804796578722524E-003   6.4254147175995091E-002
   5.0895109017229656E-003  -1.5900567422552150E-003   6.4661483061852376E-002
   4.1595302992154526E-003  -1.7099309854868849E-003   6.5316025012160606E-002
   9.2940825510143266E-003  -2.7066931835449948E-003   4.9942627993514122E-002
   7.8711190802092934E-003  -2.8570860361321615E-003   5.0351360562547409E-002
   6.4481556094041770E-003  -3.6135161543792982E-003   5.1086255905447242E-002
   5.0251921385991299E-003  -4.9759835382868697E-003   5.2147314022214258E-002
   3.6022286677940274E-003  -6.9444881878535369E-003   5.3534534912848208E-002
   7.8393575843080376E-003  -2.4575026340302175E-003   5.3908845474262945E-002
   6.7167698577320772E-003  -2.6431764923892098E-003   5.3846442828789032E-002
   5.5941821311561585E-003  -3.3416253265018125E-003   5.4058628897906663E-002
   4.4715944045802050E-003  -4.5528491363683518E-003   5.4545403681615631E-002
   3.3490066780042793E-003  -6.2768479219883488E-003   5.5306767179915561E-002
   6.4986905534393791E-003  -2.2083120845159399E-003   5.7793150804286625E-002
   5.6249045118170818E-003  -2.4292669486463414E-003   5.7352875234212314E-002
   4.7511184701948053E-003  -3.0697344986242298E-003   5.7135614319453507E-002
   3.8773324285725184E-003  -4.1297147344499484E-003   5.7141368060010612E-002
   3.0035463869502316E-003  -5.6092076561231607E-003   5.7370136455883902E-002
   5.2720814584085660E-003  -1.9591215350014679E-003   6.1595543983586069E-002
   4.5955230424643903E-003  -2.2153574049032648E-003   6.0870657778816846E-002
   3.9189646265201886E-003  -2.7978436707468066E-003   6.0317212170088272E-002
   3.2424062105759861E-003  -3.7065803325317098E-003   5.9935207157399820E-002
   2.5658477946318113E-003  -4.9415673902579726E-003   5.9724642740751788E-002
   4.1595302992154526E-003  -1.7099309854868849E-003   6.5316025012160606E-002
   3.6286254496738640E-003  -2.0014478611605213E-003   6.4399790462603246E-002
   3.0977206001322755E-003  -2.5259528428692168E-003   6.3603422449810543E-002
   2.5668157505907008E-003  -3.2834459306131519E-003   6.2926920973782996E-002
   2.0359109010491261E-003  -4.2739271243925625E-003   6.2370286034519884E-002
   3.6022286677940274E-003  -6.9444881878535369E-003   5.3534534912848208E-002
   4.1540865281902706E-003  -9.5343108946998045E-003   5.1861179476321295E-002
   4.7059443885864860E-003  -1.2760732450443013E-002   5.0042535399922983E-002
   5.2578022489827431E-003  -1.6623752855083759E-002   4.8078602683654437E-002
   5.8096601093790001E-003  -2.1123372108621918E-002   4.5969381327515269E-002
   3.3490066780042793E-003  -6.2768479219883488E-003   5.5306767179915561E-002
   3.7730375222156387E-003  -8.5450098585481138E-003   5.2952559978299396E-002
   4.1970683664270120E-003  -1.1388723121232791E-002   5.0487987384183364E-002
   4.6210992106383783E-003  -1.4807987710042200E-002   4.7913049397568602E-002
   5.0451300548498001E-003  -1.8802803624976772E-002   4.5227746018455361E-002
   3.0035463869502316E-003  -5.6092076561231607E-003   5.7370136455883902E-002
   3.3346734623484336E-003  -7.5557088223965896E-003   5.4396125011949958E-002
   3.6658005377466982E-003  -1.0016713792022153E-002   5.1346671422888845E-002
   3.9969276131450009E-003  -1.2992222565000371E-002   4.8221775688700522E-002
   4.3280546885431370E-003  -1.6482235141331403E-002   4.5021437809384501E-002
   2.5658477946318113E-003  -4.9415673902579726E-003   5.9724642740751788E-002
   2.8389943485887213E-003  -6.5664077862448711E-003   5.6191874577273329E-002
   3.1121409025455776E-003  -8.6447044628115005E-003   5.2618587516039018E-002
   3.3852874565024468E-003  -1.1176457419958898E-002   4.9004781557049598E-002
   3.6584340104593993E-003  -1.4161666657686145E-002   4.5350456700304576E-002
   2.0359109010491261E-003  -4.2739271243925625E-003   6.2370286034519884E-002
   2.2860001809363872E-003  -5.5771067500932636E-003   5.8339808674268800E-002
   2.5360894608236484E-003  -7.2726951336014034E-003   5.4303735663634334E-002
   2.7861787407109165E-003  -9.3606922749170096E-003   5.0262067002615818E-002
   3.0362680205981984E-003  -1.1841098174040887E-002   4.6214802691213919E-002
   2.5955482586146245E-002  -7.3444585967381570E-003   6.7040821424787400E-002
   2.4838054580443830E-002  -7.1755395402409161E-003   6.5847288089005696E-002
   2.3720626574741374E-002  -6.9851798860214587E-003   6.5012154685978818E-002
   2.2603198569038911E-002  -6.7733796340796529E-003   6.4535421215706518E-002
   2.1485770563336462E-002  -6.5401387844156722E-003   6.4417087678188767E-002
   1.8847611444777562E-002  -5.5083439117959987E-003   6.5599298862604016E-002
   1.8068822639207671E-002  -5.3816546356566519E-003   6.4817432315953133E-002
   1.7290033833637766E-002  -5.2388849065662935E-003   6.4354444236812691E-002
   1.6511245028067868E-002  -5.0800347245245972E-003   6.4210334625182650E-002
   1.5732456222497970E-002  -4.9051040895319309E-003   6.4385103481063105E-002
   1.2152407299825127E-002  -3.6722292268537293E-003   6.4118226592448119E-002
   1.1672736229143513E-002  -3.5877697310724155E-003   6.3742666690157018E-002
   1.1193065158461888E-002  -3.4925899271111144E-003   6.3646463790131905E-002
   1.0713394087780272E-002  -3.3866898149696491E-003   6.3829617892373042E-002
   1.0233723017098652E-002  -3.2700693946482173E-003   6.4292128996880402E-002
   5.8698701512889060E-003  -1.8361145419115432E-003   6.2597604614319791E-002
   5.6497953502513271E-003  -1.7938848264881374E-003   6.2622991211617185E-002
   5.4297205492137282E-003  -1.7462949476559145E-003   6.2888213345936514E-002
   5.2096457481761380E-003  -1.6933449054147304E-003   6.3393271017277736E-002
   4.9895709471385391E-003  -1.6350346997645177E-003   6.4138164225640892E-002
  -8.3105050618925702E-013   1.4303069839627369E-010   6.1037432928219060E-002
   2.5311072682221436E-012   7.8096057398724383E-011   6.1458405880333966E-002
   5.8932858593152559E-012   3.1799202160343043E-011   6.2079692904226547E-002
   9.2554557767909884E-012   4.1403477868406924E-012   6.2901293999896801E-002
   1.2617622224819769E-011  -4.8808179720083444E-012   6.3923209167344563E-002
   2.1485770563336462E-002  -6.5401387844156722E-003   6.4417087678188767E-002
   2.0856665314904349E-002  -6.2934655393773464E-003   6.3715447516110635E-002
   2.0227560066472229E-002  -6.0413681013129356E-003   6.3252580525294866E-002
   1.9598454818040113E-002  -5.7838464702222279E-003   6.3028486705741307E-002
   1.8969349569607996E-002  -5.5209006461053867E-003   6.3043166057450195E-002
   1.5732456222497970E-002  -4.9051040895319309E-003   6.4385103481063105E-002
   1.5321749930391336E-002  -4.7200991556644867E-003   6.3922416408399380E-002
   1.4911043638284716E-002  -4.5310260769991645E-003   6.3657754077124415E-002
   1.4500337346178081E-002  -4.3378848535354751E-003   6.3591116487237948E-002
   1.4089631054071461E-002  -4.1406754852738037E-003   6.3722503638740380E-002
   1.0233723017098652E-002  -3.2700693946482173E-003   6.4292128996880402E-002
   1.0000667251443836E-002  -3.1467327719518073E-003   6.4067038965403195E-002
   9.7676114857890278E-003  -3.0206840526852893E-003   6.3999225245440883E-002
   9.5345557201342128E-003  -2.8919232368487240E-003   6.4088687836993619E-002
   9.3014999544794030E-003  -2.7604503244422485E-003   6.4335426740061319E-002
   4.9895709471385391E-003  -1.6350346997645177E-003   6.4138164225640892E-002
   4.8934172780618554E-003  -1.5733663882390378E-003   6.4149315187122025E-002
   4.7972636089851708E-003  -1.5103420283714940E-003   6.4276994030244394E-002
   4.7011099399084898E-003  -1.4459616201620831E-003   6.4521200755008112E-002
   4.6049562708318018E-003  -1.3802251636105684E-003   6.4881935361413054E-002
   1.2617622224819769E-011  -4.8808179720083444E-012   6.3923209167344563E-002
   1.0245387871421485E-011  -4.5262127379430694E-012   6.4169245073555981E-002
   7.8731535180232015E-012  -4.0576569881878299E-012   6.4491060431534908E-002
   5.5009208993483938E-012  -3.4752513367042326E-012   6.4888655241281470E-002
   3.1286848112266341E-012  -2.7791102752416919E-012   6.5362029502795682E-002
   1.8969349569607996E-002  -5.5209006461053867E-003   6.3043166057450195E-002
   1.8018738572703433E-002  -5.2499655402843959E-003   6.2611867977943769E-002
   1.7068127575798897E-002  -4.9684760640809622E-003   6.2440398897625593E-002
   1.6117516578894354E-002  -4.6764322174956269E-003   6.2528758816495389E-002
   1.5166905581989798E-002  -4.3738340005279874E-003   6.2876947734553268E-002
   1.4089631054071461E-002  -4.1406754852738037E-003   6.3722503638740380E-002
   1.3393304993842371E-002  -3.9374741557395010E-003   6.3386483986730663E-002
   1.2696978933613288E-002  -3.7263570484579317E-003   6.3299205208883547E-002
   1.2000652873384206E-002  -3.5073241634294185E-003   6.3460667305199434E-002
   1.1304326813155116E-002  -3.2803755006537427E-003   6.3870870275678171E-002
   9.3014999544794030E-003  -2.7604503244422485E-003   6.4335426740061319E-002
   8.8483707059005545E-003  -2.6249827711945783E-003   6.4092046922912857E-002
   8.3952414573217095E-003  -2.4842380328349012E-003   6.4086319854902207E-002
   7.9421122087428592E-003  -2.3382161093632101E-003   6.4318245536029023E-002
   7.4889829601640229E-003  -2.1869170007794703E-003   6.4787823966293581E-002
   4.6049562708318018E-003  -1.3802251636105684E-003   6.4881935361413054E-002
   4.3839357088779774E-003  -1.3124913866497528E-003   6.4728556786491143E-002
   4.1629151469241531E-003  -1.2421190172118707E-003   6.4801742835681575E-002
   3.9418945849703253E-003  -1.1691080552968906E-003   6.5101493508984490E-002
   3.7208740230164974E-003  -1.0934585009051007E-003   6.5627808806399776E-002
   3.1286848112266341E-012  -2.7791102752416919E-012   6.5362029502795682E-002
   2.7746555053553834E-012  -2.1048163212356030E-012   6.5296013577465062E-002
   2.4206227300371808E-012  -1.5887846593898303E-012   6.5445474151221567E-002
   2.0665934241659301E-012  -1.2307238561604095E-012   6.5810411224065335E-002
   1.7125606488477274E-012  -1.0309531006669204E-012   6.6390824795996228E-002
   1.5166905581989798E-002  -4.3738340005279874E-003   6.2876947734553268E-002
   1.4325025815308728E-002  -4.0627700672303813E-003   6.2646336970060390E-002
   1.3483146048627673E-002  -3.7453290716545212E-003   6.2614981906996631E-002
   1.2641266281946596E-002  -3.4215110138010145E-003   6.2782882545362170E-002
   1.1799386515265547E-002  -3.0913158936696217E-003   6.3150038885156690E-002
   1.1304326813155116E-002  -3.2803755006537427E-003   6.3870870275678171E-002
   1.0664506307948768E-002  -3.0470775506486747E-003   6.3695877916569082E-002
   1.0024685802742420E-002  -2.8089968039322899E-003   6.3725748378980290E-002
   9.3848652975360748E-003  -2.5661332605043871E-003   6.3960481662911642E-002
   8.7450447923297092E-003  -2.3184869203652925E-003   6.4400077768363206E-002
   7.4889829601640229E-003  -2.1869170007794703E-003   6.4787823966293581E-002
   7.0568288365234870E-003  -2.0313850340671624E-003   6.4666855747001761E-002
   6.6246747128829546E-003  -1.8726645362099545E-003   6.4756357469321485E-002
   6.1925205892424239E-003  -1.7107555072079280E-003   6.5056329133252530E-002
   5.7603664656018863E-003  -1.5456579470608522E-003   6.5566770738794772E-002
   3.7208740230164974E-003  -1.0934585009051007E-003   6.5627808806399776E-002
   3.5019934010328858E-003  -1.0156925174857195E-003   6.5559270461358565E-002
   3.2831127790492803E-003  -9.3633226848772663E-004   6.5706809178020173E-002
   3.0642321570656700E-003  -8.5537775391127373E-004   6.6070424956384086E-002
   2.8453515350820632E-003  -7.7282897375668957E-004   6.6650117796450387E-002
   1.7125606488477274E-012  -1.0309531006669204E-012   6.6390824795996228E-002
   1.4769747924692211E-012  -9.0405460895226497E-013   6.6373122059639522E-002
   1.2413889360907149E-012  -7.6533224202535166E-013   6.6577103505076285E-002
   1.0058048144356846E-012  -6.1482763324960388E-013   6.7002769132306766E-002
   7.7021722333370235E-013  -4.5219383792982626E-013   6.7650118941330550E-002
   1.1799386515265547E-002  -3.0913158936696217E-003   6.3150038885156690E-002
   1.0819403063760530E-002  -2.7663344722155259E-003   6.3015992448790525E-002
   9.8394196122555400E-003  -2.4581575103947151E-003   6.3143152755414822E-002
   8.8594361607505431E-003  -2.1667850082066967E-003   6.3531519805029524E-002
   7.8794527092455324E-003  -1.8922169656517829E-003   6.4181093597634131E-002
   8.7450447923297092E-003  -2.3184869203652925E-003   6.4400077768363206E-002
   8.0222153637781943E-003  -2.0747508542380833E-003   6.4316938105984045E-002
   7.2993859352266516E-003  -1.8436181328471690E-003   6.4486899746521276E-002
   6.5765565066751089E-003  -1.6250887561921334E-003   6.4909962689975037E-002
   5.8537270781235801E-003  -1.4191627242731153E-003   6.5586126936345412E-002
   5.7603664656018863E-003  -1.5456579470608522E-003   6.5566770738794772E-002
   5.2865856199301592E-003  -1.3831672362609737E-003   6.5538738965299104E-002
   4.8128047742584217E-003  -1.2290787552998311E-003   6.5755703054646411E-002
   4.3390239285866893E-003  -1.0833925041775112E-003   6.6217663006836569E-002
   3.8652430829149570E-003  -9.4610848289417016E-004   6.6924618821869813E-002
   2.8453515350820632E-003  -7.7282897375668957E-004   6.6650117796450387E-002
   2.6125138322164523E-003  -6.9158361828347559E-004   6.6681395026735618E-002
   2.3796761293508458E-003  -6.1453937775238915E-004   6.6949562679790131E-002
   2.1468384264852441E-003  -5.4169625216314056E-004   6.7454620755613856E-002
   1.9140007236196424E-003  -4.7305424151536379E-004   6.8196569254206973E-002
   7.7021722333370235E-013  -4.5219383792982626E-013   6.7650118941330550E-002
   6.3707372710553045E-013  -3.0631053249408069E-013   6.7744906290293616E-002
   5.0394063921821441E-013  -2.0505819264826641E-013   6.8068478621952422E-002
   3.7080408188394642E-013  -1.4846457396799906E-013   6.8620835936306801E-002
   2.3766405510272648E-013  -1.3655743202889425E-013   6.9401978233356809E-002
   7.8794527092455324E-003  -1.8922169656517829E-003   6.4181093597634131E-002
   6.9494721067380194E-003  -1.6811997323377681E-003   6.4094017354589083E-002
   6.0194915042304925E-003  -1.5804796578722524E-003   6.4254147175995091E-002
   5.0895109017229656E-003  -1.5900567422552150E-003   6.4661483061852376E-002
   4.1595302992154526E-003  -1.7099309854868849E-003   6.5316025012160606E-002
   5.8537270781235801E-003  -1.4191627242731153E-003   6.5586126936345412E-002
   5.1672748116101883E-003  -1.2608997992895610E-003   6.5436104586764854E-002
   4.4808225450968103E-003  -1.1853597434418328E-003   6.5525932844721441E-002
   3.7943702785834185E-003  -1.1925425567293826E-003   6.5855611710215048E-002
   3.1079180120700406E-003  -1.2824482391523562E-003   6.6425141183246161E-002
   3.8652430829149570E-003  -9.4610848289417016E-004   6.6924618821869813E-002
   3.4149636954817764E-003  -8.4059986624127059E-004   6.6739224655466528E-002
   2.9646843080485992E-003  -7.9023982901117729E-004   6.6786325639686353E-002
   2.5144049206154220E-003  -7.9502837120310269E-004   6.7065921774529552E-002
   2.0641255331822414E-003  -8.5496549281793843E-004   6.7578013059996112E-002
   1.9140007236196424E-003  -4.7305424151536379E-004   6.8196569254206973E-002
   1.6925387583527490E-003  -4.2029993319335490E-004   6.8003377560694050E-002
   1.4710767930858548E-003  -3.9511991458063972E-004   6.8035325560890605E-002
   1.2496148278189744E-003  -3.9751418567704651E-004   6.8292413254796291E-002
   1.0281528625520810E-003  -4.2748274648352069E-004   6.8774640642411330E-002
   2.3766405510272648E-013  -1.3655743202889425E-013   6.9401978233356809E-002
   2.2312707237404084E-013  -1.4477308241112041E-013   6.9228563302447532E-002
   2.0859355909230715E-013  -1.5001888620247428E-013   6.9272932608333504E-002
   1.9405657636362150E-013  -1.5113604812100334E-013   6.9535086151014863E-002
   1.7952306308188781E-013  -1.4899192990469601E-013   7.0015023930491638E-002
   4.1595302992154526E-003  -1.7099309854868849E-003   6.5316025012160606E-002
   3.6286254496738640E-003  -2.0014478611605213E-003   6.4399790462603246E-002
   3.0977206001322755E-003  -2.5259528428692168E-003   6.3603422449810543E-002
   2.5668157505907008E-003  -3.2834459306131519E-003   6.2926920973782996E-002
   2.0359109010491261E-003  -4.2739271243925625E-003   6.2370286034519884E-002
   3.1079180120700406E-003  -1.2824482391523562E-003   6.6425141183246161E-002
   2.7000946181967578E-003  -1.5010858959070283E-003   6.5316076768068165E-002
   2.2922712243234541E-003  -1.8944646321891745E-003   6.4333308727462069E-002
   1.8844478304501575E-003  -2.4625844479987807E-003   6.3476837061427455E-002
   1.4766244365768816E-003  -3.2054453433362218E-003   6.2746661769965240E-002
   2.0641255331822414E-003  -8.5496549281793843E-004   6.7578013059996112E-002
   1.7858134327841460E-003  -1.0007239306536464E-003   6.6334365805705675E-002
   1.5075013323860471E-003  -1.2629764215092154E-003   6.5223444763793964E-002
   1.2291892319879448E-003  -1.6417229653847357E-003   6.4245249934260951E-002
   9.5087713158983900E-004  -2.1369635622799921E-003   6.3399781317106219E-002
   1.0281528625520810E-003  -4.2748274648352069E-004   6.8774640642411330E-002
   8.8578189343607380E-004  -5.0036196540043099E-004   6.7454657575516067E-002
   7.4341092432007264E-004  -6.3148821082915918E-004   6.6273830558806257E-002
   6.0103995520406888E-004  -8.2086148277074958E-004   6.5232159592282096E-002
   4.5866898608807813E-004  -1.0684817812238179E-003   6.4329644675943237E-002
   1.7952306308188781E-013  -1.4899192990469601E-013   7.0015023930491638E-002
   1.5251688800788088E-013  -1.4671597270421444E-013   6.8676952077499243E-002
   1.2552112127472981E-013  -1.4929724123646793E-013   6.7484466112499031E-002
   9.8520150371150805E-014  -1.5634021854893376E-013   6.6437566035491141E-002
   7.1519179467571803E-014  -1.6753265441593612E-013   6.5536251846476046E-002
   2.0359109010491261E-003  -4.2739271243925625E-003   6.2370286034519884E-002
   2.2860001809363872E-003  -5.5771067500932636E-003   5.8339808674268800E-002
   2.5360894608236484E-003  -7.2726951336014034E-003   5.4303735663634334E-002
   2.7861787407109165E-003  -9.3606922749170096E-003   5.0262067002615818E-002
   3.0362680205981984E-003  -1.1841098174040887E-002   4.6214802691213919E-002
   1.4766244365768816E-003  -3.2054453433362218E-003   6.2746661769965240E-002
   1.7068863986834798E-003  -4.1828300626164938E-003   5.8392134238719973E-002
   1.9371483607900988E-003  -5.4545213502541212E-003   5.4003547722296763E-002
   2.1674103228967317E-003  -7.0205192062500130E-003   4.9580902220696527E-002
   2.3976722850033161E-003  -8.8808236306039401E-003   4.5124197733918070E-002
   9.5087713158983900E-004  -2.1369635622799921E-003   6.3399781317106219E-002
   1.1328484411220058E-003  -2.7885533751394465E-003   5.8819305804316185E-002
   1.3148197506541587E-003  -3.6363475669070611E-003   5.4176307971554816E-002
   1.4967910601862994E-003  -4.6803461375828498E-003   4.9470787818822054E-002
   1.6787623697184784E-003  -5.9205490871667710E-003   4.4702745346117845E-002
   4.5866898608807813E-004  -1.0684817812238179E-003   6.4329644675943237E-002
   5.6388630825193395E-004  -1.3942766876625379E-003   5.9621323371058223E-002
   6.6910363041579497E-004  -1.8181737835597789E-003   5.4822016411407659E-002
   7.7432095257966684E-004  -2.3401730689155478E-003   4.9931723796992240E-002
   8.7953827474349794E-004  -2.9602745437296019E-003   4.4950445527811383E-002
   7.1519179467571803E-014  -1.6753265441593612E-013   6.5536251846476046E-002
   7.3281658519164239E-014  -1.8585133432225120E-013   6.0798186938945786E-002
   7.5037198676852768E-014  -2.1280199824502688E-013   5.5940673041856182E-002
   7.6825698580584856E-014  -2.4843321844159050E-013   5.0963710155207592E-002
   7.8562156780037640E-014  -2.9265478929119126E-013   4.5867298279000046E-002
  -8.3105050618925702E-013   1.4303069839627369E-010   6.1037432928219060E-002
   2.5311072682221436E-012   7.8096057398724383E-011   6.1458405880333966E-002
   5.8932858593152559E-012   3.1799202160343043E-011   6.2079692904226547E-002
   9.2554557767909884E-012   4.1403477868406924E-012   6.2901293999896801E-002
   1.2617622224819769E-011  -4.8808179720083444E-012   6.3923209167344563E-002
  -5.8698701535120218E-003   1.8361147347887852E-003   6.2597604515935990E-002
  -5.6497953461634547E-003   1.7938849327241713E-003   6.2622991142731538E-002
  -5.4297205388148754E-003   1.7462949920420967E-003   6.2888213305722390E-002
  -5.2096457314662987E-003   1.6933449127424852E-003   6.3393271004908408E-002
  -4.9895709241177220E-003   1.6350346948254546E-003   6.4138164240289453E-002
  -1.2152407303731298E-002   3.6722293265469275E-003   6.4118226445150445E-002
  -1.1672736227978748E-002   3.5877697873522574E-003   6.3742666589371472E-002
  -1.1193065152226195E-002   3.4925899522848941E-003   6.3646463734205266E-002
  -1.0713394076473646E-002   3.3866898213446538E-003   6.3829617879651773E-002
  -1.0233723000721095E-002   3.2700693945318660E-003   6.4292129025711062E-002
  -1.8847611451488819E-002   5.5083439183050420E-003   6.5599298715862647E-002
  -1.8068822642914747E-002   5.3816546419804268E-003   6.4817432220253685E-002
  -1.7290033834340662E-002   5.2388849125276846E-003   6.4354444189675120E-002
  -1.6511245025766595E-002   5.0800347299470010E-003   6.4210334624126827E-002
  -1.5732456217192513E-002   4.9051040942381524E-003   6.4385103523608864E-002
  -2.5955482596784631E-002   7.3444585100631565E-003   6.7040821328072320E-002
  -2.4838054590971478E-002   7.1755394966085129E-003   6.5847288035378260E-002
  -2.3720626585158302E-002   6.9851798727705583E-003   6.5012154672132116E-002
  -2.2603198579345118E-002   6.7733796385490500E-003   6.4535421238333779E-002
  -2.1485770573531959E-002   6.5401387939446054E-003   6.4417087733983358E-002
   1.2617622224819769E-011  -4.8808179720083444E-012   6.3923209167344563E-002
   1.0245387871421485E-011  -4.5262127379430694E-012   6.4169245073555981E-002
   7.8731535180232015E-012  -4.0576569881878299E-012   6.4491060431534908E-002
   5.5009208993483938E-012  -3.4752513367042326E-012   6.4888655241281470E-002
   3.1286848112266341E-012  -2.7791102752416919E-012   6.5362029502795682E-002
  -4.9895709241177220E-003   1.6350346948254546E-003   6.4138164240289453E-002
  -4.8934172593406815E-003   1.5733663834950756E-003   6.4149315197966891E-002
  -4.7972635945636496E-003   1.5103420239554605E-003   6.4276994038175050E-002
  -4.7011099297866116E-003   1.4459616162066403E-003   6.4521200760914249E-002
  -4.6049562650095771E-003   1.3802251602484938E-003   6.4881935366184307E-002
  -1.0233723000721095E-002   3.2700693945318660E-003   6.4292129025711062E-002
  -1.0000667238031466E-002   3.1467327715164195E-003   6.4067038986531169E-002
  -9.7676114753418412E-003   3.0206840519686404E-003   6.3999225260645498E-002
  -9.5345557126522169E-003   2.8919232358885893E-003   6.4088687848054091E-002
  -9.3014999499625942E-003   2.7604503232761535E-003   6.4335426748757057E-002
  -1.5732456217192513E-002   4.9051040942381524E-003   6.4385103523608864E-002
  -1.5321749925826966E-002   4.7200991595377079E-003   6.3922416439248730E-002
  -1.4911043634461432E-002   4.5310260799819001E-003   6.3657754098946223E-002
  -1.4500337343095884E-002   4.3378848555705651E-003   6.3591116502701370E-002
  -1.4089631051730351E-002   4.1406754863036743E-003   6.3722503650513976E-002
  -2.1485770573531959E-002   6.5401387939446054E-003   6.4417087733983358E-002
  -2.0856665322727182E-002   6.2934655475590240E-003   6.3715447556119936E-002
  -2.0227560071922411E-002   6.0413681079947990E-003   6.3252580553077392E-002
  -1.9598454821117633E-002   5.7838464752525617E-003   6.3028486724855670E-002
  -1.8969349570312863E-002   5.5209006493313617E-003   6.3043166071454881E-002
   3.1286848112266341E-012  -2.7791102752416919E-012   6.5362029502795682E-002
   2.7746555053553834E-012  -2.1048163212356030E-012   6.5296013577465062E-002
   2.4206227300371808E-012  -1.5887846593898303E-012   6.5445474151221567E-002
   2.0665934241659301E-012  -1.2307238561604095E-012   6.5810411224065335E-002
   1.7125606488477274E-012  -1.0309531006669204E-012   6.6390824795996228E-002
  -4.6049562650095771E-003   1.3802251602484938E-003   6.4881935366184307E-002
  -4.3839357036902817E-003   1.3124913838922780E-003   6.4728556790252301E-002
  -4.1629151423709862E-003   1.2421190149482925E-003   6.4801742838579812E-002
  -3.9418945810516977E-003   1.1691080534171581E-003   6.5101493511166800E-002
  -3.7208740197324022E-003   1.0934584992987051E-003   6.5627808808013111E-002
  -9.3014999499625942E-003   2.7604503232761535E-003   6.4335426748757057E-002
  -8.8483707017976976E-003   2.6249827698892891E-003   6.4092046929794380E-002
  -8.3952414536327992E-003   2.4842380314855361E-003   6.4086319860263460E-002
  -7.9421122054679043E-003   2.3382161080652067E-003   6.4318245540164340E-002
  -7.4889829573030111E-003   2.1869169996281412E-003   6.4787823969496977E-002
  -1.4089631051730351E-002   4.1406754863036743E-003   6.3722503650513976E-002
  -1.3393304991547570E-002   3.9374741558862031E-003   6.3386483996091300E-002
  -1.2696978931364802E-002   3.7263570480227520E-003   6.3299205216272719E-002
  -1.2000652871182040E-002   3.5073241627131720E-003   6.3460667311058025E-002
  -1.1304326810999268E-002   3.2803754999575774E-003   6.3870870280447523E-002
  -1.8969349570312863E-002   5.5209006493313617E-003   6.3043166071454881E-002
  -1.8018738572939935E-002   5.2499655418834501E-003   6.2611867989142977E-002
  -1.7068127575567006E-002   4.9684760645598985E-003   6.2440398906607325E-002
  -1.6117516578194085E-002   4.6764322173611199E-003   6.2528758823847966E-002
  -1.5166905580821156E-002   4.3738340002871245E-003   6.2876947740864830E-002
   1.7125606488477274E-012  -1.0309531006669204E-012   6.6390824795996228E-002
   1.4769747924692211E-012  -9.0405460895226497E-013   6.6373122059639522E-002
   1.2413889360907149E-012  -7.6533224202535166E-013   6.6577103505076285E-002
   1.0058048144356846E-012  -6.1482763324960388E-013   6.7002769132306766E-002
   7.7021722333370235E-013  -4.5219383792982626E-013   6.7650118941330550E-002
  -3.7208740197324022E-003   1.0934584992987051E-003   6.5627808808013111E-002
  -3.5019933982013175E-003   1.0156925161020347E-003   6.5559270462725555E-002
  -3.2831127766702363E-003   9.3633226733717823E-004   6.5706809179177733E-002
  -3.0642321551391499E-003   8.5537775300377136E-004   6.6070424957369617E-002
  -2.8453515336080704E-003   7.7282897310182452E-004   6.6650117797301234E-002
  -7.4889829573030111E-003   2.1869169996281412E-003   6.4787823969496977E-002
  -7.0568288340590625E-003   2.0313850331082350E-003   6.4666855749698229E-002
  -6.6246747108151096E-003   1.8726645354396887E-003   6.4756357471585271E-002
  -6.1925205875711618E-003   1.7107555066221483E-003   6.5056329135158519E-002
  -5.7603664643272080E-003   1.5456579466561204E-003   6.5566770740417585E-002
  -1.1304326810999268E-002   3.2803754999575774E-003   6.3870870280447523E-002
  -1.0664506306096253E-002   3.0470775501144909E-003   6.3695877920557156E-002
  -1.0024685801193244E-002   2.8089968035420881E-003   6.3725748382298997E-002
  -9.3848652962902363E-003   2.5661332602407473E-003   6.3960481665672961E-002
  -8.7450447913872201E-003   2.3184869202102221E-003   6.4400077770679215E-002
  -1.5166905580821156E-002   4.3738340002871245E-003   6.2876947740864830E-002
  -1.4325025814312897E-002   4.0627700671206912E-003   6.2646336975302808E-002
  -1.3483146047804630E-002   3.7453290716446541E-003   6.2614981911319034E-002
  -1.2641266281296373E-002   3.4215110138590549E-003   6.2782882548913704E-002
  -1.1799386514788110E-002   3.0913158937645457E-003   6.3150038888086679E-002
   7.7021722333370235E-013  -4.5219383792982626E-013   6.7650118941330550E-002
   6.3707372710553045E-013  -3.0631053249408069E-013   6.7744906290293616E-002
   5.0394063921821441E-013  -2.0505819264826641E-013   6.8068478621952422E-002
   3.7080408188394642E-013  -1.4846457396799906E-013   6.8620835936306801E-002
   2.3766405510272648E-013  -1.3655743202889425E-013   6.9401978233356809E-002
  -2.8453515336080704E-003   7.7282897310182452E-004   6.6650117797301234E-002
  -2.6125138309952070E-003   6.9158361784976696E-004   6.6681395027385570E-002
  -2.3796761283823471E-003   6.1453937746538956E-004   6.6949562680266195E-002
  -2.1468384257694872E-003   5.4169625194919885E-004   6.7454620755943107E-002
  -1.9140007231566239E-003   4.7305424130072993E-004   6.8196569254416362E-002
  -5.7603664643272080E-003   1.5456579466561204E-003   6.5566770740417585E-002
  -5.2865856188676289E-003   1.3831672360057889E-003   6.5538738966535476E-002
  -4.8128047734080403E-003   1.2290787551359483E-003   6.5755703055550396E-002
  -4.3390239279484629E-003   1.0833925040466957E-003   6.6217663007462638E-002
  -3.8652430824888725E-003   9.4610848273790626E-004   6.6924618822271548E-002
  -8.7450447913872201E-003   2.3184869202102221E-003   6.4400077770679215E-002
  -8.0222153629801850E-003   2.0747508541617832E-003   6.4316938107743554E-002
  -7.2993859345731500E-003   1.8436181328063406E-003   6.4486899747805623E-002
  -6.5765565061661029E-003   1.6250887561442204E-003   6.4909962690865547E-002
  -5.8537270777590782E-003   1.4191627241751936E-003   6.5586126936923422E-002
  -1.1799386514788110E-002   3.0913158937645457E-003   6.3150038888086679E-002
  -1.0819403063332879E-002   2.7663344723179439E-003   6.3015992451009750E-002
  -9.8394196118776582E-003   2.4581575104768716E-003   6.3143152757031584E-002
  -8.8594361604224462E-003   2.1667850082420573E-003   6.3531519806151682E-002
  -7.8794527089672134E-003   1.8922169656123700E-003   6.4181093598370764E-002
   2.3766405510272648E-013  -1.3655743202889425E-013   6.9401978233356809E-002
   2.2312707237404084E-013  -1.4477308241112041E-013   6.9228563302447532E-002
   2.0859355909230715E-013  -1.5001888620247428E-013   6.9272932608333504E-002
   1.9405657636362150E-013  -1.5113604812100334E-013   6.9535086151014863E-002
   1.7952306308188781E-013  -1.4899192990469601E-013   7.0015023930491638E-002
  -1.9140007231566239E-003   4.7305424130072993E-004   6.8196569254416362E-002
  -1.6925387579178504E-003   4.2029993294651069E-004   6.8003377560889144E-002
  -1.4710767926790769E-003   3.9511991431295801E-004   6.8035325561073057E-002
  -1.2496148274402964E-003   3.9751418540018291E-004   6.8292413254968154E-002
  -1.0281528622015298E-003   4.2748274620785232E-004   6.8774640642574603E-002
  -3.8652430824888725E-003   9.4610848273790626E-004   6.6924618822271548E-002
  -3.4149636950809494E-003   8.4059986603834957E-004   6.6739224655843560E-002
  -2.9646843076730203E-003   7.9023982877617083E-004   6.6786325640042485E-002
  -2.5144049202650938E-003   7.9502837095172738E-004   6.7065921774868670E-002
  -2.0641255328571542E-003   8.5496549256469656E-004   6.7578013060321657E-002
  -5.8537270777590782E-003   1.4191627241751936E-003   6.5586126936923422E-002
  -5.1672748112661440E-003   1.2608997991297444E-003   6.5436104587311153E-002
  -4.4808225447732376E-003   1.1853597432393767E-003   6.5525932845241927E-002
  -3.7943702782803172E-003   1.1925425565029926E-003   6.5855611710715578E-002
  -3.1079180117873969E-003   1.2824482389214853E-003   6.6425141183732161E-002
  -7.8794527089672134E-003   1.8922169656123700E-003   6.4181093598370764E-002
  -6.9494721064734741E-003   1.6811997322215833E-003   6.4094017355291411E-002
  -6.0194915039797278E-003   1.5804796577024716E-003   6.4254147176671161E-002
  -5.0895109014859868E-003   1.5900567420547296E-003   6.4661483062509517E-002
  -4.1595302989922422E-003   1.7099309852782740E-003   6.5316025012806755E-002
   1.7952306308188781E-013  -1.4899192990469601E-013   7.0015023930491638E-002
   1.5251688800788088E-013  -1.4671597270421444E-013   6.8676952077499243E-002
   1.2552112127472981E-013  -1.4929724123646793E-013   6.7484466112499031E-002
   9.8520150371150805E-014  -1.5634021854893376E-013   6.6437566035491141E-002
   7.1519179467571803E-014  -1.6753265441593612E-013   6.5536251846476046E-002
  -1.0281528622015298E-003   4.2748274620785232E-004   6.8774640642574603E-002
  -8.8578189313787831E-004   5.0036196512764919E-004   6.7454657575655053E-002
  -7.4341092407423023E-004   6.3148821055064586E-004   6.6273830558924246E-002
  -6.0103995501058737E-004   8.2086148247693946E-004   6.5232159592382447E-002
  -4.5866898594693062E-004   1.0684817809061276E-003   6.4329644676029307E-002
  -2.0641255328571542E-003   8.5496549256469656E-004   6.7578013060321657E-002
  -1.7858134325064810E-003   1.0007239304020976E-003   6.6334365805982481E-002
  -1.5075013321557990E-003   1.2629764212503530E-003   6.5223444764028929E-002
  -1.2291892318051288E-003   1.6417229651095495E-003   6.4245249934460347E-002
  -9.5087713145444383E-004   2.1369635619796212E-003   6.3399781317276999E-002
  -3.1079180117873969E-003   1.2824482389214853E-003   6.6425141183732161E-002
  -2.7000946179533188E-003   1.5010858956766709E-003   6.5316076768481654E-002
  -2.2922712241191996E-003   1.8944646319501782E-003   6.4333308727812580E-002
  -1.8844478302851150E-003   2.4625844477424944E-003   6.3476837061725286E-002
  -1.4766244364510022E-003   3.2054453430529761E-003   6.2746661770219231E-002
  -4.1595302989922422E-003   1.7099309852782740E-003   6.5316025012806755E-002
  -3.6286254494783329E-003   2.0014478609510222E-003   6.4399790463152140E-002
  -3.0977205999644340E-003   2.5259528426500588E-003   6.3603422450275560E-002
  -2.5668157504505299E-003   3.2834459303754532E-003   6.2926920974176959E-002
  -2.0359109009366258E-003   4.2739271241268861E-003   6.2370286034856393E-002
   7.1519179467571803E-014  -1.6753265441593612E-013   6.5536251846476046E-002
   7.3281658519164239E-014  -1.8585133432225120E-013   6.0798186938945786E-002
   7.5037198676852768E-014  -2.1280199824502688E-013   5.5940673041856182E-002
   7.6825698580584856E-014  -2.4843321844159050E-013   5.0963710155207592E-002
   7.8562156780037640E-014  -2.9265478929119126E-013   4.5867298279000046E-002
  -4.5866898594693062E-004   1.0684817809061276E-003   6.4329644676029307E-002
  -5.6388630810720597E-004   1.3942766873080714E-003   5.9621323371123691E-002
  -6.6910363026748132E-004   1.8181737831526323E-003   5.4822016411452901E-002
  -7.7432095242775320E-004   2.3401730684399213E-003   4.9931723797016769E-002
  -8.7953827458803202E-004   2.9602745431691613E-003   4.4950445527816019E-002
  -9.5087713145444383E-004   2.1369635619796212E-003   6.3399781317276999E-002
  -1.1328484409827890E-003   2.7885533748018831E-003   5.8819305804447164E-002
  -1.3148197505111273E-003   3.6363475665179418E-003   5.4176307971646645E-002
  -1.4967910600394920E-003   4.6803461371275508E-003   4.9470787818874616E-002
  -1.6787623695678246E-003   5.9205490866309773E-003   4.4702745346131723E-002
  -1.4766244364510022E-003   3.2054453430529761E-003   6.2746661770219231E-002
  -1.7068863985534618E-003   4.1828300622955283E-003   5.8392134238916829E-002
  -1.9371483606559353E-003   5.4545213498833137E-003   5.4003547722437012E-002
  -2.1674103227583980E-003   7.0205192058155428E-003   4.9580902220780355E-002
  -2.3976722848608684E-003   8.8808236300927934E-003   4.5124197733946464E-002
  -2.0359109009366258E-003   4.2739271241268861E-003   6.2370286034856393E-002
  -2.2860001808192448E-003   5.5771067497892846E-003   5.8339808674532145E-002
  -2.5360894607018673E-003   7.2726951332486023E-003   5.4303735663825126E-002
  -2.7861787405844742E-003   9.3606922745034030E-003   5.0262067002734417E-002
  -3.0362680204671089E-003   1.1841098173554609E-002   4.6214802691260992E-002
  -2.5955482596784631E-002   7.3444585100631565E-003   6.7040821328072320E-002
  -2.4838054590971478E-002   7.1755394966085129E-003   6.5847288035378260E-002
  -2.3720626585158302E-002   6.9851798727705583E-003   6.5012154672132116E-002
  -2.2603198579345118E-002   6.7733796385490500E-003   6.4535421238333779E-002
  -2.1485770573531959E-002   6.5401387939446054E-003   6.4417087733983358E-002
  -3.3048066771048261E-002   9.2329164197580971E-003   6.1613169080136893E-002
  -3.1598126562548227E-002   9.0131772511347907E-003   6.0813730206603911E-002
  -3.0148186354048197E-002   8.7683611055335009E-003   6.0320915808996609E-002
  -2.8698246145548181E-002   8.4984679829540888E-003   6.0134725887315187E-002
  -2.7248305937048134E-002   8.2034978833967209E-003   6.0255160441559680E-002
  -3.9697410005709359E-002   1.1121374329452982E-002   5.6136514860330278E-002
  -3.7966733048044418E-002   1.0850815005661055E-002   5.5727534039363535E-002
  -3.6236056090379547E-002   1.0551542338296457E-002   5.5573402240800387E-002
  -3.4505379132714654E-002   1.0223556327359041E-002   5.5674119464641202E-002
  -3.2774702175049734E-002   9.8668569728489752E-003   5.6029685710885860E-002
  -4.5903512300767779E-002   1.3009832239147895E-002   5.0610858668652316E-002
  -4.3943874047460002E-002   1.2688452760187326E-002   5.0588699533657105E-002
  -4.1984235794152287E-002   1.2334723571059379E-002   5.0769613967543550E-002
  -4.0024597540844531E-002   1.1948644671764036E-002   5.1153601970311866E-002
  -3.8064959287536768E-002   1.1530216062301216E-002   5.1740663541962127E-002
  -5.1666373656223619E-002   1.4898290148842808E-002   4.5036200505103152E-002
  -4.9529549560795028E-002   1.4526090514713597E-002   4.5397226689484760E-002
  -4.7392725465366450E-002   1.4117904803822356E-002   4.5909550989226000E-002
  -4.5255901369937825E-002   1.3673733016168921E-002   4.6573173404327151E-002
  -4.3119077274509240E-002   1.3193575151753401E-002   4.7388093934788267E-002
  -2.1485770573531959E-002   6.5401387939446054E-003   6.4417087733983358E-002
  -2.0856665322727182E-002   6.2934655475590240E-003   6.3715447556119936E-002
  -2.0227560071922411E-002   6.0413681079947990E-003   6.3252580553077392E-002
  -1.9598454821117633E-002   5.7838464752525617E-003   6.3028486724855670E-002
  -1.8969349570312863E-002   5.5209006493313617E-003   6.3043166071454881E-002
  -2.7248305937048134E-002   8.2034978833967209E-003   6.0255160441559680E-002
  -2.6399463662747050E-002   7.8934677697939104E-003   5.9765389615740405E-002
  -2.5550621388445952E-002   7.5783946050776499E-003   5.9476319662092866E-002
  -2.4701779114144840E-002   7.2582783892486003E-003   5.9387950580617126E-002
  -2.3852936839843766E-002   6.9331191223063748E-003   5.9500282371313051E-002
  -3.2774702175049734E-002   9.8668569728489752E-003   5.6029685710885860E-002
  -3.1744195179901458E-002   9.4934699920287552E-003   5.5752165379176190E-002
  -3.0713688184753198E-002   9.1154211021606119E-003   5.5637273616989127E-002
  -2.9683181189604932E-002   8.7327103032449165E-003   5.5685010424324631E-002
  -2.8652674194456659E-002   8.3453375952813602E-003   5.5895375801182742E-002
  -3.8064959287536768E-002   1.1530216062301216E-002   5.1740663541962127E-002
  -3.6890859874190482E-002   1.1093472214263621E-002   5.1675774846427339E-002
  -3.5716760460844175E-002   1.0652447599243518E-002   5.1735442417766120E-002
  -3.4542661047497862E-002   1.0207142217241149E-002   5.1919666255978200E-002
  -3.3368561634151583E-002   9.7575560682563595E-003   5.2228446361063885E-002
  -4.3119077274509240E-002   1.3193575151753401E-002   4.7388093934788267E-002
  -4.1839457745614067E-002   1.2693474436498459E-002   4.7536218017493775E-002
  -4.0559838216718873E-002   1.2189474096326425E-002   4.7770826064423677E-002
  -3.9280218687823679E-002   1.1681574131237243E-002   4.8091918075577750E-002
  -3.8000599158928478E-002   1.1169774541231359E-002   4.8499494050956382E-002
  -1.8969349570312863E-002   5.5209006493313617E-003   6.3043166071454881E-002
  -1.8018738572939935E-002   5.2499655418834501E-003   6.2611867989142977E-002
  -1.7068127575567006E-002   4.9684760645598985E-003   6.2440398906607325E-002
  -1.6117516578194085E-002   4.6764322173611199E-003   6.2528758823847966E-002
  -1.5166905580821156E-002   4.3738340002871245E-003   6.2876947740864830E-002
  -2.3852936839843766E-002   6.9331191223063748E-003   5.9500282371313051E-002
  -2.2652707113203493E-002   6.5998674092057619E-003   5.9131775827870742E-002
  -2.1452477386563217E-002   6.2554738549014943E-003   5.9002677743186738E-002
  -2.0252247659922923E-002   5.8999384593936693E-003   5.9112988117261234E-002
  -1.9052017933282667E-002   5.5332612226824396E-003   5.9462706950093869E-002
  -2.8652674194456659E-002   8.3453375952813602E-003   5.5895375801182742E-002
  -2.7223246279566939E-002   7.9497692765280459E-003   5.5589073325281665E-002
  -2.5793818364677229E-002   7.5424716452430415E-003   5.5501758767121261E-002
  -2.4364390449787530E-002   7.1234447014262205E-003   5.5633432126701216E-002
  -2.2934962534897799E-002   6.6926884450776991E-003   5.5984093404021690E-002
  -3.3368561634151583E-002   9.7575560682563595E-003   5.2228446361063885E-002
  -3.1730356072030286E-002   9.2996711438503715E-003   5.1983760481376026E-002
  -3.0092150509909037E-002   8.8294694355846408E-003   5.1937641978410796E-002
  -2.8453944947787774E-002   8.3469509434587162E-003   5.2090090852168140E-002
  -2.6815739385666483E-002   7.8521156674729864E-003   5.2441107102648155E-002
  -3.8000599158928478E-002   1.1169774541231359E-002   4.8499494050956382E-002
  -3.6174036490593586E-002   1.0649573011172697E-002   4.8315837296153574E-002
  -3.4347473822258667E-002   1.0116467225926087E-002   4.8310327377055429E-002
  -3.2520911153923762E-002   9.5704571854912414E-003   4.8482964293662070E-002
  -3.0694348485588843E-002   9.0115428898683292E-003   4.8833748045973235E-002
  -1.5166905580821156E-002   4.3738340002871245E-003   6.2876947740864830E-002
  -1.4325025814312897E-002   4.0627700671206912E-003   6.2646336975302808E-002
  -1.3483146047804630E-002   3.7453290716446541E-003   6.2614981911319034E-002
  -1.2641266281296373E-002   3.4215110138590549E-003   6.2782882548913704E-002
  -1.1799386514788110E-002   3.0913158937645457E-003   6.3150038888086679E-002
  -1.9052017933282667E-002   5.5332612226824396E-003   5.9462706950093869E-002
  -1.8013246080036630E-002   5.1578511605942512E-003   5.9225549884607875E-002
  -1.6974474226790583E-002   4.7761172889557862E-003   5.9182921291019042E-002
  -1.5935702373544566E-002   4.3880596077670343E-003   5.9334821169327409E-002
  -1.4896930520298529E-002   3.9936781170284430E-003   5.9681249519532853E-002
  -2.2934962534897799E-002   6.6926884450776991E-003   5.5984093404021690E-002
  -2.1704025824595109E-002   6.2529322540678389E-003   5.5740443291370997E-002
  -2.0473089114292443E-002   5.8069055062669184E-003   5.5686594420936236E-002
  -1.9242152403989767E-002   5.3546082016751803E-003   5.5822546792717517E-002
  -1.8011215693687091E-002   4.8960403402925068E-003   5.6148300406714979E-002
  -2.6815739385666483E-002   7.8521156674729864E-003   5.2441107102648155E-002
  -2.5397365047988361E-002   7.3480133475414683E-003   5.2191017195591827E-002
  -2.3978990710310174E-002   6.8376937235781615E-003   5.2126001301070458E-002
  -2.2560616372632007E-002   6.3211567955830765E-003   5.2246059419084112E-002
  -2.1142242034953861E-002   5.7984025635565983E-003   5.2551191549632469E-002
  -3.0694348485588843E-002   9.0115428898683292E-003   4.8833748045973235E-002
  -2.9093263750216328E-002   8.4430944410149311E-003   4.8577271597270766E-002
  -2.7492179014843805E-002   7.8684819408893630E-003   4.8501141931421937E-002
  -2.5891094279471286E-002   7.2877053894911011E-003   4.8605359048427041E-002
  -2.4290009544098767E-002   6.7007647868205789E-003   4.8889922948285980E-002
  -1.1799386514788110E-002   3.0913158937645457E-003   6.3150038888086679E-002
  -1.0819403063332879E-002   2.7663344723179439E-003   6.3015992451009750E-002
  -9.8394196118776582E-003   2.4581575104768716E-003   6.3143152757031584E-002
  -8.8594361604224462E-003   2.1667850082420573E-003   6.3531519806151682E-002
  -7.8794527089672134E-003   1.8922169656123700E-003   6.4181093598370764E-002
  -1.4896930520298529E-002   3.9936781170284430E-003   5.9681249519532853E-002
  -1.3668948421110608E-002   3.6012747979851101E-003   5.9530796125485286E-002
  -1.2440966321922670E-002   3.2191516318824109E-003   5.9615133283804661E-002
  -1.1212984222734753E-002   2.8473086187209978E-003   5.9934260994490826E-002
  -9.9850021235468357E-003   2.4857457585000242E-003   6.0488179257543906E-002
  -1.8011215693687091E-002   4.8960403402925068E-003   5.6148300406714979E-002
  -1.6561651137498162E-002   4.4362151236523595E-003   5.5974915749031823E-002
  -1.5112086581309261E-002   3.9801457532881585E-003   5.6009905452983857E-002
  -1.3662522025120343E-002   3.5278322291999349E-003   5.6253269518570868E-002
  -1.2212957468931434E-002   3.0792745513877895E-003   5.6705007945793279E-002
  -2.1142242034953861E-002   5.7984025635565983E-003   5.2551191549632469E-002
  -1.9497511212495634E-002   5.2711554493193452E-003   5.2348351321648889E-002
  -1.7852780390037435E-002   4.7411398746937464E-003   5.2327469264568854E-002
  -1.6208049567579229E-002   4.2083558396789848E-003   5.2488545378392107E-002
  -1.4563318745121009E-002   3.6728033442755548E-003   5.2831579663119077E-002
  -2.4290009544098767E-002   6.7007647868205789E-003   4.8889922948285980E-002
  -2.2476528646102958E-002   6.1060957749868860E-003   4.8651102843336902E-002
  -2.0663047748107163E-002   5.5021339960993898E-003   4.8567824718559693E-002
  -1.8849566850111368E-002   4.8888794501582428E-003   4.8640088573954299E-002
  -1.7036085952115559E-002   4.2663321371632090E-003   4.8867894409520551E-002
  -7.8794527089672134E-003   1.8922169656123700E-003   6.4181093598370764E-002
  -6.9494721064734741E-003   1.6811997322215833E-003   6.4094017355291411E-002
  -6.0194915039797278E-003   1.5804796577024716E-003   6.4254147176671161E-002
  -5.0895109014859868E-003   1.5900567420547296E-003   6.4661483062509517E-002
  -4.1595302989922422E-003   1.7099309852782740E-003   6.5316025012806755E-002
  -9.9850021235468357E-003   2.4857457585000242E-003   6.0488179257543906E-002
  -8.8067719572230523E-003   2.1855146567087425E-003   6.0391080844425904E-002
  -7.6285417908992566E-003   1.9976669188352669E-003   6.0543275494509330E-002
  -6.4503116245754845E-003   1.9222025448805066E-003   6.0944763207793962E-002
  -5.2720814582516776E-003   1.9591215348435664E-003   6.1595543984280021E-002
  -1.2212957468931434E-002   3.0792745513877895E-003   5.6705007945793279E-002
  -1.0784390740035019E-002   2.6898295811958461E-003   5.6599973567683093E-002
  -9.3558240111385575E-003   2.4148541799687284E-003   5.6746319251516658E-002
  -7.9272572822421082E-003   2.2543483477061727E-003   5.7144044997294308E-002
  -6.4986905533456815E-003   2.2083120844085813E-003   5.7793150805015903E-002
  -1.4563318745121009E-002   3.6728033442755548E-003   5.2831579663119077E-002
  -1.2882328454909326E-002   3.1941445056828111E-003   5.2720695525062901E-002
  -1.1201338164697656E-002   2.8320414411020789E-003   5.2863278447693438E-002
  -9.5203478744859855E-003   2.5864941505323383E-003   5.3259328431010590E-002
  -7.8393575842743025E-003   2.4575026339736239E-003   5.3908845475014303E-002
  -1.7036085952115559E-002   4.2663321371632090E-003   4.8867894409520551E-002
  -1.5100585101846045E-002   3.6984594301701645E-003   4.8753246716565446E-002
  -1.3165084251576531E-002   3.2492287022349575E-003   4.8894153083039626E-002
  -1.1229583401307017E-002   2.9186399533579419E-003   4.9290613508942954E-002
  -9.2940825510375025E-003   2.7066931835388885E-003   4.9942627994275179E-002
  -4.1595302989922422E-003   1.7099309852782740E-003   6.5316025012806755E-002
  -3.6286254494783329E-003   2.0014478609510222E-003   6.4399790463152140E-002
  -3.0977205999644340E-003   2.5259528426500588E-003   6.3603422450275560E-002
  -2.5668157504505299E-003   3.2834459303754532E-003   6.2926920974176959E-002
  -2.0359109009366258E-003   4.2739271241268861E-003   6.2370286034856393E-002
  -5.2720814582516776E-003   1.9591215348435664E-003   6.1595543984280021E-002
  -4.5955230423224726E-003   2.2153574047338864E-003   6.0870657779409476E-002
  -3.9189646263932919E-003   2.7978436705598519E-003   6.0317212170591383E-002
  -3.2424062104640938E-003   3.7065803323229757E-003   5.9935207157825743E-002
  -2.5658477945348819E-003   4.9415673900214951E-003   5.9724642741112999E-002
  -6.4986905533456815E-003   2.2083120844085813E-003   5.7793150805015903E-002
  -5.6249045117266038E-003   2.4292669485162510E-003   5.7352875234839118E-002
  -4.7511184701075375E-003   3.0697344984700614E-003   5.7135614319989425E-002
  -3.8773324284884577E-003   4.1297147342700471E-003   5.7141368060467185E-002
  -3.0035463868693917E-003   5.6092076559160486E-003   5.7370136456271731E-002
  -7.8393575842743025E-003   2.4575026339736239E-003   5.3908845475014303E-002
  -6.7167698576907735E-003   2.6431764922990875E-003   5.3846442829441316E-002
  -5.5941821311072297E-003   3.3416253263800627E-003   5.4058628898470039E-002
  -4.4715944045236721E-003   4.5528491362173441E-003   5.4545403682100549E-002
  -3.3490066779401566E-003   6.2768479218106299E-003   5.5306767180332901E-002
  -9.2940825510375025E-003   2.7066931835388885E-003   4.9942627994275179E-002
  -7.8711190802149000E-003   2.8570860360814243E-003   5.0351360563215986E-002
  -6.4481556093923115E-003   3.6135161542900363E-003   5.1086255906033051E-002
  -5.0251921385697160E-003   4.9759835381648562E-003   5.2147314022726293E-002
  -3.6022286677471205E-003   6.9444881877053222E-003   5.3534534913296183E-002
  -2.0359109009366258E-003   4.2739271241268861E-003   6.2370286034856393E-002
  -2.2860001808192448E-003   5.5771067497892846E-003   5.8339808674532145E-002
  -2.5360894607018673E-003   7.2726951332486023E-003   5.4303735663825126E-002
  -2.7861787405844742E-003   9.3606922745034030E-003   5.0262067002734417E-002
  -3.0362680204671089E-003   1.1841098173554609E-002   4.6214802691260992E-002
  -2.5658477945348819E-003   4.9415673900214951E-003   5.9724642741112999E-002
  -2.8389943484866051E-003   6.5664077859744485E-003   5.6191874577550593E-002
  -3.1121409024383404E-003   8.6447044624989311E-003   5.2618587516233162E-002
  -3.3852874563901217E-003   1.1176457419595234E-002   4.9004781557160926E-002
  -3.6584340103417920E-003   1.4161666657263483E-002   4.5350456700333330E-002
  -3.0035463868693917E-003   5.6092076559160486E-003   5.7370136456271731E-002
  -3.3346734622620861E-003   7.5557088221587798E-003   5.4396125012247054E-002
  -3.6658005376547674E-003   1.0016713791749024E-002   5.1346671423095527E-002
  -3.9969276130473966E-003   1.2992222564687173E-002   4.8221775688817158E-002
  -4.3280546884401430E-003   1.6482235140972579E-002   4.5021437809411702E-002
  -3.3490066779401566E-003   6.2768479218106299E-003   5.5306767180332901E-002
  -3.7730375221456574E-003   8.5450098583431944E-003   5.2952559978621375E-002
  -4.1970683663511430E-003   1.1388723120999568E-002   5.0487987384411223E-002
  -4.6210992105566763E-003   1.4807987709778947E-002   4.7913049397702294E-002
  -5.0451300547621012E-003   1.8802803624681563E-002   4.5227746018494275E-002
  -3.6022286677471205E-003   6.9444881877053222E-003   5.3534534913296183E-002
  -4.1540865281372991E-003   9.5343108945280530E-003   5.1861179476673569E-002
  -4.7059443885274777E-003   1.2760732450249418E-002   5.0042535400180277E-002
  -5.2578022489176562E-003   1.6623752854870825E-002   4.8078602683816446E-002
  -5.8096601093078348E-003   2.1123372108390548E-002   4.5969381327581882E-002
  -5.1666373656223619E-002   1.4898290148842808E-002   4.5036200505103152E-002
  -4.9529549560795028E-002   1.4526090514713597E-002   4.5397226689484760E-002
  -4.7392725465366450E-002   1.4117904803822356E-002   4.5909550989226000E-002
  -4.5255901369937825E-002   1.3673733016168921E-002   4.6573173404327151E-002
  -4.3119077274509240E-002   1.3193575151753401E-002   4.7388093934788267E-002
  -5.7444930101685138E-002   1.6824906023714836E-002   4.2322304602448402E-002
  -5.5118619912225969E-002   1.6360542609008044E-002   4.2215964609989332E-002
  -5.2792309722766745E-002   1.5870319199269067E-002   4.2337298690231867E-002
  -5.0465999533307514E-002   1.5354235794497753E-002   4.2686306843175786E-002
  -4.8139689343848345E-002   1.4812292394694226E-002   4.3262989068821089E-002
  -6.3698117666760729E-002   1.8751521898586893E-002   3.9511181878350787E-002
  -6.1105945425929335E-002   1.8194994703302519E-002   3.8947601790781369E-002
  -5.8513773185097886E-002   1.7622733594715778E-002   3.8688071733254920E-002
  -5.5921600944266500E-002   1.7034738572826558E-002   3.8732591705771355E-002
  -5.3329428703435142E-002   1.6431009637634969E-002   3.9081161708330758E-002
  -7.0425936351450238E-002   2.0678137773458949E-002   3.6602832332810975E-002
  -6.7491526101905189E-002   2.0029446797596953E-002   3.5592138231860811E-002
  -6.4557115852360042E-002   1.9375147990162489E-002   3.4961870118295171E-002
  -6.1622705602814846E-002   1.8715241351155348E-002   3.4712027992114043E-002
  -5.8688295353269762E-002   1.8049726880575781E-002   3.4842611853317447E-002
  -7.7628386155753792E-002   2.2604753648330977E-002   3.3597255965828465E-002
  -7.4275361940153384E-002   2.1863898891891331E-002   3.2149573933227482E-002
  -7.0922337724552947E-002   2.1127562385609200E-002   3.1158693845352470E-002
  -6.7569313508952525E-002   2.0395744129484167E-002   3.0624615702203706E-002
  -6.4216289293352102E-002   1.9668444123516482E-002   3.0547339503780746E-002
  -4.3119077274509240E-002   1.3193575151753401E-002   4.7388093934788267E-002
  -4.1839457745614067E-002   1.2693474436498459E-002   4.7536218017493775E-002
  -4.0559838216718873E-002   1.2189474096326425E-002   4.7770826064423677E-002
  -3.9280218687823679E-002   1.1681574131237243E-002   4.8091918075577750E-002
  -3.8000599158928478E-002   1.1169774541231359E-002   4.8499494050956382E-002
  -4.8139689343848345E-002   1.4812292394694226E-002   4.3262989068821089E-002
  -4.6762502345892319E-002   1.4256904852889024E-002   4.3250605409171472E-002
  -4.5385315347936314E-002   1.3700489022113155E-002   4.3346872723419097E-002
  -4.4008128349980309E-002   1.3143044902366265E-002   4.3551791011564124E-002
  -4.2630941352024269E-002   1.2584572493648805E-002   4.3865360273606269E-002
  -5.3329428703435142E-002   1.6431009637634969E-002   3.9081161708330758E-002
  -5.1832507226745310E-002   1.5820335269279770E-002   3.8911141642272037E-002
  -5.0335585750055561E-002   1.5211503947899996E-002   3.8871939559783686E-002
  -4.8838664273365751E-002   1.4604515673495397E-002   3.8963555460865613E-002
  -4.7341742796675988E-002   1.3999370446066139E-002   3.9185989345517827E-002
  -5.8688295353269762E-002   1.8049726880575781E-002   3.4842611853317447E-002
  -5.7049472388173164E-002   1.7383765685670481E-002   3.4517826716795749E-002
  -5.5410649423076573E-002   1.6722518873686726E-002   3.4346026573517471E-002
  -5.3771826457980003E-002   1.6065986444624418E-002   3.4327211423482426E-002
  -5.2133003492883370E-002   1.5414168398483530E-002   3.4461381266690697E-002
  -6.4216289293352102E-002   1.9668444123516482E-002   3.0547339503780746E-002
  -6.2413397830175771E-002   1.8947196102061081E-002   3.0070660632742524E-002
  -6.0610506366999384E-002   1.8233533799473595E-002   2.9769133764620370E-002
  -5.8807614903823038E-002   1.7527457215753280E-002   2.9642758899414562E-002
  -5.7004723440646693E-002   1.6828966350900920E-002   2.9691536037124988E-002
  -3.8000599158928478E-002   1.1169774541231359E-002   4.8499494050956382E-002
  -3.6174036490593586E-002   1.0649573011172697E-002   4.8315837296153574E-002
  -3.4347473822258667E-002   1.0116467225926087E-002   4.8310327377055429E-002
  -3.2520911153923762E-002   9.5704571854912414E-003   4.8482964293662070E-002
  -3.0694348485588843E-002   9.0115428898683292E-003   4.8833748045973235E-002
  -4.2630941352024269E-002   1.2584572493648805E-002   4.3865360273606269E-002
  -4.0620581940419613E-002   1.2019753105840969E-002   4.3594609212614016E-002
  -3.8610222528814866E-002   1.1443268048823549E-002   4.3513304802456604E-002
  -3.6599863117210113E-002   1.0855117322596777E-002   4.3621447043134240E-002
  -3.4589503705605401E-002   1.0255300927160371E-002   4.3919035934646744E-002
  -4.7341742796675988E-002   1.3999370446066139E-002   3.9185989345517827E-002
  -4.5136286826671160E-002   1.3389933200509047E-002   3.8829382564314494E-002
  -4.2930830856666366E-002   1.2770068871721114E-002   3.8673522249076518E-002
  -4.0725374886661503E-002   1.2139777459702144E-002   3.8718408399803686E-002
  -3.8519918916656737E-002   1.1499058964452386E-002   3.8964041016496045E-002
  -5.2133003492883370E-002   1.5414168398483530E-002   3.4461381266690697E-002
  -4.9721151149348296E-002   1.4760113295177166E-002   3.4020157351255215E-002
  -4.7309298805813159E-002   1.4096869694618628E-002   3.3790979716914978E-002
  -4.4897446462278029E-002   1.3424437596807816E-002   3.3773848363670499E-002
  -4.2485594118742885E-002   1.2742817001744414E-002   3.3968763291521153E-002
  -5.7004723440646693E-002   1.6828966350900920E-002   2.9691536037124988E-002
  -5.4375174908451007E-002   1.6130293389845340E-002   2.9166933573435805E-002
  -5.1745626376255280E-002   1.5423670517516044E-002   2.8865677205972273E-002
  -4.9116077844059559E-002   1.4709097733913077E-002   2.8787766934734477E-002
  -4.6486529311863867E-002   1.3986575039036497E-002   2.8933202759722276E-002
  -3.0694348485588843E-002   9.0115428898683292E-003   4.8833748045973235E-002
  -2.9093263750216328E-002   8.4430944410149311E-003   4.8577271597270766E-002
  -2.7492179014843805E-002   7.8684819408893630E-003   4.8501141931421937E-002
  -2.5891094279471286E-002   7.2877053894911011E-003   4.8605359048427041E-002
  -2.4290009544098767E-002   6.7007647868205789E-003   4.8889922948285980E-002
  -3.4589503705605401E-002   1.0255300927160371E-002   4.3919035934646744E-002
  -3.2815629527360585E-002   9.6454243158603792E-003   4.3612432748032920E-002
  -3.1041755349115768E-002   9.0270929420433466E-003   4.3471061664310057E-002
  -2.9267881170870910E-002   8.4003068057086211E-003   4.3494922683477932E-002
  -2.7494006992626094E-002   7.7650659068567163E-003   4.3684015805536602E-002
  -3.8519918916656737E-002   1.1499058964452386E-002   3.8964041016496045E-002
  -3.6588369975502612E-002   1.0847754190705911E-002   3.8605020380726163E-002
  -3.4656821034348459E-002   1.0185703943197379E-002   3.8396117167884207E-002
  -3.2725272093194313E-002   9.5129082219264170E-003   3.8337331377970046E-002
  -3.0793723152040181E-002   8.8293670268931312E-003   3.8428663010983660E-002
  -4.2485594118742885E-002   1.2742817001744414E-002   3.3968763291521153E-002
  -4.0411485094642444E-002   1.2050084065551400E-002   3.3555034495350258E-002
  -3.8337376070541940E-002   1.1344314944351275E-002   3.3276308442144312E-002
  -3.6263267046441450E-002   1.0625509638144019E-002   3.3132585131903237E-002
  -3.4189158022341001E-002   9.8936681469297405E-003   3.3123864564626945E-002
  -4.6486529311863867E-002   1.3986575039036497E-002   2.8933202759722276E-002
  -4.4284974884780032E-002   1.3252413940396945E-002   2.8462475091905470E-002
  -4.2083420457696169E-002   1.2502925945505464E-002   2.8111635487090697E-002
  -3.9881866030612334E-002   1.1738111054361889E-002   2.7880683945277721E-002
  -3.7680311603528471E-002   1.0957969266965795E-002   2.7769620466466471E-002
  -2.4290009544098767E-002   6.7007647868205789E-003   4.8889922948285980E-002
  -2.2476528646102958E-002   6.1060957749868860E-003   4.8651102843336902E-002
  -2.0663047748107163E-002   5.5021339960993898E-003   4.8567824718559693E-002
  -1.8849566850111368E-002   4.8888794501582428E-003   4.8640088573954299E-002
  -1.7036085952115559E-002   4.2663321371632090E-003   4.8867894409520551E-002
  -2.7494006992626094E-002   7.7650659068567163E-003   4.3684015805536602E-002
  -2.5526396050723481E-002   7.1254353699772288E-003   4.3343256413140185E-002
  -2.3558785108820833E-002   6.4854803195594918E-003   4.3155215128385660E-002
  -2.1591174166918192E-002   5.8452007556033143E-003   4.3119891951272943E-002
  -1.9623563225015572E-002   5.2045966781093522E-003   4.3237286881802339E-002
  -3.0793723152040181E-002   8.8293670268931312E-003   3.8428663010983660E-002
  -2.8674806038760586E-002   8.1447749649676271E-003   3.7994932584655236E-002
  -2.6555888925480879E-002   7.4688266430194827E-003   3.7711096393438837E-002
  -2.4436971812201235E-002   6.8015220610487745E-003   3.7577154437334753E-002
  -2.2318054698921529E-002   6.1428612190556064E-003   3.7593106716342528E-002
  -3.4189158022341001E-002   9.8936681469297405E-003   3.3123864564626945E-002
  -3.1921758610214103E-002   9.1641145599580531E-003   3.2606131357882179E-002
  -2.9654359198087205E-002   8.4521729664794182E-003   3.2235468513719813E-002
  -2.7386959785960334E-002   7.7578433664941514E-003   3.2011876032139605E-002
  -2.5119560373833397E-002   7.0811257600018607E-003   3.1935353913141888E-002
  -3.7680311603528471E-002   1.0957969266965795E-002   2.7769620466466471E-002
  -3.5267253765084189E-002   1.0183454154948590E-002   2.7176852732821000E-002
  -3.2854195926639851E-002   9.4355192899396312E-003   2.6728331489228041E-002
  -3.0441138088195541E-002   8.7141646719394311E-003   2.6424056735687429E-002
  -2.8028080249751230E-002   8.0193903009481149E-003   2.6264028472199552E-002
  -1.7036085952115559E-002   4.2663321371632090E-003   4.8867894409520551E-002
  -1.5100585101846045E-002   3.6984594301701645E-003   4.8753246716565446E-002
  -1.3165084251576531E-002   3.2492287022349575E-003   4.8894153083039626E-002
  -1.1229583401307017E-002   2.9186399533579419E-003   4.9290613508942954E-002
  -9.2940825510375025E-003   2.7066931835388885E-003   4.9942627994275179E-002
  -1.9623563225015572E-002   5.2045966781093522E-003   4.3237286881802339E-002
  -1.7471299521160014E-002   4.6007715343751587E-003   4.3073095962055941E-002
  -1.5319035817304448E-002   4.0708287716979263E-003   4.3086876690052567E-002
  -1.3166772113448900E-002   3.6147683900788694E-003   4.3278629065792093E-002
  -1.1014508409593324E-002   3.2325903895167318E-003   4.3648353089274450E-002
  -2.2318054698921529E-002   6.1428612190556064E-003   3.7593106716342528E-002
  -2.0026610553166121E-002   5.5030836385796811E-003   3.7334612971804543E-002
  -1.7735166407410657E-002   4.8924288411609090E-003   3.7176508463323252E-002
  -1.5443722261655239E-002   4.3108968267991342E-003   3.7118793190898787E-002
  -1.3152278115899786E-002   3.7584875954945751E-003   3.7161467154531030E-002
  -2.5119560373833397E-002   7.0811257600018607E-003   3.1935353913141888E-002
  -2.2766518197864318E-002   6.4053957427844394E-003   3.1537797745811634E-002
  -2.0413476021895159E-002   5.7140289106238293E-003   3.1163048402851928E-002
  -1.8060433845926083E-002   5.0070252635198414E-003   3.0811105884262946E-002
  -1.5707391669956917E-002   4.2843848014724739E-003   3.0481970190044498E-002
  -2.8028080249751230E-002   8.0193903009481149E-003   2.6264028472199552E-002
  -2.5691022455254592E-002   7.3077078469891421E-003   2.5682650284076902E-002
  -2.3353964660757953E-002   6.5356289800866108E-003   2.5046496508638605E-002
  -2.1016906866261315E-002   5.7031537002403196E-003   2.4355567145884605E-002
  -1.8679849071764676E-002   4.8102820074502617E-003   2.3609862195815068E-002
  -9.2940825510375025E-003   2.7066931835388885E-003   4.9942627994275179E-002
  -7.8711190802149000E-003   2.8570860360814243E-003   5.0351360563215986E-002
  -6.4481556093923115E-003   3.6135161542900363E-003   5.1086255906033051E-002
  -5.0251921385697160E-003   4.9759835381648562E-003   5.2147314022726293E-002
  -3.6022286677471205E-003   6.9444881877053222E-003   5.3534534913296183E-002
  -1.1014508409593324E-002   3.2325903895167318E-003   4.3648353089274450E-002
  -9.2468576903108612E-003   3.1621539182281611E-003   4.4236085256625757E-002
  -7.4792069710284750E-003   3.6413181244285553E-003   4.5187029147019969E-002
  -5.7115562517460576E-003   4.6700830081187125E-003   4.6501184760457684E-002
  -3.9439055324636263E-003   6.2484485692976266E-003   4.8178552096938554E-002
  -1.3152278115899786E-002   3.7584875954945751E-003   3.7161467154531030E-002
  -1.1002891198990616E-002   3.4672218003745925E-003   3.7871762332115838E-002
  -8.8535042820814779E-003   3.6691200945673103E-003   3.8982318181910766E-002
  -6.7041173651723237E-003   4.3641824780725723E-003   4.0493134703915974E-002
  -4.5547304482631695E-003   5.5524089508900976E-003   4.2404211898131344E-002
  -1.5707391669956917E-002   4.2843848014724739E-003   3.0481970190044498E-002
  -1.3139219606254068E-002   3.7722896825210656E-003   3.1258391789686306E-002
  -1.0571047542551192E-002   3.6969220647059473E-003   3.2472123010705026E-002
  -8.0028754788483130E-003   4.0582819480262083E-003   3.4123163853101060E-002
  -5.4347034151454622E-003   4.8563693324825963E-003   3.6211514316874048E-002
  -1.8679849071764676E-002   4.8102820074502617E-003   2.3609862195815068E-002
  -1.5655842912101176E-002   4.0773575646677607E-003   2.4395973629337098E-002
  -1.2631836752437731E-002   3.7247240348446398E-003   2.5656443633403136E-002
  -9.6078305927742302E-003   3.7523814179804132E-003   2.7391272208013101E-002
  -6.5838244331107854E-003   4.1603297140750950E-003   2.9600459353167130E-002
  -3.6022286677471205E-003   6.9444881877053222E-003   5.3534534913296183E-002
  -4.1540865281372991E-003   9.5343108945280530E-003   5.1861179476673569E-002
  -4.7059443885274777E-003   1.2760732450249418E-002   5.0042535400180277E-002
  -5.2578022489176562E-003   1.6623752854870825E-002   4.8078602683816446E-002
  -5.8096601093078348E-003   2.1123372108390548E-002   4.5969381327581882E-002
  -3.9439055324636263E-003   6.2484485692976266E-003   4.8178552096938554E-002
  -4.5372411308603200E-003   8.6864805810034085E-003   4.7243025047328968E-002
  -5.1305767292571108E-003   1.2294244816273808E-002   4.6369831161576613E-002
  -5.7239123276538184E-003   1.7071741275108819E-002   4.5558970439682406E-002
  -6.3172479260505954E-003   2.3018969957508073E-002   4.4810442881645374E-002
  -4.5547304482631695E-003   5.5524089508900976E-003   4.2404211898131344E-002
  -4.9819219809381747E-003   7.8386502674788749E-003   4.2739646610200049E-002
  -5.4091135136132354E-003   1.1827757182297768E-002   4.3345036289854436E-002
  -5.8363050462881851E-003   1.7519729695346594E-002   4.4220380937094607E-002
  -6.2634965789633013E-003   2.4914567806625376E-002   4.5365680551920251E-002
  -5.4347034151454622E-003   4.8563693324825963E-003   3.6211514316874048E-002
  -5.4881290783707236E-003   6.9908199539545079E-003   3.8351044165286514E-002
  -5.5415547415959571E-003   1.1361269548321611E-002   4.0968150785013133E-002
  -5.5949804048211213E-003   1.7967718115584147E-002   4.4062834176053771E-002
  -5.6484060680463966E-003   2.6810165655742679E-002   4.7635094338408041E-002
  -6.5838244331107854E-003   4.1603297140750950E-003   2.9600459353167130E-002
  -6.0558624231579761E-003   6.1429896404300299E-003   3.4077217712589425E-002
  -5.5279004132051668E-003   1.0894781914345786E-002   3.9239174647053288E-002
  -4.9999384032523020E-003   1.8415706535822446E-002   4.5086330156559384E-002
  -4.4719763932995482E-003   2.8705763504860204E-002   5.1618684241108159E-002
  -7.7628386155753792E-002   2.2604753648330977E-002   3.3597255965828465E-002
  -7.4275361940153384E-002   2.1863898891891331E-002   3.2149573933227482E-002
  -7.0922337724552947E-002   2.1127562385609200E-002   3.1158693845352470E-002
  -6.7569313508952525E-002   2.0395744129484167E-002   3.0624615702203706E-002
  -6.4216289293352102E-002   1.9668444123516482E-002   3.0547339503780746E-002
  -8.4589705509674151E-002   2.4385192514875476E-002   2.3759493217473560E-002
  -8.0887909016170378E-002   2.3636072489247623E-002   2.3156654514926184E-002
  -7.7186112522666744E-002   2.2874396166454175E-002   2.2794558423459066E-002
  -7.3484316029163041E-002   2.2100163546494904E-002   2.2673204943072428E-002
  -6.9782519535659338E-002   2.1313374629370135E-002   2.2792594073766298E-002
  -9.0594132843213868E-002   2.6165631381420029E-002   1.3922002473591960E-002
  -8.6759623405452388E-002   2.5408246086603914E-002   1.4146932553774944E-002
  -8.2925113967691172E-002   2.4621229947299039E-002   1.4396545911392888E-002
  -7.9090604529929859E-002   2.3804582963505724E-002   1.4670842546445552E-002
  -7.5256095092168518E-002   2.2958305135223706E-002   1.4969822458933080E-002
  -9.5641668156373053E-002   2.7946070247964472E-002   4.0847837341833337E-003
  -9.1890505107999620E-002   2.7180419683960039E-002   5.1204080497741083E-003
  -8.8139342059626397E-002   2.6368063728144125E-002   5.9646563091539997E-003
  -8.4388179011253006E-002   2.5509002380516642E-002   6.6175285123230183E-003
  -8.0637015962879671E-002   2.4603235641077345E-002   7.0790246592814209E-003
  -9.9732311449151734E-002   2.9726509114509025E-002  -5.7521630007518754E-003
  -9.6280554123811868E-002   2.8952593281316497E-002  -3.9229189970764189E-003
  -9.2828796798472224E-002   2.8114897508989073E-002  -2.5011103832576487E-003
  -8.9377039473132469E-002   2.7213421797527192E-002  -1.4867371592950998E-003
  -8.5925282147792714E-002   2.6248166146930929E-002  -8.7979932518905679E-004
  -6.4216289293352102E-002   1.9668444123516482E-002   3.0547339503780746E-002
  -6.2413397830175771E-002   1.8947196102061081E-002   3.0070660632742524E-002
  -6.0610506366999384E-002   1.8233533799473595E-002   2.9769133764620370E-002
  -5.8807614903823038E-002   1.7527457215753280E-002   2.9642758899414562E-002
  -5.7004723440646693E-002   1.6828966350900920E-002   2.9691536037124988E-002
  -6.9782519535659338E-002   2.1313374629370135E-002   2.2792594073766298E-002
  -6.7803398521452715E-002   2.0527372388314258E-002   2.2420505120725631E-002
  -6.5824277507246079E-002   1.9755499796561625E-002   2.2225723266829117E-002
  -6.3845156493039457E-002   1.8997756854112612E-002   2.2208248512076811E-002
  -6.1866035478832820E-002   1.8254143560967051E-002   2.2368080856468853E-002
  -7.5256095092168518E-002   2.2958305135223706E-002   1.4969822458933080E-002
  -7.3098589430703631E-002   2.2107548674567046E-002   1.4708867354325798E-002
  -7.0941083769238730E-002   2.1277465793649822E-002   1.4627374445090796E-002
  -6.8783578107773830E-002   2.0468056492471829E-002   1.4725343731228129E-002
  -6.6626072446308943E-002   1.9679320771033182E-002   1.5002775212737615E-002
  -8.0637015962879671E-002   2.4603235641077345E-002   7.0790246592814209E-003
  -7.8298970557928504E-002   2.3687724960820028E-002   6.9357473335433916E-003
  -7.5960925152977324E-002   2.2799431790737991E-002   6.9740872994058060E-003
  -7.3622879748026157E-002   2.1938356130830935E-002   7.1940445568682721E-003
  -7.1284834343075018E-002   2.1104497981099563E-002   7.5956191059312131E-003
  -8.5925282147792714E-002   2.6248166146930929E-002  -8.7979932518905679E-004
  -8.3404541903127349E-002   2.5267901247073121E-002  -8.9885494162172952E-004
  -8.0883801658461874E-002   2.4321397787825938E-002  -7.3413817022623118E-004
  -7.8363061413796509E-002   2.3408655769190351E-002  -3.8564901100237095E-004
  -7.5842321169131033E-002   2.2529675191165444E-002   1.4661253604986157E-004
  -5.7004723440646693E-002   1.6828966350900920E-002   2.9691536037124988E-002
  -5.4375174908451007E-002   1.6130293389845340E-002   2.9166933573435805E-002
  -5.1745626376255280E-002   1.5423670517516044E-002   2.8865677205972273E-002
  -4.9116077844059559E-002   1.4709097733913077E-002   2.8787766934734477E-002
  -4.6486529311863867E-002   1.3986575039036497E-002   2.8933202759722276E-002
  -6.1866035478832820E-002   1.8254143560967051E-002   2.2368080856468853E-002
  -5.9019722888673895E-002   1.7511255651719182E-002   2.1927857028836317E-002
  -5.6173410298515039E-002   1.6755688860963222E-002   2.1697815220904304E-002
  -5.3327097708356176E-002   1.5987443188699404E-002   2.1677955432673077E-002
  -5.0480785118197258E-002   1.5206518634927224E-002   2.1868277664142455E-002
  -6.6626072446308943E-002   1.9679320771033182E-002   1.5002775212737615E-002
  -6.3576159874711921E-002   1.8892217913592885E-002   1.4642201050927270E-002
  -6.0526247303114858E-002   1.8087707204410393E-002   1.4478644832292602E-002
  -5.7476334731517829E-002   1.7265788643485616E-002   1.4512106556833621E-002
  -5.4426422159920773E-002   1.6426462230817923E-002   1.4742586224550283E-002
  -7.1284834343075018E-002   2.1104497981099563E-002   7.5956191059312131E-003
  -6.8044485866564808E-002   2.0273180175467129E-002   7.3099656397089090E-003
  -6.4804137390054639E-002   1.9419725547857900E-002   7.2081660401370571E-003
  -6.1563788913544457E-002   1.8544134098271721E-002   7.2902203072158092E-003
  -5.8323440437034260E-002   1.7646405826708858E-002   7.5561284409452513E-003
  -7.5842321169131033E-002   2.2529675191165444E-002   1.4661253604986157E-004
  -7.2424700864232749E-002   2.1654142437340707E-002  -6.8849204819143583E-005
  -6.9007080559334466E-002   2.0751743891304908E-002  -1.1362115556257102E-004
  -6.5589460254436183E-002   1.9822479553058089E-002   1.2296683819801313E-005
  -6.2171839949537899E-002   1.8866349422599349E-002   3.0890431332764035E-004
  -4.6486529311863867E-002   1.3986575039036497E-002   2.8933202759722276E-002
  -4.4284974884780032E-002   1.3252413940396945E-002   2.8462475091905470E-002
  -4.2083420457696169E-002   1.2502925945505464E-002   2.8111635487090697E-002
  -3.9881866030612334E-002   1.1738111054361889E-002   2.7880683945277721E-002
  -3.7680311603528471E-002   1.0957969266965795E-002   2.7769620466466471E-002
  -5.0480785118197258E-002   1.5206518634927224E-002   2.1868277664142455E-002
  -4.8151532823750870E-002   1.4419791163657908E-002   2.1446851640427200E-002
  -4.5822280529304496E-002   1.3634136738902486E-002   2.1160933288434880E-002
  -4.3493028234858150E-002   1.2849555360660549E-002   2.1010522608165841E-002
  -4.1163775940411734E-002   1.2066047028932270E-002   2.0995619599620152E-002
  -5.4426422159920773E-002   1.6426462230817923E-002   1.4742586224550283E-002
  -5.1953852389390487E-002   1.5587168386918898E-002   1.4386861787701793E-002
  -4.9481282618860270E-002   1.4765347532299779E-002   1.4182264631298215E-002
  -4.7008712848330053E-002   1.3960999666959262E-002   1.4128794755339003E-002
  -4.4536143077799822E-002   1.3174124790898578E-002   1.4226452159824127E-002
  -5.8323440437034260E-002   1.7646405826708858E-002   7.5561284409452513E-003
  -5.5691933581698896E-002   1.6754545610179930E-002   7.2825055337300965E-003
  -5.3060426726363533E-002   1.5896558325696659E-002   7.1756295156804543E-003
  -5.0428919871028120E-002   1.5072443973258003E-002   7.2355003867963759E-003
  -4.7797413015692812E-002   1.4282202552864970E-002   7.4621181470785267E-003
  -6.2171839949537899E-002   1.8866349422599349E-002   3.0890431332764035E-004
  -5.9365776400675974E-002   1.7921922833440740E-002   1.3378287851084636E-004
  -5.6559712851814214E-002   1.7027769119093872E-002   1.4102794158121768E-004
  -5.3753649302952400E-002   1.6183888279556968E-002   3.3063950253886532E-004
  -5.0947585754090530E-002   1.5390280314831140E-002   7.0261756138334519E-004
  -3.7680311603528471E-002   1.0957969266965795E-002   2.7769620466466471E-002
  -3.5267253765084189E-002   1.0183454154948590E-002   2.7176852732821000E-002
  -3.2854195926639851E-002   9.4355192899396312E-003   2.6728331489228041E-002
  -3.0441138088195541E-002   8.7141646719394311E-003   2.6424056735687429E-002
  -2.8028080249751230E-002   8.0193903009481149E-003   2.6264028472199552E-002
  -4.1163775940411734E-002   1.2066047028932270E-002   2.0995619599620152E-002
  -3.8620043618314837E-002   1.1287856948375752E-002   2.0518448910489262E-002
  -3.6076311296217980E-002   1.0519230323649584E-002   2.0158380698610923E-002
  -3.3532578974121069E-002   9.7601671547531514E-003   1.9915414963985328E-002
  -3.0988846652024171E-002   9.0106674416868815E-003   1.9789551706612396E-002
  -4.4536143077799822E-002   1.3174124790898578E-002   1.4226452159824127E-002
  -4.1888880284850202E-002   1.2392259741803247E-002   1.3847861724029006E-002
  -3.9241617491900568E-002   1.1602941357359203E-002   1.3559229752686919E-002
  -3.6594354698950948E-002   1.0806169637566705E-002   1.3360556245797496E-002
  -3.3947091906001314E-002   1.0001944582425371E-002   1.3251841203360898E-002
  -4.7797413015692812E-002   1.4282202552864970E-002   7.4621181470785267E-003
  -4.5073763764690286E-002   1.3496662535230131E-002   7.1650911734408955E-003
  -4.2350114513687816E-002   1.2686652391068767E-002   6.9308786514561196E-003
  -3.9626465262685276E-002   1.1852172120380120E-002   6.7594805811240256E-003
  -3.6902816011682812E-002   1.0993221723164331E-002   6.6508969624452866E-003
  -5.0947585754090530E-002   1.5390280314831140E-002   7.0261756138334519E-004
  -4.8174694057835032E-002   1.4601065328658125E-002   4.7013725872396828E-004
  -4.5401802361579535E-002   1.3770363424778997E-002   2.7332739491833791E-004
  -4.2628910665323982E-002   1.2898174603193702E-002   1.1218796996539243E-004
  -3.9856018969068541E-002   1.1984498863902626E-002  -1.3281016134625290E-005
  -2.8028080249751230E-002   8.0193903009481149E-003   2.6264028472199552E-002
  -2.5691022455254592E-002   7.3077078469891421E-003   2.5682650284076902E-002
  -2.3353964660757953E-002   6.5356289800866108E-003   2.5046496508638605E-002
  -2.1016906866261315E-002   5.7031537002403196E-003   2.4355567145884605E-002
  -1.8679849071764676E-002   4.8102820074502617E-003   2.3609862195815068E-002
  -3.0988846652024171E-002   9.0106674416868815E-003   1.9789551706612396E-002
  -2.8688421146310747E-002   8.2644289532348703E-003   1.9197119255545458E-002
  -2.6387995640597323E-002   7.5151494581819633E-003   1.8586197814227295E-002
  -2.4087570134883933E-002   6.7628289565279595E-003   1.7956787382658643E-002
  -2.1787144629170474E-002   6.0074674482725188E-003   1.7308887960838737E-002
  -3.3947091906001314E-002   1.0001944582425371E-002   1.3251841203360898E-002
  -3.1647012092006453E-002   9.2211500594805151E-003   1.2705709895692058E-002
  -2.9346932278011564E-002   8.4946699362773298E-003   1.2177376194837192E-002
  -2.7046852464016634E-002   7.8225042128153809E-003   1.1666840100796057E-002
  -2.4746772650021703E-002   7.2046528890948869E-003   1.1174101613568799E-002
  -3.6902816011682812E-002   1.0993221723164331E-002   6.6508969624452866E-003
  -3.4566795292341745E-002   1.0177871165726368E-002   6.2084222045172902E-003
  -3.2230774573000581E-002   9.4741904143725783E-003   5.8200316504681028E-003
  -2.9894753853659549E-002   8.8821794691031335E-003   5.4857253002971226E-003
  -2.7558733134318343E-002   8.4018383299175325E-003   5.2055031540049340E-003
  -3.9856018969068541E-002   1.1984498863902626E-002  -1.3281016134625290E-005
  -3.7447770747316533E-002   1.1134592271971666E-002  -2.9474381797922611E-004
  -3.5039522525564526E-002   1.0453710892468215E-002  -4.8583581888014815E-004
  -3.2631274303812491E-002   9.9418547253910389E-003  -5.8655701883841144E-004
  -3.0223026082060511E-002   9.5990237707397341E-003  -5.9690741785289880E-004
  -1.8679849071764676E-002   4.8102820074502617E-003   2.3609862195815068E-002
  -1.5655842912101176E-002   4.0773575646677607E-003   2.4395973629337098E-002
  -1.2631836752437731E-002   3.7247240348446398E-003   2.5656443633403136E-002
  -9.6078305927742302E-003   3.7523814179804132E-003   2.7391272208013101E-002
  -6.5838244331107854E-003   4.1603297140750950E-003   2.9600459353167130E-002
  -2.1787144629170474E-002   6.0074674482725188E-003   1.7308887960838737E-002
  -1.8558175806354979E-002   5.3419885404528133E-003   1.8254819583738924E-002
  -1.5329206983539415E-002   4.8593158401046277E-003   1.9136317962398619E-002
  -1.2100238160723843E-002   4.5594493472281700E-003   1.9953383096818628E-002
  -8.8712693379083551E-003   4.4423890618233708E-003   2.0706014986998755E-002
  -2.4746772650021703E-002   7.2046528890948869E-003   1.1174101613568799E-002
  -2.1851632978838166E-002   6.6066195162377550E-003   1.2082368720359116E-002
  -1.8956493307654629E-002   5.9939076453646989E-003   1.2387410768125759E-002
  -1.6061353636471008E-002   5.3665172764759198E-003   1.2089227756868215E-002
  -1.3166213965287554E-002   4.7244484095713135E-003   1.1187819686586609E-002
  -2.7558733134318343E-002   8.4018383299175325E-003   5.2055031540049340E-003
  -2.5536214429550869E-002   7.8712504920224191E-003   5.8786210391987351E-003
  -2.3513695724783356E-002   7.1284994506250060E-003   5.4097220505841814E-003
  -2.1491177020015857E-002   6.1735852057234510E-003   3.7988061881616235E-003
  -1.9468658315248369E-002   5.0065077573200889E-003   1.0458734519315088E-003
  -3.0223026082060511E-002   9.5990237707397341E-003  -5.9690741785289880E-004
  -2.9611920158493121E-002   9.1358814678075273E-003  -3.5642345974351564E-004
  -2.9000814234925620E-002   8.2630912558843694E-003  -1.7967481902259885E-003
  -2.8389708311358119E-002   6.9806531349719397E-003  -4.9178816093003661E-003
  -2.7778602387790730E-002   5.2885671050677541E-003  -9.7198237169671131E-003
  -6.5838244331107854E-003   4.1603297140750950E-003   2.9600459353167130E-002
  -6.0558624231579761E-003   6.1429896404300299E-003   3.4077217712589425E-002
  -5.5279004132051668E-003   1.0894781914345786E-002   3.9239174647053288E-002
  -4.9999384032523020E-003   1.8415706535822446E-002   4.5086330156559384E-002
  -4.4719763932995482E-003   2.8705763504860204E-002   5.1618684241108159E-002
  -8.8712693379083551E-003   4.4423890618233708E-003   2.0706014986998755E-002
  -7.5857978249580099E-003   5.6586626408663410E-003   2.5874081486286560E-002
  -6.3003263120076508E-003   9.3587977413329970E-003   3.1871968416527341E-002
  -5.0148547990575068E-003   1.5542794363222763E-002   3.8699675777721182E-002
  -3.7293832861069465E-003   2.4210652506536645E-002   4.6357203569867611E-002
  -1.3166213965287554E-002   4.7244484095713135E-003   1.1187819686586609E-002
  -1.0978611093428944E-002   5.1743356413024855E-003   1.6761923499603287E-002
  -8.7910082215704455E-003   7.8228135683198752E-003   2.3310469599483769E-002
  -6.6034053497119188E-003   1.2669882190623746E-002   3.0833457986228344E-002
  -4.4158024778533367E-003   1.9715541508213308E-002   3.9330888659835472E-002
  -1.9468658315248369E-002   5.0065077573200889E-003   1.0458734519315088E-003
  -1.6234302228570679E-002   4.6900086417392683E-003   6.7407437525391981E-003
  -1.2999946141893128E-002   6.2868293953073640E-003   1.3554678195921842E-002
  -9.7655900552156734E-003   9.7969700180242855E-003   2.1487676782078996E-002
  -6.5312339685378862E-003   1.5220430509889971E-002   3.0539739511010217E-002
  -2.7778602387790730E-002   5.2885671050677541E-003  -9.7198237169671131E-003
  -2.3352871230383321E-002   4.2056816421756071E-003  -4.1894577549048684E-003
  -1.8927140072975968E-002   4.7508452222940201E-003   2.6045942058420535E-003
  -1.4501408915568420E-002   6.9240578454250606E-003   1.0662332165275269E-002
  -1.0075677758161206E-002   1.0725319511566411E-002   1.9983756123392205E-002
 </DataArray>
 </PointData>
 </Piece>
 </UnstructuredGrid>
 </VTKFile>
