 <VTKFile type="UnstructuredGrid"  version="0.1"   >
 <UnstructuredGrid>
 <Piece  NumberOfPoints="           400 "  NumberOfCells="          256 ">
 <Points>
 <DataArray  type="Float64" NumberOfComponents="3"  format="ascii" >
   0.0000000000000000        0.0000000000000000        0.0000000000000000     
   6.2500000000000000E-002   0.0000000000000000        0.0000000000000000     
  0.12500000000000000        0.0000000000000000        0.0000000000000000     
  0.18750000000000000        0.0000000000000000        0.0000000000000000     
  0.25000000000000000        0.0000000000000000        0.0000000000000000     
   0.0000000000000000        6.2500000000000000E-002   0.0000000000000000     
   6.2500000000000000E-002   6.2500000000000000E-002   0.0000000000000000     
  0.12500000000000000        6.2500000000000000E-002   0.0000000000000000     
  0.18750000000000000        6.2500000000000000E-002   0.0000000000000000     
  0.25000000000000000        6.2500000000000000E-002   0.0000000000000000     
   0.0000000000000000       0.12500000000000000        0.0000000000000000     
   6.2500000000000000E-002  0.12500000000000000        0.0000000000000000     
  0.12500000000000000       0.12500000000000000        0.0000000000000000     
  0.18750000000000000       0.12500000000000000        0.0000000000000000     
  0.25000000000000000       0.12500000000000000        0.0000000000000000     
   0.0000000000000000       0.18750000000000000        0.0000000000000000     
   6.2500000000000000E-002  0.18750000000000000        0.0000000000000000     
  0.12500000000000000       0.18750000000000000        0.0000000000000000     
  0.18750000000000000       0.18750000000000000        0.0000000000000000     
  0.25000000000000000       0.18750000000000000        0.0000000000000000     
   0.0000000000000000       0.25000000000000000        0.0000000000000000     
   6.2500000000000000E-002  0.25000000000000000        0.0000000000000000     
  0.12500000000000000       0.25000000000000000        0.0000000000000000     
  0.18750000000000000       0.25000000000000000        0.0000000000000000     
  0.25000000000000000       0.25000000000000000        0.0000000000000000     
  0.25000000000000000        0.0000000000000000        0.0000000000000000     
  0.31250000000000000        0.0000000000000000        0.0000000000000000     
  0.37500000000000000        0.0000000000000000        0.0000000000000000     
  0.43750000000000000        0.0000000000000000        0.0000000000000000     
  0.50000000000000000        0.0000000000000000        0.0000000000000000     
  0.25000000000000000        6.2500000000000000E-002   0.0000000000000000     
  0.31250000000000000        6.2500000000000000E-002   0.0000000000000000     
  0.37500000000000000        6.2500000000000000E-002   0.0000000000000000     
  0.43750000000000000        6.2500000000000000E-002   0.0000000000000000     
  0.50000000000000000        6.2500000000000000E-002   0.0000000000000000     
  0.25000000000000000       0.12500000000000000        0.0000000000000000     
  0.31250000000000000       0.12500000000000000        0.0000000000000000     
  0.37500000000000000       0.12500000000000000        0.0000000000000000     
  0.43750000000000000       0.12500000000000000        0.0000000000000000     
  0.50000000000000000       0.12500000000000000        0.0000000000000000     
  0.25000000000000000       0.18750000000000000        0.0000000000000000     
  0.31250000000000000       0.18750000000000000        0.0000000000000000     
  0.37500000000000000       0.18750000000000000        0.0000000000000000     
  0.43750000000000000       0.18750000000000000        0.0000000000000000     
  0.50000000000000000       0.18750000000000000        0.0000000000000000     
  0.25000000000000000       0.25000000000000000        0.0000000000000000     
  0.31250000000000000       0.25000000000000000        0.0000000000000000     
  0.37500000000000000       0.25000000000000000        0.0000000000000000     
  0.43750000000000000       0.25000000000000000        0.0000000000000000     
  0.50000000000000000       0.25000000000000000        0.0000000000000000     
  0.50000000000000000        0.0000000000000000        0.0000000000000000     
  0.56250000000000000        0.0000000000000000        0.0000000000000000     
  0.62500000000000000        0.0000000000000000        0.0000000000000000     
  0.68750000000000000        0.0000000000000000        0.0000000000000000     
  0.75000000000000000        0.0000000000000000        0.0000000000000000     
  0.50000000000000000        6.2500000000000000E-002   0.0000000000000000     
  0.56250000000000000        6.2500000000000000E-002   0.0000000000000000     
  0.62500000000000000        6.2500000000000000E-002   0.0000000000000000     
  0.68750000000000000        6.2500000000000000E-002   0.0000000000000000     
  0.75000000000000000        6.2500000000000000E-002   0.0000000000000000     
  0.50000000000000000       0.12500000000000000        0.0000000000000000     
  0.56250000000000000       0.12500000000000000        0.0000000000000000     
  0.62500000000000000       0.12500000000000000        0.0000000000000000     
  0.68750000000000000       0.12500000000000000        0.0000000000000000     
  0.75000000000000000       0.12500000000000000        0.0000000000000000     
  0.50000000000000000       0.18750000000000000        0.0000000000000000     
  0.56250000000000000       0.18750000000000000        0.0000000000000000     
  0.62500000000000000       0.18750000000000000        0.0000000000000000     
  0.68750000000000000       0.18750000000000000        0.0000000000000000     
  0.75000000000000000       0.18750000000000000        0.0000000000000000     
  0.50000000000000000       0.25000000000000000        0.0000000000000000     
  0.56250000000000000       0.25000000000000000        0.0000000000000000     
  0.62500000000000000       0.25000000000000000        0.0000000000000000     
  0.68750000000000000       0.25000000000000000        0.0000000000000000     
  0.75000000000000000       0.25000000000000000        0.0000000000000000     
  0.75000000000000000        0.0000000000000000        0.0000000000000000     
  0.81250000000000000        0.0000000000000000        0.0000000000000000     
  0.87500000000000000        0.0000000000000000        0.0000000000000000     
  0.93750000000000000        0.0000000000000000        0.0000000000000000     
   1.0000000000000000        0.0000000000000000        0.0000000000000000     
  0.75000000000000000        6.2500000000000000E-002   0.0000000000000000     
  0.81250000000000000        6.2500000000000000E-002   0.0000000000000000     
  0.87500000000000000        6.2500000000000000E-002   0.0000000000000000     
  0.93750000000000000        6.2500000000000000E-002   0.0000000000000000     
   1.0000000000000000        6.2500000000000000E-002   0.0000000000000000     
  0.75000000000000000       0.12500000000000000        0.0000000000000000     
  0.81250000000000000       0.12500000000000000        0.0000000000000000     
  0.87500000000000000       0.12500000000000000        0.0000000000000000     
  0.93750000000000000       0.12500000000000000        0.0000000000000000     
   1.0000000000000000       0.12500000000000000        0.0000000000000000     
  0.75000000000000000       0.18750000000000000        0.0000000000000000     
  0.81250000000000000       0.18750000000000000        0.0000000000000000     
  0.87500000000000000       0.18750000000000000        0.0000000000000000     
  0.93750000000000000       0.18750000000000000        0.0000000000000000     
   1.0000000000000000       0.18750000000000000        0.0000000000000000     
  0.75000000000000000       0.25000000000000000        0.0000000000000000     
  0.81250000000000000       0.25000000000000000        0.0000000000000000     
  0.87500000000000000       0.25000000000000000        0.0000000000000000     
  0.93750000000000000       0.25000000000000000        0.0000000000000000     
   1.0000000000000000       0.25000000000000000        0.0000000000000000     
   0.0000000000000000       0.25000000000000000        0.0000000000000000     
   6.2500000000000000E-002  0.25000000000000000        0.0000000000000000     
  0.12500000000000000       0.25000000000000000        0.0000000000000000     
  0.18750000000000000       0.25000000000000000        0.0000000000000000     
  0.25000000000000000       0.25000000000000000        0.0000000000000000     
   0.0000000000000000       0.31250000000000000        0.0000000000000000     
   6.2500000000000000E-002  0.31250000000000000        0.0000000000000000     
  0.12500000000000000       0.31250000000000000        0.0000000000000000     
  0.18750000000000000       0.31250000000000000        0.0000000000000000     
  0.25000000000000000       0.31250000000000000        0.0000000000000000     
   0.0000000000000000       0.37500000000000000        0.0000000000000000     
   6.2500000000000000E-002  0.37500000000000000        0.0000000000000000     
  0.12500000000000000       0.37500000000000000        0.0000000000000000     
  0.18750000000000000       0.37500000000000000        0.0000000000000000     
  0.25000000000000000       0.37500000000000000        0.0000000000000000     
   0.0000000000000000       0.43750000000000000        0.0000000000000000     
   6.2500000000000000E-002  0.43750000000000000        0.0000000000000000     
  0.12500000000000000       0.43750000000000000        0.0000000000000000     
  0.18750000000000000       0.43750000000000000        0.0000000000000000     
  0.25000000000000000       0.43750000000000000        0.0000000000000000     
   0.0000000000000000       0.50000000000000000        0.0000000000000000     
   6.2500000000000000E-002  0.50000000000000000        0.0000000000000000     
  0.12500000000000000       0.50000000000000000        0.0000000000000000     
  0.18750000000000000       0.50000000000000000        0.0000000000000000     
  0.25000000000000000       0.50000000000000000        0.0000000000000000     
  0.25000000000000000       0.25000000000000000        0.0000000000000000     
  0.31250000000000000       0.25000000000000000        0.0000000000000000     
  0.37500000000000000       0.25000000000000000        0.0000000000000000     
  0.43750000000000000       0.25000000000000000        0.0000000000000000     
  0.50000000000000000       0.25000000000000000        0.0000000000000000     
  0.25000000000000000       0.31250000000000000        0.0000000000000000     
  0.31250000000000000       0.31250000000000000        0.0000000000000000     
  0.37500000000000000       0.31250000000000000        0.0000000000000000     
  0.43750000000000000       0.31250000000000000        0.0000000000000000     
  0.50000000000000000       0.31250000000000000        0.0000000000000000     
  0.25000000000000000       0.37500000000000000        0.0000000000000000     
  0.31250000000000000       0.37500000000000000        0.0000000000000000     
  0.37500000000000000       0.37500000000000000        0.0000000000000000     
  0.43750000000000000       0.37500000000000000        0.0000000000000000     
  0.50000000000000000       0.37500000000000000        0.0000000000000000     
  0.25000000000000000       0.43750000000000000        0.0000000000000000     
  0.31250000000000000       0.43750000000000000        0.0000000000000000     
  0.37500000000000000       0.43750000000000000        0.0000000000000000     
  0.43750000000000000       0.43750000000000000        0.0000000000000000     
  0.50000000000000000       0.43750000000000000        0.0000000000000000     
  0.25000000000000000       0.50000000000000000        0.0000000000000000     
  0.31250000000000000       0.50000000000000000        0.0000000000000000     
  0.37500000000000000       0.50000000000000000        0.0000000000000000     
  0.43750000000000000       0.50000000000000000        0.0000000000000000     
  0.50000000000000000       0.50000000000000000        0.0000000000000000     
  0.50000000000000000       0.25000000000000000        0.0000000000000000     
  0.56250000000000000       0.25000000000000000        0.0000000000000000     
  0.62500000000000000       0.25000000000000000        0.0000000000000000     
  0.68750000000000000       0.25000000000000000        0.0000000000000000     
  0.75000000000000000       0.25000000000000000        0.0000000000000000     
  0.50000000000000000       0.31250000000000000        0.0000000000000000     
  0.56250000000000000       0.31250000000000000        0.0000000000000000     
  0.62500000000000000       0.31250000000000000        0.0000000000000000     
  0.68750000000000000       0.31250000000000000        0.0000000000000000     
  0.75000000000000000       0.31250000000000000        0.0000000000000000     
  0.50000000000000000       0.37500000000000000        0.0000000000000000     
  0.56250000000000000       0.37500000000000000        0.0000000000000000     
  0.62500000000000000       0.37500000000000000        0.0000000000000000     
  0.68750000000000000       0.37500000000000000        0.0000000000000000     
  0.75000000000000000       0.37500000000000000        0.0000000000000000     
  0.50000000000000000       0.43750000000000000        0.0000000000000000     
  0.56250000000000000       0.43750000000000000        0.0000000000000000     
  0.62500000000000000       0.43750000000000000        0.0000000000000000     
  0.68750000000000000       0.43750000000000000        0.0000000000000000     
  0.75000000000000000       0.43750000000000000        0.0000000000000000     
  0.50000000000000000       0.50000000000000000        0.0000000000000000     
  0.56250000000000000       0.50000000000000000        0.0000000000000000     
  0.62500000000000000       0.50000000000000000        0.0000000000000000     
  0.68750000000000000       0.50000000000000000        0.0000000000000000     
  0.75000000000000000       0.50000000000000000        0.0000000000000000     
  0.75000000000000000       0.25000000000000000        0.0000000000000000     
  0.81250000000000000       0.25000000000000000        0.0000000000000000     
  0.87500000000000000       0.25000000000000000        0.0000000000000000     
  0.93750000000000000       0.25000000000000000        0.0000000000000000     
   1.0000000000000000       0.25000000000000000        0.0000000000000000     
  0.75000000000000000       0.31250000000000000        0.0000000000000000     
  0.81250000000000000       0.31250000000000000        0.0000000000000000     
  0.87500000000000000       0.31250000000000000        0.0000000000000000     
  0.93750000000000000       0.31250000000000000        0.0000000000000000     
   1.0000000000000000       0.31250000000000000        0.0000000000000000     
  0.75000000000000000       0.37500000000000000        0.0000000000000000     
  0.81250000000000000       0.37500000000000000        0.0000000000000000     
  0.87500000000000000       0.37500000000000000        0.0000000000000000     
  0.93750000000000000       0.37500000000000000        0.0000000000000000     
   1.0000000000000000       0.37500000000000000        0.0000000000000000     
  0.75000000000000000       0.43750000000000000        0.0000000000000000     
  0.81250000000000000       0.43750000000000000        0.0000000000000000     
  0.87500000000000000       0.43750000000000000        0.0000000000000000     
  0.93750000000000000       0.43750000000000000        0.0000000000000000     
   1.0000000000000000       0.43750000000000000        0.0000000000000000     
  0.75000000000000000       0.50000000000000000        0.0000000000000000     
  0.81250000000000000       0.50000000000000000        0.0000000000000000     
  0.87500000000000000       0.50000000000000000        0.0000000000000000     
  0.93750000000000000       0.50000000000000000        0.0000000000000000     
   1.0000000000000000       0.50000000000000000        0.0000000000000000     
   0.0000000000000000       0.50000000000000000        0.0000000000000000     
   6.2500000000000000E-002  0.50000000000000000        0.0000000000000000     
  0.12500000000000000       0.50000000000000000        0.0000000000000000     
  0.18750000000000000       0.50000000000000000        0.0000000000000000     
  0.25000000000000000       0.50000000000000000        0.0000000000000000     
   0.0000000000000000       0.56250000000000000        0.0000000000000000     
   6.2500000000000000E-002  0.56250000000000000        0.0000000000000000     
  0.12500000000000000       0.56250000000000000        0.0000000000000000     
  0.18750000000000000       0.56250000000000000        0.0000000000000000     
  0.25000000000000000       0.56250000000000000        0.0000000000000000     
   0.0000000000000000       0.62500000000000000        0.0000000000000000     
   6.2500000000000000E-002  0.62500000000000000        0.0000000000000000     
  0.12500000000000000       0.62500000000000000        0.0000000000000000     
  0.18750000000000000       0.62500000000000000        0.0000000000000000     
  0.25000000000000000       0.62500000000000000        0.0000000000000000     
   0.0000000000000000       0.68750000000000000        0.0000000000000000     
   6.2500000000000000E-002  0.68750000000000000        0.0000000000000000     
  0.12500000000000000       0.68750000000000000        0.0000000000000000     
  0.18750000000000000       0.68750000000000000        0.0000000000000000     
  0.25000000000000000       0.68750000000000000        0.0000000000000000     
   0.0000000000000000       0.75000000000000000        0.0000000000000000     
   6.2500000000000000E-002  0.75000000000000000        0.0000000000000000     
  0.12500000000000000       0.75000000000000000        0.0000000000000000     
  0.18750000000000000       0.75000000000000000        0.0000000000000000     
  0.25000000000000000       0.75000000000000000        0.0000000000000000     
  0.25000000000000000       0.50000000000000000        0.0000000000000000     
  0.31250000000000000       0.50000000000000000        0.0000000000000000     
  0.37500000000000000       0.50000000000000000        0.0000000000000000     
  0.43750000000000000       0.50000000000000000        0.0000000000000000     
  0.50000000000000000       0.50000000000000000        0.0000000000000000     
  0.25000000000000000       0.56250000000000000        0.0000000000000000     
  0.31250000000000000       0.56250000000000000        0.0000000000000000     
  0.37500000000000000       0.56250000000000000        0.0000000000000000     
  0.43750000000000000       0.56250000000000000        0.0000000000000000     
  0.50000000000000000       0.56250000000000000        0.0000000000000000     
  0.25000000000000000       0.62500000000000000        0.0000000000000000     
  0.31250000000000000       0.62500000000000000        0.0000000000000000     
  0.37500000000000000       0.62500000000000000        0.0000000000000000     
  0.43750000000000000       0.62500000000000000        0.0000000000000000     
  0.50000000000000000       0.62500000000000000        0.0000000000000000     
  0.25000000000000000       0.68750000000000000        0.0000000000000000     
  0.31250000000000000       0.68750000000000000        0.0000000000000000     
  0.37500000000000000       0.68750000000000000        0.0000000000000000     
  0.43750000000000000       0.68750000000000000        0.0000000000000000     
  0.50000000000000000       0.68750000000000000        0.0000000000000000     
  0.25000000000000000       0.75000000000000000        0.0000000000000000     
  0.31250000000000000       0.75000000000000000        0.0000000000000000     
  0.37500000000000000       0.75000000000000000        0.0000000000000000     
  0.43750000000000000       0.75000000000000000        0.0000000000000000     
  0.50000000000000000       0.75000000000000000        0.0000000000000000     
  0.50000000000000000       0.50000000000000000        0.0000000000000000     
  0.56250000000000000       0.50000000000000000        0.0000000000000000     
  0.62500000000000000       0.50000000000000000        0.0000000000000000     
  0.68750000000000000       0.50000000000000000        0.0000000000000000     
  0.75000000000000000       0.50000000000000000        0.0000000000000000     
  0.50000000000000000       0.56250000000000000        0.0000000000000000     
  0.56250000000000000       0.56250000000000000        0.0000000000000000     
  0.62500000000000000       0.56250000000000000        0.0000000000000000     
  0.68750000000000000       0.56250000000000000        0.0000000000000000     
  0.75000000000000000       0.56250000000000000        0.0000000000000000     
  0.50000000000000000       0.62500000000000000        0.0000000000000000     
  0.56250000000000000       0.62500000000000000        0.0000000000000000     
  0.62500000000000000       0.62500000000000000        0.0000000000000000     
  0.68750000000000000       0.62500000000000000        0.0000000000000000     
  0.75000000000000000       0.62500000000000000        0.0000000000000000     
  0.50000000000000000       0.68750000000000000        0.0000000000000000     
  0.56250000000000000       0.68750000000000000        0.0000000000000000     
  0.62500000000000000       0.68750000000000000        0.0000000000000000     
  0.68750000000000000       0.68750000000000000        0.0000000000000000     
  0.75000000000000000       0.68750000000000000        0.0000000000000000     
  0.50000000000000000       0.75000000000000000        0.0000000000000000     
  0.56250000000000000       0.75000000000000000        0.0000000000000000     
  0.62500000000000000       0.75000000000000000        0.0000000000000000     
  0.68750000000000000       0.75000000000000000        0.0000000000000000     
  0.75000000000000000       0.75000000000000000        0.0000000000000000     
  0.75000000000000000       0.50000000000000000        0.0000000000000000     
  0.81250000000000000       0.50000000000000000        0.0000000000000000     
  0.87500000000000000       0.50000000000000000        0.0000000000000000     
  0.93750000000000000       0.50000000000000000        0.0000000000000000     
   1.0000000000000000       0.50000000000000000        0.0000000000000000     
  0.75000000000000000       0.56250000000000000        0.0000000000000000     
  0.81250000000000000       0.56250000000000000        0.0000000000000000     
  0.87500000000000000       0.56250000000000000        0.0000000000000000     
  0.93750000000000000       0.56250000000000000        0.0000000000000000     
   1.0000000000000000       0.56250000000000000        0.0000000000000000     
  0.75000000000000000       0.62500000000000000        0.0000000000000000     
  0.81250000000000000       0.62500000000000000        0.0000000000000000     
  0.87500000000000000       0.62500000000000000        0.0000000000000000     
  0.93750000000000000       0.62500000000000000        0.0000000000000000     
   1.0000000000000000       0.62500000000000000        0.0000000000000000     
  0.75000000000000000       0.68750000000000000        0.0000000000000000     
  0.81250000000000000       0.68750000000000000        0.0000000000000000     
  0.87500000000000000       0.68750000000000000        0.0000000000000000     
  0.93750000000000000       0.68750000000000000        0.0000000000000000     
   1.0000000000000000       0.68750000000000000        0.0000000000000000     
  0.75000000000000000       0.75000000000000000        0.0000000000000000     
  0.81250000000000000       0.75000000000000000        0.0000000000000000     
  0.87500000000000000       0.75000000000000000        0.0000000000000000     
  0.93750000000000000       0.75000000000000000        0.0000000000000000     
   1.0000000000000000       0.75000000000000000        0.0000000000000000     
   0.0000000000000000       0.75000000000000000        0.0000000000000000     
   6.2500000000000000E-002  0.75000000000000000        0.0000000000000000     
  0.12500000000000000       0.75000000000000000        0.0000000000000000     
  0.18750000000000000       0.75000000000000000        0.0000000000000000     
  0.25000000000000000       0.75000000000000000        0.0000000000000000     
   0.0000000000000000       0.81250000000000000        0.0000000000000000     
   6.2500000000000000E-002  0.81250000000000000        0.0000000000000000     
  0.12500000000000000       0.81250000000000000        0.0000000000000000     
  0.18750000000000000       0.81250000000000000        0.0000000000000000     
  0.25000000000000000       0.81250000000000000        0.0000000000000000     
   0.0000000000000000       0.87500000000000000        0.0000000000000000     
   6.2500000000000000E-002  0.87500000000000000        0.0000000000000000     
  0.12500000000000000       0.87500000000000000        0.0000000000000000     
  0.18750000000000000       0.87500000000000000        0.0000000000000000     
  0.25000000000000000       0.87500000000000000        0.0000000000000000     
   0.0000000000000000       0.93750000000000000        0.0000000000000000     
   6.2500000000000000E-002  0.93750000000000000        0.0000000000000000     
  0.12500000000000000       0.93750000000000000        0.0000000000000000     
  0.18750000000000000       0.93750000000000000        0.0000000000000000     
  0.25000000000000000       0.93750000000000000        0.0000000000000000     
   0.0000000000000000        1.0000000000000000        0.0000000000000000     
   6.2500000000000000E-002   1.0000000000000000        0.0000000000000000     
  0.12500000000000000        1.0000000000000000        0.0000000000000000     
  0.18750000000000000        1.0000000000000000        0.0000000000000000     
  0.25000000000000000        1.0000000000000000        0.0000000000000000     
  0.25000000000000000       0.75000000000000000        0.0000000000000000     
  0.31250000000000000       0.75000000000000000        0.0000000000000000     
  0.37500000000000000       0.75000000000000000        0.0000000000000000     
  0.43750000000000000       0.75000000000000000        0.0000000000000000     
  0.50000000000000000       0.75000000000000000        0.0000000000000000     
  0.25000000000000000       0.81250000000000000        0.0000000000000000     
  0.31250000000000000       0.81250000000000000        0.0000000000000000     
  0.37500000000000000       0.81250000000000000        0.0000000000000000     
  0.43750000000000000       0.81250000000000000        0.0000000000000000     
  0.50000000000000000       0.81250000000000000        0.0000000000000000     
  0.25000000000000000       0.87500000000000000        0.0000000000000000     
  0.31250000000000000       0.87500000000000000        0.0000000000000000     
  0.37500000000000000       0.87500000000000000        0.0000000000000000     
  0.43750000000000000       0.87500000000000000        0.0000000000000000     
  0.50000000000000000       0.87500000000000000        0.0000000000000000     
  0.25000000000000000       0.93750000000000000        0.0000000000000000     
  0.31250000000000000       0.93750000000000000        0.0000000000000000     
  0.37500000000000000       0.93750000000000000        0.0000000000000000     
  0.43750000000000000       0.93750000000000000        0.0000000000000000     
  0.50000000000000000       0.93750000000000000        0.0000000000000000     
  0.25000000000000000        1.0000000000000000        0.0000000000000000     
  0.31250000000000000        1.0000000000000000        0.0000000000000000     
  0.37500000000000000        1.0000000000000000        0.0000000000000000     
  0.43750000000000000        1.0000000000000000        0.0000000000000000     
  0.50000000000000000        1.0000000000000000        0.0000000000000000     
  0.50000000000000000       0.75000000000000000        0.0000000000000000     
  0.56250000000000000       0.75000000000000000        0.0000000000000000     
  0.62500000000000000       0.75000000000000000        0.0000000000000000     
  0.68750000000000000       0.75000000000000000        0.0000000000000000     
  0.75000000000000000       0.75000000000000000        0.0000000000000000     
  0.50000000000000000       0.81250000000000000        0.0000000000000000     
  0.56250000000000000       0.81250000000000000        0.0000000000000000     
  0.62500000000000000       0.81250000000000000        0.0000000000000000     
  0.68750000000000000       0.81250000000000000        0.0000000000000000     
  0.75000000000000000       0.81250000000000000        0.0000000000000000     
  0.50000000000000000       0.87500000000000000        0.0000000000000000     
  0.56250000000000000       0.87500000000000000        0.0000000000000000     
  0.62500000000000000       0.87500000000000000        0.0000000000000000     
  0.68750000000000000       0.87500000000000000        0.0000000000000000     
  0.75000000000000000       0.87500000000000000        0.0000000000000000     
  0.50000000000000000       0.93750000000000000        0.0000000000000000     
  0.56250000000000000       0.93750000000000000        0.0000000000000000     
  0.62500000000000000       0.93750000000000000        0.0000000000000000     
  0.68750000000000000       0.93750000000000000        0.0000000000000000     
  0.75000000000000000       0.93750000000000000        0.0000000000000000     
  0.50000000000000000        1.0000000000000000        0.0000000000000000     
  0.56250000000000000        1.0000000000000000        0.0000000000000000     
  0.62500000000000000        1.0000000000000000        0.0000000000000000     
  0.68750000000000000        1.0000000000000000        0.0000000000000000     
  0.75000000000000000        1.0000000000000000        0.0000000000000000     
  0.75000000000000000       0.75000000000000000        0.0000000000000000     
  0.81250000000000000       0.75000000000000000        0.0000000000000000     
  0.87500000000000000       0.75000000000000000        0.0000000000000000     
  0.93750000000000000       0.75000000000000000        0.0000000000000000     
   1.0000000000000000       0.75000000000000000        0.0000000000000000     
  0.75000000000000000       0.81250000000000000        0.0000000000000000     
  0.81250000000000000       0.81250000000000000        0.0000000000000000     
  0.87500000000000000       0.81250000000000000        0.0000000000000000     
  0.93750000000000000       0.81250000000000000        0.0000000000000000     
   1.0000000000000000       0.81250000000000000        0.0000000000000000     
  0.75000000000000000       0.87500000000000000        0.0000000000000000     
  0.81250000000000000       0.87500000000000000        0.0000000000000000     
  0.87500000000000000       0.87500000000000000        0.0000000000000000     
  0.93750000000000000       0.87500000000000000        0.0000000000000000     
   1.0000000000000000       0.87500000000000000        0.0000000000000000     
  0.75000000000000000       0.93750000000000000        0.0000000000000000     
  0.81250000000000000       0.93750000000000000        0.0000000000000000     
  0.87500000000000000       0.93750000000000000        0.0000000000000000     
  0.93750000000000000       0.93750000000000000        0.0000000000000000     
   1.0000000000000000       0.93750000000000000        0.0000000000000000     
  0.75000000000000000        1.0000000000000000        0.0000000000000000     
  0.81250000000000000        1.0000000000000000        0.0000000000000000     
  0.87500000000000000        1.0000000000000000        0.0000000000000000     
  0.93750000000000000        1.0000000000000000        0.0000000000000000     
   1.0000000000000000        1.0000000000000000        0.0000000000000000     
 </DataArray>
 </Points>
 <Cells>
 <DataArray  type="Int32"  Name="connectivity"  format="ascii">
           0           1           6           5
           1           2           7           6
           2           3           8           7
           3           4           9           8
           5           6          11          10
           6           7          12          11
           7           8          13          12
           8           9          14          13
          10          11          16          15
          11          12          17          16
          12          13          18          17
          13          14          19          18
          15          16          21          20
          16          17          22          21
          17          18          23          22
          18          19          24          23
          25          26          31          30
          26          27          32          31
          27          28          33          32
          28          29          34          33
          30          31          36          35
          31          32          37          36
          32          33          38          37
          33          34          39          38
          35          36          41          40
          36          37          42          41
          37          38          43          42
          38          39          44          43
          40          41          46          45
          41          42          47          46
          42          43          48          47
          43          44          49          48
          50          51          56          55
          51          52          57          56
          52          53          58          57
          53          54          59          58
          55          56          61          60
          56          57          62          61
          57          58          63          62
          58          59          64          63
          60          61          66          65
          61          62          67          66
          62          63          68          67
          63          64          69          68
          65          66          71          70
          66          67          72          71
          67          68          73          72
          68          69          74          73
          75          76          81          80
          76          77          82          81
          77          78          83          82
          78          79          84          83
          80          81          86          85
          81          82          87          86
          82          83          88          87
          83          84          89          88
          85          86          91          90
          86          87          92          91
          87          88          93          92
          88          89          94          93
          90          91          96          95
          91          92          97          96
          92          93          98          97
          93          94          99          98
         100         101         106         105
         101         102         107         106
         102         103         108         107
         103         104         109         108
         105         106         111         110
         106         107         112         111
         107         108         113         112
         108         109         114         113
         110         111         116         115
         111         112         117         116
         112         113         118         117
         113         114         119         118
         115         116         121         120
         116         117         122         121
         117         118         123         122
         118         119         124         123
         125         126         131         130
         126         127         132         131
         127         128         133         132
         128         129         134         133
         130         131         136         135
         131         132         137         136
         132         133         138         137
         133         134         139         138
         135         136         141         140
         136         137         142         141
         137         138         143         142
         138         139         144         143
         140         141         146         145
         141         142         147         146
         142         143         148         147
         143         144         149         148
         150         151         156         155
         151         152         157         156
         152         153         158         157
         153         154         159         158
         155         156         161         160
         156         157         162         161
         157         158         163         162
         158         159         164         163
         160         161         166         165
         161         162         167         166
         162         163         168         167
         163         164         169         168
         165         166         171         170
         166         167         172         171
         167         168         173         172
         168         169         174         173
         175         176         181         180
         176         177         182         181
         177         178         183         182
         178         179         184         183
         180         181         186         185
         181         182         187         186
         182         183         188         187
         183         184         189         188
         185         186         191         190
         186         187         192         191
         187         188         193         192
         188         189         194         193
         190         191         196         195
         191         192         197         196
         192         193         198         197
         193         194         199         198
         200         201         206         205
         201         202         207         206
         202         203         208         207
         203         204         209         208
         205         206         211         210
         206         207         212         211
         207         208         213         212
         208         209         214         213
         210         211         216         215
         211         212         217         216
         212         213         218         217
         213         214         219         218
         215         216         221         220
         216         217         222         221
         217         218         223         222
         218         219         224         223
         225         226         231         230
         226         227         232         231
         227         228         233         232
         228         229         234         233
         230         231         236         235
         231         232         237         236
         232         233         238         237
         233         234         239         238
         235         236         241         240
         236         237         242         241
         237         238         243         242
         238         239         244         243
         240         241         246         245
         241         242         247         246
         242         243         248         247
         243         244         249         248
         250         251         256         255
         251         252         257         256
         252         253         258         257
         253         254         259         258
         255         256         261         260
         256         257         262         261
         257         258         263         262
         258         259         264         263
         260         261         266         265
         261         262         267         266
         262         263         268         267
         263         264         269         268
         265         266         271         270
         266         267         272         271
         267         268         273         272
         268         269         274         273
         275         276         281         280
         276         277         282         281
         277         278         283         282
         278         279         284         283
         280         281         286         285
         281         282         287         286
         282         283         288         287
         283         284         289         288
         285         286         291         290
         286         287         292         291
         287         288         293         292
         288         289         294         293
         290         291         296         295
         291         292         297         296
         292         293         298         297
         293         294         299         298
         300         301         306         305
         301         302         307         306
         302         303         308         307
         303         304         309         308
         305         306         311         310
         306         307         312         311
         307         308         313         312
         308         309         314         313
         310         311         316         315
         311         312         317         316
         312         313         318         317
         313         314         319         318
         315         316         321         320
         316         317         322         321
         317         318         323         322
         318         319         324         323
         325         326         331         330
         326         327         332         331
         327         328         333         332
         328         329         334         333
         330         331         336         335
         331         332         337         336
         332         333         338         337
         333         334         339         338
         335         336         341         340
         336         337         342         341
         337         338         343         342
         338         339         344         343
         340         341         346         345
         341         342         347         346
         342         343         348         347
         343         344         349         348
         350         351         356         355
         351         352         357         356
         352         353         358         357
         353         354         359         358
         355         356         361         360
         356         357         362         361
         357         358         363         362
         358         359         364         363
         360         361         366         365
         361         362         367         366
         362         363         368         367
         363         364         369         368
         365         366         371         370
         366         367         372         371
         367         368         373         372
         368         369         374         373
         375         376         381         380
         376         377         382         381
         377         378         383         382
         378         379         384         383
         380         381         386         385
         381         382         387         386
         382         383         388         387
         383         384         389         388
         385         386         391         390
         386         387         392         391
         387         388         393         392
         388         389         394         393
         390         391         396         395
         391         392         397         396
         392         393         398         397
         393         394         399         398
 </DataArray>
 <DataArray  type="Int32"  Name="offsets"  format="ascii"> 
           4
           8
          12
          16
          20
          24
          28
          32
          36
          40
          44
          48
          52
          56
          60
          64
          68
          72
          76
          80
          84
          88
          92
          96
         100
         104
         108
         112
         116
         120
         124
         128
         132
         136
         140
         144
         148
         152
         156
         160
         164
         168
         172
         176
         180
         184
         188
         192
         196
         200
         204
         208
         212
         216
         220
         224
         228
         232
         236
         240
         244
         248
         252
         256
         260
         264
         268
         272
         276
         280
         284
         288
         292
         296
         300
         304
         308
         312
         316
         320
         324
         328
         332
         336
         340
         344
         348
         352
         356
         360
         364
         368
         372
         376
         380
         384
         388
         392
         396
         400
         404
         408
         412
         416
         420
         424
         428
         432
         436
         440
         444
         448
         452
         456
         460
         464
         468
         472
         476
         480
         484
         488
         492
         496
         500
         504
         508
         512
         516
         520
         524
         528
         532
         536
         540
         544
         548
         552
         556
         560
         564
         568
         572
         576
         580
         584
         588
         592
         596
         600
         604
         608
         612
         616
         620
         624
         628
         632
         636
         640
         644
         648
         652
         656
         660
         664
         668
         672
         676
         680
         684
         688
         692
         696
         700
         704
         708
         712
         716
         720
         724
         728
         732
         736
         740
         744
         748
         752
         756
         760
         764
         768
         772
         776
         780
         784
         788
         792
         796
         800
         804
         808
         812
         816
         820
         824
         828
         832
         836
         840
         844
         848
         852
         856
         860
         864
         868
         872
         876
         880
         884
         888
         892
         896
         900
         904
         908
         912
         916
         920
         924
         928
         932
         936
         940
         944
         948
         952
         956
         960
         964
         968
         972
         976
         980
         984
         988
         992
         996
        1000
        1004
        1008
        1012
        1016
        1020
        1024
 </DataArray>
 <DataArray  type="UInt8"  Name="types"  format="ascii">
 9
 9
 9
 9
 9
 9
 9
 9
 9
 9
 9
 9
 9
 9
 9
 9
 9
 9
 9
 9
 9
 9
 9
 9
 9
 9
 9
 9
 9
 9
 9
 9
 9
 9
 9
 9
 9
 9
 9
 9
 9
 9
 9
 9
 9
 9
 9
 9
 9
 9
 9
 9
 9
 9
 9
 9
 9
 9
 9
 9
 9
 9
 9
 9
 9
 9
 9
 9
 9
 9
 9
 9
 9
 9
 9
 9
 9
 9
 9
 9
 9
 9
 9
 9
 9
 9
 9
 9
 9
 9
 9
 9
 9
 9
 9
 9
 9
 9
 9
 9
 9
 9
 9
 9
 9
 9
 9
 9
 9
 9
 9
 9
 9
 9
 9
 9
 9
 9
 9
 9
 9
 9
 9
 9
 9
 9
 9
 9
 9
 9
 9
 9
 9
 9
 9
 9
 9
 9
 9
 9
 9
 9
 9
 9
 9
 9
 9
 9
 9
 9
 9
 9
 9
 9
 9
 9
 9
 9
 9
 9
 9
 9
 9
 9
 9
 9
 9
 9
 9
 9
 9
 9
 9
 9
 9
 9
 9
 9
 9
 9
 9
 9
 9
 9
 9
 9
 9
 9
 9
 9
 9
 9
 9
 9
 9
 9
 9
 9
 9
 9
 9
 9
 9
 9
 9
 9
 9
 9
 9
 9
 9
 9
 9
 9
 9
 9
 9
 9
 9
 9
 9
 9
 9
 9
 9
 9
 9
 9
 9
 9
 9
 9
 9
 9
 9
 9
 9
 9
 9
 9
 9
 9
 9
 9
 9
 9
 9
 9
 9
 9
 9
 9
 9
 9
 9
 9
 </DataArray>
 </Cells> 
 <PointData>
 <DataArray  type="Float64" Name="disp" NumberOfComponents="3" format="ascii">
   0.0000000000000000        0.0000000000000000        0.0000000000000000     
   1.0699354247911149E-002   6.3699143623885800E-003   0.0000000000000000     
   2.0501552717225636E-002   1.2971260452674908E-002   0.0000000000000000     
   2.9406595407943464E-002   1.9804038270858984E-002   0.0000000000000000     
   3.7414482320064626E-002   2.6868247816940808E-002   0.0000000000000000     
   0.0000000000000000        0.0000000000000000        0.0000000000000000     
   8.1770424054788578E-003   5.0335943559655892E-003   0.0000000000000000     
   1.5976477675851419E-002   1.0783730604341764E-002   0.0000000000000000     
   2.3398305811117681E-002   1.7250408745128523E-002   0.0000000000000000     
   3.0442526811277643E-002   2.4433628778325868E-002   0.0000000000000000     
   0.0000000000000000        0.0000000000000000        0.0000000000000000     
   6.1363353092161073E-003   4.0196791809362763E-003   0.0000000000000000     
   1.2240040762103020E-002   9.1015673888000543E-003   0.0000000000000000     
   1.8311116358660735E-002   1.5245664623591337E-002   0.0000000000000000     
   2.4349562098889249E-002   2.2451970885310122E-002   0.0000000000000000     
   0.0000000000000000        0.0000000000000000        0.0000000000000000     
   4.5772329591229014E-003   3.3281688373006414E-003   0.0000000000000000     
   9.2922419759804455E-003   7.9247708060497819E-003   0.0000000000000000     
   1.4145027050572629E-002   1.3789805906247425E-002   0.0000000000000000     
   1.9135588182899455E-002   2.0923274137893560E-002   0.0000000000000000     
   0.0000000000000000        0.0000000000000000        0.0000000000000000     
   3.4997353551992376E-003   2.9590633250586853E-003   0.0000000000000000     
   7.1330813174836916E-003   7.2533408560909451E-003   0.0000000000000000     
   1.0900037886853363E-002   1.2882832593096780E-002   0.0000000000000000     
   1.4800605063308252E-002   1.9847538536076192E-002   0.0000000000000000     
   3.7414482320064626E-002   2.6868247816940808E-002   0.0000000000000000     
   4.4784060476962595E-002   3.4471133515466830E-002   0.0000000000000000     
   5.1774176902010832E-002   4.2919939790983484E-002   0.0000000000000000     
   5.8384831595209324E-002   5.2214666643490795E-002   0.0000000000000000     
   6.4616024556558099E-002   6.2355314072988742E-002   0.0000000000000000     
   3.0442526811277643E-002   2.4433628778325868E-002   0.0000000000000000     
   3.7114393177862935E-002   3.2354026110119352E-002   0.0000000000000000     
   4.3419157412405193E-002   4.1032236146694545E-002   0.0000000000000000     
   4.9356819514904400E-002   5.0468258888051433E-002   0.0000000000000000     
   5.4927379485360570E-002   6.0662094334190023E-002   0.0000000000000000     
   2.4349562098889249E-002   2.2451970885310122E-002   0.0000000000000000     
   3.0207152275049498E-002   3.0550121225907695E-002   0.0000000000000000     
   3.5735661179402411E-002   3.9369750697335330E-002   0.0000000000000000     
   4.0935088811947982E-002   4.8910859299593039E-002   0.0000000000000000     
   4.5805435172686218E-002   5.9173447032680834E-002   0.0000000000000000     
   1.9135588182899455E-002   2.0923274137893560E-002   0.0000000000000000     
   2.4062337768522287E-002   2.9059418862831830E-002   0.0000000000000000     
   2.8723688203002494E-002   3.7932483442905854E-002   0.0000000000000000     
   3.3119639486340079E-002   4.7542467878115627E-002   0.0000000000000000     
   3.7250191618535038E-002   5.7889372168461163E-002   0.0000000000000000     
   1.4800605063308252E-002   1.9847538536076192E-002   0.0000000000000000     
   1.8679949658281299E-002   2.7881919020891766E-002   0.0000000000000000     
   2.2383238483205444E-002   3.6720434383406102E-002   0.0000000000000000     
   2.5910471538080685E-002   4.6363084623619183E-002   0.0000000000000000     
   2.9261648822907028E-002   5.6809869741531030E-002   0.0000000000000000     
   6.4616024556558099E-002   6.2355314072988742E-002   0.0000000000000000     
   7.0472391113885549E-002   7.3283115571824847E-002   0.0000000000000000     
   7.5958566595020108E-002   8.4939304632346613E-002   0.0000000000000000     
   8.1074550999961789E-002   9.7323881254554059E-002   0.0000000000000000     
   8.5820344328710566E-002  0.11043684543844717        0.0000000000000000     
   5.4927379485360570E-002   6.0662094334190023E-002   0.0000000000000000     
   6.0157835837137907E-002   7.1620989426341652E-002   0.0000000000000000     
   6.5075187083600605E-002   8.3352191105737702E-002   0.0000000000000000     
   6.9679433224748691E-002   9.5855699372378131E-002   0.0000000000000000     
   7.3970574260582150E-002  0.10913151422626295        0.0000000000000000     
   4.5805435172686218E-002   5.9173447032680834E-002   0.0000000000000000     
   5.0378349608612559E-002   7.0193470114535000E-002   0.0000000000000000     
   5.4685481466722446E-002   8.2006884763091856E-002   0.0000000000000000     
   5.8726830747015901E-002   9.4613690978351400E-002   0.0000000000000000     
   6.2502397449492902E-002  0.10801388876031362        0.0000000000000000     
   3.7250191618535038E-002   5.7889372168461163E-002   0.0000000000000000     
   4.1133932428309511E-002   6.9000557636404850E-002   0.0000000000000000     
   4.4789449744385625E-002   8.0903385604409114E-002   0.0000000000000000     
   4.8216743566763406E-002   9.3597856072473853E-002   0.0000000000000000     
   5.1415813895442836E-002  0.10708396904059919        0.0000000000000000     
   2.9261648822907028E-002   5.6809869741531030E-002   0.0000000000000000     
   3.2424584296228756E-002   6.8042251991951241E-002   0.0000000000000000     
   3.5387091916590147E-002   8.0041693629689409E-002   0.0000000000000000     
   3.8149171683991207E-002   9.2808194654745546E-002   0.0000000000000000     
   4.0710823598431936E-002  0.10634175506711965        0.0000000000000000     
   8.5820344328710566E-002  0.11043684543844717        0.0000000000000000     
   8.9954269554978109E-002  0.12402178572293018        0.0000000000000000     
   9.3234649652476020E-002  0.13782229064690732        0.0000000000000000     
   9.5661484621204329E-002  0.15183836021037855        0.0000000000000000     
   9.7234774461163034E-002  0.16606999441334391        0.0000000000000000     
   7.3970574260582150E-002  0.10913151422626295        0.0000000000000000     
   7.7786106347229433E-002  0.12293519448856302        0.0000000000000000     
   8.0963525640819031E-002  0.13702229898044915        0.0000000000000000     
   8.3502832141350902E-002  0.15139282770192139        0.0000000000000000     
   8.5404025848825088E-002  0.16604678065297970        0.0000000000000000     
   6.2502397449492902E-002  0.10801388876031362        0.0000000000000000     
   6.5911843257116270E-002  0.12197107897957825        0.0000000000000000     
   6.8854829852848784E-002  0.13624886250674501        0.0000000000000000     
   7.1331357236690443E-002  0.15084723934181390        0.0000000000000000     
   7.3341425408641261E-002  0.16576620948478490        0.0000000000000000     
   5.1415813895442836E-002  0.10708396904059919        0.0000000000000000     
   5.4331480284638578E-002  0.12112943919597592        0.0000000000000000     
   5.6908562288565265E-002  0.13550198122579488        0.0000000000000000     
   5.9147059907222931E-002  0.15020159513005607        0.0000000000000000     
   6.1046973140611555E-002  0.16522828090875952        0.0000000000000000     
   4.0710823598431936E-002  0.10634175506711965        0.0000000000000000     
   4.3045017429796356E-002  0.12041027513775597        0.0000000000000000     
   4.5124722947968501E-002  0.13478165513759871        0.0000000000000000     
   4.6949940152948379E-002  0.14945589506664794        0.0000000000000000     
   4.8520669044735967E-002  0.16443299492490354        0.0000000000000000     
   0.0000000000000000        0.0000000000000000        0.0000000000000000     
   3.4997353551992376E-003   2.9590633250586853E-003   0.0000000000000000     
   7.1330813174836916E-003   7.2533408560909451E-003   0.0000000000000000     
   1.0900037886853363E-002   1.2882832593096780E-002   0.0000000000000000     
   1.4800605063308252E-002   1.9847538536076192E-002   0.0000000000000000     
   0.0000000000000000        0.0000000000000000        0.0000000000000000     
   2.6534804723700360E-003   2.7771481155817600E-003   0.0000000000000000     
   5.3636325391279082E-003   6.8869375517232956E-003   0.0000000000000000     
   8.1304562002736183E-003   1.2329368308424604E-002   0.0000000000000000     
   1.0953951455807163E-002   1.9104440385685689E-002   0.0000000000000000     
   0.0000000000000000        0.0000000000000000        0.0000000000000000     
   1.7881062855602181E-003   2.6472086802412200E-003   0.0000000000000000     
   3.5849693934282413E-003   6.6252209057465804E-003   0.0000000000000000     
   5.3905893236040701E-003   1.1934036676516081E-002   0.0000000000000000     
   7.2049660760877040E-003   1.8573655992549724E-002   0.0000000000000000     
   0.0000000000000000        0.0000000000000000        0.0000000000000000     
   9.0361279476978257E-004   2.5692450190370631E-003   0.0000000000000000     
   1.7970918803846894E-003   6.4681909181608004E-003   0.0000000000000000     
   2.6804372568447203E-003   1.1696837697371213E-002   0.0000000000000000     
   3.5536489241498759E-003   1.8255185356668303E-002   0.0000000000000000     
   0.0000000000000000        0.0000000000000000        0.0000000000000000     
  -1.2699260046322713E-015   2.5432571319692920E-003   0.0000000000000000     
  -2.7473683050782682E-015   6.4158475889659573E-003   0.0000000000000000     
  -4.4309174385137595E-015   1.1617771370989998E-002   0.0000000000000000     
  -6.3218744475457278E-015   1.8149028478041410E-002   0.0000000000000000     
   1.4800605063308252E-002   1.9847538536076192E-002   0.0000000000000000     
   1.8679949658281299E-002   2.7881919020891766E-002   0.0000000000000000     
   2.2383238483205444E-002   3.6720434383406102E-002   0.0000000000000000     
   2.5910471538080685E-002   4.6363084623619183E-002   0.0000000000000000     
   2.9261648822907028E-002   5.6809869741531030E-002   0.0000000000000000     
   1.0953951455807163E-002   1.9104440385685689E-002   0.0000000000000000     
   1.3761571620564801E-002   2.6988632762191111E-002   0.0000000000000000     
   1.6480770009382781E-002   3.5758424416625446E-002   0.0000000000000000     
   1.9111546622261107E-002   4.5413815348988688E-002   0.0000000000000000     
   2.1653901459199782E-002   5.5954805559280819E-002   0.0000000000000000     
   7.2049660760877040E-003   1.8573655992549724E-002   0.0000000000000000     
   9.0087873316110553E-003   2.6350571148833459E-002   0.0000000000000000     
   1.0782740770906034E-002   3.5071274440353239E-002   0.0000000000000000     
   1.2526826393972642E-002   4.4735765867109076E-002   0.0000000000000000     
   1.4241044200810876E-002   5.5344045429100958E-002   0.0000000000000000     
   3.5536489241498759E-003   1.8255185356668303E-002   0.0000000000000000     
   4.4215967914200665E-003   2.5967734180818807E-002   0.0000000000000000     
   5.2891507677752022E-003   3.4658984454589502E-002   0.0000000000000000     
   6.1563108532152848E-003   4.4328936177980366E-002   0.0000000000000000     
   7.0230770477403125E-003   5.4977589350991410E-002   0.0000000000000000     
  -6.3218744475457278E-015   1.8149028478041410E-002   0.0000000000000000     
  -8.1664276035953165E-015   2.5840121858147162E-002   0.0000000000000000     
  -9.7125270066139580E-015   3.4521554459334212E-002   0.0000000000000000     
  -1.0959284966072930E-014   4.4193326281602559E-002   0.0000000000000000     
  -1.1906708258235810E-014   5.4855437324952211E-002   0.0000000000000000     
   2.9261648822907028E-002   5.6809869741531030E-002   0.0000000000000000     
   3.2424584296228756E-002   6.8042251991951241E-002   0.0000000000000000     
   3.5387091916590147E-002   8.0041693629689409E-002   0.0000000000000000     
   3.8149171683991207E-002   9.2808194654745546E-002   0.0000000000000000     
   4.0710823598431936E-002  0.10634175506711965        0.0000000000000000     
   2.1653901459199782E-002   5.5954805559280819E-002   0.0000000000000000     
   2.4066687571736491E-002   6.7306375042787039E-002   0.0000000000000000     
   2.6308758011408938E-002   7.9393503794792500E-002   0.0000000000000000     
   2.8380112778217111E-002   9.2216191815297152E-002   0.0000000000000000     
   3.0280751872161022E-002  0.10577443910430108        0.0000000000000000     
   1.4241044200810876E-002   5.5344045429100958E-002   0.0000000000000000     
   1.5876624614198916E-002   6.6780748650525162E-002   0.0000000000000000     
   1.7384798056914934E-002   7.8930511055577995E-002   0.0000000000000000     
   1.8765564528958934E-002   9.1793332644259443E-002   0.0000000000000000     
   2.0018924030330919E-002  0.10536921341656952        0.0000000000000000     
   7.0230770477403125E-003   5.4977589350991410E-002   0.0000000000000000     
   7.8543954236160191E-003   6.6465372815165610E-002   0.0000000000000000     
   8.6152120531081382E-003   7.8652715412045937E-002   0.0000000000000000     
   9.3055269362166699E-003   9.1539617141632376E-002   0.0000000000000000     
   9.9253400729416123E-003  0.10512607800392497        0.0000000000000000     
  -1.1906708258235810E-014   5.4855437324952211E-002   0.0000000000000000     
  -1.2190335546558018E-014   6.6360247536708383E-002   0.0000000000000000     
  -1.1449933882967667E-014   7.8560116864196311E-002   0.0000000000000000     
  -9.6803804121997628E-015   9.1455045307416008E-002   0.0000000000000000     
  -6.8851174761519474E-015  0.10504503286636743        0.0000000000000000     
   4.0710823598431936E-002  0.10634175506711965        0.0000000000000000     
   4.3045017429796356E-002  0.12041027513775597        0.0000000000000000     
   4.5124722947968501E-002  0.13478165513759871        0.0000000000000000     
   4.6949940152948379E-002  0.14945589506664794        0.0000000000000000     
   4.8520669044735967E-002  0.16443299492490354        0.0000000000000000     
   3.0280751872161022E-002  0.10577443910430108        0.0000000000000000     
   3.2000069243415558E-002  0.11983458971666620        0.0000000000000000     
   3.3527458842155619E-002  0.13416298770725443        0.0000000000000000     
   3.4862920668381189E-002  0.14875963307606585        0.0000000000000000     
   3.6006454722092296E-002  0.16362452582310039        0.0000000000000000     
   2.0018924030330919E-002  0.10536921341656952        0.0000000000000000     
   2.1144250276322107E-002  0.11942338584445431        0.0000000000000000     
   2.2140916982223733E-002  0.13372108239985989        0.0000000000000000     
   2.3008924148035799E-002  0.14826230308278623        0.0000000000000000     
   2.3748271773758305E-002  0.16304704789323338        0.0000000000000000     
   9.9253400729416123E-003  0.10512607800392497        0.0000000000000000     
   1.0477560528516000E-002  0.11917666352112029        0.0000000000000000     
   1.0965097368172859E-002  0.13345593921541499        0.0000000000000000     
   1.1387950591912190E-002  0.14796390508680907        0.0000000000000000     
   1.1746120199734001E-002  0.16270056113530254        0.0000000000000000     
  -6.8851174761519474E-015  0.10504503286636743        0.0000000000000000     
  -2.7621134546240711E-015  0.11909442274666419        0.0000000000000000     
   2.9889285491080386E-015  0.13336755815391987        0.0000000000000000     
   1.0374080067210301E-014  0.14786443908813440        0.0000000000000000     
   1.9385534844040819E-014  0.16258506554930788        0.0000000000000000     
   0.0000000000000000        0.0000000000000000        0.0000000000000000     
  -1.2699260046322713E-015   2.5432571319692920E-003   0.0000000000000000     
  -2.7473683050782682E-015   6.4158475889659573E-003   0.0000000000000000     
  -4.4309174385137595E-015   1.1617771370989998E-002   0.0000000000000000     
  -6.3218744475457278E-015   1.8149028478041410E-002   0.0000000000000000     
   0.0000000000000000        0.0000000000000000        0.0000000000000000     
  -9.0361279477216673E-004   2.5692450190378290E-003   0.0000000000000000     
  -1.7970918803898641E-003   6.4681909181619384E-003   0.0000000000000000     
  -2.6804372568530912E-003   1.1696837697372328E-002   0.0000000000000000     
  -3.5536489241618499E-003   1.8255185356669000E-002   0.0000000000000000     
   0.0000000000000000        0.0000000000000000        0.0000000000000000     
  -1.7881062855621341E-003   2.6472086802425995E-003   0.0000000000000000     
  -3.5849693934324571E-003   6.6252209057486335E-003   0.0000000000000000     
  -5.3905893236109656E-003   1.1934036676518102E-002   0.0000000000000000     
  -7.2049660760976665E-003   1.8573655992551005E-002   0.0000000000000000     
   0.0000000000000000        0.0000000000000000        0.0000000000000000     
  -2.6534804723711732E-003   2.7771481155836031E-003   0.0000000000000000     
  -5.3636325391305268E-003   6.8869375517260417E-003   0.0000000000000000     
  -8.1304562002780592E-003   1.2329368308427313E-002   0.0000000000000000     
  -1.0953951455813772E-002   1.9104440385687423E-002   0.0000000000000000     
   0.0000000000000000        0.0000000000000000        0.0000000000000000     
  -3.4997353551992827E-003   2.9590633250608407E-003   0.0000000000000000     
  -7.1330813174840715E-003   7.2533408560941631E-003   0.0000000000000000     
  -1.0900037886854366E-002   1.2882832593099967E-002   0.0000000000000000     
  -1.4800605063310166E-002   1.9847538536078253E-002   0.0000000000000000     
  -6.3218744475457278E-015   1.8149028478041410E-002   0.0000000000000000     
  -8.1664276035953165E-015   2.5840121858147162E-002   0.0000000000000000     
  -9.7125270066139580E-015   3.4521554459334212E-002   0.0000000000000000     
  -1.0959284966072930E-014   4.4193326281602559E-002   0.0000000000000000     
  -1.1906708258235810E-014   5.4855437324952211E-002   0.0000000000000000     
  -3.5536489241618499E-003   1.8255185356669000E-002   0.0000000000000000     
  -4.4215967914355541E-003   2.5967734180818526E-002   0.0000000000000000     
  -5.2891507677936250E-003   3.4658984454587476E-002   0.0000000000000000     
  -6.1563108532360590E-003   4.4328936177975849E-002   0.0000000000000000     
  -7.0230770477628639E-003   5.4977589350983652E-002   0.0000000000000000     
  -7.2049660760976665E-003   1.8573655992551005E-002   0.0000000000000000     
  -9.0087873316240068E-003   2.6350571148832911E-002   0.0000000000000000     
  -1.0782740770921452E-002   3.5071274440349388E-002   0.0000000000000000     
  -1.2526826393989995E-002   4.4735765867100437E-002   0.0000000000000000     
  -1.4241044200829639E-002   5.5344045429086067E-002   0.0000000000000000     
  -1.0953951455813772E-002   1.9104440385687423E-002   0.0000000000000000     
  -1.3761571620573529E-002   2.6988632762190316E-002   0.0000000000000000     
  -1.6480770009393190E-002   3.5758424416619944E-002   0.0000000000000000     
  -1.9111546622272758E-002   4.5413815348976337E-002   0.0000000000000000     
  -2.1653901459212230E-002   5.5954805559259448E-002   0.0000000000000000     
  -1.4800605063310166E-002   1.9847538536078253E-002   0.0000000000000000     
  -1.8679949658284109E-002   2.7881919020890746E-002   0.0000000000000000     
  -2.2383238483208841E-002   3.6720434383399163E-002   0.0000000000000000     
  -2.5910471538084349E-002   4.6363084623603522E-002   0.0000000000000000     
  -2.9261648822910644E-002   5.6809869741503802E-002   0.0000000000000000     
  -1.1906708258235810E-014   5.4855437324952211E-002   0.0000000000000000     
  -1.2190335546558018E-014   6.6360247536708383E-002   0.0000000000000000     
  -1.1449933882967667E-014   7.8560116864196311E-002   0.0000000000000000     
  -9.6803804121997628E-015   9.1455045307416008E-002   0.0000000000000000     
  -6.8851174761519474E-015  0.10504503286636743        0.0000000000000000     
  -7.0230770477628639E-003   5.4977589350983652E-002   0.0000000000000000     
  -7.8543954236390528E-003   6.6465372815153925E-002   0.0000000000000000     
  -8.6152120531296419E-003   7.8652715412029728E-002   0.0000000000000000     
  -9.3055269362346416E-003   9.1539617141611032E-002   0.0000000000000000     
  -9.9253400729540451E-003  0.10512607800389785        0.0000000000000000     
  -1.4241044200829639E-002   5.5344045429086067E-002   0.0000000000000000     
  -1.5876624614217891E-002   6.6780748650502708E-002   0.0000000000000000     
  -1.7384798056932257E-002   7.8930511055546757E-002   0.0000000000000000     
  -1.8765564528972736E-002   9.1793332644218267E-002   0.0000000000000000     
  -2.0018924030339329E-002  0.10536921341651717        0.0000000000000000     
  -2.1653901459212230E-002   5.5954805559259448E-002   0.0000000000000000     
  -2.4066687571748714E-002   6.7306375042754690E-002   0.0000000000000000     
  -2.6308758011419287E-002   7.9393503794747411E-002   0.0000000000000000     
  -2.8380112778223963E-002   9.2216191815237644E-002   0.0000000000000000     
  -3.0280751872162739E-002  0.10577443910422539        0.0000000000000000     
  -2.9261648822910644E-002   5.6809869741503802E-002   0.0000000000000000     
  -3.2424584296231504E-002   6.8042251991909913E-002   0.0000000000000000     
  -3.5387091916590736E-002   8.0041693629631733E-002   0.0000000000000000     
  -3.8149171683988327E-002   9.2808194654669260E-002   0.0000000000000000     
  -4.0710823598424282E-002  0.10634175506702249        0.0000000000000000     
  -6.8851174761519474E-015  0.10504503286636743        0.0000000000000000     
  -2.7621134546240711E-015  0.11909442274666419        0.0000000000000000     
   2.9889285491080386E-015  0.13336755815391987        0.0000000000000000     
   1.0374080067210301E-014  0.14786443908813440        0.0000000000000000     
   1.9385534844040819E-014  0.16258506554930788        0.0000000000000000     
  -9.9253400729540451E-003  0.10512607800389785        0.0000000000000000     
  -1.0477560528520297E-002  0.11917666352108702        0.0000000000000000     
  -1.0965097368165840E-002  0.13345593921537538        0.0000000000000000     
  -1.1387950591890678E-002  0.14796390508676291        0.0000000000000000     
  -1.1746120199694803E-002  0.16270056113524964        0.0000000000000000     
  -2.0018924030339329E-002  0.10536921341651717        0.0000000000000000     
  -2.1144250276322725E-002  0.11942338584438984        0.0000000000000000     
  -2.2140916982213606E-002  0.13372108239978253        0.0000000000000000     
  -2.3008924148011974E-002  0.14826230308269528        0.0000000000000000     
  -2.3748271773717834E-002  0.16304704789312804        0.0000000000000000     
  -3.0280751872162739E-002  0.10577443910422539        0.0000000000000000     
  -3.2000069243410048E-002  0.11983458971657258        0.0000000000000000     
  -3.3527458842140305E-002  0.13416298770714127        0.0000000000000000     
  -3.4862920668353524E-002  0.14875963307593146        0.0000000000000000     
  -3.6006454722049691E-002  0.16362452582294312        0.0000000000000000     
  -4.0710823598424282E-002  0.10634175506702249        0.0000000000000000     
  -4.3045017429782263E-002  0.12041027513763534        0.0000000000000000     
  -4.5124722947945936E-002  0.13478165513745169        0.0000000000000000     
  -4.6949940152915315E-002  0.14945589506647156        0.0000000000000000     
  -4.8520669044690393E-002  0.16443299492469488        0.0000000000000000     
   0.0000000000000000        0.0000000000000000        0.0000000000000000     
  -3.4997353551992827E-003   2.9590633250608407E-003   0.0000000000000000     
  -7.1330813174840715E-003   7.2533408560941631E-003   0.0000000000000000     
  -1.0900037886854366E-002   1.2882832593099967E-002   0.0000000000000000     
  -1.4800605063310166E-002   1.9847538536078253E-002   0.0000000000000000     
   0.0000000000000000        0.0000000000000000        0.0000000000000000     
  -4.5772329591218302E-003   3.3281688373029018E-003   0.0000000000000000     
  -9.2922419759784401E-003   7.9247708060531385E-003   0.0000000000000000     
  -1.4145027050569831E-002   1.3789805906250705E-002   0.0000000000000000     
  -1.9135588182895999E-002   2.0923274137895603E-002   0.0000000000000000     
   0.0000000000000000        0.0000000000000000        0.0000000000000000     
  -6.1363353092141817E-003   4.0196791809383780E-003   0.0000000000000000     
  -1.2240040762098980E-002   9.1015673888031022E-003   0.0000000000000000     
  -1.8311116358654397E-002   1.5245664623594170E-002   0.0000000000000000     
  -2.4349562098880430E-002   2.2451970885311583E-002   0.0000000000000000     
   0.0000000000000000        0.0000000000000000        0.0000000000000000     
  -8.1770424054763390E-003   5.0335943559672684E-003   0.0000000000000000     
  -1.5976477675845691E-002   1.0783730604344056E-002   0.0000000000000000     
  -2.3398305811108064E-002   1.7250408745130362E-002   0.0000000000000000     
  -3.0442526811263453E-002   2.4433628778326191E-002   0.0000000000000000     
   0.0000000000000000        0.0000000000000000        0.0000000000000000     
  -1.0699354247908299E-002   6.3699143623895723E-003   0.0000000000000000     
  -2.0501552717218579E-002   1.2971260452676001E-002   0.0000000000000000     
  -2.9406595407930832E-002   1.9804038270859282E-002   0.0000000000000000     
  -3.7414482320045066E-002   2.6868247816939424E-002   0.0000000000000000     
  -1.4800605063310166E-002   1.9847538536078253E-002   0.0000000000000000     
  -1.8679949658284109E-002   2.7881919020890746E-002   0.0000000000000000     
  -2.2383238483208841E-002   3.6720434383399163E-002   0.0000000000000000     
  -2.5910471538084349E-002   4.6363084623603522E-002   0.0000000000000000     
  -2.9261648822910644E-002   5.6809869741503802E-002   0.0000000000000000     
  -1.9135588182895999E-002   2.0923274137895603E-002   0.0000000000000000     
  -2.4062337768518141E-002   2.9059418862830359E-002   0.0000000000000000     
  -2.8723688202997446E-002   3.7932483442897479E-002   0.0000000000000000     
  -3.3119639486333903E-002   4.7542467878096975E-002   0.0000000000000000     
  -3.7250191618527530E-002   5.7889372168428849E-002   0.0000000000000000     
  -2.4349562098880430E-002   2.2451970885311583E-002   0.0000000000000000     
  -3.0207152275038007E-002   3.0550121225905322E-002   0.0000000000000000     
  -3.5735661179388055E-002   3.9369750697325359E-002   0.0000000000000000     
  -4.0935088811930573E-002   4.8910859299571674E-002   0.0000000000000000     
  -4.5805435172665547E-002   5.9173447032644287E-002   0.0000000000000000     
  -3.0442526811263453E-002   2.4433628778326191E-002   0.0000000000000000     
  -3.7114393177843708E-002   3.2354026110115633E-002   0.0000000000000000     
  -4.3419157412380657E-002   4.1032236146682770E-002   0.0000000000000000     
  -4.9356819514874320E-002   5.0468258888027598E-002   0.0000000000000000     
  -5.4927379485324695E-002   6.0662094334150145E-002   0.0000000000000000     
  -3.7414482320045066E-002   2.6868247816939424E-002   0.0000000000000000     
  -4.4784060476935228E-002   3.4471133515461286E-002   0.0000000000000000     
  -5.1774176901975263E-002   4.2919939790969731E-002   0.0000000000000000     
  -5.8384831595165186E-002   5.2214666643464774E-002   0.0000000000000000     
  -6.4616024556504989E-002   6.2355314072946408E-002   0.0000000000000000     
  -2.9261648822910644E-002   5.6809869741503802E-002   0.0000000000000000     
  -3.2424584296231504E-002   6.8042251991909913E-002   0.0000000000000000     
  -3.5387091916590736E-002   8.0041693629631733E-002   0.0000000000000000     
  -3.8149171683988327E-002   9.2808194654669260E-002   0.0000000000000000     
  -4.0710823598424282E-002  0.10634175506702249        0.0000000000000000     
  -3.7250191618527530E-002   5.7889372168428849E-002   0.0000000000000000     
  -4.1133932428300074E-002   6.9000557636355819E-002   0.0000000000000000     
  -4.4789449744373315E-002   8.0903385604340655E-002   0.0000000000000000     
  -4.8216743566747232E-002   9.3597856072383329E-002   0.0000000000000000     
  -5.1415813895421845E-002  0.10708396904048387        0.0000000000000000     
  -4.5805435172665547E-002   5.9173447032644287E-002   0.0000000000000000     
  -5.0378349608588203E-002   7.0193470114479906E-002   0.0000000000000000     
  -5.4685481466693713E-002   8.2006884763015209E-002   0.0000000000000000     
  -5.8726830746982095E-002   9.4613690978250203E-002   0.0000000000000000     
  -6.2502397449453323E-002  0.10801388876018485        0.0000000000000000     
  -5.4927379485324695E-002   6.0662094334150145E-002   0.0000000000000000     
  -6.0157835837095879E-002   7.1620989426282144E-002   0.0000000000000000     
  -6.5075187083551922E-002   8.3352191105655379E-002   0.0000000000000000     
  -6.9679433224692902E-002   9.5855699372269815E-002   0.0000000000000000     
  -7.3970574260518770E-002  0.10913151422612546        0.0000000000000000     
  -6.4616024556504989E-002   6.2355314072946408E-002   0.0000000000000000     
  -7.0472391113823113E-002   7.3283115571762564E-002   0.0000000000000000     
  -7.5958566594947999E-002   8.4939304632261181E-002   0.0000000000000000     
  -8.1074550999879688E-002   9.7323881254442218E-002   0.0000000000000000     
  -8.5820344328618112E-002  0.11043684543830572        0.0000000000000000     
  -4.0710823598424282E-002  0.10634175506702249        0.0000000000000000     
  -4.3045017429782263E-002  0.12041027513763534        0.0000000000000000     
  -4.5124722947945936E-002  0.13478165513745169        0.0000000000000000     
  -4.6949940152915315E-002  0.14945589506647156        0.0000000000000000     
  -4.8520669044690393E-002  0.16443299492469488        0.0000000000000000     
  -5.1415813895421845E-002  0.10708396904048387        0.0000000000000000     
  -5.4331480284611579E-002  0.12112943919583231        0.0000000000000000     
  -5.6908562288530903E-002  0.13550198122561879        0.0000000000000000     
  -5.9147059907179791E-002  0.15020159512984332        0.0000000000000000     
  -6.1046973140558250E-002  0.16522828090850580        0.0000000000000000     
  -6.2502397449453323E-002  0.10801388876018485        0.0000000000000000     
  -6.5911843257070238E-002  0.12197107897941785        0.0000000000000000     
  -6.8854829852795577E-002  0.13624886250654780        0.0000000000000000     
  -7.1331357236629367E-002  0.15084723934157465        0.0000000000000000     
  -7.3341425408571595E-002  0.16576620948449841        0.0000000000000000     
  -7.3970574260518770E-002  0.10913151422612546        0.0000000000000000     
  -7.7786106347158199E-002  0.12293519448839189        0.0000000000000000     
  -8.0963525640739969E-002  0.13702229898023854        0.0000000000000000     
  -8.3502832141264041E-002  0.15139282770166551        0.0000000000000000     
  -8.5404025848730414E-002  0.16604678065267273        0.0000000000000000     
  -8.5820344328618112E-002  0.11043684543830572        0.0000000000000000     
  -8.9954269554875524E-002  0.12402178572275444        0.0000000000000000     
  -9.3234649652364082E-002  0.13782229064669121        0.0000000000000000     
  -9.5661484621083828E-002  0.15183836021011596        0.0000000000000000     
  -9.7234774461034734E-002  0.16606999441302872        0.0000000000000000     
 </DataArray>
 <DataArray  type="Float64" Name="stress" NumberOfComponents="3" format="ascii">
   11760455881.012197        3528136764.3036594        2309242522.5008144     
   10340064666.700872        1664397874.7752244        1374467450.1490672     
   9095268533.3775806        385975921.87356615        663754282.72544122     
   8026067481.0423222       -307129094.40131760        177103020.22993624     
   7132461509.6950951       -414917174.04942417       -85486337.337447241     
   8825507839.6821156        2647652351.9046350        1726273258.9884171     
   8055247712.3951092        1288461426.6214268        1148439076.7347796     
   7416451245.6139069        367482703.02424264        730209680.13052011     
   6909118439.3385153       -115283818.88691616        471585069.17563897     
   6533249293.5689268       -159838139.11205292        372565243.87013477     
   6490707942.7312946        1947212382.8193884        1288089107.9898553     
   6186415704.5293369        1037320462.3996265        1015709158.6050643     
   5969455706.3509607        418536008.72513700        838476875.59090877     
   5839827948.1961679        90859021.795921087        756392258.94738722     
   5797532430.0649567        54289501.611979008        769455308.67450118     
   4756056190.1597328        1426816857.0479198        994690069.50512934     
   4733568643.1035614        910974982.10982454        976277695.75992203     
   4754281915.5887442        539135838.97625089        988555869.10660672     
   4818196007.6152849        311299427.64719915        1031524589.5451833     
   4925310919.1831818        227465748.12266898        1105183857.0756516     
   3621552581.9674325        1086465774.5902297        846076143.53423893     
   3696706528.1177783        909424985.75202096        1030144688.1993526     
   3770929873.3272552        729282193.77758276        1180446660.6776152     
   3844222617.5958638        546037398.66691530        1296982060.9690259     
   3916584760.9236031        359690600.42001867        1379750889.0735853     
   7132461509.6950951       -414917174.04942417       -85486337.337447241     
   6854753080.8247795       -126334395.03132439       -9243511.4663747735     
   6540967106.7399282        41989899.938323021        66825395.484890006     
   6191103587.4405394        90055710.859509706        142720383.51634699     
   5805162522.9266129        17863037.732238293        218441452.62799683     
   6533249293.5689268       -159838139.11205292        372565243.87013477     
   6224348262.4667130       -14781420.248370647        373236769.19179893     
   5895755398.1258984        64635854.486651897        383209302.52129143     
   5547470700.5464888        78413685.093026161        402482843.85860974     
   5179494169.7284861        26552071.570749283        431057393.20375347     
   5797532430.0649567        54289501.611979008        769455308.67450118     
   5484510016.5240803        63941526.259209156        713672197.41868961     
   5168181481.7205496        62573146.697591305        676665021.09833646     
   4848546825.6543617        50184362.927121878        658433779.71344793     
   4525606048.3255243        26775174.947806120        658978473.26401854     
   4925310919.1831818        227465748.12266898        1105183857.0756516     
   4635238342.9968882        109834444.49142408        1012062773.2142935     
   4358245357.5238800        35801776.571133375        947192551.21603024     
   4094331962.7641573        5367744.3617949486        910573191.08086419     
   3843498158.7177234        18532347.863413572        902204692.80879438     
   3916584760.9236031        359690600.42001867        1379750889.0735853     
   3676533241.8851323        122897334.44826889        1268408496.5786128     
   3465947025.5358896       -15678255.892723560        1194791892.8743711     
   3284826111.8758740       -56036170.602955341        1158901077.9608603     
   3133170500.9050870        1823590.3175690174        1160736051.8380795     
   5805162522.9266129        17863037.732238293        218441452.62799683     
   5419719191.7727337       -82336622.296773434        262118946.02590138     
   5051788807.8709221       -124159791.48557067        328676818.21825361     
   4701371371.2211666       -107606469.83417010        418115069.20506209     
   4368466881.8234749       -32676657.342563629        530433698.98631823     
   5179494169.7284861        26552071.570749283        431057393.20375347     
   4863778792.6433878       -23896181.706110239        479271741.46609527     
   4558349763.6049356       -40056608.160811186        546761504.81331766     
   4263207082.6131344       -21929207.793342352        633526683.24542332     
   3978350749.6679821        30486019.396289110        739567276.76241148     
   4525606048.3255243        26775174.947806120        658978473.26401854     
   4269318728.9961462        22988359.529179096        703298643.98448324     
   4016091158.5080061        29400706.914671659        763289266.08026218     
   3765923336.8611026        46012217.104287148        838950339.55135071     
   3518815264.0554352        72822890.098025799        930281864.39775348     
   3843498158.7177234        18532347.863413572        902204692.80879438     
   3636339000.8310146        58317001.409100294        934199653.58106732     
   3425012992.5801315        84212153.740867496        978260102.01908457     
   3209520133.9650712        96217804.858716249        1034386038.1228440     
   2989860424.9858389        94333954.762650967        1102577461.8923504     
   3133170500.9050870        1823590.3175690174        1160736051.8380795     
   2964839608.1479917        82089743.933652520        1171974770.2558451     
   2785115265.8213110        124377732.31778133        1191674012.6297879     
   2593997473.9250431        128687555.46994996        1219833778.9599056     
   2391486232.4591832        95019213.390154958        1256454069.2461963     
   4368466881.8234749       -32676657.342563629        530433698.98631823     
   3547573379.6204505       -37643919.289892912        508655755.44504726     
   2753012839.6616178        45165359.576749921        574504290.54417896     
   1984785261.9469836        215751179.25738710        727979304.28371954     
   1242890646.4765418        474113539.75200319        969080796.66366148     
   3978350749.6679821        30486019.396289110        739567276.76241148     
   3364082298.3198047        24885452.687017679        710466176.55219460     
   2766433768.1263037        74684623.159991980        752827091.76574779     
   2185405159.0874715        179883530.81521791        866650022.40307331     
   1620996471.2033138        340482175.65266991        1051934968.4641718     
   3518815264.0554352        72822890.098025799        930281864.39775348     
   3064987682.9431577        52733764.441136956        882525726.24748409     
   2618066981.8960266        55667572.334745169        890067140.30434752     
   2178053160.9140501        81624313.778869152        952906106.56835580     
   1744946219.9972222        130603988.77347749        1071042625.0394956     
   2989860424.9858389        94333954.762650967        1102577461.8923504     
   2650289533.4905033        45901015.972456455        1024834404.5309124     
   2307912480.9707980       -11885792.898980618        986224436.15998197     
   1962729267.4267192       -79026471.851655722        986747556.77955437     
   1614739892.8582711       -155521020.88556612        1026403766.3896337     
   2391486232.4591832        95019213.390154958        1256454069.2461963     
   2119987849.9618437        4387207.2809689045        1137392211.4024842     
   1835970265.3506091       -127975472.54119766        1041298979.3326467     
   1539433478.6254802       -302068826.07634628        968174373.03667986     
   1230377489.7864573       -517892853.32447511        918018392.51458395     
   3621552581.9674325        1086465774.5902297        846076143.53423893     
   3696706528.1177783        909424985.75202096        1030144688.1993526     
   3770929873.3272552        729282193.77758276        1180446660.6776152     
   3844222617.5958638        546037398.66691530        1296982060.9690259     
   3916584760.9236031        359690600.42001867        1379750889.0735853     
   2769383393.5923886        830815018.07771659        779382445.03453755     
   2779820384.5359130        684255885.84839058        955441565.92325091     
   2789559424.7737694        535370251.26683533        1108450757.3145959     
   2798600514.3059578        384158114.33305144        1238410019.2085724     
   2806943653.1324763        230619475.04703796        1345319351.6051810     
   1881734900.4725964        564520470.14177895        731744088.96337807     
   1858073915.3221092        457628688.25517839        900065211.35009098     
   1833947629.7011535        349185904.80034888        1056053046.9289185     
   1809356043.6097293        239192119.77729064        1199707595.6998610     
   1784299157.0478361        127647333.18600327        1331028857.6629179     
   958607102.60805666        287582130.78241700        703161075.32076049     
   931467120.47636628        229543392.97238454        864015624.47987306     
   904094488.10940719        170729154.37812325        1023253529.5205835     
   876489205.50717926        111139414.99963334        1180874790.4428911     
   848651272.66968286        50774174.836914450        1336879407.2467978     
  -1.2305861458044704E-003  -3.6917584374134113E-004   693633404.10668480     
  -1.3160603559317760E-003   8.9214350193092627E-006   847292805.31259716     
  -1.4696634477161532E-003   1.5862139898273851E-004   1010052205.0895904     
  -1.6920959825613615E-003   7.9713879727818832E-005   1181911603.4376643     
  -1.9830348443913817E-003  -2.2754806280980607E-004   1362871000.3568189     
   3916584760.9236031        359690600.42001867        1379750889.0735853     
   3676533241.8851323        122897334.44826889        1268408496.5786128     
   3465947025.5358896       -15678255.892723560        1194791892.8743711     
   3284826111.8758740       -56036170.602955341        1158901077.9608603     
   3133170500.9050870        1823590.3175690174        1160736051.8380795     
   2806943653.1324763        230619475.04703796        1345319351.6051810     
   2672921771.5823078        66829552.886703372        1289136314.6343718     
   2560998867.0490294       -23297112.550663352        1259941822.9842758     
   2471174939.5326409       -39760521.265062451        1257735876.6548920     
   2403449989.0331445        17439326.743506074        1282518475.6462226     
   1784299157.0478361        127647333.18600327        1331028857.6629179     
   1725629074.5002046        27657403.291355014        1321411129.5985453     
   1681691643.2971265       -23223688.788116097        1328044703.3848679     
   1652486863.4386013       -24995943.052410007        1350929579.0218861     
   1638014734.9246283        22340640.498471498        1390065756.5096002     
   848651272.66968286        50774174.836914450        1336879407.2467978     
   834655150.63882387        5380885.6622236371        1365232941.4711349     
   828025354.28018034       -15457984.605082095        1399100534.0761499     
   828761883.59375250       -11742435.965001404        1438482185.0618429     
   836864738.57954085        16527531.582465738        1483377894.4282131     
  -1.9830348443913817E-003  -2.2754806280980607E-004   1362871000.3568189     
  -1.8355223476682638E-003  -6.9340709913861057E-004   1420601750.2521400     
  -1.8081961637701777E-003  -1.5601473867389169E-003   1473109315.0581198     
  -1.9028731057661593E-003  -2.8332611840444872E-003   1520393694.7747619     
  -2.1191839492020843E-003  -4.5118213194832030E-003   1562454889.4020619     
   3133170500.9050870        1823590.3175690174        1160736051.8380795     
   2964839608.1479917        82089743.933652520        1171974770.2558451     
   2785115265.8213110        124377732.31778133        1191674012.6297879     
   2593997473.9250431        128687555.46994996        1219833778.9599056     
   2391486232.4591832        95019213.390154958        1256454069.2461963     
   2403449989.0331445        17439326.743506074        1282518475.6462226     
   2255686443.8407054        71184329.267699599        1272136348.3351059     
   2099377811.4710488        96445707.867837310        1275234999.2926006     
   1934524091.9241791        93223462.543927670        1291814428.5187054     
   1761125285.2000918        61517593.295959473        1321874636.0134234     
   1638014734.9246283        22340640.498471498        1390065756.5096002     
   1525162121.0466633        53867567.055715561        1361385872.9273663     
   1406612782.3838546        66405410.996815383        1351207021.9261823     
   1282366718.9362016        59954172.321768224        1359529203.5060461     
   1152423930.7037058        34513851.030577123        1386352417.6669583     
   836864738.57954085        16527531.582465738        1483377894.4282131     
   773266639.76586843        30139457.297706127        1439723344.0326316     
   706820178.55972576        34256841.704712093        1419590080.5305350     
   637525354.96111107        28879684.803478092        1422978103.9219224     
   565382168.97002482        14007986.594005555        1449887414.2067981     
  -2.1191839492020843E-003  -4.5118213194832030E-003   1562454889.4020619     
  -1.6785565611458393E-003  -6.3272418440150106E-003   1507148761.6508987     
  -1.3361793356740390E-003  -8.4708567998853564E-003   1480384175.1056576     
  -1.0940367201916191E-003  -1.0948413650039377E-002   1482161129.7663386     
  -9.5052171262138439E-004  -1.3754382248538814E-002   1512479625.6329424     
   2391486232.4591832        95019213.390154958        1256454069.2461963     
   2119987849.9618437        4387207.2809689045        1137392211.4024842     
   1835970265.3506091       -127975472.54119766        1041298979.3326467     
   1539433478.6254802       -302068826.07634628        968174373.03667986     
   1230377489.7864573       -517892853.32447511        918018392.51458395     
   1761125285.2000918        61517593.295959473        1321874636.0134234     
   1556381634.4636965       -6792370.4456937909        1197744267.5961430     
   1342248582.1418772       -106400339.47209066        1096843826.5209002     
   1118726128.2346370       -237306313.78322506        1019173312.7876998     
   885814272.74197590       -399510293.37909639        964732726.39653409     
   1152423930.7037058        34513851.030577123        1386352417.6669583     
   1015181587.6373019       -11250097.570836604        1260804972.6259906     
   871679643.51395082       -77879383.028740466        1158748756.4952314     
   721918098.33364868       -165374005.34314823        1080183769.2746778     
   565896952.09639966       -273733964.51404274        1025110010.9643303     
   565382168.97002482        14007986.594005555        1449887414.2067981     
   496387709.48266292       -8985974.0944497883        1326574326.4920309     
   424263449.46682805       -42412603.211149991        1227013769.2556384     
   349009388.92251390       -86271900.756111592        1151205742.4976218     
   270625527.84972692       -140563866.72931969        1099150246.2179718     
  -9.5052171262138439E-004  -1.3754382248538814E-002   1512479625.6329424     
  -2.1997056191199512E-004  -1.6534484404350857E-002   1395052329.1942606     
   5.0893355463998285E-004  -1.9320076674020938E-002   1301638864.8021224     
   1.2322103044874726E-003  -2.2124426832705976E-002   1232239232.4565246     
   1.9563105714136692E-003  -2.4926031934461999E-002   1186853432.1574659     
  -1.2305861458044704E-003  -3.6917584374134113E-004   693633404.10668480     
  -1.3160603559317760E-003   8.9214350193092627E-006   847292805.31259716     
  -1.4696634477161532E-003   1.5862139898273851E-004   1010052205.0895904     
  -1.6920959825613615E-003   7.9713879727818832E-005   1181911603.4376643     
  -1.9830348443913817E-003  -2.2754806280980607E-004   1362871000.3568189     
  -958607102.61035752       -287582130.78310728        703161075.32111573     
  -931467120.47887743       -229543392.97247547        864015624.48019826     
  -904094488.11224020       -170729154.37798750        1023253529.5208842     
  -876489205.51044619       -111139414.99964389        1180874790.4431739     
  -848651272.67349529       -50774174.837443560        1336879407.2470665     
  -1881734900.4744160       -564520470.14232481        731744088.96401811     
  -1858073915.3241625       -457628688.25527698        900065211.35070026     
  -1833947629.7035265       -349185904.80028850        1056053046.9295088     
  -1809356043.6125083       -239192119.77735955        1199707595.7004440     
  -1784299157.0511081       -127647333.18648994        1331028857.6635046     
  -2769383393.5934062       -830815018.07802188        779382445.03539181     
  -2779820384.5371714       -684255885.84839559        955441565.92410338     
  -2789559424.7753286       -535370251.26674390        1108450757.3154640     
  -2798600514.3078780       -384158114.33306772        1238410019.2094731     
  -2806943653.1348195       -230619475.04736543        1345319351.6061318     
  -3621552581.9673281       -1086465774.5901983        846076143.53523707     
  -3696706528.1179037       -909424985.75183105        1030144688.2004073     
  -3770929873.3276458       -729282193.77735448        1180446660.6787496     
  -3844222617.5965562       -546037398.66676831        1296982060.9702637     
  -3916584760.9246321       -359690600.42007172        1379750889.0749493     
  -1.9830348443913817E-003  -2.2754806280980607E-004   1362871000.3568189     
  -1.8355223476682638E-003  -6.9340709913861057E-004   1420601750.2521400     
  -1.8081961637701777E-003  -1.5601473867389169E-003   1473109315.0581198     
  -1.9028731057661593E-003  -2.8332611840444872E-003   1520393694.7747619     
  -2.1191839492020843E-003  -4.5118213194832030E-003   1562454889.4020619     
  -848651272.67349529       -50774174.837443560        1336879407.2470665     
  -834655150.64231312       -5380885.6635342836        1365232941.4712555     
  -828025354.28358006        15457984.602211177        1399100534.0761087     
  -828761883.59729505        11742435.959795654        1438482185.0616274     
  -836864738.58345950       -16527531.590782881        1483377894.4278090     
  -1784299157.0511081       -127647333.18648994        1331028857.6635046     
  -1725629074.5031638       -27657403.292488813        1321411129.5988460     
  -1681691643.2999959        23223688.785590887        1328044703.3848557     
  -1652486863.4416053        24995943.047749043        1350929579.0215361     
  -1638014734.9279897       -22340640.506013930        1390065756.5088854     
  -2806943653.1348195       -230619475.04736543        1345319351.6061318     
  -2672921771.5843859       -66829552.887553453        1289136314.6349101     
  -2560998867.0510573        23297112.548576951        1259941822.9843621     
  -2471174939.5348320        39760521.261027694        1257735876.6544883     
  -2403449989.0357103       -17439326.750200152        1282518475.6452887     
  -3916584760.9246321       -359690600.42007172        1379750889.0749493     
  -3676533241.8859825       -122897334.44873166        1268408496.5794487     
  -3465947025.5367646        15678255.891167879        1194791892.8746271     
  -3284826111.8769779        56036170.599630833        1158901077.9604843     
  -3133170500.9066219       -1823590.3233444691        1160736051.8370197     
  -2.1191839492020843E-003  -4.5118213194832030E-003   1562454889.4020619     
  -1.6785565611458393E-003  -6.3272418440150106E-003   1507148761.6508987     
  -1.3361793356740390E-003  -8.4708567998853564E-003   1480384175.1056576     
  -1.0940367201916191E-003  -1.0948413650039377E-002   1482161129.7663386     
  -9.5052171262138439E-004  -1.3754382248538814E-002   1512479625.6329424     
  -836864738.58345950       -16527531.590782881        1483377894.4278090     
  -773266639.76887167       -30139457.309392214        1439723344.0320680     
  -706820178.56199861       -34256841.720383406        1419590080.5297768     
  -637525354.96284533       -28879684.823773563        1422978103.9209373     
  -565382168.97140706       -14007986.619547606        1449887414.2055483     
  -1638014734.9279897       -22340640.506013930        1390065756.5088854     
  -1525162121.0491714       -53867567.066385925        1361385872.9263437     
  -1406612782.3856878       -66405411.011207581        1351207021.9247825     
  -1282366718.9375403       -59954172.340481043        1359529203.5042009     
  -1152423930.7047269       -34513851.054203153        1386352417.6645982     
  -2403449989.0357103       -17439326.750200152        1282518475.6452887     
  -2255686443.8425813       -71184329.277315021        1272136348.3337264     
  -2099377811.4724045       -96445707.880939007        1275234999.2906737     
  -1934524091.9251783       -93223462.561069310        1291814428.5161290     
  -1761125285.2009096       -61517593.317718387        1321874636.0100927     
  -3133170500.9066219       -1823590.3233444691        1160736051.8370197     
  -2964839608.1490955       -82089743.942171574        1171974770.2542167     
  -2785115265.8221445       -124377732.32957375        1191674012.6274509     
  -2593997473.9257631       -128687555.48554647        1219833778.9567211     
  -2391486232.4599528       -95019213.410088539        1256454069.2420297     
  -9.5052171262138439E-004  -1.3754382248538814E-002   1512479625.6329424     
  -2.1997056191199512E-004  -1.6534484404350857E-002   1395052329.1942606     
   5.0893355463998285E-004  -1.9320076674020938E-002   1301638864.8021224     
   1.2322103044874726E-003  -2.2124426832705976E-002   1232239232.4565246     
   1.9563105714136692E-003  -2.4926031934461999E-002   1186853432.1574659     
  -565382168.97140706       -14007986.619547606        1449887414.2055483     
  -496387709.48260564        8985974.0635229647        1326574326.4906266     
  -424263449.46544874        42412603.174443066        1227013769.2540240     
  -349009388.91993320        86271900.713231638        1151205742.4957359     
  -270625527.84606183        140563866.67986798        1099150246.2157652     
  -1152423930.7047269       -34513851.054203153        1386352417.6645982     
  -1015181587.6370673        11250097.541953444        1260804972.6231887     
  -871679643.51269174        77879382.993830621        1158748756.4918723     
  -721918098.33159804        165374005.30143124        1080183769.2706485     
  -565896952.09379137        273733964.46474528        1025110010.9595162     
  -1761125285.2009096       -61517593.317718387        1321874636.0100927     
  -1556381634.4636021        6792370.4187640548        1197744267.5919471     
  -1342248582.1412168        106400339.43883854        1096843826.5156691     
  -1118726128.2337625        237306313.74248266        1019173312.7812639     
  -885814272.74123013        399510293.32970983        964732726.38872278     
  -2391486232.4599528       -95019213.410088539        1256454069.2420297     
  -2119987849.9622104       -4387207.3060464859        1137392211.3968995     
  -1835970265.3510368        127975472.50944090        1041298979.3254150     
  -1539433478.6264250        302068826.03638613        968174373.02757323     
  -1230377489.7883818        517892853.27476382        918018392.50337756     
  -3621552581.9673281       -1086465774.5901983        846076143.53523707     
  -3696706528.1179037       -909424985.75183105        1030144688.2004073     
  -3770929873.3276458       -729282193.77735448        1180446660.6787496     
  -3844222617.5965562       -546037398.66676831        1296982060.9702637     
  -3916584760.9246321       -359690600.42007172        1379750889.0749493     
  -4756056190.1585293       -1426816857.0475588        994690069.50617945     
  -4733568643.1025124       -910974982.10953581        976277695.76090539     
  -4754281915.5878592       -539135838.97606742        988555869.10761082     
  -4818196007.6145754       -311299427.64715505        1031524589.5462962     
  -4925310919.1826572       -227465748.12279725        1105183857.0769608     
  -6490707942.7293606       -1947212382.8188083        1288089107.9908450     
  -6186415704.5272989       -1037320462.3992940        1015709158.6058943     
  -5969455706.3488035       -418536008.72500038        838476875.59173036     
  -5839827948.1938725       -90859021.795926332        756392258.94835413     
  -5797532430.0625095       -54289501.612071991        769455308.67576492     
  -8825507839.6798210       -2647652351.9039464        1726273258.9892337     
  -8055247712.3922634       -1288461426.6211052        1148439076.7353733     
  -7416451245.6104736       -367482703.02415037        730209680.13110781     
  -6909118439.3344469        115283818.88691998        471585069.17643666     
  -6533249293.5641861        159838139.11210728        372565243.87136126     
  -11760455881.009911       -3528136764.3029733        2309242522.5013456     
  -10340064666.697409       -1664397874.7749717        1374467450.1493428     
  -9095268533.3728714       -385975921.87351894        663754282.72574234     
  -8026067481.0362997        307129094.40138245        177103020.23054510     
  -7132461509.6876926        414917174.04973602       -85486337.336250126     
  -3916584760.9246321       -359690600.42007172        1379750889.0749493     
  -3676533241.8859825       -122897334.44873166        1268408496.5794487     
  -3465947025.5367646        15678255.891167879        1194791892.8746271     
  -3284826111.8769779        56036170.599630833        1158901077.9604843     
  -3133170500.9066219       -1823590.3233444691        1160736051.8370197     
  -4925310919.1826572       -227465748.12279725        1105183857.0769608     
  -4635238342.9962568       -109834444.49188185        1012062773.2150115     
  -4358245357.5232935       -35801776.572421789        947192551.21613681     
  -4094331962.7637672       -5367744.3644173145        910573191.08033431     
  -3843498158.7176766       -18532347.867870331        902204692.80760550     
  -5797532430.0625095       -54289501.612071991        769455308.67576492     
  -5484510016.5215149       -63941526.259524584        713672197.41936040     
  -5168181481.7179651       -62573146.698454618        676665021.09842610     
  -4848546825.6518555       -50184362.928854227        658433779.71295810     
  -4525606048.3231888       -26775174.950731039        658978473.26295841     
  -6533249293.5641861        159838139.11210728        372565243.87136126     
  -6224348262.4617586        14781420.248337746        373236769.19249606     
  -5895755398.1207790       -64635854.486929417        383209302.52149403     
  -5547470700.5412445       -78413685.093684196        402482843.85835481     
  -5179494169.7231579       -26552071.571929455        431057393.20307887     
  -7132461509.6876926        414917174.04973602       -85486337.336250126     
  -6854753080.8169880        126334395.03170156       -9243511.4655824583     
  -6540967106.7317343       -41989899.937847137        66825395.485343046     
  -6191103587.4319344       -90055710.858903885        142720383.51652697     
  -5805162522.9175892       -17863037.731469870        218441452.62796542     
  -3133170500.9066219       -1823590.3233444691        1160736051.8370197     
  -2964839608.1490955       -82089743.942171574        1171974770.2542167     
  -2785115265.8221445       -124377732.32957375        1191674012.6274509     
  -2593997473.9257631       -128687555.48554647        1219833778.9567211     
  -2391486232.4599528       -95019213.410088539        1256454069.2420297     
  -3843498158.7176766       -18532347.867870331        902204692.80760550     
  -3636339000.8306565       -58317001.415601254        934199653.57940567     
  -3425012992.5795765       -84212153.749804020        978260102.01683652     
  -3209520133.9644394       -96217804.870488405        1034386038.1198974     
  -2989860424.9852471       -94333954.777639627        1102577461.8885887     
  -4525606048.3231888       -26775174.950731039        658978473.26295841     
  -4269318728.9935465       -22988359.533429146        703298643.98309672     
  -4016091158.5052166       -29400706.920497417        763289266.07845795     
  -3765923336.8582039       -46012217.111949444        838950339.54904366     
  -3518815264.0524993       -72822890.107774258        930281864.39485335     
  -5179494169.7231579       -26552071.571929455        431057393.20307887     
  -4863778792.6377735        23896181.704340458        479271741.46529001     
  -4558349763.5990715        40056608.158340454        546761504.81231689     
  -4263207082.6070547        21929207.790055752        633526683.24415934     
  -3978350749.6617193       -30486019.400505781        739567276.76081860     
  -5805162522.9175892       -17863037.731469870        218441452.62796542     
  -5419719191.7633333        82336622.297720671        262118946.02598017     
  -5051788807.8611317        124159791.48672628        328676818.21840876     
  -4701371371.2109900        107606469.83554244        418115069.20524317     
  -4368466881.8128977        32676657.344181538        530433698.98649049     
  -2391486232.4599528       -95019213.410088539        1256454069.2420297     
  -2119987849.9622104       -4387207.3060464859        1137392211.3968995     
  -1835970265.3510368        127975472.50944090        1041298979.3254150     
  -1539433478.6264250        302068826.03638613        968174373.02757323     
  -1230377489.7883818        517892853.27476382        918018392.50337756     
  -2989860424.9852471       -94333954.777639627        1102577461.8885887     
  -2650289533.4897432       -45901015.991323352        1024834404.5255955     
  -2307912480.9702234        11885792.875051856        986224436.15286219     
  -1962729267.4266896        79026471.821476936        986747556.77039039     
  -1614739892.8591342        155521020.84796047        1026403766.3781844     
  -3518815264.0524993       -72822890.107774258        930281864.39485335     
  -3064987682.9403281       -52733764.453514695        882525726.24300575     
  -2618066981.8935552       -55667572.350579023        890067140.29803884     
  -2178053160.9121895       -81624313.798994422        952906106.55994999     
  -1744946219.9962225       -130603988.79874718        1071042625.0287427     
  -3978350749.6617193       -30486019.400505781        739567276.76081860     
  -3364082298.3139701       -24885452.692625999        710466176.54913175     
  -2766433768.1210408       -74684623.167470217        752827091.76094186     
  -2185405159.0829325       -179883530.82505137        866650022.39625263     
  -1620996471.1996379       -340482175.66535270        1051934968.4550567     
  -4368466881.8128977        32676657.344181538        530433698.98649049     
  -3547573379.6106648        37643919.291348219        508655755.44397634     
  -2753012839.6526656       -45165359.575587273        574504290.54157794     
  -1984785261.9389071       -215751179.25665891        727979304.27929437     
  -1242890646.4693828       -474113539.75185388        969080796.65712821     
 </DataArray>
 <DataArray  type="Float64" Name="VM" NumberOfComponents="1" format="ascii">
   11192022957.502943     
   9906798587.6051121     
   8982429609.6972332     
   8189702239.2302456     
   7350201899.5287666     
   8394809891.2628727     
   7754031824.5123720     
   7349353277.3893328     
   7015190300.9784250     
   6646019226.1904354     
   6185439307.9761152     
   6002122349.3331194     
   5951493263.6935806     
   5941181071.1113482     
   5922479961.7706404     
   4564874662.6213255     
   4667305360.1356859     
   4823109819.9717169     
   5000414720.6506548     
   5182121463.0735140     
   3536791282.2356005     
   3783438900.5178576     
   4022692577.5189719     
   4245421351.9739528     
   4446503383.6684589     
   7350201899.5287666     
   6918803913.2145176     
   6521100841.8275356     
   6151539380.5549908     
   5808587020.3689442     
   6646019226.1904354     
   6265193656.0593948     
   5901150771.5724640     
   5552617362.7990723     
   5219939654.3990822     
   5922479961.7706404     
   5591174716.9086142     
   5269179490.3006878     
   4956632796.9782887     
   4654396954.0233049     
   5182121463.0735140     
   4905221956.6371803     
   4640158685.2487335     
   4385092509.3581371     
   4140472487.8053164     
   4446503383.6684589     
   4231636165.9104395     
   4043508080.5831046     
   3873815540.2109771     
   3721958038.4449115     
   5808587020.3689442     
   5480191222.4561739     
   5146581410.0884752     
   4810907454.1518431     
   4480111302.6345901     
   5219939654.3990822     
   4945932179.0314579     
   4675424425.5460215     
   4412819104.4421644     
   4165068940.2717113     
   4654396954.0233049     
   4428696556.3736162     
   4214215014.3365250     
   4015287067.9148383     
   3837627754.2649007     
   4140472487.8053164     
   3953794227.4776487     
   3784224682.4272900     
   3634739028.0389385     
   3509009842.7133741     
   3721958038.4449115     
   3560084871.2093554     
   3418507188.8665786     
   3297810111.6835866     
   3199535652.9798856     
   4480111302.6345901     
   3673748841.0438037     
   2906362731.9702725     
   2268824133.5439358     
   1999410486.9026351     
   4165068940.2717113     
   3570467595.2636943     
   3025288319.0178552     
   2582340446.5213299     
   2347624075.5247254     
   3837627754.2649007     
   3401743226.7124510     
   3014679205.1494608     
   2701274911.8776932     
   2505073789.3311205     
   3509009842.7133741     
   3171016745.8591132     
   2876099542.2809405     
   2633376378.7394166     
   2458294486.2452250     
   3199535652.9798856     
   2892412493.5976453     
   2622028678.7488036     
   2395454179.1330552     
   2224301865.9198861     
   3536791282.2356005     
   3783438900.5178576     
   4022692577.5189719     
   4245421351.9739528     
   4446503383.6684589     
   2807348152.1965218     
   3005346034.2464962     
   3203249163.6297479     
   3391992825.1932878     
   3565730586.5376015     
   2098494689.3826671     
   2289521110.7593265     
   2488101717.3635855     
   2686278727.3005695     
   2878744475.3402972     
   1486357722.5902009     
   1716414297.4659355     
   1957887473.0639231     
   2206030056.7975340     
   2457933497.8598971     
   1201408297.7397330     
   1467554187.6889834     
   1749461737.5121503     
   2047130947.2092330     
   2360561816.7802320     
   4446503383.6684589     
   4231636165.9104395     
   4043508080.5831046     
   3873815540.2109771     
   3721958038.4449115     
   3565730586.5376015     
   3457739743.2960491     
   3373615571.3480744     
   3309416911.0030465     
   3266423480.1005206     
   2878744475.3402972     
   2858184097.5964484     
   2856359467.7112389     
   2871876613.1169953     
   2905829571.7377772     
   2457933497.8598971     
   2506744890.0754213     
   2563417924.0136504     
   2627624177.4784827     
   2699632266.5533028     
   2360561816.7802320     
   2460554408.7579799     
   2551500178.7836523     
   2633399126.8572555     
   2706251252.9787822     
   3721958038.4449115     
   3560084871.2093554     
   3418507188.8665786     
   3297810111.6835866     
   3199535652.9798856     
   3266423480.1005206     
   3128515891.1827683     
   3015441244.8290448     
   2928666009.4942980     
   2870377005.7998867     
   2905829571.7377772     
   2794097156.9450412     
   2714193019.3992467     
   2667608411.0912042     
   2656203420.6770048     
   2699632266.5533028     
   2606521392.2485929     
   2553872130.5645351     
   2542333797.0909376     
   2572635593.4061222     
   2706251252.9787822     
   2610458229.7438726     
   2564100606.0039406     
   2567178381.7589865     
   2619691557.0090113     
   3199535652.9798856     
   2892412493.5976453     
   2622028678.7488036     
   2395454179.1330552     
   2224301865.9198861     
   2870377005.7998867     
   2595518337.5747075     
   2359018256.1032705     
   2165522092.8627234     
   2022447779.4082236     
   2656203420.6770048     
   2410607527.0523524     
   2204965422.4252272     
   2041639467.6850765     
   1924221001.7724574     
   2572635593.4061222     
   2351667570.9116373     
   2171746023.5102663     
   2033515203.3999438     
   1937893273.3427675     
   2619691557.0090113     
   2416301513.3817625     
   2254504646.9435530     
   2134300957.6943769     
   2055690445.6342325     
   1201408297.7397330     
   1467554187.6889834     
   1749461737.5121503     
   2047130947.2092330     
   2360561816.7802320     
   1486357722.5918775     
   1716414297.4676089     
   1957887473.0655985     
   2206030056.7992024     
   2457933497.8615322     
   2098494689.3846257     
   2289521110.7614861     
   2488101717.3659334     
   2686278727.3030815     
   2878744475.3429375     
   2807348152.1980262     
   3005346034.2483287     
   3203249163.6319013     
   3391992825.1957450     
   3565730586.5403390     
   3536791282.2362323     
   3783438900.5188737     
   4022692577.5203667     
   4245421351.9757175     
   4446503383.6705742     
   2360561816.7802320     
   2460554408.7579799     
   2551500178.7836523     
   2633399126.8572555     
   2706251252.9787822     
   2457933497.8615322     
   2506744890.0765610     
   2563417924.0142102     
   2627624177.4784098     
   2699632266.5526013     
   2878744475.3429375     
   2858184097.5983067     
   2856359467.7121587     
   2871876613.1168613     
   2905829571.7365656     
   3565730586.5403390     
   3457739743.2979259     
   3373615571.3489108     
   3309416911.0026808     
   3266423480.0988746     
   4446503383.6705742     
   4231636165.9117303     
   4043508080.5834107     
   3873815540.2101264     
   3721958038.4427838     
   2706251252.9787822     
   2610458229.7438726     
   2564100606.0039406     
   2567178381.7589865     
   2619691557.0090113     
   2699632266.5526013     
   2606521392.2469344     
   2553872130.5619264     
   2542333797.0873942     
   2572635593.4016418     
   2905829571.7365656     
   2794097156.9421844     
   2714193019.3947062     
   2667608411.0849342     
   2656203420.6689277     
   3266423480.0988746     
   3128515891.1791687     
   3015441244.8233805     
   2928666009.4864173     
   2870377005.7895694     
   3721958038.4427838     
   3560084871.2053027     
   3418507188.8604236     
   3297810111.6750793     
   3199535652.9686832     
   2619691557.0090113     
   2416301513.3817625     
   2254504646.9435530     
   2134300957.6943769     
   2055690445.6342325     
   2572635593.4016418     
   2351667570.9058661     
   2171746023.5029449     
   2033515203.3907444     
   1937893273.3313282     
   2656203420.6689277     
   2410607527.0416398     
   2204965422.4112778     
   2041639467.6671181     
   1924221001.7495487     
   2870377005.7895694     
   2595518337.5606976     
   2359018256.0846233     
   2165522092.8381481     
   2022447779.3760738     
   3199535652.9686832     
   2892412493.5821733     
   2622028678.7278295     
   2395454179.1048007     
   2224301865.8819757     
   3536791282.2362323     
   3783438900.5188737     
   4022692577.5203667     
   4245421351.9757175     
   4446503383.6705742     
   4564874662.6210213     
   4667305360.1354313     
   4823109819.9715815     
   5000414720.6506996     
   5182121463.0738087     
   6185439307.9751310     
   6002122349.3317308     
   5951493263.6918983     
   5941181071.1094761     
   5922479961.7687035     
   8394809891.2614698     
   7754031824.5100307     
   7349353277.3861704     
   7015190300.9745474     
   6646019226.1859522     
   11192022957.501373     
   9906798587.6019917     
   8982429609.6926517     
   8189702239.2243052     
   7350201899.5215015     
   4446503383.6705742     
   4231636165.9117303     
   4043508080.5834107     
   3873815540.2101264     
   3721958038.4427838     
   5182121463.0738087     
   4905221956.6368284     
   4640158685.2476540     
   4385092509.3562231     
   4140472487.8024473     
   5922479961.7687035     
   5591174716.9062176     
   5269179490.2977896     
   4956632796.9748259     
   4654396954.0191851     
   6646019226.1859522     
   6265193656.0545750     
   5901150771.5672827     
   5552617362.7934942     
   5219939654.3930616     
   7350201899.5215015     
   6918803913.2069187     
   6521100841.8195934     
   6151539380.5467014     
   5808587020.3603182     
   3721958038.4427838     
   3560084871.2053027     
   3418507188.8604236     
   3297810111.6750793     
   3199535652.9686832     
   4140472487.8024473     
   3953794227.4732509     
   3784224682.4212055     
   3634739028.0309877     
   3509009842.7033496     
   4654396954.0191851     
   4428696556.3684301     
   4214215014.3301606     
   4015287067.9071851     
   3837627754.2558432     
   5219939654.3930616     
   4945932179.0248108     
   4675424425.5387030     
   4412819104.4341278     
   4165068940.2629204     
   5808587020.3603182     
   5480191222.4473000     
   5146581410.0793715     
   4810907454.1425323     
   4480111302.6251001     
   3199535652.9686832     
   2892412493.5821733     
   2622028678.7278295     
   2395454179.1048007     
   2224301865.8819757     
   3509009842.7033496     
   3171016745.8457174     
   2876099542.2634544     
   2633376378.7169409     
   2458294486.2167482     
   3837627754.2558432     
   3401743226.7010536     
   3014679205.1351666     
   2701274911.8598199     
   2505073789.3091745     
   4165068940.2629204     
   3570467595.2537861     
   3025288319.0062852     
   2582340446.5073032     
   2347624075.5076613     
   4480111302.6251001     
   3673748841.0345764     
   2906362731.9608521     
   2268824133.5332441     
   1999410486.8895447     
 </DataArray>
 <DataArray  type="Float64" Name="strain" NumberOfComponents="3" format="ascii">
  0.17836691419535167        0.0000000000000000       0.10006717597503530     
  0.16401242173780509       -2.3960358753917287E-002   5.9560256173126241E-002
  0.14965792928025851       -3.9043410635661802E-002   2.8762685584769122E-002
  0.13530343682271195       -4.5249155645233574E-002   7.6744642099639045E-003
  0.12094894436516537       -4.2577593782632546E-002  -3.7044079512893804E-003
  0.13385353556851209        0.0000000000000000        7.4805174556164741E-002
  0.12781182140681135       -1.8801881451618433E-002   4.9765693325173783E-002
  0.12177010724511057       -3.0957544510998827E-002   3.1642419472322540E-002
  0.11572839308340983       -3.6466989178141174E-002   2.0435352997611022E-002
  0.10968667892170905       -3.5330215453045516E-002   1.6144493901039173E-002
   9.8442403798091299E-002   0.0000000000000000        5.5817194679560395E-002
   9.7920326096824162E-002  -1.3643404149319581E-002   4.4014063539552783E-002
   9.7398248395556997E-002  -2.2871678386335852E-002   3.6333997942272711E-002
   9.6876170694289859E-002  -2.7684822711048822E-002   3.2776997887720115E-002
   9.6354092993022722E-002  -2.8082837123458469E-002   3.3343063375895050E-002
   7.2133518884089282E-002   0.0000000000000000        4.3103236345222271E-002
   7.4337935807843564E-002  -8.4849268470207281E-003   4.2305366816263290E-002
   7.6542352731597818E-002  -1.4785812261672873E-002   4.2837420994619624E-002
   7.8746769655352086E-002  -1.8902656243956439E-002   4.4699398880291279E-002
   8.0951186579106355E-002  -2.0835458793871428E-002   4.7891300473278241E-002
   5.4926880826506062E-002   0.0000000000000000        3.6663299553150355E-002
   5.7064650539869533E-002  -3.3264495447218748E-003   4.4639603155305282E-002
   5.9202420253233010E-002  -6.6999461370098982E-003   5.1152688629363327E-002
   6.1340189966596487E-002  -1.0120489776864063E-002   5.6202555975324454E-002
   6.3477959679959964E-002  -1.3588080464284374E-002   5.9789205193188699E-002
  0.12094894436516537       -4.2577593782632546E-002  -3.7044079512893804E-003
  0.11487755665556962       -3.6379338654645973E-002  -4.0055216354290685E-004
  0.10880616894597386       -3.2005003868060926E-002   2.8957671376785669E-003
  0.10273478123637811       -2.9454589422877535E-002   6.1845499523750357E-003
   9.6663393526782354E-002  -2.8728095319095759E-002   9.4657962805465290E-003
  0.10968667892170905       -3.5330215453045516E-002   1.6144493901039173E-002
  0.10381304480902040       -3.1368098316473074E-002   1.6173593331644621E-002
   9.7939410696331705E-002  -2.8401512749185290E-002   1.6605736442589294E-002
   9.2065776583643025E-002  -2.6430458751182009E-002   1.7440923233873088E-002
   8.6192142470954358E-002  -2.5454936322463276E-002   1.8679153705495985E-002
   9.6354092993022722E-002  -2.8082837123458469E-002   3.3343063375895050E-002
   9.1088792644105299E-002  -2.6356857978300251E-002   3.0925795221476548E-002
   8.5823492295187861E-002  -2.4798021630309555E-002   2.9322150914261245E-002
   8.0558191946270424E-002  -2.3406328079486446E-002   2.8532130454249412E-002
   7.5292891597353029E-002  -2.2181777325830848E-002   2.8555733841440806E-002
   8.0951186579106355E-002  -2.0835458793871428E-002   4.7891300473278241E-002
   7.6704800160824343E-002  -2.1345617640127369E-002   4.3856053505952716E-002
   7.2458413742542332E-002  -2.1194530511433843E-002   4.1045010552694647E-002
   6.8212027324260321E-002  -2.0382197407790872E-002   3.9458171613504116E-002
   6.3965640905978324E-002  -1.8908618329198393E-002   3.9095536688381088E-002
   6.3477959679959964E-002  -1.3588080464284374E-002   5.9789205193188699E-002
   6.0661067359177534E-002  -1.6334377301954518E-002   5.4964368185073220E-002
   5.7844175038395118E-002  -1.7591039392558176E-002   5.1774315357889414E-002
   5.5027282717612681E-002  -1.7358066736095291E-002   5.0219046711637280E-002
   5.2210390396830272E-002  -1.5635459332565951E-002   5.0298562246316778E-002
   9.6663393526782354E-002  -2.8728095319095759E-002   9.4657962805465290E-003
   9.0740336307696096E-002  -2.8470872997143223E-002   1.1358487661122393E-002
   8.4817279088609879E-002  -2.7328273897447450E-002   1.4242662122790989E-002
   7.8894221869523634E-002  -2.5300298020008671E-002   1.8118319665552690E-002
   7.2971164650437403E-002  -2.2386945364826771E-002   2.2985460289407122E-002
   8.6192142470954358E-002  -2.5454936322463276E-002   1.8679153705495985E-002
   8.1182460785920341E-002  -2.4717163658318775E-002   2.0768442130197462E-002
   7.6172779100886323E-002  -2.3459358954038199E-002   2.3692998541910433E-002
   7.1163097415852292E-002  -2.1681522209621377E-002   2.7452822940635013E-002
   6.6153415730818260E-002  -1.9383653425068426E-002   3.2047915326371162E-002
   7.5292891597353029E-002  -2.2181777325830848E-002   2.8555733841440806E-002
   7.1040370352289883E-002  -2.0963454319494416E-002   3.0476274572660941E-002
   6.6787849107226752E-002  -1.9590444010628837E-002   3.3075868196811360E-002
   6.2535327862163606E-002  -1.8062746399234060E-002   3.6354514713891867E-002
   5.8282806617100461E-002  -1.6380361485310080E-002   4.0312214123902651E-002
   6.3965640905978324E-002  -1.8908618329198393E-002   3.9095536688381088E-002
   6.0314065006804744E-002  -1.7209744980670068E-002   4.0481984988512916E-002
   5.6662489107631185E-002  -1.5721529067219530E-002   4.2391271087493666E-002
   5.3010913208457605E-002  -1.4443970588846753E-002   4.4823394985323242E-002
   4.9359337309284060E-002  -1.3377069545551679E-002   4.7778356682001852E-002
   5.2210390396830272E-002  -1.5635459332565951E-002   5.0298562246316778E-002
   4.9003544749464931E-002  -1.3456035641845748E-002   5.0785573377753288E-002
   4.5796699102099610E-002  -1.1852614123810199E-002   5.1639207213957476E-002
   4.2589853454734303E-002  -1.0825194778459384E-002   5.2859463754929240E-002
   3.9383007807368947E-002  -1.0373777605793333E-002   5.4446343000668501E-002
   7.2971164650437403E-002  -2.2386945364826771E-002   2.2985460289407122E-002
   5.9314442590123639E-002  -1.8365265552933802E-002   2.2041749402618716E-002
   4.5657720529809875E-002  -1.3012308205362255E-002   2.4895185923581087E-002
   3.2000998469496125E-002  -6.3280733221117991E-003   3.1545769852294514E-002
   1.8344276409182347E-002   1.6874390968173447E-003   4.1993501188758664E-002
   6.6153415730818260E-002  -1.9383653425068426E-002   3.2047915326371162E-002
   5.5943611041894992E-002  -1.6405653946815396E-002   3.0786867650595101E-002
   4.5733806352971765E-002  -1.2587425121298318E-002   3.2622507309849072E-002
   3.5524001664048434E-002  -7.9289669485170591E-003   3.7554834304133179E-002
   2.5314196975125214E-002  -2.4302794284720708E-003   4.5583848633447444E-002
   5.8282806617100461E-002  -1.6380361485310080E-002   4.0312214123902651E-002
   5.0819459226846941E-002  -1.4446042340696838E-002   3.8242781470724310E-002
   4.3356111836593388E-002  -1.2162542037234381E-002   3.8569576079855061E-002
   3.5892764446339820E-002  -9.5298605749224302E-003   4.1292597951295418E-002
   2.8429417056086315E-002  -6.5479979537614863E-003   4.6411847085044811E-002
   4.9359337309284060E-002  -1.3377069545551679E-002   4.7778356682001852E-002
   4.3941987144979447E-002  -1.2486430734578245E-002   4.4409490863006204E-002
   3.8524636980674869E-002  -1.1737658953170332E-002   4.2736392233599221E-002
   3.3107286816370263E-002  -1.1130754201327857E-002   4.2759060793780689E-002
   2.7689936652065684E-002  -1.0665716479050791E-002   4.4477496543550793E-002
   3.9383007807368947E-002  -1.0373777605793333E-002   5.4446343000668501E-002
   3.5311194796292550E-002  -1.0526819128459736E-002   4.9286995827440977E-002
   3.1239381785216139E-002  -1.1312775869106340E-002   4.5122955771081358E-002
   2.7167568774139735E-002  -1.2731647827733172E-002   4.1954222831589463E-002
   2.3095755763063330E-002  -1.4783435004340206E-002   3.9780797008965307E-002
   5.4926880826506062E-002   0.0000000000000000        3.6663299553150355E-002
   5.7064650539869533E-002  -3.3264495447218748E-003   4.4639603155305282E-002
   5.9202420253233010E-002  -6.6999461370098982E-003   5.1152688629363327E-002
   6.1340189966596487E-002  -1.0120489776864063E-002   5.6202555975324454E-002
   6.3477959679959964E-002  -1.3588080464284374E-002   5.9789205193188699E-002
   4.2002314802817894E-002   0.0000000000000000        3.3773239284829962E-002
   4.2909060313023266E-002  -2.4948371585397236E-003   4.1402467856674209E-002
   4.3815805823228651E-002  -5.0249596027549265E-003   4.8032866150299156E-002
   4.4722551333434037E-002  -7.5903673326455975E-003   5.3664434165704808E-002
   4.5629296843639415E-002  -1.0191060348211749E-002   5.8297171902891173E-002
   2.8539645990501045E-002   0.0000000000000000        3.1708910521746382E-002
   2.8679755147425930E-002  -1.6632247723575729E-003   3.9002825825170610E-002
   2.8819864304350816E-002  -3.3499730684999531E-003   4.5762298700253133E-002
   2.8959973461275702E-002  -5.0602448884271359E-003   5.1987329146993978E-002
   2.9100082618200587E-002  -6.7940402321391268E-003   5.7677917165393104E-002
   1.4538874389555527E-002   0.0000000000000000        3.0470313263899620E-002
   1.4376735043077515E-002  -8.3161238617542239E-004   3.7440677060794500E-002
   1.4214595696599504E-002  -1.6749865342449814E-003   4.4340986279225288E-002
   1.4052456350121489E-002  -2.5301224442086743E-003   5.1171240919191952E-002
   1.3890317003643477E-002  -3.3970201160665068E-003   5.7931440980694575E-002
  -1.8663889878034468E-014   0.0000000000000000        3.0057447511289675E-002
  -2.1978946440626146E-014   6.7289923633140347E-015   3.6716021563545878E-002
  -2.5287497790182911E-014   9.9920072216264089E-015   4.3768928887215584E-002
  -2.8600169107995121E-014   9.7890445749371224E-015   5.1216169482298790E-002
  -3.1912840425807332E-014   6.1227065084601406E-015   5.9057743348795488E-002
   6.3477959679959964E-002  -1.3588080464284374E-002   5.9789205193188699E-002
   6.0661067359177534E-002  -1.6334377301954518E-002   5.4964368185073220E-002
   5.7844175038395118E-002  -1.7591039392558176E-002   5.1774315357889414E-002
   5.5027282717612681E-002  -1.7358066736095291E-002   5.0219046711637280E-002
   5.2210390396830272E-002  -1.5635459332565951E-002   5.0298562246316778E-002
   4.5629296843639415E-002  -1.0191060348211749E-002   5.8297171902891173E-002
   4.4214548428604943E-002  -1.2250782976466482E-002   5.5862573634156108E-002
   4.2799800013570477E-002  -1.3193279544422870E-002   5.4597478995985285E-002
   4.1385051598535998E-002  -1.3018550052080913E-002   5.4501887988378649E-002
   3.9970303183501539E-002  -1.1726594499440621E-002   5.5575800611336310E-002
   2.9100082618200587E-002  -6.7940402321391268E-003   5.7677917165393104E-002
   2.8622197558546635E-002  -8.1671886509784384E-003   5.7261148949270299E-002
   2.8144312498892689E-002  -8.7955196962875674E-003   5.7548603813344278E-002
   2.7666427439238736E-002  -8.6790333680665053E-003   5.8540281757615061E-002
   2.7188542379584780E-002  -7.8177296663152832E-003   6.0236182782082676E-002
   1.3890317003643477E-002  -3.3970201160665068E-003   5.7931440980694575E-002
   1.3884014749002613E-002  -4.0835943254903919E-003   5.9160094130415848E-002
   1.3877712494361750E-002  -4.3977598481522700E-003   6.0627689809966495E-002
   1.3871410239720883E-002  -4.3395166840521195E-003   6.2334228019346523E-002
   1.3865107985080019E-002  -3.9088648331899421E-003   6.4279708758555903E-002
  -3.1912840425807332E-014   6.1227065084601406E-015   5.9057743348795488E-002
  -2.7125003632111344E-014  -2.3791732473021909E-015   6.1559409177592735E-002
  -2.2335865795808374E-014  -1.6961475626797728E-014   6.3834736985851862E-002
  -1.7548245842546883E-014  -3.7706654205243995E-014   6.5883726773573015E-002
  -1.2760625889285393E-014  -6.4601102245376296E-014   6.7706378540756021E-002
   5.2210390396830272E-002  -1.5635459332565951E-002   5.0298562246316778E-002
   4.9003544749464931E-002  -1.3456035641845748E-002   5.0785573377753288E-002
   4.5796699102099610E-002  -1.1852614123810199E-002   5.1639207213957476E-002
   4.2589853454734303E-002  -1.0825194778459384E-002   5.2859463754929240E-002
   3.9383007807368947E-002  -1.0373777605793333E-002   5.4446343000668501E-002
   3.9970303183501539E-002  -1.1726594499440621E-002   5.5575800611336310E-002
   3.7238852417673260E-002  -1.0092026731408535E-002   5.5125908427854586E-002
   3.4507401651844960E-002  -8.8894605928912900E-003   5.5260183302679358E-002
   3.1775950886016681E-002  -8.1188960838887679E-003   5.5978625235810570E-002
   2.9044500120188402E-002  -7.7803332044011353E-003   5.7281234227248345E-002
   2.7188542379584780E-002  -7.8177296663152832E-003   6.0236182782082676E-002
   2.5150030848832477E-002  -6.7280178209713909E-003   5.8993387826852539E-002
   2.3111519318080170E-002  -5.9263070619723513E-003   5.8552304283467901E-002
   2.1073007787327850E-002  -5.4125973893182043E-003   5.8912932151928658E-002
   1.9034496256575544E-002  -5.1868888030089100E-003   6.0075271432234859E-002
   1.3865107985080019E-002  -3.9088648331899421E-003   6.4279708758555903E-002
   1.2737080042942609E-002  -3.3640089105342399E-003   6.2388011574747375E-002
   1.1609052100805203E-002  -2.9631535310534274E-003   6.1515570156323182E-002
   1.0481024158667793E-002  -2.7062986947475869E-003   6.1662384503283305E-002
   9.3529962165303879E-003  -2.5934444016166985E-003   6.2828454615627916E-002
  -1.2760625889285393E-014  -6.4601102245376296E-014   6.7706378540756021E-002
   3.6602665343110630E-015  -9.7061247927854311E-014   6.5309779671538948E-002
   2.0084628404859473E-014  -1.3450004998638576E-013   6.4149980921245159E-002
   3.6508122913669894E-014  -1.7700337723303150E-013   6.4226982289874668E-002
   5.2929882699004338E-014  -2.2448709557920665E-013   6.5540783777427503E-002
   3.9383007807368947E-002  -1.0373777605793333E-002   5.4446343000668501E-002
   3.5311194796292550E-002  -1.0526819128459736E-002   4.9286995827440977E-002
   3.1239381785216139E-002  -1.1312775869106340E-002   4.5122955771081358E-002
   2.7167568774139735E-002  -1.2731647827733172E-002   4.1954222831589463E-002
   2.3095755763063330E-002  -1.4783435004340206E-002   3.9780797008965307E-002
   2.9044500120188402E-002  -7.7803332044011353E-003   5.7281234227248345E-002
   2.5973655759956742E-002  -7.8951143464133788E-003   5.1902251595832866E-002
   2.2902811399725075E-002  -8.4845819019108981E-003   4.7529899149239010E-002
   1.9831967039493408E-002  -9.5487358708936029E-003   4.4164176887466995E-002
   1.6761122679261747E-002  -1.1087576253361486E-002   4.1805084810516480E-002
   1.9034496256575544E-002  -5.1868888030089100E-003   6.0075271432234859E-002
   1.6975943615142548E-002  -5.2634095643671192E-003   5.4634882147126265E-002
   1.4917390973709550E-002  -5.6563879347154289E-003   5.0212446114793363E-002
   1.2858838332276553E-002  -6.3658239140540473E-003   4.6807963335236034E-002
   1.0800285690843542E-002  -7.3917175023827109E-003   4.4421433808454314E-002
   9.3529962165303879E-003  -2.5934444016166985E-003   6.2828454615627916E-002
   8.3180583618499646E-003  -2.6317047823208109E-003   5.7484887481321335E-002
   7.2831205071695508E-003  -2.8281939675199735E-003   5.3170596667744333E-002
   6.2481826524891232E-003  -3.1829119572144293E-003   4.9885582174896942E-002
   5.2132447978087137E-003  -3.6958587514039631E-003   4.7629844002778775E-002
   5.2929882699004338E-014  -2.2448709557920665E-013   6.5540783777427503E-002
   7.9006245989887702E-014  -2.7447488726295433E-013   6.0452267598417958E-002
   1.0508260928077107E-013  -3.2454594567354889E-013   5.6404350808091974E-002
   1.3115897257165443E-013  -3.7490149873420364E-013   5.3397033406449398E-002
   1.5723533586253780E-013  -4.2521541843143495E-013   5.1430315393490189E-002
  -1.8663889878034468E-014   0.0000000000000000        3.0057447511289675E-002
  -2.1978946440626146E-014   6.7289923633140347E-015   3.6716021563545878E-002
  -2.5287497790182911E-014   9.9920072216264089E-015   4.3768928887215584E-002
  -2.8600169107995121E-014   9.7890445749371224E-015   5.1216169482298790E-002
  -3.1912840425807332E-014   6.1227065084601406E-015   5.9057743348795488E-002
  -1.4538874389590423E-002   0.0000000000000000        3.0470313263915014E-002
  -1.4376735043118913E-002   8.3161238618646282E-004   3.7440677060808593E-002
  -1.4214595696647399E-002   1.6749865342614093E-003   4.4340986279238312E-002
  -1.4052456350175884E-002   2.5301224442248324E-003   5.1171240919204199E-002
  -1.3890317003704371E-002   3.3970201160767512E-003   5.7931440980706218E-002
  -2.8539645990528644E-002   0.0000000000000000        3.1708910521774117E-002
  -2.8679755147459657E-002   1.6632247723661971E-003   3.9002825825197013E-002
  -2.8819864304390666E-002   3.3499730685128248E-003   4.5762298700278717E-002
  -2.8959973461321672E-002   5.0602448884398818E-003   5.1987329147019236E-002
  -2.9100082618252684E-002   6.7940402321473737E-003   5.7677917165418535E-002
  -4.2002314802833327E-002   0.0000000000000000        3.3773239284866981E-002
  -4.2909060313044214E-002   2.4948371585459322E-003   4.1402467856711145E-002
  -4.3815805823255088E-002   5.0249596027642429E-003   4.8032866150336771E-002
  -4.4722551333465962E-002   7.5903673326549286E-003   5.3664434165743839E-002
  -4.5629296843676836E-002   1.0191060348218008E-002   5.8297171902932376E-002
  -5.4926880826504473E-002   0.0000000000000000        3.6663299553193605E-002
  -5.7064650539872572E-002   3.3264495447256669E-003   4.4639603155350982E-002
  -5.9202420253240663E-002   6.6999461370156575E-003   5.1152688629412482E-002
  -6.1340189966608762E-002   1.0120489776869976E-002   5.6202555975378092E-002
  -6.3477959679976839E-002   1.3588080464288631E-002   5.9789205193247798E-002
  -3.1912840425807332E-014   6.1227065084601406E-015   5.9057743348795488E-002
  -2.7125003632111344E-014  -2.3791732473021909E-015   6.1559409177592735E-002
  -2.2335865795808374E-014  -1.6961475626797728E-014   6.3834736985851862E-002
  -1.7548245842546883E-014  -3.7706654205243995E-014   6.5883726773573015E-002
  -1.2760625889285393E-014  -6.4601102245376296E-014   6.7706378540756021E-002
  -1.3890317003704371E-002   3.3970201160767512E-003   5.7931440980706218E-002
  -1.3884014749054213E-002   4.0835943254859935E-003   5.9160094130421073E-002
  -1.3877712494404056E-002   4.3977598481214197E-003   6.0627689809964712E-002
  -1.3871410239753895E-002   4.3395166839830688E-003   6.2334228019337183E-002
  -1.3865107985103743E-002   3.9088648330709158E-003   6.4279708758538390E-002
  -2.9100082618252684E-002   6.7940402321473737E-003   5.7677917165418535E-002
  -2.8622197558590287E-002   8.1671886509743392E-003   5.7261148949283330E-002
  -2.8144312498927886E-002   8.7955196962598275E-003   5.7548603813343750E-002
  -2.7666427439265503E-002   8.6790333680038453E-003   5.8540281757599899E-002
  -2.7188542379603095E-002   7.8177296662063842E-003   6.0236182782051700E-002
  -4.5629296843676836E-002   1.0191060348218008E-002   5.8297171902932376E-002
  -4.4214548428635328E-002   1.2250782976462706E-002   5.5862573634179437E-002
  -4.2799800013593840E-002   1.3193279544398237E-002   5.4597478995989025E-002
  -4.1385051598552332E-002   1.3018550052024621E-002   5.4501887988361163E-002
  -3.9970303183510844E-002   1.1726594499341884E-002   5.5575800611295842E-002
  -6.3477959679976839E-002   1.3588080464288631E-002   5.9789205193247798E-002
  -6.0661067359189386E-002   1.6334377301951052E-002   5.4964368185109448E-002
  -5.7844175038401911E-002   1.7591039392536621E-002   5.1774315357900509E-002
  -5.5027282717614458E-002   1.7358066736045407E-002   5.0219046711620981E-002
  -5.2210390396826983E-002   1.5635459332477369E-002   5.0298562246270856E-002
  -1.2760625889285393E-014  -6.4601102245376296E-014   6.7706378540756021E-002
   3.6602665343110630E-015  -9.7061247927854311E-014   6.5309779671538948E-002
   2.0084628404859473E-014  -1.3450004998638576E-013   6.4149980921245159E-002
   3.6508122913669894E-014  -1.7700337723303150E-013   6.4226982289874668E-002
   5.2929882699004338E-014  -2.2448709557920665E-013   6.5540783777427503E-002
  -1.3865107985103743E-002   3.9088648330709158E-003   6.4279708758538390E-002
  -1.2737080042934232E-002   3.3640089103544879E-003   6.2388011574722943E-002
  -1.1609052100764725E-002   2.9631535308036021E-003   6.1515570156290333E-002
  -1.0481024158595222E-002   2.7062986944180007E-003   6.1662384503240616E-002
  -9.3529962164257130E-003   2.5934444011979085E-003   6.2828454615573764E-002
  -2.7188542379603095E-002   7.8177296662063842E-003   6.0236182782051700E-002
  -2.5150030848820931E-002   6.7280178208060926E-003   5.8993387826808227E-002
  -2.3111519318038762E-002   5.9263070617416470E-003   5.8552304283407242E-002
  -2.1073007787256601E-002   5.4125973890130179E-003   5.8912932151848708E-002
  -1.9034496256474433E-002   5.1868888026202487E-003   6.0075271432132593E-002
  -3.9970303183510844E-002   1.1726594499341884E-002   5.5575800611295842E-002
  -3.7238852417656447E-002   1.0092026731257656E-002   5.5125908427794815E-002
  -3.4507401651802043E-002   8.8894605926797057E-003   5.5260183302595862E-002
  -3.1775950885947625E-002   8.1188960836080706E-003   5.5978625235698923E-002
  -2.9044500120093235E-002   7.7803332040425749E-003   5.7281234227104023E-002
  -5.2210390396826983E-002   1.5635459332477369E-002   5.0298562246270856E-002
  -4.9003544749440742E-002   1.3456035641709288E-002   5.0785573377682726E-002
  -4.5796699102054542E-002   1.1852614123617829E-002   5.1639207213856203E-002
  -4.2589853454668321E-002   1.0825194778203042E-002   5.2859463754791246E-002
  -3.9383007807282107E-002   1.0373777605464957E-002   5.4446343000487951E-002
   5.2929882699004338E-014  -2.2448709557920665E-013   6.5540783777427503E-002
   7.9006245989887702E-014  -2.7447488726295433E-013   6.0452267598417958E-002
   1.0508260928077107E-013  -3.2454594567354889E-013   5.6404350808091974E-002
   1.3115897257165443E-013  -3.7490149873420364E-013   5.3397033406449398E-002
   1.5723533586253780E-013  -4.2521541843143495E-013   5.1430315393490189E-002
  -9.3529962164257130E-003   2.5934444011979085E-003   6.2828454615573764E-002
  -8.3180583616943755E-003   2.6317047818050776E-003   5.7484887481260488E-002
  -7.2831205069630277E-003   2.8281939669012948E-003   5.3170596667674375E-002
  -6.2481826522317119E-003   3.1829119564868603E-003   4.9885582174815223E-002
  -5.2132447975003701E-003   3.6958587505614426E-003   4.7629844002683164E-002
  -1.9034496256474433E-002   5.1868888026202487E-003   6.0075271432132593E-002
  -1.6975943614994222E-002   5.2634095638845607E-003   5.4634882147004842E-002
  -1.4917390973514015E-002   5.6563879341273021E-003   5.0212446114647799E-002
  -1.2858838332033790E-002   6.3658239133485110E-003   4.6807963335061431E-002
  -1.0800285690553583E-002   7.3917175015480452E-003   4.4421433808245703E-002
  -2.9044500120093235E-002   7.7803332040425749E-003   5.7281234227104023E-002
  -2.5973655759820524E-002   7.8951143459640785E-003   5.1902251595651046E-002
  -2.2902811399547807E-002   8.4845819013533927E-003   4.7529899149012331E-002
  -1.9831967039275120E-002   9.5487358702101895E-003   4.4164176887188107E-002
  -1.6761122679002385E-002   1.1087576252534648E-002   4.1805084810177986E-002
  -3.9383007807282107E-002   1.0373777605464957E-002   5.4446343000487951E-002
  -3.5311194796173277E-002   1.0526819128043610E-002   4.9286995827198976E-002
  -3.1239381785064486E-002   1.1312775868579199E-002   4.5122955770767983E-002
  -2.7167568773955680E-002   1.2731647827071894E-002   4.1954222831194841E-002
  -2.3095755762846851E-002   1.4783435003521306E-002   3.9780797008479696E-002
  -5.4926880826504473E-002   0.0000000000000000        3.6663299553193605E-002
  -5.7064650539872572E-002   3.3264495447256669E-003   4.4639603155350982E-002
  -5.9202420253240663E-002   6.6999461370156575E-003   5.1152688629412482E-002
  -6.1340189966608762E-002   1.0120489776869976E-002   5.6202555975378092E-002
  -6.3477959679976839E-002   1.3588080464288631E-002   5.9789205193247798E-002
  -7.2133518884071032E-002   0.0000000000000000        4.3103236345267776E-002
  -7.4337935807827521E-002   8.4849268470202945E-003   4.2305366816305902E-002
  -7.6542352731583996E-002   1.4785812261671508E-002   4.2837420994663138E-002
  -7.8746769655340484E-002   1.8902656243953625E-002   4.4699398880339504E-002
  -8.0951186579096959E-002   2.0835458793866661E-002   4.7891300473334973E-002
  -9.8442403798061975E-002   0.0000000000000000        5.5817194679603284E-002
  -9.7920326096791840E-002   1.3643404149314926E-002   4.4014063539588755E-002
  -9.7398248395521719E-002   2.2871678386327345E-002   3.6333997942308315E-002
  -9.6876170694251584E-002   2.7684822711037258E-002   3.2776997887762012E-002
  -9.6354092992981463E-002   2.8082837123444681E-002   3.3343063375949812E-002
 -0.13385353556847729        0.0000000000000000        7.4805174556200130E-002
 -0.12781182140676553        1.8801881451609562E-002   4.9765693325199506E-002
 -0.12177010724505381        3.0957544510983193E-002   3.1642419472348006E-002
 -0.11572839308334205        3.6466989178120905E-002   2.0435352997645588E-002
 -0.10968667892163031        3.5330215453022722E-002   1.6144493901092322E-002
 -0.17836691419531697        0.0000000000000000       0.10006717597505832     
 -0.16401242173774863        2.3960358753904183E-002   5.9560256173138190E-002
 -0.14965792928018026        3.9043410635639042E-002   2.8762685584782170E-002
 -0.13530343682261189        4.5249155645204535E-002   7.6744642099902879E-003
 -0.12094894436504355        4.2577593782600731E-002  -3.7044079512375053E-003
  -6.3477959679976839E-002   1.3588080464288631E-002   5.9789205193247798E-002
  -6.0661067359189386E-002   1.6334377301951052E-002   5.4964368185109448E-002
  -5.7844175038401911E-002   1.7591039392536621E-002   5.1774315357900509E-002
  -5.5027282717614458E-002   1.7358066736045407E-002   5.0219046711620981E-002
  -5.2210390396826983E-002   1.5635459332477369E-002   5.0298562246270856E-002
  -8.0951186579096959E-002   2.0835458793866661E-002   4.7891300473334973E-002
  -7.6704800160811548E-002   2.1345617640116592E-002   4.3856053505983830E-002
  -7.2458413742526123E-002   2.1194530511409439E-002   4.1045010552699261E-002
  -6.8212027324240698E-002   2.0382197407745214E-002   3.9458171613481155E-002
  -6.3965640905955259E-002   1.8908618329123876E-002   3.9095536688329574E-002
  -9.6354092992981463E-002   2.8082837123444681E-002   3.3343063375949812E-002
  -9.1088792644060959E-002   2.6356857978282165E-002   3.0925795221505618E-002
  -8.5823492295140483E-002   2.4798021630282250E-002   2.9322150914265134E-002
  -8.0558191946219979E-002   2.3406328079445038E-002   2.8532130454228186E-002
  -7.5292891597299488E-002   2.2181777325770424E-002   2.8555733841394863E-002
 -0.10968667892163031        3.5330215453022722E-002   1.6144493901092322E-002
 -0.10381304480893766        3.1368098316447754E-002   1.6173593331674830E-002
  -9.7939410696244997E-002   2.8401512749155068E-002   1.6605736442598076E-002
  -9.2065776583552320E-002   2.6430458751144817E-002   1.7440923233862041E-002
  -8.6192142470859656E-002   2.5454936322416966E-002   1.8679153705466751E-002
 -0.12094894436504355        4.2577593782600731E-002  -3.7044079512375053E-003
 -0.11487755665544164        3.6379338654613298E-002  -4.0055216350857320E-004
 -0.10880616894583968        3.2005003868027890E-002   2.8957671376981988E-003
 -0.10273478123623772        2.9454589422844606E-002   6.1845499523828350E-003
  -9.6663393526635805E-002   2.8728095319063451E-002   9.4657962805451690E-003
  -5.2210390396826983E-002   1.5635459332477369E-002   5.0298562246270856E-002
  -4.9003544749440742E-002   1.3456035641709288E-002   5.0785573377682726E-002
  -4.5796699102054542E-002   1.1852614123617829E-002   5.1639207213856203E-002
  -4.2589853454668321E-002   1.0825194778203042E-002   5.2859463754791246E-002
  -3.9383007807282107E-002   1.0373777605464957E-002   5.4446343000487951E-002
  -6.3965640905955259E-002   1.8908618329123876E-002   3.9095536688329574E-002
  -6.0314065006766268E-002   1.7209744980559927E-002   4.0481984988440911E-002
  -5.6662489107577256E-002   1.5721529067067815E-002   4.2391271087396251E-002
  -5.3010913208388216E-002   1.4443970588647390E-002   4.4823394985195553E-002
  -4.9359337309199253E-002   1.3377069545298909E-002   4.7778356681838843E-002
  -7.5292891597299488E-002   2.2181777325770424E-002   2.8555733841394863E-002
  -7.1040370352225296E-002   2.0963454319410581E-002   3.0476274572600860E-002
  -6.6787849107151132E-002   1.9590444010517797E-002   3.3075868196733180E-002
  -6.2535327862076981E-002   1.8062746399091861E-002   3.6354514713791891E-002
  -5.8282806617002789E-002   1.6380361485132930E-002   4.0312214123776981E-002
  -8.6192142470859656E-002   2.5454936322416966E-002   1.8679153705466751E-002
  -8.1182460785817936E-002   2.4717163658261213E-002   2.0768442130162566E-002
  -7.6172779100776217E-002   2.3459358953967696E-002   2.3692998541867065E-002
  -7.1163097415734525E-002   2.1681522209536203E-002   2.7452822940580240E-002
  -6.6153415730692791E-002   1.9383653424966833E-002   3.2047915326302141E-002
  -9.6663393526635805E-002   2.8728095319063451E-002   9.4657962805451690E-003
  -9.0740336307544162E-002   2.8470872997112012E-002   1.1358487661125807E-002
  -8.4817279088452505E-002   2.7328273897417765E-002   1.4242662122797713E-002
  -7.8894221869360875E-002   2.5300298019980655E-002   1.8118319665560538E-002
  -7.2971164650269205E-002   2.2386945364800848E-002   2.2985460289414589E-002
  -3.9383007807282107E-002   1.0373777605464957E-002   5.4446343000487951E-002
  -3.5311194796173277E-002   1.0526819128043610E-002   4.9286995827198976E-002
  -3.1239381785064486E-002   1.1312775868579199E-002   4.5122955770767983E-002
  -2.7167568773955680E-002   1.2731647827071894E-002   4.1954222831194841E-002
  -2.3095755762846851E-002   1.4783435003521306E-002   3.9780797008479696E-002
  -4.9359337309199253E-002   1.3377069545298909E-002   4.7778356681838843E-002
  -4.3941987144872435E-002   1.2486430734259993E-002   4.4409490862775805E-002
  -3.8524636980545646E-002   1.1737658952768647E-002   4.2736392233290697E-002
  -3.3107286816218877E-002   1.1130754200824730E-002   4.2759060793383583E-002
  -2.7689936651892039E-002   1.0665716478428344E-002   4.4477496543054662E-002
  -5.8282806617002789E-002   1.6380361485132930E-002   4.0312214123776981E-002
  -5.0819459226737897E-002   1.4446042340476396E-002   3.8242781470530250E-002
  -4.3356111836473026E-002   1.2162542036958126E-002   3.8569576079581683E-002
  -3.5892764446208182E-002   9.5298605745777060E-003   4.1292597950931167E-002
  -2.8429417055943308E-002   6.5479979533353272E-003   4.6411847084578850E-002
  -6.6153415730692791E-002   1.9383653424966833E-002   3.2047915326302141E-002
  -5.5943611041769703E-002   1.6405653946692748E-002   3.0786867650462374E-002
  -4.5733806352846663E-002   1.2587425121147367E-002   3.2622507309640815E-002
  -3.5524001663923617E-002   7.9289669483304723E-003   3.7554834303837617E-002
  -2.5314196975000532E-002   2.4302794282423101E-003   4.5583848633052454E-002
  -7.2971164650269205E-002   2.2386945364800848E-002   2.2985460289414589E-002
  -5.9314442589967820E-002   1.8365265552909127E-002   2.2041749402572308E-002
  -4.5657720529666490E-002   1.3012308205336873E-002   2.4895185923468378E-002
  -3.2000998469365161E-002   6.3280733220835543E-003   3.1545769852102758E-002
  -1.8344276409063776E-002  -1.6874390968506514E-003   4.1993501188475557E-002
 </DataArray>
 </PointData>
 </Piece>
 <Piece  NumberOfPoints="           400 "  NumberOfCells="          256 ">
 <Points>
 <DataArray  type="Float64" NumberOfComponents="3"  format="ascii" >
  0.50000000000000000        0.0000000000000000        0.0000000000000000     
  0.56250000000000000        0.0000000000000000        0.0000000000000000     
  0.62500000000000000        0.0000000000000000        0.0000000000000000     
  0.68750000000000000        0.0000000000000000        0.0000000000000000     
  0.75000000000000000        0.0000000000000000        0.0000000000000000     
  0.50000000000000000        6.2500000000000000E-002   0.0000000000000000     
  0.56250000000000000        6.2500000000000000E-002   0.0000000000000000     
  0.62500000000000000        6.2500000000000000E-002   0.0000000000000000     
  0.68750000000000000        6.2500000000000000E-002   0.0000000000000000     
  0.75000000000000000        6.2500000000000000E-002   0.0000000000000000     
  0.50000000000000000       0.12500000000000000        0.0000000000000000     
  0.56250000000000000       0.12500000000000000        0.0000000000000000     
  0.62500000000000000       0.12500000000000000        0.0000000000000000     
  0.68750000000000000       0.12500000000000000        0.0000000000000000     
  0.75000000000000000       0.12500000000000000        0.0000000000000000     
  0.50000000000000000       0.18750000000000000        0.0000000000000000     
  0.56250000000000000       0.18750000000000000        0.0000000000000000     
  0.62500000000000000       0.18750000000000000        0.0000000000000000     
  0.68750000000000000       0.18750000000000000        0.0000000000000000     
  0.75000000000000000       0.18750000000000000        0.0000000000000000     
  0.50000000000000000       0.25000000000000000        0.0000000000000000     
  0.56250000000000000       0.25000000000000000        0.0000000000000000     
  0.62500000000000000       0.25000000000000000        0.0000000000000000     
  0.68750000000000000       0.25000000000000000        0.0000000000000000     
  0.75000000000000000       0.25000000000000000        0.0000000000000000     
  0.75000000000000000        0.0000000000000000        0.0000000000000000     
  0.81250000000000000        0.0000000000000000        0.0000000000000000     
  0.87500000000000000        0.0000000000000000        0.0000000000000000     
  0.93750000000000000        0.0000000000000000        0.0000000000000000     
   1.0000000000000000        0.0000000000000000        0.0000000000000000     
  0.75000000000000000        6.2500000000000000E-002   0.0000000000000000     
  0.81250000000000000        6.2500000000000000E-002   0.0000000000000000     
  0.87500000000000000        6.2500000000000000E-002   0.0000000000000000     
  0.93750000000000000        6.2500000000000000E-002   0.0000000000000000     
   1.0000000000000000        6.2500000000000000E-002   0.0000000000000000     
  0.75000000000000000       0.12500000000000000        0.0000000000000000     
  0.81250000000000000       0.12500000000000000        0.0000000000000000     
  0.87500000000000000       0.12500000000000000        0.0000000000000000     
  0.93750000000000000       0.12500000000000000        0.0000000000000000     
   1.0000000000000000       0.12500000000000000        0.0000000000000000     
  0.75000000000000000       0.18750000000000000        0.0000000000000000     
  0.81250000000000000       0.18750000000000000        0.0000000000000000     
  0.87500000000000000       0.18750000000000000        0.0000000000000000     
  0.93750000000000000       0.18750000000000000        0.0000000000000000     
   1.0000000000000000       0.18750000000000000        0.0000000000000000     
  0.75000000000000000       0.25000000000000000        0.0000000000000000     
  0.81250000000000000       0.25000000000000000        0.0000000000000000     
  0.87500000000000000       0.25000000000000000        0.0000000000000000     
  0.93750000000000000       0.25000000000000000        0.0000000000000000     
   1.0000000000000000       0.25000000000000000        0.0000000000000000     
   1.0000000000000000        0.0000000000000000        0.0000000000000000     
   1.0625000000000000        0.0000000000000000        0.0000000000000000     
   1.1250000000000000        0.0000000000000000        0.0000000000000000     
   1.1875000000000000        0.0000000000000000        0.0000000000000000     
   1.2500000000000000        0.0000000000000000        0.0000000000000000     
   1.0000000000000000        6.2500000000000000E-002   0.0000000000000000     
   1.0625000000000000        6.2500000000000000E-002   0.0000000000000000     
   1.1250000000000000        6.2500000000000000E-002   0.0000000000000000     
   1.1875000000000000        6.2500000000000000E-002   0.0000000000000000     
   1.2500000000000000        6.2500000000000000E-002   0.0000000000000000     
   1.0000000000000000       0.12500000000000000        0.0000000000000000     
   1.0625000000000000       0.12500000000000000        0.0000000000000000     
   1.1250000000000000       0.12500000000000000        0.0000000000000000     
   1.1875000000000000       0.12500000000000000        0.0000000000000000     
   1.2500000000000000       0.12500000000000000        0.0000000000000000     
   1.0000000000000000       0.18750000000000000        0.0000000000000000     
   1.0625000000000000       0.18750000000000000        0.0000000000000000     
   1.1250000000000000       0.18750000000000000        0.0000000000000000     
   1.1875000000000000       0.18750000000000000        0.0000000000000000     
   1.2500000000000000       0.18750000000000000        0.0000000000000000     
   1.0000000000000000       0.25000000000000000        0.0000000000000000     
   1.0625000000000000       0.25000000000000000        0.0000000000000000     
   1.1250000000000000       0.25000000000000000        0.0000000000000000     
   1.1875000000000000       0.25000000000000000        0.0000000000000000     
   1.2500000000000000       0.25000000000000000        0.0000000000000000     
   1.2500000000000000        0.0000000000000000        0.0000000000000000     
   1.3125000000000000        0.0000000000000000        0.0000000000000000     
   1.3750000000000000        0.0000000000000000        0.0000000000000000     
   1.4375000000000000        0.0000000000000000        0.0000000000000000     
   1.5000000000000000        0.0000000000000000        0.0000000000000000     
   1.2500000000000000        6.2500000000000000E-002   0.0000000000000000     
   1.3125000000000000        6.2500000000000000E-002   0.0000000000000000     
   1.3750000000000000        6.2500000000000000E-002   0.0000000000000000     
   1.4375000000000000        6.2500000000000000E-002   0.0000000000000000     
   1.5000000000000000        6.2500000000000000E-002   0.0000000000000000     
   1.2500000000000000       0.12500000000000000        0.0000000000000000     
   1.3125000000000000       0.12500000000000000        0.0000000000000000     
   1.3750000000000000       0.12500000000000000        0.0000000000000000     
   1.4375000000000000       0.12500000000000000        0.0000000000000000     
   1.5000000000000000       0.12500000000000000        0.0000000000000000     
   1.2500000000000000       0.18750000000000000        0.0000000000000000     
   1.3125000000000000       0.18750000000000000        0.0000000000000000     
   1.3750000000000000       0.18750000000000000        0.0000000000000000     
   1.4375000000000000       0.18750000000000000        0.0000000000000000     
   1.5000000000000000       0.18750000000000000        0.0000000000000000     
   1.2500000000000000       0.25000000000000000        0.0000000000000000     
   1.3125000000000000       0.25000000000000000        0.0000000000000000     
   1.3750000000000000       0.25000000000000000        0.0000000000000000     
   1.4375000000000000       0.25000000000000000        0.0000000000000000     
   1.5000000000000000       0.25000000000000000        0.0000000000000000     
  0.50000000000000000       0.25000000000000000        0.0000000000000000     
  0.56250000000000000       0.25000000000000000        0.0000000000000000     
  0.62500000000000000       0.25000000000000000        0.0000000000000000     
  0.68750000000000000       0.25000000000000000        0.0000000000000000     
  0.75000000000000000       0.25000000000000000        0.0000000000000000     
  0.50000000000000000       0.31250000000000000        0.0000000000000000     
  0.56250000000000000       0.31250000000000000        0.0000000000000000     
  0.62500000000000000       0.31250000000000000        0.0000000000000000     
  0.68750000000000000       0.31250000000000000        0.0000000000000000     
  0.75000000000000000       0.31250000000000000        0.0000000000000000     
  0.50000000000000000       0.37500000000000000        0.0000000000000000     
  0.56250000000000000       0.37500000000000000        0.0000000000000000     
  0.62500000000000000       0.37500000000000000        0.0000000000000000     
  0.68750000000000000       0.37500000000000000        0.0000000000000000     
  0.75000000000000000       0.37500000000000000        0.0000000000000000     
  0.50000000000000000       0.43750000000000000        0.0000000000000000     
  0.56250000000000000       0.43750000000000000        0.0000000000000000     
  0.62500000000000000       0.43750000000000000        0.0000000000000000     
  0.68750000000000000       0.43750000000000000        0.0000000000000000     
  0.75000000000000000       0.43750000000000000        0.0000000000000000     
  0.50000000000000000       0.50000000000000000        0.0000000000000000     
  0.56250000000000000       0.50000000000000000        0.0000000000000000     
  0.62500000000000000       0.50000000000000000        0.0000000000000000     
  0.68750000000000000       0.50000000000000000        0.0000000000000000     
  0.75000000000000000       0.50000000000000000        0.0000000000000000     
  0.75000000000000000       0.25000000000000000        0.0000000000000000     
  0.81250000000000000       0.25000000000000000        0.0000000000000000     
  0.87500000000000000       0.25000000000000000        0.0000000000000000     
  0.93750000000000000       0.25000000000000000        0.0000000000000000     
   1.0000000000000000       0.25000000000000000        0.0000000000000000     
  0.75000000000000000       0.31250000000000000        0.0000000000000000     
  0.81250000000000000       0.31250000000000000        0.0000000000000000     
  0.87500000000000000       0.31250000000000000        0.0000000000000000     
  0.93750000000000000       0.31250000000000000        0.0000000000000000     
   1.0000000000000000       0.31250000000000000        0.0000000000000000     
  0.75000000000000000       0.37500000000000000        0.0000000000000000     
  0.81250000000000000       0.37500000000000000        0.0000000000000000     
  0.87500000000000000       0.37500000000000000        0.0000000000000000     
  0.93750000000000000       0.37500000000000000        0.0000000000000000     
   1.0000000000000000       0.37500000000000000        0.0000000000000000     
  0.75000000000000000       0.43750000000000000        0.0000000000000000     
  0.81250000000000000       0.43750000000000000        0.0000000000000000     
  0.87500000000000000       0.43750000000000000        0.0000000000000000     
  0.93750000000000000       0.43750000000000000        0.0000000000000000     
   1.0000000000000000       0.43750000000000000        0.0000000000000000     
  0.75000000000000000       0.50000000000000000        0.0000000000000000     
  0.81250000000000000       0.50000000000000000        0.0000000000000000     
  0.87500000000000000       0.50000000000000000        0.0000000000000000     
  0.93750000000000000       0.50000000000000000        0.0000000000000000     
   1.0000000000000000       0.50000000000000000        0.0000000000000000     
   1.0000000000000000       0.25000000000000000        0.0000000000000000     
   1.0625000000000000       0.25000000000000000        0.0000000000000000     
   1.1250000000000000       0.25000000000000000        0.0000000000000000     
   1.1875000000000000       0.25000000000000000        0.0000000000000000     
   1.2500000000000000       0.25000000000000000        0.0000000000000000     
   1.0000000000000000       0.31250000000000000        0.0000000000000000     
   1.0625000000000000       0.31250000000000000        0.0000000000000000     
   1.1250000000000000       0.31250000000000000        0.0000000000000000     
   1.1875000000000000       0.31250000000000000        0.0000000000000000     
   1.2500000000000000       0.31250000000000000        0.0000000000000000     
   1.0000000000000000       0.37500000000000000        0.0000000000000000     
   1.0625000000000000       0.37500000000000000        0.0000000000000000     
   1.1250000000000000       0.37500000000000000        0.0000000000000000     
   1.1875000000000000       0.37500000000000000        0.0000000000000000     
   1.2500000000000000       0.37500000000000000        0.0000000000000000     
   1.0000000000000000       0.43750000000000000        0.0000000000000000     
   1.0625000000000000       0.43750000000000000        0.0000000000000000     
   1.1250000000000000       0.43750000000000000        0.0000000000000000     
   1.1875000000000000       0.43750000000000000        0.0000000000000000     
   1.2500000000000000       0.43750000000000000        0.0000000000000000     
   1.0000000000000000       0.50000000000000000        0.0000000000000000     
   1.0625000000000000       0.50000000000000000        0.0000000000000000     
   1.1250000000000000       0.50000000000000000        0.0000000000000000     
   1.1875000000000000       0.50000000000000000        0.0000000000000000     
   1.2500000000000000       0.50000000000000000        0.0000000000000000     
   1.2500000000000000       0.25000000000000000        0.0000000000000000     
   1.3125000000000000       0.25000000000000000        0.0000000000000000     
   1.3750000000000000       0.25000000000000000        0.0000000000000000     
   1.4375000000000000       0.25000000000000000        0.0000000000000000     
   1.5000000000000000       0.25000000000000000        0.0000000000000000     
   1.2500000000000000       0.31250000000000000        0.0000000000000000     
   1.3125000000000000       0.31250000000000000        0.0000000000000000     
   1.3750000000000000       0.31250000000000000        0.0000000000000000     
   1.4375000000000000       0.31250000000000000        0.0000000000000000     
   1.5000000000000000       0.31250000000000000        0.0000000000000000     
   1.2500000000000000       0.37500000000000000        0.0000000000000000     
   1.3125000000000000       0.37500000000000000        0.0000000000000000     
   1.3750000000000000       0.37500000000000000        0.0000000000000000     
   1.4375000000000000       0.37500000000000000        0.0000000000000000     
   1.5000000000000000       0.37500000000000000        0.0000000000000000     
   1.2500000000000000       0.43750000000000000        0.0000000000000000     
   1.3125000000000000       0.43750000000000000        0.0000000000000000     
   1.3750000000000000       0.43750000000000000        0.0000000000000000     
   1.4375000000000000       0.43750000000000000        0.0000000000000000     
   1.5000000000000000       0.43750000000000000        0.0000000000000000     
   1.2500000000000000       0.50000000000000000        0.0000000000000000     
   1.3125000000000000       0.50000000000000000        0.0000000000000000     
   1.3750000000000000       0.50000000000000000        0.0000000000000000     
   1.4375000000000000       0.50000000000000000        0.0000000000000000     
   1.5000000000000000       0.50000000000000000        0.0000000000000000     
  0.50000000000000000       0.50000000000000000        0.0000000000000000     
  0.56250000000000000       0.50000000000000000        0.0000000000000000     
  0.62500000000000000       0.50000000000000000        0.0000000000000000     
  0.68750000000000000       0.50000000000000000        0.0000000000000000     
  0.75000000000000000       0.50000000000000000        0.0000000000000000     
  0.50000000000000000       0.56250000000000000        0.0000000000000000     
  0.56250000000000000       0.56250000000000000        0.0000000000000000     
  0.62500000000000000       0.56250000000000000        0.0000000000000000     
  0.68750000000000000       0.56250000000000000        0.0000000000000000     
  0.75000000000000000       0.56250000000000000        0.0000000000000000     
  0.50000000000000000       0.62500000000000000        0.0000000000000000     
  0.56250000000000000       0.62500000000000000        0.0000000000000000     
  0.62500000000000000       0.62500000000000000        0.0000000000000000     
  0.68750000000000000       0.62500000000000000        0.0000000000000000     
  0.75000000000000000       0.62500000000000000        0.0000000000000000     
  0.50000000000000000       0.68750000000000000        0.0000000000000000     
  0.56250000000000000       0.68750000000000000        0.0000000000000000     
  0.62500000000000000       0.68750000000000000        0.0000000000000000     
  0.68750000000000000       0.68750000000000000        0.0000000000000000     
  0.75000000000000000       0.68750000000000000        0.0000000000000000     
  0.50000000000000000       0.75000000000000000        0.0000000000000000     
  0.56250000000000000       0.75000000000000000        0.0000000000000000     
  0.62500000000000000       0.75000000000000000        0.0000000000000000     
  0.68750000000000000       0.75000000000000000        0.0000000000000000     
  0.75000000000000000       0.75000000000000000        0.0000000000000000     
  0.75000000000000000       0.50000000000000000        0.0000000000000000     
  0.81250000000000000       0.50000000000000000        0.0000000000000000     
  0.87500000000000000       0.50000000000000000        0.0000000000000000     
  0.93750000000000000       0.50000000000000000        0.0000000000000000     
   1.0000000000000000       0.50000000000000000        0.0000000000000000     
  0.75000000000000000       0.56250000000000000        0.0000000000000000     
  0.81250000000000000       0.56250000000000000        0.0000000000000000     
  0.87500000000000000       0.56250000000000000        0.0000000000000000     
  0.93750000000000000       0.56250000000000000        0.0000000000000000     
   1.0000000000000000       0.56250000000000000        0.0000000000000000     
  0.75000000000000000       0.62500000000000000        0.0000000000000000     
  0.81250000000000000       0.62500000000000000        0.0000000000000000     
  0.87500000000000000       0.62500000000000000        0.0000000000000000     
  0.93750000000000000       0.62500000000000000        0.0000000000000000     
   1.0000000000000000       0.62500000000000000        0.0000000000000000     
  0.75000000000000000       0.68750000000000000        0.0000000000000000     
  0.81250000000000000       0.68750000000000000        0.0000000000000000     
  0.87500000000000000       0.68750000000000000        0.0000000000000000     
  0.93750000000000000       0.68750000000000000        0.0000000000000000     
   1.0000000000000000       0.68750000000000000        0.0000000000000000     
  0.75000000000000000       0.75000000000000000        0.0000000000000000     
  0.81250000000000000       0.75000000000000000        0.0000000000000000     
  0.87500000000000000       0.75000000000000000        0.0000000000000000     
  0.93750000000000000       0.75000000000000000        0.0000000000000000     
   1.0000000000000000       0.75000000000000000        0.0000000000000000     
   1.0000000000000000       0.50000000000000000        0.0000000000000000     
   1.0625000000000000       0.50000000000000000        0.0000000000000000     
   1.1250000000000000       0.50000000000000000        0.0000000000000000     
   1.1875000000000000       0.50000000000000000        0.0000000000000000     
   1.2500000000000000       0.50000000000000000        0.0000000000000000     
   1.0000000000000000       0.56250000000000000        0.0000000000000000     
   1.0625000000000000       0.56250000000000000        0.0000000000000000     
   1.1250000000000000       0.56250000000000000        0.0000000000000000     
   1.1875000000000000       0.56250000000000000        0.0000000000000000     
   1.2500000000000000       0.56250000000000000        0.0000000000000000     
   1.0000000000000000       0.62500000000000000        0.0000000000000000     
   1.0625000000000000       0.62500000000000000        0.0000000000000000     
   1.1250000000000000       0.62500000000000000        0.0000000000000000     
   1.1875000000000000       0.62500000000000000        0.0000000000000000     
   1.2500000000000000       0.62500000000000000        0.0000000000000000     
   1.0000000000000000       0.68750000000000000        0.0000000000000000     
   1.0625000000000000       0.68750000000000000        0.0000000000000000     
   1.1250000000000000       0.68750000000000000        0.0000000000000000     
   1.1875000000000000       0.68750000000000000        0.0000000000000000     
   1.2500000000000000       0.68750000000000000        0.0000000000000000     
   1.0000000000000000       0.75000000000000000        0.0000000000000000     
   1.0625000000000000       0.75000000000000000        0.0000000000000000     
   1.1250000000000000       0.75000000000000000        0.0000000000000000     
   1.1875000000000000       0.75000000000000000        0.0000000000000000     
   1.2500000000000000       0.75000000000000000        0.0000000000000000     
   1.2500000000000000       0.50000000000000000        0.0000000000000000     
   1.3125000000000000       0.50000000000000000        0.0000000000000000     
   1.3750000000000000       0.50000000000000000        0.0000000000000000     
   1.4375000000000000       0.50000000000000000        0.0000000000000000     
   1.5000000000000000       0.50000000000000000        0.0000000000000000     
   1.2500000000000000       0.56250000000000000        0.0000000000000000     
   1.3125000000000000       0.56250000000000000        0.0000000000000000     
   1.3750000000000000       0.56250000000000000        0.0000000000000000     
   1.4375000000000000       0.56250000000000000        0.0000000000000000     
   1.5000000000000000       0.56250000000000000        0.0000000000000000     
   1.2500000000000000       0.62500000000000000        0.0000000000000000     
   1.3125000000000000       0.62500000000000000        0.0000000000000000     
   1.3750000000000000       0.62500000000000000        0.0000000000000000     
   1.4375000000000000       0.62500000000000000        0.0000000000000000     
   1.5000000000000000       0.62500000000000000        0.0000000000000000     
   1.2500000000000000       0.68750000000000000        0.0000000000000000     
   1.3125000000000000       0.68750000000000000        0.0000000000000000     
   1.3750000000000000       0.68750000000000000        0.0000000000000000     
   1.4375000000000000       0.68750000000000000        0.0000000000000000     
   1.5000000000000000       0.68750000000000000        0.0000000000000000     
   1.2500000000000000       0.75000000000000000        0.0000000000000000     
   1.3125000000000000       0.75000000000000000        0.0000000000000000     
   1.3750000000000000       0.75000000000000000        0.0000000000000000     
   1.4375000000000000       0.75000000000000000        0.0000000000000000     
   1.5000000000000000       0.75000000000000000        0.0000000000000000     
  0.50000000000000000       0.75000000000000000        0.0000000000000000     
  0.56250000000000000       0.75000000000000000        0.0000000000000000     
  0.62500000000000000       0.75000000000000000        0.0000000000000000     
  0.68750000000000000       0.75000000000000000        0.0000000000000000     
  0.75000000000000000       0.75000000000000000        0.0000000000000000     
  0.50000000000000000       0.81250000000000000        0.0000000000000000     
  0.56250000000000000       0.81250000000000000        0.0000000000000000     
  0.62500000000000000       0.81250000000000000        0.0000000000000000     
  0.68750000000000000       0.81250000000000000        0.0000000000000000     
  0.75000000000000000       0.81250000000000000        0.0000000000000000     
  0.50000000000000000       0.87500000000000000        0.0000000000000000     
  0.56250000000000000       0.87500000000000000        0.0000000000000000     
  0.62500000000000000       0.87500000000000000        0.0000000000000000     
  0.68750000000000000       0.87500000000000000        0.0000000000000000     
  0.75000000000000000       0.87500000000000000        0.0000000000000000     
  0.50000000000000000       0.93750000000000000        0.0000000000000000     
  0.56250000000000000       0.93750000000000000        0.0000000000000000     
  0.62500000000000000       0.93750000000000000        0.0000000000000000     
  0.68750000000000000       0.93750000000000000        0.0000000000000000     
  0.75000000000000000       0.93750000000000000        0.0000000000000000     
  0.50000000000000000        1.0000000000000000        0.0000000000000000     
  0.56250000000000000        1.0000000000000000        0.0000000000000000     
  0.62500000000000000        1.0000000000000000        0.0000000000000000     
  0.68750000000000000        1.0000000000000000        0.0000000000000000     
  0.75000000000000000        1.0000000000000000        0.0000000000000000     
  0.75000000000000000       0.75000000000000000        0.0000000000000000     
  0.81250000000000000       0.75000000000000000        0.0000000000000000     
  0.87500000000000000       0.75000000000000000        0.0000000000000000     
  0.93750000000000000       0.75000000000000000        0.0000000000000000     
   1.0000000000000000       0.75000000000000000        0.0000000000000000     
  0.75000000000000000       0.81250000000000000        0.0000000000000000     
  0.81250000000000000       0.81250000000000000        0.0000000000000000     
  0.87500000000000000       0.81250000000000000        0.0000000000000000     
  0.93750000000000000       0.81250000000000000        0.0000000000000000     
   1.0000000000000000       0.81250000000000000        0.0000000000000000     
  0.75000000000000000       0.87500000000000000        0.0000000000000000     
  0.81250000000000000       0.87500000000000000        0.0000000000000000     
  0.87500000000000000       0.87500000000000000        0.0000000000000000     
  0.93750000000000000       0.87500000000000000        0.0000000000000000     
   1.0000000000000000       0.87500000000000000        0.0000000000000000     
  0.75000000000000000       0.93750000000000000        0.0000000000000000     
  0.81250000000000000       0.93750000000000000        0.0000000000000000     
  0.87500000000000000       0.93750000000000000        0.0000000000000000     
  0.93750000000000000       0.93750000000000000        0.0000000000000000     
   1.0000000000000000       0.93750000000000000        0.0000000000000000     
  0.75000000000000000        1.0000000000000000        0.0000000000000000     
  0.81250000000000000        1.0000000000000000        0.0000000000000000     
  0.87500000000000000        1.0000000000000000        0.0000000000000000     
  0.93750000000000000        1.0000000000000000        0.0000000000000000     
   1.0000000000000000        1.0000000000000000        0.0000000000000000     
   1.0000000000000000       0.75000000000000000        0.0000000000000000     
   1.0625000000000000       0.75000000000000000        0.0000000000000000     
   1.1250000000000000       0.75000000000000000        0.0000000000000000     
   1.1875000000000000       0.75000000000000000        0.0000000000000000     
   1.2500000000000000       0.75000000000000000        0.0000000000000000     
   1.0000000000000000       0.81250000000000000        0.0000000000000000     
   1.0625000000000000       0.81250000000000000        0.0000000000000000     
   1.1250000000000000       0.81250000000000000        0.0000000000000000     
   1.1875000000000000       0.81250000000000000        0.0000000000000000     
   1.2500000000000000       0.81250000000000000        0.0000000000000000     
   1.0000000000000000       0.87500000000000000        0.0000000000000000     
   1.0625000000000000       0.87500000000000000        0.0000000000000000     
   1.1250000000000000       0.87500000000000000        0.0000000000000000     
   1.1875000000000000       0.87500000000000000        0.0000000000000000     
   1.2500000000000000       0.87500000000000000        0.0000000000000000     
   1.0000000000000000       0.93750000000000000        0.0000000000000000     
   1.0625000000000000       0.93750000000000000        0.0000000000000000     
   1.1250000000000000       0.93750000000000000        0.0000000000000000     
   1.1875000000000000       0.93750000000000000        0.0000000000000000     
   1.2500000000000000       0.93750000000000000        0.0000000000000000     
   1.0000000000000000        1.0000000000000000        0.0000000000000000     
   1.0625000000000000        1.0000000000000000        0.0000000000000000     
   1.1250000000000000        1.0000000000000000        0.0000000000000000     
   1.1875000000000000        1.0000000000000000        0.0000000000000000     
   1.2500000000000000        1.0000000000000000        0.0000000000000000     
   1.2500000000000000       0.75000000000000000        0.0000000000000000     
   1.3125000000000000       0.75000000000000000        0.0000000000000000     
   1.3750000000000000       0.75000000000000000        0.0000000000000000     
   1.4375000000000000       0.75000000000000000        0.0000000000000000     
   1.5000000000000000       0.75000000000000000        0.0000000000000000     
   1.2500000000000000       0.81250000000000000        0.0000000000000000     
   1.3125000000000000       0.81250000000000000        0.0000000000000000     
   1.3750000000000000       0.81250000000000000        0.0000000000000000     
   1.4375000000000000       0.81250000000000000        0.0000000000000000     
   1.5000000000000000       0.81250000000000000        0.0000000000000000     
   1.2500000000000000       0.87500000000000000        0.0000000000000000     
   1.3125000000000000       0.87500000000000000        0.0000000000000000     
   1.3750000000000000       0.87500000000000000        0.0000000000000000     
   1.4375000000000000       0.87500000000000000        0.0000000000000000     
   1.5000000000000000       0.87500000000000000        0.0000000000000000     
   1.2500000000000000       0.93750000000000000        0.0000000000000000     
   1.3125000000000000       0.93750000000000000        0.0000000000000000     
   1.3750000000000000       0.93750000000000000        0.0000000000000000     
   1.4375000000000000       0.93750000000000000        0.0000000000000000     
   1.5000000000000000       0.93750000000000000        0.0000000000000000     
   1.2500000000000000        1.0000000000000000        0.0000000000000000     
   1.3125000000000000        1.0000000000000000        0.0000000000000000     
   1.3750000000000000        1.0000000000000000        0.0000000000000000     
   1.4375000000000000        1.0000000000000000        0.0000000000000000     
   1.5000000000000000        1.0000000000000000        0.0000000000000000     
 </DataArray>
 </Points>
 <Cells>
 <DataArray  type="Int32"  Name="connectivity"  format="ascii">
           0           1           6           5
           1           2           7           6
           2           3           8           7
           3           4           9           8
           5           6          11          10
           6           7          12          11
           7           8          13          12
           8           9          14          13
          10          11          16          15
          11          12          17          16
          12          13          18          17
          13          14          19          18
          15          16          21          20
          16          17          22          21
          17          18          23          22
          18          19          24          23
          25          26          31          30
          26          27          32          31
          27          28          33          32
          28          29          34          33
          30          31          36          35
          31          32          37          36
          32          33          38          37
          33          34          39          38
          35          36          41          40
          36          37          42          41
          37          38          43          42
          38          39          44          43
          40          41          46          45
          41          42          47          46
          42          43          48          47
          43          44          49          48
          50          51          56          55
          51          52          57          56
          52          53          58          57
          53          54          59          58
          55          56          61          60
          56          57          62          61
          57          58          63          62
          58          59          64          63
          60          61          66          65
          61          62          67          66
          62          63          68          67
          63          64          69          68
          65          66          71          70
          66          67          72          71
          67          68          73          72
          68          69          74          73
          75          76          81          80
          76          77          82          81
          77          78          83          82
          78          79          84          83
          80          81          86          85
          81          82          87          86
          82          83          88          87
          83          84          89          88
          85          86          91          90
          86          87          92          91
          87          88          93          92
          88          89          94          93
          90          91          96          95
          91          92          97          96
          92          93          98          97
          93          94          99          98
         100         101         106         105
         101         102         107         106
         102         103         108         107
         103         104         109         108
         105         106         111         110
         106         107         112         111
         107         108         113         112
         108         109         114         113
         110         111         116         115
         111         112         117         116
         112         113         118         117
         113         114         119         118
         115         116         121         120
         116         117         122         121
         117         118         123         122
         118         119         124         123
         125         126         131         130
         126         127         132         131
         127         128         133         132
         128         129         134         133
         130         131         136         135
         131         132         137         136
         132         133         138         137
         133         134         139         138
         135         136         141         140
         136         137         142         141
         137         138         143         142
         138         139         144         143
         140         141         146         145
         141         142         147         146
         142         143         148         147
         143         144         149         148
         150         151         156         155
         151         152         157         156
         152         153         158         157
         153         154         159         158
         155         156         161         160
         156         157         162         161
         157         158         163         162
         158         159         164         163
         160         161         166         165
         161         162         167         166
         162         163         168         167
         163         164         169         168
         165         166         171         170
         166         167         172         171
         167         168         173         172
         168         169         174         173
         175         176         181         180
         176         177         182         181
         177         178         183         182
         178         179         184         183
         180         181         186         185
         181         182         187         186
         182         183         188         187
         183         184         189         188
         185         186         191         190
         186         187         192         191
         187         188         193         192
         188         189         194         193
         190         191         196         195
         191         192         197         196
         192         193         198         197
         193         194         199         198
         200         201         206         205
         201         202         207         206
         202         203         208         207
         203         204         209         208
         205         206         211         210
         206         207         212         211
         207         208         213         212
         208         209         214         213
         210         211         216         215
         211         212         217         216
         212         213         218         217
         213         214         219         218
         215         216         221         220
         216         217         222         221
         217         218         223         222
         218         219         224         223
         225         226         231         230
         226         227         232         231
         227         228         233         232
         228         229         234         233
         230         231         236         235
         231         232         237         236
         232         233         238         237
         233         234         239         238
         235         236         241         240
         236         237         242         241
         237         238         243         242
         238         239         244         243
         240         241         246         245
         241         242         247         246
         242         243         248         247
         243         244         249         248
         250         251         256         255
         251         252         257         256
         252         253         258         257
         253         254         259         258
         255         256         261         260
         256         257         262         261
         257         258         263         262
         258         259         264         263
         260         261         266         265
         261         262         267         266
         262         263         268         267
         263         264         269         268
         265         266         271         270
         266         267         272         271
         267         268         273         272
         268         269         274         273
         275         276         281         280
         276         277         282         281
         277         278         283         282
         278         279         284         283
         280         281         286         285
         281         282         287         286
         282         283         288         287
         283         284         289         288
         285         286         291         290
         286         287         292         291
         287         288         293         292
         288         289         294         293
         290         291         296         295
         291         292         297         296
         292         293         298         297
         293         294         299         298
         300         301         306         305
         301         302         307         306
         302         303         308         307
         303         304         309         308
         305         306         311         310
         306         307         312         311
         307         308         313         312
         308         309         314         313
         310         311         316         315
         311         312         317         316
         312         313         318         317
         313         314         319         318
         315         316         321         320
         316         317         322         321
         317         318         323         322
         318         319         324         323
         325         326         331         330
         326         327         332         331
         327         328         333         332
         328         329         334         333
         330         331         336         335
         331         332         337         336
         332         333         338         337
         333         334         339         338
         335         336         341         340
         336         337         342         341
         337         338         343         342
         338         339         344         343
         340         341         346         345
         341         342         347         346
         342         343         348         347
         343         344         349         348
         350         351         356         355
         351         352         357         356
         352         353         358         357
         353         354         359         358
         355         356         361         360
         356         357         362         361
         357         358         363         362
         358         359         364         363
         360         361         366         365
         361         362         367         366
         362         363         368         367
         363         364         369         368
         365         366         371         370
         366         367         372         371
         367         368         373         372
         368         369         374         373
         375         376         381         380
         376         377         382         381
         377         378         383         382
         378         379         384         383
         380         381         386         385
         381         382         387         386
         382         383         388         387
         383         384         389         388
         385         386         391         390
         386         387         392         391
         387         388         393         392
         388         389         394         393
         390         391         396         395
         391         392         397         396
         392         393         398         397
         393         394         399         398
 </DataArray>
 <DataArray  type="Int32"  Name="offsets"  format="ascii"> 
           4
           8
          12
          16
          20
          24
          28
          32
          36
          40
          44
          48
          52
          56
          60
          64
          68
          72
          76
          80
          84
          88
          92
          96
         100
         104
         108
         112
         116
         120
         124
         128
         132
         136
         140
         144
         148
         152
         156
         160
         164
         168
         172
         176
         180
         184
         188
         192
         196
         200
         204
         208
         212
         216
         220
         224
         228
         232
         236
         240
         244
         248
         252
         256
         260
         264
         268
         272
         276
         280
         284
         288
         292
         296
         300
         304
         308
         312
         316
         320
         324
         328
         332
         336
         340
         344
         348
         352
         356
         360
         364
         368
         372
         376
         380
         384
         388
         392
         396
         400
         404
         408
         412
         416
         420
         424
         428
         432
         436
         440
         444
         448
         452
         456
         460
         464
         468
         472
         476
         480
         484
         488
         492
         496
         500
         504
         508
         512
         516
         520
         524
         528
         532
         536
         540
         544
         548
         552
         556
         560
         564
         568
         572
         576
         580
         584
         588
         592
         596
         600
         604
         608
         612
         616
         620
         624
         628
         632
         636
         640
         644
         648
         652
         656
         660
         664
         668
         672
         676
         680
         684
         688
         692
         696
         700
         704
         708
         712
         716
         720
         724
         728
         732
         736
         740
         744
         748
         752
         756
         760
         764
         768
         772
         776
         780
         784
         788
         792
         796
         800
         804
         808
         812
         816
         820
         824
         828
         832
         836
         840
         844
         848
         852
         856
         860
         864
         868
         872
         876
         880
         884
         888
         892
         896
         900
         904
         908
         912
         916
         920
         924
         928
         932
         936
         940
         944
         948
         952
         956
         960
         964
         968
         972
         976
         980
         984
         988
         992
         996
        1000
        1004
        1008
        1012
        1016
        1020
        1024
 </DataArray>
 <DataArray  type="UInt8"  Name="types"  format="ascii">
 9
 9
 9
 9
 9
 9
 9
 9
 9
 9
 9
 9
 9
 9
 9
 9
 9
 9
 9
 9
 9
 9
 9
 9
 9
 9
 9
 9
 9
 9
 9
 9
 9
 9
 9
 9
 9
 9
 9
 9
 9
 9
 9
 9
 9
 9
 9
 9
 9
 9
 9
 9
 9
 9
 9
 9
 9
 9
 9
 9
 9
 9
 9
 9
 9
 9
 9
 9
 9
 9
 9
 9
 9
 9
 9
 9
 9
 9
 9
 9
 9
 9
 9
 9
 9
 9
 9
 9
 9
 9
 9
 9
 9
 9
 9
 9
 9
 9
 9
 9
 9
 9
 9
 9
 9
 9
 9
 9
 9
 9
 9
 9
 9
 9
 9
 9
 9
 9
 9
 9
 9
 9
 9
 9
 9
 9
 9
 9
 9
 9
 9
 9
 9
 9
 9
 9
 9
 9
 9
 9
 9
 9
 9
 9
 9
 9
 9
 9
 9
 9
 9
 9
 9
 9
 9
 9
 9
 9
 9
 9
 9
 9
 9
 9
 9
 9
 9
 9
 9
 9
 9
 9
 9
 9
 9
 9
 9
 9
 9
 9
 9
 9
 9
 9
 9
 9
 9
 9
 9
 9
 9
 9
 9
 9
 9
 9
 9
 9
 9
 9
 9
 9
 9
 9
 9
 9
 9
 9
 9
 9
 9
 9
 9
 9
 9
 9
 9
 9
 9
 9
 9
 9
 9
 9
 9
 9
 9
 9
 9
 9
 9
 9
 9
 9
 9
 9
 9
 9
 9
 9
 9
 9
 9
 9
 9
 9
 9
 9
 9
 9
 9
 9
 9
 9
 9
 9
 </DataArray>
 </Cells> 
 <PointData>
 <DataArray  type="Float64" Name="disp" NumberOfComponents="3" format="ascii">
   7.4755537388633692E-002   5.8891008888564016E-002   0.0000000000000000     
   7.7705914730188577E-002   7.1548068260297457E-002   0.0000000000000000     
   8.1061227263389990E-002   8.4361327314031120E-002   0.0000000000000000     
   8.4821474988237944E-002   9.7330786049764986E-002   0.0000000000000000     
   8.8986657904732439E-002  0.11045644446749910        0.0000000000000000     
   5.9572296989955829E-002   5.9130916526963478E-002   0.0000000000000000     
   6.3276094384097148E-002   7.1021845520095758E-002   0.0000000000000000     
   6.7087222664480764E-002   8.3323266001768398E-002   0.0000000000000000     
   7.1005681831106671E-002   9.6035177971981439E-002   0.0000000000000000     
   7.5031471883974868E-002  0.10915758143073487        0.0000000000000000     
   4.6686752313147228E-002   5.9028963407215654E-002   0.0000000000000000     
   5.0657214556855928E-002   7.0360590011983734E-002   0.0000000000000000     
   5.4547478924179105E-002   8.2298644808614499E-002   0.0000000000000000     
   5.8357545415116778E-002   9.4843127797107893E-002   0.0000000000000000     
   6.2087414029668941E-002  0.10799403897746396        0.0000000000000000     
   3.6098903358207896E-002   5.8585149529320514E-002   0.0000000000000000     
   3.9849275248464891E-002   6.9564301735961453E-002   0.0000000000000000     
   4.3441996042485005E-002   8.1287463734569410E-002   0.0000000000000000     
   4.6877065740268252E-002   9.3754635525144361E-002   0.0000000000000000     
   5.0154484341814624E-002  0.10696581710768635        0.0000000000000000     
   2.7808750125137824E-002   5.7799474893278094E-002   0.0000000000000000     
   3.0852276458924046E-002   6.8632980692028861E-002   0.0000000000000000     
   3.3770774019398472E-002   8.0289722779633116E-002   0.0000000000000000     
   3.6564242806561113E-002   9.2769701156090845E-002   0.0000000000000000     
   3.9232682820411965E-002  0.10607291582140205        0.0000000000000000     
   8.8986657904732439E-002  0.11045644446749910        0.0000000000000000     
   9.3182711586036152E-002  0.12394583688945529        0.0000000000000000     
   9.7035571605311732E-002  0.13800649763785544        0.0000000000000000     
  0.10054523796255922       0.15263842671269953        0.0000000000000000     
  0.10371171065777857       0.16784162411398762        0.0000000000000000     
   7.5031471883974868E-002  0.10915758143073487        0.0000000000000000     
   7.8941281681777151E-002  0.12276502288395931        0.0000000000000000     
   8.2511800083205272E-002  0.13693204883758539        0.0000000000000000     
   8.5743027088259247E-002  0.15165865929161318        0.0000000000000000     
   8.8634962696939060E-002  0.16694485424604258        0.0000000000000000     
   6.2087414029668941E-002  0.10799403897746396        0.0000000000000000     
   6.5616657376812729E-002  0.12172143653875438        0.0000000000000000     
   6.8824848065525274E-002  0.13599537867005090        0.0000000000000000     
   7.1711986095806576E-002  0.15081586537135352        0.0000000000000000     
   7.4278071467656623E-002  0.16618289664266225        0.0000000000000000     
   5.0154484341814624E-002  0.10696581710768635        0.0000000000000000     
   5.3208838671142879E-002  0.12081507785384045        0.0000000000000000     
   5.5974715552271723E-002  0.13519648713525187        0.0000000000000000     
   5.8452114985201191E-002  0.15011004495192057        0.0000000000000000     
   6.0641036969931242E-002  0.16555575130384656        0.0000000000000000     
   3.9232682820411965E-002  0.10607291582140205        0.0000000000000000     
   4.1717825564767615E-002  0.12004594682921761        0.0000000000000000     
   4.3961402543444654E-002  0.13453537423318840        0.0000000000000000     
   4.5963413756443090E-002  0.14954119803331439        0.0000000000000000     
   4.7723859203762917E-002  0.16506341822959558        0.0000000000000000     
  0.10371171065777857       0.16784162411398762        0.0000000000000000     
  0.10657748372028260       0.18346127418906250        0.0000000000000000     
  0.10918505117938407       0.19934256128526712        0.0000000000000000     
  0.11153441303508296       0.21548548540260135        0.0000000000000000     
  0.11362556928737932       0.23189004654106532        0.0000000000000000     
   8.8634962696939060E-002  0.16694485424604258        0.0000000000000000     
   9.1201387596196712E-002  0.18265259773881770        0.0000000000000000     
   9.3456082472984120E-002  0.19864385380788260        0.0000000000000000     
   9.5399047327301312E-002  0.21491862245323720        0.0000000000000000     
   9.7030282159148246E-002  0.23147690367488155        0.0000000000000000     
   7.4278071467656623E-002  0.16618289664266225        0.0000000000000000     
   7.6517657619329424E-002  0.18197242023632748        0.0000000000000000     
   7.8425297989078907E-002  0.19806038390469960        0.0000000000000000     
   8.0000992576905100E-002  0.21444678764777864        0.0000000000000000     
   8.1244741382807989E-002  0.23113163146556451        0.0000000000000000     
   6.0641036969931242E-002  0.16555575130384656        0.0000000000000000     
   6.2526293789680720E-002  0.18142074168159181        0.0000000000000000     
   6.4092697727668430E-002  0.19759215157571813        0.0000000000000000     
   6.5340248783894342E-002  0.21406998098622568        0.0000000000000000     
   6.6268946958358499E-002  0.23085422991311427        0.0000000000000000     
   4.7723859203762917E-002  0.16506341822959558        0.0000000000000000     
   4.9227296107250615E-002  0.18099756207461062        0.0000000000000000     
   5.0458281688752667E-002  0.19723915682093821        0.0000000000000000     
   5.1416815948269065E-002  0.21378820246857827        0.0000000000000000     
   5.2102898885799803E-002  0.23064469901753082        0.0000000000000000     
  0.11362556928737932       0.23189004654106532        0.0000000000000000     
  0.11541106031227978       0.24881417026007108        0.0000000000000000     
  0.11684342648579100       0.26651578211903065        0.0000000000000000     
  0.11792266780791302       0.28499488211794416        0.0000000000000000     
  0.11864878427864579       0.30425147025681143        0.0000000000000000     
   9.7030282159148246E-002  0.23147690367488155        0.0000000000000000     
   9.8364437331218371E-002  0.24849586091504358        0.0000000000000000     
   9.9416163206204958E-002  0.26615265761595125        0.0000000000000000     
  0.10018545978410809       0.28444729377760458        0.0000000000000000     
  0.10067232706492771       0.30337976940000355        0.0000000000000000     
   8.1244741382807989E-002  0.23113163146556451        0.0000000000000000     
   8.2214368197823684E-002  0.24820660880349690        0.0000000000000000     
   8.2967696812988281E-002  0.26576341310701523        0.0000000000000000     
   8.3504727228301767E-002  0.28380204437611956        0.0000000000000000     
   8.3825459443764155E-002  0.30232250261080984        0.0000000000000000     
   6.6268946958358499E-002  0.23085422991311427        0.0000000000000000     
   6.6960852912095747E-002  0.24794641392543093        0.0000000000000000     
   6.7498027306140934E-002  0.26534804859222250        0.0000000000000000     
   6.7880470140494087E-002  0.28305913391348897        0.0000000000000000     
   6.8108181415155164E-002  0.30107966988923035        0.0000000000000000     
   5.2102898885799803E-002  0.23064469901753082        0.0000000000000000     
   5.2603891474034561E-002  0.24771527628084583        0.0000000000000000     
   5.3007154685662958E-002  0.26490656407157320        0.0000000000000000     
   5.3312688520685013E-002  0.28221856238971293        0.0000000000000000     
   5.3520492979100713E-002  0.29965127123526503        0.0000000000000000     
   2.7808750125137824E-002   5.7799474893278094E-002   0.0000000000000000     
   3.0852276458924046E-002   6.8632980692028861E-002   0.0000000000000000     
   3.3770774019398472E-002   8.0289722779633116E-002   0.0000000000000000     
   3.6564242806561113E-002   9.2769701156090845E-002   0.0000000000000000     
   3.9232682820411965E-002  0.10607291582140205        0.0000000000000000     
   2.0714724213216153E-002   5.6962445505055186E-002   0.0000000000000000     
   2.2855362782654945E-002   6.7758997942630267E-002   0.0000000000000000     
   2.4944531947849020E-002   7.9422579496176662E-002   0.0000000000000000     
   2.6982231708798359E-002   9.1953190165694407E-002   0.0000000000000000     
   2.8968462065502971E-002  0.10535082995118346        0.0000000000000000     
   1.3715257221722033E-002   5.6364567370618561E-002   0.0000000000000000     
   1.5047678814079150E-002   6.7134724550209898E-002   0.0000000000000000     
   1.6373988920766133E-002   7.8803191436571079E-002   0.0000000000000000     
   1.7694187541782983E-002   9.1369968029702112E-002   0.0000000000000000     
   1.9008274677129709E-002  0.10483505432960299        0.0000000000000000     
   6.8103491506554580E-003   5.6005840489968255E-002   0.0000000000000000     
   7.4292245531966481E-003   6.6760160514767783E-002   0.0000000000000000     
   8.0591449381498294E-003   7.8431558600816340E-002   0.0000000000000000     
   8.7001103055150027E-003   9.1020034748113959E-002   0.0000000000000000     
   9.3521206552921680E-003  0.10452558895666060        0.0000000000000000     
   1.6430433402714328E-014   5.5886264863104239E-002   0.0000000000000000     
   7.4445657971544676E-015   6.6635305836303907E-002   0.0000000000000000     
   1.0473392986209973E-016   7.8307680988912456E-002   0.0000000000000000     
  -5.5928026966578503E-015   9.0903390320929936E-002   0.0000000000000000     
  -9.6450625264310474E-015  0.10442243383235630        0.0000000000000000     
   3.9232682820411965E-002  0.10607291582140205        0.0000000000000000     
   4.1717825564767615E-002  0.12004594682921761        0.0000000000000000     
   4.3961402543444654E-002  0.13453537423318840        0.0000000000000000     
   4.5963413756443090E-002  0.14954119803331439        0.0000000000000000     
   4.7723859203762917E-002  0.16506341822959558        0.0000000000000000     
   2.8968462065502971E-002  0.10535082995118346        0.0000000000000000     
   3.0836003736922878E-002  0.11943299428405142        0.0000000000000000     
   3.2517637442018098E-002  0.13401717859570572        0.0000000000000000     
   3.4013363180788618E-002  0.14910338288614644        0.0000000000000000     
   3.5323180953234459E-002  0.16469160715537354        0.0000000000000000     
   1.9008274677129709E-002  0.10483505432960299        0.0000000000000000     
   2.0255758866844633E-002  0.11899517103750747        0.0000000000000000     
   2.1376148650966098E-002  0.13364703885464926        0.0000000000000000     
   2.2369444029494114E-002  0.14879065778102835        0.0000000000000000     
   2.3235645002428671E-002  0.16442602781664478        0.0000000000000000     
   9.3521206552921680E-003  0.10452558895666060        0.0000000000000000     
   9.9770909545328738E-003  0.11873247708958577        0.0000000000000000     
   1.0536936170288671E-002  0.13342495501001894        0.0000000000000000     
   1.1031656302559560E-002  0.14860302271796011        0.0000000000000000     
   1.1461251351345543E-002  0.16426668021340929        0.0000000000000000     
  -9.6450625264310474E-015  0.10442243383235630        0.0000000000000000     
  -1.2396333959330263E-014  0.11864491244028633        0.0000000000000000     
  -1.4193941161311230E-014  0.13335092706181481        0.0000000000000000     
  -1.5035824148246224E-014  0.14854047769694168        0.0000000000000000     
  -1.4921223978614506E-014  0.16421356434566706        0.0000000000000000     
   4.7723859203762917E-002  0.16506341822959558        0.0000000000000000     
   4.9227296107250615E-002  0.18099756207461062        0.0000000000000000     
   5.0458281688752667E-002  0.19723915682093821        0.0000000000000000     
   5.1416815948269065E-002  0.21378820246857827        0.0000000000000000     
   5.2102898885799803E-002  0.23064469901753082        0.0000000000000000     
   3.5323180953234459E-002  0.16469160715537354        0.0000000000000000     
   3.6435979143930965E-002  0.18068349820814511        0.0000000000000000     
   3.7340646137453498E-002  0.19698070284921909        0.0000000000000000     
   3.8037181933802053E-002  0.21358322107859551        0.0000000000000000     
   3.8525586532976636E-002  0.23049105289627445        0.0000000000000000     
   2.3235645002428671E-002  0.16442602781664478        0.0000000000000000     
   2.3967657471613606E-002  0.18045916687495617        0.0000000000000000     
   2.4558387338892755E-002  0.19679609286942007        0.0000000000000000     
   2.5007834604266119E-002  0.21343680580003652        0.0000000000000000     
   2.5315999267733699E-002  0.23038130566680554        0.0000000000000000     
   1.1461251351345543E-002  0.16426668021340929        0.0000000000000000     
   1.1822331090298529E-002  0.18032456807504382        0.0000000000000000     
   1.2111505293070436E-002  0.19668532688154114        0.0000000000000000     
   1.2328773959661261E-002  0.21334895663290118        0.0000000000000000     
   1.2474137090071006E-002  0.23031545732912401        0.0000000000000000     
  -1.4921223978614506E-014  0.16421356434566706        0.0000000000000000     
  -1.4261161696005331E-014  0.18027970180840816        0.0000000000000000     
  -1.3458852088366058E-014  0.19664840488558230        0.0000000000000000     
  -1.2522751932642073E-014  0.21331967357718959        0.0000000000000000     
  -1.1446572856232962E-014  0.23029350788322989        0.0000000000000000     
   5.2102898885799803E-002  0.23064469901753082        0.0000000000000000     
   5.2603891474034561E-002  0.24771527628084583        0.0000000000000000     
   5.3007154685662958E-002  0.26490656407157320        0.0000000000000000     
   5.3312688520685013E-002  0.28221856238971293        0.0000000000000000     
   5.3520492979100713E-002  0.29965127123526503        0.0000000000000000     
   3.8525586532976636E-002  0.23049105289627445        0.0000000000000000     
   3.8884634871235883E-002  0.24752574338148159        0.0000000000000000     
   3.9193101884838460E-002  0.26450883761344257        0.0000000000000000     
   3.9450987573784346E-002  0.28144033559215742        0.0000000000000000     
   3.9658291938073555E-002  0.29832023731762614        0.0000000000000000     
   2.5315999267733699E-002  0.23038130566680554        0.0000000000000000     
   2.5544234091295508E-002  0.24739036273907822        0.0000000000000000     
   2.5753891836951568E-002  0.26422474728620587        0.0000000000000000     
   2.5944972504701867E-002  0.28088445930818856        0.0000000000000000     
   2.6117476094546420E-002  0.29736949880502600        0.0000000000000000     
   1.2474137090071006E-002  0.23031545732912401        0.0000000000000000     
   1.2582689134213426E-002  0.24730913435363591        0.0000000000000000     
   1.2689524542002284E-002  0.26405429308986333        0.0000000000000000     
   1.2794643313437581E-002  0.28055093353780614        0.0000000000000000     
   1.2898045448519305E-002  0.29679905569746451        0.0000000000000000     
  -1.1446572856232962E-014  0.23029350788322989        0.0000000000000000     
  -1.0360202279402486E-014  0.24728205822515453        0.0000000000000000     
  -9.3850708454690235E-015  0.26399747502441473        0.0000000000000000     
  -8.5227506475826775E-015  0.28043975828101048        0.0000000000000000     
  -7.7802347897559798E-015  0.29660890799494177        0.0000000000000000     
   1.6430433402714328E-014   5.5886264863104239E-002   0.0000000000000000     
   7.4445657971544676E-015   6.6635305836303907E-002   0.0000000000000000     
   1.0473392986209973E-016   7.8307680988912456E-002   0.0000000000000000     
  -5.5928026966578503E-015   9.0903390320929936E-002   0.0000000000000000     
  -9.6450625264310474E-015  0.10442243383235630        0.0000000000000000     
  -6.8103491506216109E-003   5.6005840490025757E-002   0.0000000000000000     
  -7.4292245531804857E-003   6.6760160514817271E-002   0.0000000000000000     
  -8.0591449381481224E-003   7.8431558600858320E-002   0.0000000000000000     
  -8.7001103055245332E-003   9.1020034748148917E-002   0.0000000000000000     
  -9.3521206553097078E-003  0.10452558895668906        0.0000000000000000     
  -1.3715257221685229E-002   5.6364567370732060E-002   0.0000000000000000     
  -1.5047678814059162E-002   6.7134724550306876E-002   0.0000000000000000     
  -1.6373988920759936E-002   7.8803191436652806E-002   0.0000000000000000     
  -1.7694187541787549E-002   9.1369968029769821E-002   0.0000000000000000     
  -1.9008274677142001E-002  0.10483505432965791        0.0000000000000000     
  -2.0714724213174423E-002   5.6962445505223114E-002   0.0000000000000000     
  -2.2855362782628591E-002   6.7758997942772750E-002   0.0000000000000000     
  -2.4944531947835330E-002   7.9422579496295914E-002   0.0000000000000000     
  -2.6982231708794647E-002   9.1953190165792592E-002   0.0000000000000000     
  -2.8968462065506521E-002  0.10535082995126284        0.0000000000000000     
  -2.7808750125089189E-002   5.7799474893498945E-002   0.0000000000000000     
  -3.0852276458888779E-002   6.8632980692214837E-002   0.0000000000000000     
  -3.3770774019374311E-002   8.0289722779787617E-002   0.0000000000000000     
  -3.6564242806545813E-002   9.2769701156217285E-002   0.0000000000000000     
  -3.9232682820403264E-002  0.10607291582150381        0.0000000000000000     
  -9.6450625264310474E-015  0.10442243383235630        0.0000000000000000     
  -1.2396333959330263E-014  0.11864491244028633        0.0000000000000000     
  -1.4193941161311230E-014  0.13335092706181481        0.0000000000000000     
  -1.5035824148246224E-014  0.14854047769694168        0.0000000000000000     
  -1.4921223978614506E-014  0.16421356434566706        0.0000000000000000     
  -9.3521206553097078E-003  0.10452558895668906        0.0000000000000000     
  -9.9770909545558763E-003  0.11873247708960831        0.0000000000000000     
  -1.0536936170315267E-002  0.13342495501003615        0.0000000000000000     
  -1.1031656302587872E-002  0.14860302271797265        0.0000000000000000     
  -1.1461251351373705E-002  0.16426668021341773        0.0000000000000000     
  -1.9008274677142001E-002  0.10483505432965791        0.0000000000000000     
  -2.0255758866862261E-002  0.11899517103755083        0.0000000000000000     
  -2.1376148650987314E-002  0.13364703885468232        0.0000000000000000     
  -2.2369444029517151E-002  0.14879065778105235        0.0000000000000000     
  -2.3235645002451785E-002  0.16442602781666094        0.0000000000000000     
  -2.8968462065506521E-002  0.10535082995126284        0.0000000000000000     
  -3.0836003736931555E-002  0.11943299428411396        0.0000000000000000     
  -3.2517637442030338E-002  0.13401717859575329        0.0000000000000000     
  -3.4013363180802884E-002  0.14910338288618091        0.0000000000000000     
  -3.5323180953249170E-002  0.16469160715539674        0.0000000000000000     
  -3.9232682820403264E-002  0.10607291582150381        0.0000000000000000     
  -4.1717825564763750E-002  0.12004594682929762        0.0000000000000000     
  -4.3961402543444342E-002  0.13453537423324910        0.0000000000000000     
  -4.5963413756445033E-002  0.14954119803335825        0.0000000000000000     
  -4.7723859203765852E-002  0.16506341822962506        0.0000000000000000     
  -1.4921223978614506E-014  0.16421356434566706        0.0000000000000000     
  -1.4261161696005331E-014  0.18027970180840816        0.0000000000000000     
  -1.3458852088366058E-014  0.19664840488558230        0.0000000000000000     
  -1.2522751932642073E-014  0.21331967357718959        0.0000000000000000     
  -1.1446572856232962E-014  0.23029350788322989        0.0000000000000000     
  -1.1461251351373705E-002  0.16426668021341773        0.0000000000000000     
  -1.1822331090325463E-002  0.18032456807504887        0.0000000000000000     
  -1.2111505293095865E-002  0.19668532688154353        0.0000000000000000     
  -1.2328773959684913E-002  0.21334895663290163        0.0000000000000000     
  -1.2474137090092602E-002  0.23031545732912323        0.0000000000000000     
  -2.3235645002451785E-002  0.16442602781666094        0.0000000000000000     
  -2.3967657471635775E-002  0.18045916687496580        0.0000000000000000     
  -2.4558387338913714E-002  0.19679609286942462        0.0000000000000000     
  -2.5007834604285583E-002  0.21343680580003738        0.0000000000000000     
  -2.5315999267751396E-002  0.23038130566680404        0.0000000000000000     
  -3.5323180953249170E-002  0.16469160715539674        0.0000000000000000     
  -3.6435979143945203E-002  0.18068349820815890        0.0000000000000000     
  -3.7340646137467001E-002  0.19698070284922559        0.0000000000000000     
  -3.8037181933814543E-002  0.21358322107859676        0.0000000000000000     
  -3.8525586532987835E-002  0.23049105289627236        0.0000000000000000     
  -4.7723859203765852E-002  0.16506341822962506        0.0000000000000000     
  -4.9227296107253751E-002  0.18099756207462825        0.0000000000000000     
  -5.0458281688755734E-002  0.19723915682094648        0.0000000000000000     
  -5.1416815948271785E-002  0.21378820246857980        0.0000000000000000     
  -5.2102898885801913E-002  0.23064469901752818        0.0000000000000000     
  -1.1446572856232962E-014  0.23029350788322989        0.0000000000000000     
  -1.0360202279402486E-014  0.24728205822515453        0.0000000000000000     
  -9.3850708454690235E-015  0.26399747502441473        0.0000000000000000     
  -8.5227506475826775E-015  0.28043975828101048        0.0000000000000000     
  -7.7802347897559798E-015  0.29660890799494177        0.0000000000000000     
  -1.2474137090092602E-002  0.23031545732912323        0.0000000000000000     
  -1.2582689134232937E-002  0.24730913435363414        0.0000000000000000     
  -1.2689524542019926E-002  0.26405429308986034        0.0000000000000000     
  -1.2794643313453560E-002  0.28055093353780169        0.0000000000000000     
  -1.2898045448533848E-002  0.29679905569745824        0.0000000000000000     
  -2.5315999267751396E-002  0.23038130566680404        0.0000000000000000     
  -2.5544234091311391E-002  0.24739036273907494        0.0000000000000000     
  -2.5753891836965803E-002  0.26422474728620027        0.0000000000000000     
  -2.5944972504714638E-002  0.28088445930818001        0.0000000000000000     
  -2.6117476094557900E-002  0.29736949880501429        0.0000000000000000     
  -3.8525586532987835E-002  0.23049105289627236        0.0000000000000000     
  -3.8884634871245709E-002  0.24752574338147684        0.0000000000000000     
  -3.9193101884847030E-002  0.26450883761343463        0.0000000000000000     
  -3.9450987573791771E-002  0.28144033559214560        0.0000000000000000     
  -3.9658291938079938E-002  0.29832023731760982        0.0000000000000000     
  -5.2102898885801913E-002  0.23064469901752818        0.0000000000000000     
  -5.2603891474035921E-002  0.24771527628083989        0.0000000000000000     
  -5.3007154685663596E-002  0.26490656407156327        0.0000000000000000     
  -5.3312688520684944E-002  0.28221856238969834        0.0000000000000000     
  -5.3520492979099957E-002  0.29965127123524504        0.0000000000000000     
  -2.7808750125089189E-002   5.7799474893498945E-002   0.0000000000000000     
  -3.0852276458888779E-002   6.8632980692214837E-002   0.0000000000000000     
  -3.3770774019374311E-002   8.0289722779787617E-002   0.0000000000000000     
  -3.6564242806545813E-002   9.2769701156217285E-002   0.0000000000000000     
  -3.9232682820403264E-002  0.10607291582150381        0.0000000000000000     
  -3.6098903358147839E-002   5.8585149529587113E-002   0.0000000000000000     
  -3.9849275248416069E-002   6.9564301736184747E-002   0.0000000000000000     
  -4.3441996042445766E-002   8.1287463734753929E-002   0.0000000000000000     
  -4.6877065740236958E-002   9.3754635525294686E-002   0.0000000000000000     
  -5.0154484341789603E-002  0.10696581710780698        0.0000000000000000     
  -4.6686752313068659E-002   5.9028963407515234E-002   0.0000000000000000     
  -5.0657214556786831E-002   7.0360590012234006E-002   0.0000000000000000     
  -5.4547478924118604E-002   8.2298644808820820E-002   0.0000000000000000     
  -5.8357545415063959E-002   9.4843127797275620E-002   0.0000000000000000     
  -6.2087414029622902E-002  0.10799403897759846        0.0000000000000000     
  -5.9572296989851670E-002   5.9130916527283278E-002   0.0000000000000000     
  -6.3276094384001072E-002   7.1021845520362628E-002   0.0000000000000000     
  -6.7087222664392793E-002   8.3323266001988250E-002   0.0000000000000000     
  -7.1005681831026818E-002   9.6035177972160116E-002   0.0000000000000000     
  -7.5031471883903175E-002  0.10915758143087828        0.0000000000000000     
  -7.4755537388496857E-002   5.8891008888891261E-002   0.0000000000000000     
  -7.7705914730058792E-002   7.1548068260570613E-002   0.0000000000000000     
  -8.1061227263268365E-002   8.4361327314256274E-002   0.0000000000000000     
  -8.4821474988125561E-002   9.7330786049948187E-002   0.0000000000000000     
  -8.8986657904630381E-002  0.11045644446764639        0.0000000000000000     
  -3.9232682820403264E-002  0.10607291582150381        0.0000000000000000     
  -4.1717825564763750E-002  0.12004594682929762        0.0000000000000000     
  -4.3961402543444342E-002  0.13453537423324910        0.0000000000000000     
  -4.5963413756445033E-002  0.14954119803335825        0.0000000000000000     
  -4.7723859203765852E-002  0.16506341822962506        0.0000000000000000     
  -5.0154484341789603E-002  0.10696581710780698        0.0000000000000000     
  -5.3208838671122791E-002  0.12081507785393521        0.0000000000000000     
  -5.5974715552255597E-002  0.13519648713532370        0.0000000000000000     
  -5.8452114985187986E-002  0.15011004495197247        0.0000000000000000     
  -6.0641036969919987E-002  0.16555575130388148        0.0000000000000000     
  -6.2087414029622902E-002  0.10799403897759846        0.0000000000000000     
  -6.5616657376772650E-002  0.12172143653886006        0.0000000000000000     
  -6.8824848065490343E-002  0.13599537867013109        0.0000000000000000     
  -7.1711986095776045E-002  0.15081586537141156        0.0000000000000000     
  -7.4278071467629728E-002  0.16618289664270150        0.0000000000000000     
  -7.5031471883903175E-002  0.10915758143087828        0.0000000000000000     
  -7.8941281681713299E-002  0.12276502288407214        0.0000000000000000     
  -8.2511800083148651E-002  0.13693204883767124        0.0000000000000000     
  -8.5743027088209231E-002  0.15165865929167563        0.0000000000000000     
  -8.8634962696895081E-002  0.16694485424608510        0.0000000000000000     
  -8.8986657904630381E-002  0.11045644446764639        0.0000000000000000     
  -9.3182711585944725E-002  0.12394583688957150        0.0000000000000000     
  -9.7035571605230422E-002  0.13800649763794423        0.0000000000000000     
 -0.10054523796248754       0.15263842671276451        0.0000000000000000     
 -0.10371171065771602       0.16784162411403236        0.0000000000000000     
  -4.7723859203765852E-002  0.16506341822962506        0.0000000000000000     
  -4.9227296107253751E-002  0.18099756207462825        0.0000000000000000     
  -5.0458281688755734E-002  0.19723915682094648        0.0000000000000000     
  -5.1416815948271785E-002  0.21378820246857980        0.0000000000000000     
  -5.2102898885801913E-002  0.23064469901752818        0.0000000000000000     
  -6.0641036969919987E-002  0.16555575130388148        0.0000000000000000     
  -6.2526293789670728E-002  0.18142074168161271        0.0000000000000000     
  -6.4092697727659381E-002  0.19759215157572810        0.0000000000000000     
  -6.5340248783885932E-002  0.21406998098622759        0.0000000000000000     
  -6.6268946958350380E-002  0.23085422991311128        0.0000000000000000     
  -7.4278071467629728E-002  0.16618289664270150        0.0000000000000000     
  -7.6517657619305499E-002  0.18197242023635127        0.0000000000000000     
  -7.8425297989057466E-002  0.19806038390471112        0.0000000000000000     
  -8.0000992576885602E-002  0.21444678764778125        0.0000000000000000     
  -8.1244741382789989E-002  0.23113163146556151        0.0000000000000000     
  -8.8634962696895081E-002  0.16694485424608510        0.0000000000000000     
  -9.1201387596158007E-002  0.18265259773884382        0.0000000000000000     
  -9.3456082472949953E-002  0.19864385380789573        0.0000000000000000     
  -9.5399047327270850E-002  0.21491862245324075        0.0000000000000000     
  -9.7030282159120740E-002  0.23147690367487889        0.0000000000000000     
 -0.10371171065771602       0.16784162411403236        0.0000000000000000     
 -0.10657748372022832       0.18346127418909053        0.0000000000000000     
 -0.10918505117933684       0.19934256128528174        0.0000000000000000     
 -0.11153441303504161       0.21548548540260606        0.0000000000000000     
 -0.11362556928734262       0.23189004654106343        0.0000000000000000     
  -5.2102898885801913E-002  0.23064469901752818        0.0000000000000000     
  -5.2603891474035921E-002  0.24771527628083989        0.0000000000000000     
  -5.3007154685663596E-002  0.26490656407156327        0.0000000000000000     
  -5.3312688520684944E-002  0.28221856238969834        0.0000000000000000     
  -5.3520492979099957E-002  0.29965127123524504        0.0000000000000000     
  -6.6268946958350380E-002  0.23085422991311128        0.0000000000000000     
  -6.6960852912087698E-002  0.24794641392542410        0.0000000000000000     
  -6.7498027306132774E-002  0.26534804859221112        0.0000000000000000     
  -6.7880470140485677E-002  0.28305913391347232        0.0000000000000000     
  -6.8108181415146393E-002  0.30107966988920765        0.0000000000000000     
  -8.1244741382789989E-002  0.23113163146556151        0.0000000000000000     
  -8.2214368197806698E-002  0.24820660880348949        0.0000000000000000     
  -8.2967696812971864E-002  0.26576341310700280        0.0000000000000000     
  -8.3504727228285502E-002  0.28380204437610140        0.0000000000000000     
  -8.3825459443747613E-002  0.30232250261078530        0.0000000000000000     
  -9.7030282159120740E-002  0.23147690367487889        0.0000000000000000     
  -9.8364437331192947E-002  0.24849586091503617        0.0000000000000000     
  -9.9416163206180852E-002  0.26615265761593843        0.0000000000000000     
 -0.10018545978408445       0.28444729377758571        0.0000000000000000     
 -0.10067232706490369       0.30337976939997813        0.0000000000000000     
 -0.11362556928734262       0.23189004654106343        0.0000000000000000     
 -0.11541106031224646       0.24881417026006403        0.0000000000000000     
 -0.11684342648575971       0.26651578211901800        0.0000000000000000     
 -0.11792266780788242       0.28499488211792534        0.0000000000000000     
 -0.11864878427861456       0.30425147025678601        0.0000000000000000     
 </DataArray>
 <DataArray  type="Float64" Name="stress" NumberOfComponents="3" format="ascii">
   3028917258.1698895        1303079674.2251525       -1385770607.5861499     
   3180905175.0373735        513913450.51451135       -960048514.25832403     
   3422606471.1872144        23791824.411716223       -664532726.20771778     
   3754021146.6194167       -167285204.08320045       -499223243.43432945     
   4175149201.3339753       -59317634.970265150       -464120065.93815696     
   3872518817.2145076        1227973814.1171386       -867215737.43303704     
   3776008193.4228501        562812898.83627141       -527326282.80511665     
   3750742520.6423912        135135153.59273982       -276999856.12157333     
   3796721798.8731303       -55059421.613476515       -116236457.38240792     
   3913946028.1150708       -7770826.7823483944       -45036086.587620199     
   4144558557.1041784        981399408.26263237       -261520359.52142653     
   3915673042.1757774        475080896.26827037       -29010043.243091092     
   3739564049.9874196        144684126.74070191        154580522.42370284     
   3616231580.5391006       -9790900.3200671673        289251337.47896034     
   3545675633.8308163        11655815.085953236        375002401.92268032     
   3845036477.8389030        563356456.66164792        431315526.14869738     
   3599899721.2961650        250717442.81050539        534900204.42775345     
   3389071059.2223067        52438743.855632544        630208409.42811406     
   3212550491.6173239       -31479640.202986002        717240141.14977503     
   3070338018.4812236       -1037709.3653348684        795995399.59273899     
   2973952579.4186873       -26155040.685820103        1211291919.5773232     
   2828688230.7840090       -110277461.53701925        1164404460.2074199     
   2699263548.3470483       -141600995.06248605        1149883804.8916583     
   2585678532.1078048       -120125641.26222754        1167729953.6300390     
   2487933182.0662813       -45851400.136237741        1217942906.4225609     
   4175149201.3339753       -59317634.970265150       -464120065.93815696     
   3850157538.0366068       -44403460.804852486       -341466874.60730761     
   3521682728.7246099       -41099773.354874134       -220019580.07295349     
   3189724773.3979778       -49406572.620346546       -99778182.335086927     
   2854283672.0567179       -69323858.601240635        19257318.606280550     
   3913946028.1150708       -7770826.7823483944       -45036086.587620199     
   3593674599.0435805        10390211.376638651        38476282.638852388     
   3269490839.2830234        15510147.238724232        126076221.76013479     
   2941394748.8334055        7588980.8039385080        217763730.77622622     
   2609386327.6947103       -13373287.927759409        313538809.68711686     
   3545675633.8308163        11655815.085953236        375002401.92268032     
   3245248629.5317855        37600974.402494311        418873233.59126425     
   2940480109.8692513        49074415.840689301        472125101.84595919     
   2631370074.8432102        46076139.400529861        534758006.68676341     
   2317918524.4536624        28606145.082013011        606771948.11367381     
   3070338018.4812236       -1037709.3653348684        795995399.59273899     
   2804879629.5012226        37228828.272725463        799723978.24992549     
   2534650540.4832807        59593032.450983763        818127060.18452477     
   2259650751.4273953        66054903.169428945        851204645.39653373     
   1979880262.3335681        56614440.428069830        898956733.88595057     
   2487933182.0662813       -45851400.136237741        1217942906.4225609     
   2272567598.9518886        9273772.9873235226        1181028516.6148398     
   2052002131.1251159        47065997.069622397        1164082096.7758291     
   1826236778.5859635        67525272.110652566        1167103646.9055321     
   1595271541.3344295        70651598.110413492        1190093167.0039446     
   2854283672.0567179       -69323858.601240635        19257318.606280550     
   2610770092.5532780       -54777859.391187668        10408389.394909265     
   2375279238.3872747       -13489442.389685512       -24352693.247218739     
   2147811109.5587230        54541392.403328180       -85025929.320102826     
   1928365706.0676072        149314644.98778933       -171611318.82374746     
   2609386327.6947103       -13373287.927759409        313538809.68711686     
   2307409366.2722850       -22427087.431124687        302616638.93295121     
   2011256184.7565818       -12068287.245417953        278080896.75956446     
   1720926783.1476026        17703112.629372478        239931583.16696757     
   1436421161.4453378        66887112.193211436        188168698.15516111     
   2317918524.4536624        28606145.082013011        606771948.11367381     
   1992616986.8595128        6494188.5894047022        591211099.48086512     
   1670940283.7413700       -3534986.3165261745        574335261.44039023     
   1352888415.0992289       -1481379.6357724071        556144433.99224341     
   1038461380.9330896        12655008.631643236        536638617.13642651     
   1979880262.3335681        56614440.428069830        898956733.88595057     
   1666392954.3149693        31985968.670412600        876191771.03866518     
   1354331535.3416512        12110460.397023559        864410400.79525363     
   1043696005.4136144       -3012084.3920895457        863612623.15571547     
   734486364.53086448       -13381665.696923018        873798438.12005281     
   1595271541.3344295        70651598.110413492        1190093167.0039446     
   1328737268.6386428        54048252.811875641        1157558653.6063442     
   1061429939.5574160        34868052.895208359        1148306314.8241591     
   793349554.09075963        13110998.360437036        1162336150.6573913     
   524496112.23866040       -11222910.792476267        1199648161.1060355     
   1928365706.0676072        149314644.98778933       -171611318.82374746     
   1591993540.9323688        158073618.98252958       -67211858.182936177     
   1214014309.7367516        28142372.775996089        64133245.353522949     
   794428012.48073101       -240479093.63189030        222423991.78564849     
   333234649.16431451       -647790780.24106801        407660381.11342573     
   1436421161.4453378        66887112.193211436        188168698.15516111     
   1162345113.0115805        57074034.747867346        273057567.99020708     
   841483120.50201893       -108692189.61682045        383206742.72460622     
   473835183.91667128       -430411560.90079474        518616222.35834771     
   59401303.255536020       -908084079.10408866        679286006.89143217     
   1038461380.9330896        12655008.631643236        536638617.13642651     
   821866197.78277016       -17174695.679231405        595974871.81441438     
   553306192.54125953       -220220473.62741101        678886093.39544392     
   232781365.20854792       -596482325.21292138        785372281.87950504     
  -139708284.21535739       -1145960250.4357438        915433437.26660037     
   734486364.53086448       -13381665.696923018        873798438.12005281     
   570556795.24595237       -64672572.298723996        901540053.28968477     
   349483525.85444129       -306442479.25584960        951171297.36603677     
   71266556.356343716       -738691386.56827748        1022692170.3491187     
  -264094113.24835381       -1361419294.2360299        1116102672.2389221     
   524496112.23866040       -11222910.792476267        1199648161.1060355     
   408416905.40112644       -85419595.110609084        1189753112.4160087     
   230015120.44159120       -367358206.50208771        1200062354.6363957     
  -10709242.639934063       -857038744.96685970        1230575887.7671976     
  -313756183.84345227       -1554461210.5049467        1281293711.8084118     
   2973952579.4186873       -26155040.685820103        1211291919.5773232     
   2828688230.7840090       -110277461.53701925        1164404460.2074199     
   2699263548.3470483       -141600995.06248605        1149883804.8916583     
   2585678532.1078048       -120125641.26222754        1167729953.6300390     
   2487933182.0662813       -45851400.136237741        1217942906.4225609     
   2058342480.6986136       -71252866.666993260        1224476834.9100969     
   1994020690.3316944       -120956740.97359705        1228714402.3895257     
   1941578649.6130784       -131061449.78585923        1254905930.6643329     
   1901016358.5427699       -101566993.10376394        1303051419.7345264     
   1872333817.1207652       -32473370.927321553        1373150869.6001022     
   1257480351.2219527       -81926301.875140250        1243870078.1265419     
   1244350138.3834841       -106136923.85894537        1294612769.8143160     
   1239139758.6439068       -103948102.17978311        1356896579.0387120     
   1241849212.0032187       -75359836.837652564        1430721505.7997351     
   1252478498.4614208       -20372127.832557201        1516087550.0973828     
   571366190.98870790       -58175346.310262650        1269471649.2266598     
   579676574.93938041       -65818010.193060070        1362099562.4817939     
   591946875.43952870       -60260952.244272232        1455855750.0147963     
   608177092.48915291       -41504172.463895977        1550740211.8256643     
   628367226.08825326       -9547670.8519372046        1646752947.9143970     
  -1.1242838162282380E-003   2.7637004406611595E-002   1301281548.2104461     
  -6.1928484318651660E-004   2.4056489401246651E-002   1431174780.3919609     
  -5.5038391426815748E-005   2.0676935438560248E-002   1551783443.5925827     
   5.7222999232826085E-004   1.7505719859049123E-002   1663107537.8123136     
   1.2585171000572310E-003   1.4531233359450977E-002   1765147063.0511506     
   2487933182.0662813       -45851400.136237741        1217942906.4225609     
   2272567598.9518886        9273772.9873235226        1181028516.6148398     
   2052002131.1251159        47065997.069622397        1164082096.7758291     
   1826236778.5859635        67525272.110652566        1167103646.9055321     
   1595271541.3344295        70651598.110413492        1190093167.0039446     
   1872333817.1207652       -32473370.927321553        1373150869.6001022     
   1705815897.4956009        7372389.2278037071        1330021282.4490974     
   1535398064.3361778        34218437.602068186        1308024869.4676571     
   1361080317.6424937        48064774.195456982        1307161630.6557865     
   1182862657.4145484        48911399.007980406        1327431566.0134780     
   1252478498.4614208       -20372127.832557201        1516087550.0973828     
   1138137397.1850731        5192965.8120126128        1468259398.6442320     
   1021196353.5525846        22091584.936112463        1442729625.5615032     
   901655367.56395590        30323729.539742678        1439498230.8491948     
   779514439.21918714        29889399.622910053        1458565214.5073068     
   628367226.08825326       -9547670.8519372046        1646752947.9143970     
   569532098.02030516        2735502.7399432659        1595742865.2002416     
   509396998.77433860        10685439.071763337        1568196365.0573635     
   447961928.35035205        14302138.143514380        1564113447.4857593     
   385226886.74834085        13585599.955185875        1583494112.4854341     
   1.2585171000572310E-003   1.4531233359450977E-002   1765147063.0511506     
   1.3004707201223929E-003   1.1614495994997051E-002   1712471682.1171296     
   1.4382268270102920E-003   9.0150185851144062E-003   1684425087.9552381     
   1.6773555987393937E-003   6.7541439474261651E-003   1681007280.5654788     
   2.0167933257497039E-003   4.8283263833990070E-003   1702218259.9478498     
   1595271541.3344295        70651598.110413492        1190093167.0039446     
   1328737268.6386428        54048252.811875641        1157558653.6063442     
   1061429939.5574160        34868052.895208359        1148306314.8241591     
   793349554.09075963        13110998.360437036        1162336150.6573913     
   524496112.23866040       -11222910.792476267        1199648161.1060355     
   1182862657.4145484        48911399.007980406        1327431566.0134780     
   978960856.78559411        35258561.201522410        1297745918.4384949     
   774479263.86759102        19673082.431566387        1292276034.5705624     
   569417878.66054153        2154962.6981226504        1311021914.4096818     
   363776701.16444314       -17295797.998816118        1353983557.9558525     
   779514439.21918714        29889399.622910053        1458565214.5073068     
   640912508.06173837        19987288.529925227        1431953907.5340595     
   501924048.71162826        8796750.1280731261        1430491953.3595021     
   362549061.16886473       -3682215.5826293975        1454179351.9836316     
   222787545.43343908       -17449608.602198645        1503016103.4064510     
   385226886.74834085        13585599.955185875        1583494112.4854341     
   314592222.46707356        8234434.7970829308        1560182620.8930423     
   243764294.08953366        2239055.9847419411        1562954071.1909790     
   172743101.61572933       -4400536.4818157032        1591808463.3792384     
   101528645.04565294       -11684342.602610819        1646745797.4578240     
   2.0167933257497039E-003   4.8283263833990070E-003   1702218259.9478498     
   1.6021982275703150E-003   3.0036412917317629E-003   1682432058.5154402     
   1.3070131058032200E-003   1.5769894547721644E-003   1689662388.0649917     
   1.1323131077456171E-003   5.5264858623459796E-004   1723909248.5965044     
   1.0798138939781432E-003  -6.5744113449986939E-005   1785172640.1099763     
   524496112.23866040       -11222910.792476267        1199648161.1060355     
   408416905.40112644       -85419595.110609084        1189753112.4160087     
   230015120.44159120       -367358206.50208771        1200062354.6363957     
  -10709242.639934063       -857038744.96685970        1230575887.7671976     
  -313756183.84345227       -1554461210.5049467        1281293711.8084118     
   363776701.16444314       -17295797.998816118        1353983557.9558525     
   300681119.64741206       -65754164.154207319        1284577354.0484340     
   190843604.53886911       -270018975.61463940        1229783882.2088206     
   34264155.838818461       -630090232.38009191        1189603142.4370034     
  -169057226.45273694       -1145967934.4505670        1164035134.7329957     
   222787545.43343908       -17449608.602198645        1503016103.4064510     
   196699706.82945246       -44962421.317077413        1392276162.9005425     
   139450579.16444260       -176346197.56870249        1290557395.6198273     
   51040162.438409209       -411600937.35706937        1197859801.5643053     
  -68531543.348643005       -750726640.68216705        1114183380.7339673     
   101528645.04565294       -11684342.602610819        1646745797.4578240     
   96472666.947248369       -23044366.599220045        1512849538.9723303     
   75836044.318306267       -86339872.364285141        1382382894.8694129     
   39618777.158829913       -201570859.89780283        1255345865.1490710     
  -12179134.531178549       -368737329.19975603        1131738449.8113236     
   1.0798138939781432E-003  -6.5744113449986939E-005   1785172640.1099763     
   7.9872006444667515E-004  -6.3634994709524601E-004   1646297482.2637951     
   4.6871847062986518E-004  -1.3706755510820348E-003   1505260379.9575810     
   8.4181745823226108E-005  -2.2843563121685531E-003   1362061333.1913385     
  -3.4166808576513745E-004  -3.3399107655364977E-003   1216700341.9650602     
  -1.1242838162282380E-003   2.7637004406611595E-002   1301281548.2104461     
  -6.1928484318651660E-004   2.4056489401246651E-002   1431174780.3919609     
  -5.5038391426815748E-005   2.0676935438560248E-002   1551783443.5925827     
   5.7222999232826085E-004   1.7505719859049123E-002   1663107537.8123136     
   1.2585171000572310E-003   1.4531233359450977E-002   1765147063.0511506     
  -571366190.99110365        58175346.364019930        1269471649.2243366     
  -579676574.94098520        65818010.239137203        1362099562.4798677     
  -591946875.44014752        60260952.283318847        1455855750.0132225     
  -608177092.48858833        41504172.496571898        1550740211.8243916     
  -628367226.08631134        9547670.8788853586        1646752947.9133801     
  -1257480351.2238204        81926301.927582443        1243870078.1216819     
  -1244350138.3849149        106136923.90314960        1294612769.8103359     
  -1239139758.6446302        103948102.21664786        1356896579.0355179     
  -1241849212.0029676        75359836.868072510        1430721505.7972312     
  -1252478498.4599271        20372127.857424855        1516087550.0954719     
  -2058342480.6992762        71252866.718323350        1224476834.9024804     
  -1994020690.3324094        120956741.01609385        1228714402.3833566     
  -1941578649.6135073        131061449.82065642        1254905930.6594737     
  -1901016358.5425653        101566993.13200951        1303051419.7308295     
  -1872333817.1195893        32473370.950149298        1373150869.5974264     
  -2973952579.4174700        26155040.736241937        1211291919.5667350     
  -2828688230.7834697        110277461.57796490        1164404460.1989350     
  -2699263548.3467736        141600995.09534740        1149883804.8850870     
  -2585678532.1073828        120125641.28837788        1167729953.6251898     
  -2487933182.0652957        45851400.157062054        1217942906.4192412     
   1.2585171000572310E-003   1.4531233359450977E-002   1765147063.0511506     
   1.3004707201223929E-003   1.1614495994997051E-002   1712471682.1171296     
   1.4382268270102920E-003   9.0150185851144062E-003   1684425087.9552381     
   1.6773555987393937E-003   6.7541439474261651E-003   1681007280.5654788     
   2.0167933257497039E-003   4.8283263833990070E-003   1702218259.9478498     
  -628367226.08631134        9547670.8788853586        1646752947.9133801     
  -569532098.01821768       -2735502.7184990644        1595742865.1994860     
  -509396998.77190691       -10685439.055159628        1568196365.0568380     
  -447961928.34738070       -14302138.131104454        1564113447.4854367     
  -385226886.74463665       -13585599.946319163        1583494112.4852858     
  -1252478498.4599271        20372127.857424855        1516087550.0954719     
  -1138137397.1834495       -5192965.7923266888        1468259398.6428411     
  -1021196353.5506359       -22091584.920959651        1442729625.5605726     
  -901655367.56148922       -30323729.528478235        1439498230.8486693     
  -779514439.21600533       -29889399.614877820        1458565214.5071285     
  -1872333817.1195893        32473370.950149298        1373150869.5974264     
  -1705815897.4943943       -7372389.2098648548        1330021282.4471974     
  -1535398064.3347478       -34218437.588371038        1308024869.4664474     
  -1361080317.6406474       -48064774.185368598        1307161630.6551776     
  -1182862657.4120927       -48911399.000848889        1327431566.0133870     
  -2487933182.0652957        45851400.157062054        1217942906.4192412     
  -2272567598.9510550       -9273772.9711253643        1181028516.6125517     
  -2052002131.1242394       -47065997.057395339        1164082096.7744579     
  -1826236778.5848567       -67525272.101773858        1167103646.9049599     
  -1595271541.3329008       -70651598.104242682        1190093167.0040560     
   2.0167933257497039E-003   4.8283263833990070E-003   1702218259.9478498     
   1.6021982275703150E-003   3.0036412917317629E-003   1682432058.5154402     
   1.3070131058032200E-003   1.5769894547721644E-003   1689662388.0649917     
   1.1323131077456171E-003   5.5264858623459796E-004   1723909248.5965044     
   1.0798138939781432E-003  -6.5744113449986939E-005   1785172640.1099763     
  -385226886.74463665       -13585599.946319163        1583494112.4852858     
  -314592222.46410757       -8234434.7915660143        1560182620.8930955     
  -243764294.08708504       -2239055.9818324298        1562954071.1912291     
  -172743101.61357322        4400536.4828642979        1591808463.3796864     
  -101528645.04357029        11684342.602531180        1646745797.4584718     
  -779514439.21600533       -29889399.614877820        1458565214.5071285     
  -640912508.05920577       -19987288.524938017        1431953907.5342588     
  -501924048.70954376       -8796750.1254580915        1430491953.3600764     
  -362549061.16702312        3682215.5835494250        1454179351.9845819     
  -222787545.43164074        17449608.602097005        1503016103.4077759     
  -1182862657.4120927       -48911399.000848889        1327431566.0133870     
  -978960856.78369868       -35258561.197130501        1297745918.4389343     
  -774479263.86607206       -19673082.429308206        1292276034.5715303     
  -569417878.65921712       -2154962.6973887682        1311021914.4111795     
  -363776701.16313058        17295797.998634532        1353983557.9578798     
  -1595271541.3329008       -70651598.104242682        1190093167.0040560     
  -1328737268.6375883       -54048252.808155358        1157558653.6071186     
  -1061429939.5566680       -34868052.893375218        1148306314.8255939     
  -793349554.09015417       -13110998.359949857        1162336150.6594870     
  -524496112.23803699        11222910.792153746        1199648161.1087949     
   1.0798138939781432E-003  -6.5744113449986939E-005   1785172640.1099763     
   7.9872006444667515E-004  -6.3634994709524601E-004   1646297482.2637951     
   4.6871847062986518E-004  -1.3706755510820348E-003   1505260379.9575810     
   8.4181745823226108E-005  -2.2843563121685531E-003   1362061333.1913385     
  -3.4166808576513745E-004  -3.3399107655364977E-003   1216700341.9650602     
  -101528645.04357029        11684342.602531180        1646745797.4584718     
  -96472666.945683807        23044366.598103188        1512849538.9728127     
  -75836044.317339331        86339872.361865729        1382382894.8697400     
  -39618777.158535779        201570859.89382643        1255345865.1492603     
   12179134.530728370        368737329.19399214        1131738449.8113661     
  -222787545.43164074        17449608.602097005        1503016103.4077759     
  -196699706.82809776        44962421.316058308        1392276162.9015622     
  -139450579.16358703        176346197.56658316        1290557395.6205537     
  -51040162.438109279        411600937.35365772        1197859801.5647604     
   68531543.348332047        750726640.67728436        1114183380.7341709     
  -363776701.16313058        17295797.998634532        1353983557.9578798     
  -300681119.64644164        65754164.153238609        1284577354.0500369     
  -190843604.53827384        270018975.61276901        1229783882.2100251     
  -34264155.838637143        630090232.37719595        1189603142.4378388     
   169057226.45247319        1145967934.4465377        1164035134.7334907     
  -524496112.23803699        11222910.792153746        1199648161.1087949     
  -408416905.40071434        85419595.109640270        1189753112.4182441     
  -230015120.44140434        367358206.50041932        1200062354.6381488     
   10709242.639879048        857038744.96444535        1230575887.7685070     
   313756183.84314811        1554461210.5017512        1281293711.8093135     
  -2973952579.4174700        26155040.736241937        1211291919.5667350     
  -2828688230.7834697        110277461.57796490        1164404460.1989350     
  -2699263548.3467736        141600995.09534740        1149883804.8850870     
  -2585678532.1073828        120125641.28837788        1167729953.6251898     
  -2487933182.0652957        45851400.157062054        1217942906.4192412     
  -3845036477.8391752       -563356456.62393403        431315526.13739288     
  -3599899721.2969794       -250717442.77989602        534900204.41884476     
  -3389071059.2233486       -52438743.831078053        630208409.42135143     
  -3212550491.6182837        31479640.222518325        717240141.14490688     
  -3070338018.4817867        1037709.3808983564        795995399.58951509     
  -4144558557.1062346       -981399408.23771381       -261520359.53248915     
  -3915673042.1784110       -475080896.24813867       -29010043.251587819     
  -3739564049.9904132       -144684126.72464538        154580522.41746330     
  -3616231580.5422421        9790900.3327462673        289251337.47466874     
  -3545675633.8339028       -11655815.075952053        375002401.92002797     
  -3872518817.2186513       -1227973814.1051030       -867215737.44290841     
  -3776008193.4277663       -562812898.82675183       -527326282.81236619     
  -3750742520.6479712       -135135153.58536720       -276999856.12657070     
  -3796721798.8792629        55059421.619051218       -116236457.38552201     
  -3913946028.1216450        7770826.7865109444       -45036086.589216158     
  -3028917258.1764212       -1303079674.2260962       -1385770607.5938656     
  -3180905175.0450468       -513913450.51575428       -960048514.26348913     
  -3422606471.1960139       -23791824.413227320       -664532726.21075642     
  -3754021146.6293378        167285204.08144474       -499223243.43566668     
  -4175149201.3450136        59317634.968286037       -464120065.93822360     
  -2487933182.0652957        45851400.157062054        1217942906.4192412     
  -2272567598.9510550       -9273772.9711253643        1181028516.6125517     
  -2052002131.1242394       -47065997.057395339        1164082096.7744579     
  -1826236778.5848567       -67525272.101773858        1167103646.9049599     
  -1595271541.3329008       -70651598.104242682        1190093167.0040560     
  -3070338018.4817867        1037709.3808983564        795995399.58951509     
  -2804879629.5018511       -37228828.260588884        799723978.24759769     
  -2534650540.4838290       -59593032.441792846        818127060.18299794     
  -2259650751.4277282       -66054903.162727118        851204645.39571249     
  -1979880262.3335392       -56614440.423370004        898956733.88574398     
  -3545675633.8339028       -11655815.075952053        375002401.92002797     
  -3245248629.5347881       -37600974.394705892        418873233.58931559     
  -2940480109.8720741       -49074415.834788561        472125101.84464157     
  -2631370074.8457656       -46076139.396225214        534758006.68600118     
  -2317918524.4558592       -28606145.079003334        606771948.11339712     
  -3913946028.1216450        7770826.7865109444       -45036086.589216158     
  -3593674599.0498672       -10390211.373461485        38476282.637706988     
  -3269490839.2889709       -15510147.236378908        126076221.75938697     
  -2941394748.8389721       -7588980.8022847176        217763730.77582514     
  -2609386327.6998596        13373287.928856730        313538809.68701744     
  -4175149201.3450136        59317634.968286037       -464120065.93822360     
  -3850157538.0470815        44403460.803148985       -341466874.60723233     
  -3521682728.7345238        41099773.353430510       -220019580.07276326     
  -3189724773.4073439        49406572.619118333       -99778182.334818870     
  -2854283672.0655427        69323858.600211859        19257318.606604647     
  -1595271541.3329008       -70651598.104242682        1190093167.0040560     
  -1328737268.6375883       -54048252.808155358        1157558653.6071186     
  -1061429939.5566680       -34868052.893375218        1148306314.8255939     
  -793349554.09015417       -13110998.359949857        1162336150.6594870     
  -524496112.23803699        11222910.792153746        1199648161.1087949     
  -1979880262.3335392       -56614440.423370004        898956733.88574398     
  -1666392954.3151660       -31985968.667513192        876191771.03905141     
  -1354331535.3419597       -12110460.395549834        864410400.79627609     
  -1043696005.4139214        3012084.3925263286        863612623.15741658     
  -734486364.53105307        13381665.696701586        873798438.12247121     
  -2317918524.4558592       -28606145.079003334        606771948.11339712     
  -1992616986.8615694       -6494188.5875253677        591211099.48105597     
  -1670940283.7432151        3534986.3174962997        574335261.44112957     
  -1352888415.1007993        1481379.6360626817        556144433.99362016     
  -1038461380.9343196       -12655008.631830752        536638617.13852710     
  -2609386327.6998596        13373287.928856730        313538809.68701744     
  -2307409366.2767940        22427087.431812882        302616638.93312854     
  -2011256184.7604342        12068287.245750308        278080896.76015902     
  -1720926783.1507823       -17703112.629337430        239931583.16810015     
  -1436421161.4478328       -66887112.193437874        188168698.15695912     
  -2854283672.0655427        69323858.600211859        19257318.606604647     
  -2610770092.5608397        54777859.390517950        10408389.395269232     
  -2375279238.3936210        13489442.389208794       -24352693.246643558     
  -2147811109.5638642       -54541392.403634310       -85025929.319149420     
  -1928365706.0715923       -149314644.98810554       -171611318.82222944     
  -524496112.23803699        11222910.792153746        1199648161.1087949     
  -408416905.40071434        85419595.109640270        1189753112.4182441     
  -230015120.44140434        367358206.50041932        1200062354.6381488     
   10709242.639879048        857038744.96444535        1230575887.7685070     
   313756183.84314811        1554461210.5017512        1281293711.8093135     
  -734486364.53105307        13381665.696701586        873798438.12247121     
  -570556795.24615908        64672572.297975868        901540053.29151714     
  -349483525.85466456        306442479.25458318        951171297.36737001     
  -71266556.356575042        738691386.56650603        1022692170.3500222     
   264094113.24810466        1361419294.2337437        1116102672.2394888     
  -1038461380.9343196       -12655008.631830752        536638617.13852710     
  -821866197.78369677        17174695.678678572        595974871.81588316     
  -553306192.54185629        220220473.62658376        678886093.39640069     
  -232781365.20880839        596482325.21183443        785372281.88007462     
   139708284.21544680        1145960250.4344583        915433437.26691425     
  -1436421161.4478328       -66887112.193437874        188168698.15695912     
  -1162345113.0133245       -57074034.748229861        273057567.99134731     
  -841483120.50299323        108692189.61638272        383206742.72524863     
  -473835183.91683245        430411560.90041816        518616222.35866004     
  -59401303.254850984        908084079.10387790        679286006.89159584     
  -1928365706.0715923       -149314644.98810554       -171611318.82222944     
  -1591993540.9350531       -158073618.98279524       -67211858.182095185     
  -1214014309.7380607       -28142372.775985897        64133245.353901170     
  -794428012.48062909        240479093.63228804        222423991.78577346     
  -333234649.16276562        647790780.24201226        407660381.11351281     
 </DataArray>
 <DataArray  type="Float64" Name="VM" NumberOfComponents="1" format="ascii">
   3561813640.6522212     
   3393027300.5275393     
   3599747531.1376677     
   3936536909.8702822     
   4281269872.1651077     
   3742346774.6024194     
   3644726209.7631345     
   3716135164.4082670     
   3829844122.9760904     
   3918613688.6215186     
   3778653438.9494486     
   3701413313.9488349     
   3679117099.9662452     
   3655630161.4710479     
   3598958769.3064108     
   3673370269.4630227     
   3602490010.1333494     
   3535862236.4388022     
   3459176465.9782400     
   3366153408.8046060     
   3650280294.0043774     
   3520382368.9937882     
   3413940720.6153970     
   3331898807.9882765     
   3279656058.0462022     
   4281269872.1651077     
   3917453756.4247670     
   3562850634.2522736     
   3219354836.7822018     
   2889761853.2657924     
   3918613688.6215186     
   3589109543.4073458     
   3269065045.1757560     
   2961722741.9414897     
   2671870446.3736911     
   3598958769.3064108     
   3307172863.2720122     
   3028734977.9277425     
   2768191916.0647736     
   2532148193.7272310     
   3366153408.8046060     
   3111750096.6107111     
   2878359400.7344680     
   2671099362.0812325     
   2497080467.8810639     
   3279656058.0462022     
   3054187173.3462396     
   2860351344.1592822     
   2702364902.5033121     
   2585757083.2427740     
   2889761853.2657924     
   2638647094.7802248     
   2382426027.9850111     
   2126172839.4617260     
   1881836138.7173476     
   2671870446.3736911     
   2377208430.0468321     
   2074019396.5024090     
   1761856443.1546574     
   1441500590.4748869     
   2532148193.7272310     
   2237457461.6639132     
   1946161261.7144835     
   1661385955.7383370     
   1389015286.9568710     
   2497080467.8810639     
   2242258559.2345634     
   2014838707.0576494     
   1824810788.3937995     
   1685244513.7222142     
   2585757083.2427740     
   2390914913.6893501     
   2246477571.7597628     
   2161538755.1293645     
   2144428975.2505345     
   1881836138.7173476     
   1523591423.1242683     
   1205320170.5811551     
   1014103883.3624674     
   1115842963.2986605     
   1441500590.4748869     
   1229489808.0608263     
   1118889047.2586105     
   1191891938.3372905     
   1505448446.4074762     
   1389015286.9568710     
   1324927342.3732226     
   1363507658.5442357     
   1548953569.8979049     
   1920077679.1804547     
   1685244513.7222142     
   1674795622.4139230     
   1742791679.1335113     
   1934188642.2621872     
   2302329450.5862293     
   2144428975.2505345     
   2110811476.1988399     
   2143083272.9215927     
   2295300178.4173450     
   2636704668.3849778     
   3650280294.0043774     
   3520382368.9937882     
   3413940720.6153970     
   3331898807.9882765     
   3279656058.0462022     
   2981030710.8252606     
   2959925090.0508666     
   2960698828.5528846     
   2985144648.4768710     
   3037123534.7195015     
   2516471295.5406580     
   2592259724.7752004     
   2683017658.2099280     
   2789685682.2639227     
   2913794337.8796725     
   2279859189.8897562     
   2438125459.2527733     
   2597739721.8839016     
   2758845677.6005163     
   2921698442.1195230     
   2253885756.4523821     
   2478867434.1501064     
   2687767766.6465464     
   2880586753.9417052     
   3057324396.0355773     
   3279656058.0462022     
   3054187173.3462396     
   2860351344.1592822     
   2702364902.5033121     
   2585757083.2427740     
   3037123534.7195015     
   2864289811.5984983     
   2727428527.3894949     
   2629723259.4778805     
   2574863998.5826955     
   2913794337.8796725     
   2785108683.3898511     
   2695399135.9484472     
   2646323080.5742354     
   2639597388.5211377     
   2921698442.1195230     
   2821702006.3338475     
   2762584997.5181036     
   2744780548.0296421     
   2768702150.3319411     
   3057324396.0355773     
   2966087959.9498081     
   2917509833.8821473     
   2911590017.8325996     
   2948328511.8011622     
   2585757083.2427740     
   2390914913.6893501     
   2246477571.7597628     
   2161538755.1293645     
   2144428975.2505345     
   2574863998.5826955     
   2444897580.7679210     
   2365354268.2883449     
   2340801074.4831834     
   2374602886.1523108     
   2639597388.5211377     
   2559264388.7214708     
   2527154826.8610201     
   2544936762.9619269     
   2613617905.5109067     
   2768702150.3319411     
   2720102022.8696704     
   2717969191.9704480     
   2762640450.4486480     
   2854285558.4952545     
   2948328511.8011622     
   2914057805.6314368     
   2926581103.7667265     
   2985898406.2070322     
   3092009712.9523492     
   2144428975.2505345     
   2110811476.1988399     
   2143083272.9215927     
   2295300178.4173450     
   2636704668.3849778     
   2374602886.1523108     
   2250537872.8467631     
   2167479668.6491327     
   2159917626.3734951     
   2283204344.0483809     
   2613617905.5109067     
   2421746318.3479958     
   2252054883.6513147     
   2120762344.3300984     
   2059381563.4447410     
   2854285558.4952545     
   2622632713.9937434     
   2398478842.4431429     
   2185833061.6687346     
   1993519602.1279349     
   3092009712.9523492     
   2851470883.6536160     
   2607187456.7069635     
   2359159432.1123996     
   2107386809.8699117     
   2253885756.4523821     
   2478867434.1501064     
   2687767766.6465464     
   2880586753.9417052     
   3057324396.0355773     
   2279859189.8946142     
   2438125459.2566695     
   2597739721.8867583     
   2758845677.6023345     
   2921698442.1203690     
   2516471295.5492249     
   2592259724.7823725     
   2683017658.2153711     
   2789685682.2675476     
   2913794337.8815608     
   2981030710.8352885     
   2959925090.0597315     
   2960698828.5599465     
   2985144648.4818511     
   3037123534.7224216     
   3650280294.0137420     
   3520382369.0026603     
   3413940720.6228881     
   3331898807.9939322     
   3279656058.0499392     
   3057324396.0355773     
   2966087959.9498081     
   2917509833.8821473     
   2911590017.8325996     
   2948328511.8011622     
   2921698442.1203690     
   2821702006.3342886     
   2762584997.5182319     
   2744780548.0295610     
   2768702150.3317537     
   2913794337.8815608     
   2785108683.3909745     
   2695399135.9489689     
   2646323080.5743413     
   2639597388.5210152     
   3037123534.7224216     
   2864289811.6004300     
   2727428527.3906417     
   2629723259.4784603     
   2574863998.5829525     
   3279656058.0499392     
   3054187173.3489432     
   2860351344.1611714     
   2702364902.5046148     
   2585757083.2437406     
   2948328511.8011622     
   2914057805.6314368     
   2926581103.7667265     
   2985898406.2070322     
   3092009712.9523492     
   2768702150.3317537     
   2720102022.8697257     
   2717969191.9707890     
   2762640450.4493203     
   2854285558.4962959     
   2639597388.5210152     
   2559264388.7217665     
   2527154826.8618360     
   2544936762.9633589     
   2613617905.5130281     
   2574863998.5829525     
   2444897580.7686915     
   2365354268.2897911     
   2340801074.4854670     
   2374602886.1555576     
   2585757083.2437406     
   2390914913.6908503     
   2246477571.7620201     
   2161538755.1326113     
   2144428975.2549706     
   3092009712.9523492     
   2851470883.6536160     
   2607187456.7069635     
   2359159432.1123996     
   2107386809.8699117     
   2854285558.4962959     
   2622632713.9944830     
   2398478842.4435349     
   2185833061.6686392     
   1993519602.1269975     
   2613617905.5130281     
   2421746318.3495717     
   2252054883.6522450     
   2120762344.3301299     
   2059381563.4434192     
   2374602886.1555576     
   2250537872.8492713     
   2167479668.6507778     
   2159917626.3739786     
   2283204344.0473113     
   2144428975.2549706     
   2110811476.2023985     
   2143083272.9241261     
   2295300178.4185648     
   2636704668.3846526     
   3650280294.0137420     
   3520382369.0026603     
   3413940720.6228881     
   3331898807.9939322     
   3279656058.0499392     
   3673370269.4732590     
   3602490010.1433296     
   3535862236.4475803     
   3459176465.9853549     
   3366153408.8099351     
   3778653438.9609275     
   3701413313.9597158     
   3679117099.9759712     
   3655630161.4794459     
   3598958769.3135118     
   3742346774.6151676     
   3644726209.7744560     
   3716135164.4183674     
   3829844122.9853411     
   3918613688.6302333     
   3561813640.6655307     
   3393027300.5381417     
   3599747531.1469789     
   3936536909.8795514     
   4281269872.1749783     
   3279656058.0499392     
   3054187173.3489432     
   2860351344.1611714     
   2702364902.5046148     
   2585757083.2437406     
   3366153408.8099351     
   3111750096.6148043     
   2878359400.7374997     
   2671099362.0833941     
   2497080467.8825750     
   3598958769.3135118     
   3307172863.2779341     
   3028734977.9326129     
   2768191916.0687137     
   2532148193.7303739     
   3918613688.6302333     
   3589109543.4151759     
   3269065045.1827655     
   2961722741.9477396     
   2671870446.3792391     
   4281269872.1749783     
   3917453756.4342446     
   3562850634.2613649     
   3219354836.7909017     
   2889761853.2740884     
   2585757083.2437406     
   2390914913.6908503     
   2246477571.7620201     
   2161538755.1326113     
   2144428975.2549706     
   2497080467.8825750     
   2242258559.2361970     
   2014838707.0596581     
   1824810788.3965163     
   1685244513.7260087     
   2532148193.7303739     
   2237457461.6667247     
   1946161261.7171421     
   1661385955.7411177     
   1389015286.9601510     
   2671870446.3792391     
   2377208430.0516381     
   2074019396.5065582     
   1761856443.1582267     
   1441500590.4779170     
   2889761853.2740884     
   2638647094.7874441     
   2382426027.9910984     
   2126172839.4665923     
   1881836138.7207208     
   2144428975.2549706     
   2110811476.2023985     
   2143083272.9241261     
   2295300178.4185648     
   2636704668.3846526     
   1685244513.7260087     
   1674795622.4168005     
   1742791679.1354089     
   1934188642.2629638     
   2302329450.5858779     
   1389015286.9601510     
   1324927342.3756068     
   1363507658.5456541     
   1548953569.8983603     
   1920077679.1801629     
   1441500590.4779170     
   1229489808.0630398     
   1118889047.2598433     
   1191891938.3375804     
   1505448446.4073329     
   1881836138.7207208     
   1523591423.1267116     
   1205320170.5825236     
   1014103883.3627079     
   1115842963.2985330     
 </DataArray>
 <DataArray  type="Float64" Name="strain" NumberOfComponents="3" format="ascii">
   4.3966555931705731E-002   6.5734082795697590E-003  -6.0050059662066502E-002
   5.0445518998050332E-002  -7.3393016999450111E-003  -4.1602102284527376E-002
   5.6924482064394988E-002  -1.6716501949074133E-002  -2.8796418135667773E-002
   6.3403445130739616E-002  -2.1558192467817091E-002  -2.1633007215487610E-002
   6.9882408197084245E-002  -2.1864373256174297E-002  -2.0111869523986803E-002
   5.8402111216322772E-002   1.1036361492131053E-003  -3.7579348622098274E-002
   6.0119405396199477E-002  -9.4998259865097245E-003  -2.2850805588221723E-002
   6.1836699576076154E-002  -1.6501460043332958E-002  -1.2003327098601510E-002
   6.3553993755952887E-002  -1.9901266021256924E-002  -5.0369131532376765E-003
   6.5271287935829592E-002  -1.9699243920281162E-002  -1.9515637521302087E-003
   6.4168978910423141E-002  -4.3661359811436873E-003  -1.1332548912595150E-002
   6.2885812888254941E-002  -1.1660350273074382E-002  -1.2571018738672807E-003
   6.1602646866086824E-002  -1.6286418137592067E-002   6.6984893050271235E-003
   6.0319480843918680E-002  -1.8244339574696622E-002   1.2534224624088281E-002
   5.9036314821750507E-002  -1.7534114584388194E-002   1.6250104083316147E-002
   6.1267159014006811E-002  -9.8359081115003827E-003   1.8690339466443554E-002
   5.8744741474216891E-002  -1.3820874559639068E-002   2.3179008858535983E-002
   5.6222323934426950E-002  -1.6071376231850992E-002   2.7309031075218274E-002
   5.3699906394636995E-002  -1.6587413128136386E-002   3.1080406116490253E-002
   5.1177488854847068E-002  -1.5368985248495032E-002   3.4493133982352021E-002
   4.9696651527073893E-002  -1.5305680241857106E-002   5.2489316515017342E-002
   4.7696191154085243E-002  -1.5981398846203698E-002   5.0457526608988196E-002
   4.5695730781096566E-002  -1.5856334326110007E-002   4.9828298211971864E-002
   4.3695270408107889E-002  -1.4930486681576151E-002   5.0601631323968353E-002
   4.1694810035119212E-002  -1.3203855912602036E-002   5.2777525944977643E-002
   6.9882408197084245E-002  -2.1864373256174297E-002  -2.0111869523986803E-002
   6.4391309604634378E-002  -1.9990845370263910E-002  -1.4796897899649997E-002
   5.8900211012184539E-002  -1.8293409866204285E-002  -9.5341818031613179E-003
   5.3409112419734700E-002  -1.6772066743995666E-002  -4.3237212345204334E-003
   4.7918013827284833E-002  -1.5426816003637600E-002   8.3448380627215712E-004
   6.5271287935829592E-002  -1.9699243920281162E-002  -1.9515637521302087E-003
   5.9842625593843152E-002  -1.7795202805607258E-002   1.6673055810169368E-003
   5.4413963251856767E-002  -1.6088951742436380E-002   5.4633029429391744E-003
   4.8985300909870397E-002  -1.4580490730768052E-002   9.4364283336364693E-003
   4.3556638567883971E-002  -1.3269819770602875E-002   1.3586681753108398E-002
   5.9036314821750507E-002  -1.7534114584388194E-002   1.6250104083316147E-002
   5.3899472286850623E-002  -1.5599560240950688E-002   1.8151173455621450E-002
   4.8762629751950740E-002  -1.3884493618668101E-002   2.0458754413324898E-002
   4.3625787217050856E-002  -1.2388914717540552E-002   2.3172846956426414E-002
   3.8488944682150972E-002  -1.1112823537568095E-002   2.6293451084925867E-002
   5.1177488854847068E-002  -1.5368985248495032E-002   3.4493133982352021E-002
   4.6561849683656752E-002  -1.3403917676294022E-002   3.4654705724163438E-002
   4.1946210512466428E-002  -1.1680035494900008E-002   3.5452172607996074E-002
   3.7330571341276111E-002  -1.0197338704313162E-002   3.6885534633849797E-002
   3.2714932170085781E-002  -8.9558273045333425E-003   3.8954791801724523E-002
   4.1694810035119212E-002  -1.3203855912602036E-002   5.2777525944977643E-002
   3.7829757784261522E-002  -1.1208275111637384E-002   5.1177902386643062E-002
   3.3964705533403819E-002  -9.4755773711318741E-003   5.0443557526952593E-002
   3.0099653282546129E-002  -8.0057626910856085E-003   5.0574491365906388E-002
   2.6234601031688426E-002  -6.7988310714985900E-003   5.1570703903504267E-002
   4.7918013827284833E-002  -1.5426816003637600E-002   8.3448380627215712E-004
   4.3786724172843905E-002  -1.3966814785952852E-002   4.5103020711273478E-004
   3.9655434518403004E-002  -1.2101220231764465E-002  -1.0552833740461454E-003
   3.5524144863962076E-002  -9.8300323410714791E-003  -3.6844569372044556E-003
   3.1392855209521175E-002  -7.1532511138748811E-003  -7.4364904823623901E-003
   4.3556638567883971E-002  -1.3269819770602875E-002   1.3586681753108398E-002
   3.8568958208360371E-002  -1.1910831621880169E-002   1.3113387687094552E-002
   3.3581277848836785E-002  -1.0257419044539876E-002   1.2050172192914460E-002
   2.8593597489313179E-002  -8.3095820385818038E-003   1.0397035270568594E-002
   2.3605917129789572E-002  -6.0673206040064986E-003   8.1539769200569823E-003
   3.8488944682150972E-002  -1.1112823537568095E-002   2.6293451084925867E-002
   3.3177812171378190E-002  -9.8548484578074858E-003   2.5619147644170823E-002
   2.7866679660605465E-002  -8.4136178573156195E-003   2.4887861329083577E-002
   2.2555547149832676E-002  -6.7891317360923506E-003   2.4099592139663881E-002
   1.7244414639059943E-002  -4.9813900941380607E-003   2.3254340075911817E-002
   3.2714932170085781E-002  -8.9558273045333425E-003   3.8954791801724523E-002
   2.7613286061897425E-002  -7.7988652937346359E-003   3.7968310078342157E-002
   2.2511639953709070E-002  -6.5698166700911970E-003   3.7457784034460991E-002
   1.7409993845520687E-002  -5.2686814336028974E-003   3.7423213670081001E-002
   1.2308347737332356E-002  -3.8954595842697060E-003   3.7864598985202287E-002
   2.6234601031688426E-002  -6.7988310714985900E-003   5.1570703903504267E-002
   2.1875379879918000E-002  -5.7428821296619526E-003   5.0160874989608251E-002
   1.7516158728147560E-002  -4.7260154828669410E-003   4.9759940309046902E-002
   1.3156937576377141E-002  -3.7482311311131805E-003   5.0367899861820289E-002
   8.7977164246067219E-003  -2.8095290744012402E-003   5.1984753647928206E-002
   3.1392855209521175E-002  -7.1532511138748811E-003  -7.4364904823623901E-003
   2.5742857587293499E-002  -5.3254073882863517E-003  -2.9125138545939011E-003
   2.0092859965065879E-002  -5.6010320024171556E-003   2.7791072986526610E-003
   1.4442862342838300E-002  -7.9801249562684931E-003   9.6383729773781013E-003
   8.7928647206105826E-003  -1.2462686249839372E-002   1.7665283181581781E-002
   2.3605917129789572E-002  -6.0673206040064986E-003   8.1539769200569823E-003
   1.9087048376453669E-002  -4.8604916525934461E-003   1.1832494612908973E-002
   1.4568179623117752E-002  -6.0189520961237697E-003   1.6605625518066269E-002
   1.0049310869781829E-002  -9.5427019345966022E-003   2.2473369635528401E-002
   5.5304421164460438E-003  -1.5431741168012492E-002   2.9435726965295395E-002
   1.7244414639059943E-002  -4.9813900941380607E-003   2.3254340075911817E-002
   1.3783643441442325E-002  -4.3955759169010400E-003   2.5825577778624625E-002
   1.0322872243824714E-002  -6.4368721898298148E-003   2.9418397380469238E-002
   6.8621010462070718E-003  -1.1105278912924763E-002   3.4032798881445218E-002
   3.4013298485894294E-003  -1.8400796086185611E-002   3.9668782281552684E-002
   1.2308347737332356E-002  -3.8954595842697060E-003   3.7864598985202287E-002
   9.8326427822594924E-003  -3.9306601812084951E-003   3.9066735642553009E-002
   7.3569378271866031E-003  -6.8547922835363664E-003   4.1217422885861596E-002
   4.8812328721137823E-003  -1.2667855891253009E-002   4.4316660715128478E-002
   2.4055279170409199E-003  -2.1369851004358731E-002   4.8364449130353288E-002
   8.7977164246067219E-003  -2.8095290744012402E-003   5.1984753647928206E-002
   7.2340463989051529E-003  -3.4657444455157838E-003   5.1555968204693714E-002
   5.6703763732036255E-003  -7.2727123772427515E-003   5.2002702034243814E-002
   4.1067063475020635E-003  -1.4230432869581325E-002   5.3324955136578561E-002
   2.5430363218005292E-003  -2.4338905922531850E-002   5.5522727511697845E-002
   4.9696651527073893E-002  -1.5305680241857106E-002   5.2489316515017342E-002
   4.7696191154085243E-002  -1.5981398846203698E-002   5.0457526608988196E-002
   4.5695730781096566E-002  -1.5856334326110007E-002   4.9828298211971864E-002
   4.3695270408107889E-002  -1.4930486681576151E-002   5.0601631323968353E-002
   4.1694810035119212E-002  -1.3203855912602036E-002   5.2777525944977643E-002
   3.4661972344978531E-002  -1.1479260181276291E-002   5.3060662846104195E-002
   3.3838461877062895E-002  -1.1986049134551757E-002   5.3244290770212782E-002
   3.3014951409147272E-002  -1.1892250744496381E-002   5.4379256995454428E-002
   3.2191440941231650E-002  -1.1197865011109915E-002   5.6465561521829480E-002
   3.1367930473316027E-002  -9.9028919343925187E-003   5.9503204349337757E-002
   2.1367637363074912E-002  -7.6528401206954338E-003   5.3901036718816818E-002
   2.1269853592352797E-002  -7.9906994228998440E-003   5.6099886691953697E-002
   2.1172069821630696E-002  -7.9281671628825857E-003   5.8798851758344192E-002
   2.1074286050908574E-002  -7.4652433406436356E-003   6.1997931917988525E-002
   2.0976502280186465E-002  -6.6019279561830568E-003   6.5697127170886591E-002
   9.8136465813631127E-003  -3.8264200601145840E-003   5.5010438133155259E-002
   9.9903662999549728E-003  -3.9953497112479031E-003   5.9024314374211066E-002
   1.0167086018546840E-002  -3.9640835812688475E-003   6.3087082500641170E-002
   1.0343805737138695E-002  -3.7326216701773639E-003   6.7198742512445453E-002
   1.0520525455730574E-002  -3.3009639779735533E-003   7.1359294409623866E-002
  -1.5692308563686197E-013   4.6623815919133449E-013   5.6388867089119332E-002
  -1.3060386105934185E-013   4.0403791423671009E-013   6.2017573816984972E-002
  -1.0430198371658150E-013   3.4489078259980488E-013   6.7243949222345251E-002
  -7.7991432756441270E-014   2.8890084768917745E-013   7.2067993305200251E-002
  -5.1680881796301037E-014   2.3589463715723014E-013   7.6489706065549862E-002
   4.1694810035119212E-002  -1.3203855912602036E-002   5.2777525944977643E-002
   3.7829757784261522E-002  -1.1208275111637384E-002   5.1177902386643062E-002
   3.3964705533403819E-002  -9.4755773711318741E-003   5.0443557526952593E-002
   3.0099653282546129E-002  -8.0057626910856085E-003   5.0574491365906388E-002
   2.6234601031688426E-002  -6.7988310714985900E-003   5.1570703903504267E-002
   3.1367930473316027E-002  -9.9028919343925187E-003   5.9503204349337757E-002
   2.8393403012120996E-002  -8.4062063336812765E-003   5.7634255572794224E-002
   2.5418875550925958E-002  -7.1066830283130870E-003   5.6681077676931813E-002
   2.2444348089730944E-002  -6.0043220182881855E-003   5.6643670661750752E-002
   1.9469820628535903E-002  -5.0991233036064010E-003   5.7522034527250715E-002
   2.0976502280186465E-002  -6.6019279561830568E-003   6.5697127170886591E-002
   1.8942991790691158E-002  -5.6041375557251555E-003   6.3624573941250054E-002
   1.6909481301195850E-002  -4.7377886854943832E-003   6.2518283774331801E-002
   1.4875970811700553E-002  -4.0028813454907348E-003   6.2378256670131776E-002
   1.2842460322205235E-002  -3.3994155357141009E-003   6.3204492628649966E-002
   1.0520525455730574E-002  -3.3009639779735533E-003   7.1359294409623866E-002
   9.4785241199720378E-003  -2.8020687777691386E-003   6.9148857492010468E-002
   8.4365227842134946E-003  -2.3688943426756377E-003   6.7955175819152419E-002
   7.3945214484549618E-003  -2.0014406726931869E-003   6.7778249391049566E-002
   6.3525201126964186E-003  -1.6997077678219397E-003   6.8618078207702146E-002
  -5.1680881796301037E-014   2.3589463715723014E-013   7.6489706065549862E-002
  -3.6397967972945366E-014   1.8707257964933888E-013   7.4207106225075620E-002
  -2.1104645808733835E-014   1.4305917561685533E-013   7.2991753811393653E-002
  -5.8147930914742574E-015   1.0418228779673910E-013   7.2843648824504087E-002
   9.4715901788333667E-015   7.0388139761234925E-014   7.3762791264406824E-002
   2.6234601031688426E-002  -6.7988310714985900E-003   5.1570703903504267E-002
   2.1875379879918000E-002  -5.7428821296619526E-003   5.0160874989608251E-002
   1.7516158728147560E-002  -4.7260154828669410E-003   4.9759940309046902E-002
   1.3156937576377141E-002  -3.7482311311131805E-003   5.0367899861820289E-002
   8.7977164246067219E-003  -2.8095290744012402E-003   5.1984753647928206E-002
   1.9469820628535903E-002  -5.0991233036064010E-003   5.7522034527250715E-002
   1.6139721473752290E-002  -4.3071615972359312E-003   5.6235656465668110E-002
   1.2809622318968684E-002  -3.5445116121451820E-003   5.5998628164724368E-002
   9.4795231641850788E-003  -2.8111733483339972E-003   5.6810949624419543E-002
   6.1494240094014663E-003  -2.1071468058024845E-003   5.8672620844753609E-002
   1.2842460322205235E-002  -3.3994155357141009E-003   6.3204492628649966E-002
   1.0581938691712679E-002  -2.8714410648099375E-003   6.2051335993142581E-002
   8.3214170612201065E-003  -2.3630077414235895E-003   6.1987984645578420E-002
   6.0608954307275597E-003  -1.8741155655548139E-003   6.3014438585957372E-002
   3.8003738002349782E-003  -1.4047645372038398E-003   6.5130697814279548E-002
   6.3525201126964186E-003  -1.6997077678219397E-003   6.8618078207702146E-002
   5.2020315337991448E-003  -1.4357205323839856E-003   6.7607913572031830E-002
   4.0515429549018512E-003  -1.1815038707019693E-003   6.7728009751609086E-002
   2.9010543760045675E-003  -9.3705778277557508E-004   6.8978366746433664E-002
   1.7505657971072699E-003  -7.0238226860511177E-004   7.1358984556505703E-002
   9.4715901788333667E-015   7.0388139761234925E-014   7.3762791264406824E-002
   1.1685097334179773E-014   4.2049697057677804E-014   7.2905389202335746E-002
   1.3898604489526178E-014   1.9748092050519972E-014   7.3218703482816311E-002
   1.6108642197920631E-014   3.5492442318485473E-015   7.4702734105848531E-002
   1.8325618800218990E-014  -6.4948046940571658E-015   7.7357481071432310E-002
   8.7977164246067219E-003  -2.8095290744012402E-003   5.1984753647928206E-002
   7.2340463989051529E-003  -3.4657444455157838E-003   5.1555968204693714E-002
   5.6703763732036255E-003  -7.2727123772427515E-003   5.2002702034243814E-002
   4.1067063475020635E-003  -1.4230432869581325E-002   5.3324955136578561E-002
   2.5430363218005292E-003  -2.4338905922531850E-002   5.5522727511697845E-002
   6.1494240094014663E-003  -2.1071468058024845E-003   5.8672620844753609E-002
   5.3401228148945712E-003  -2.5993083341405154E-003   5.5665018675432137E-002
   4.5308216203876830E-003  -5.4545342829383364E-003   5.3290634895715561E-002
   3.7215204258807671E-003  -1.0672824652195625E-002   5.1549469505603476E-002
   2.9122192313738859E-003  -1.8254179441912433E-002   5.0441522505096481E-002
   3.8003738002349782E-003  -1.4047645372038398E-003   6.5130697814279548E-002
   3.5031405537429283E-003  -1.7328722227652193E-003   6.0331967059023509E-002
   3.2059073072508888E-003  -3.6363561886339213E-003   5.5924153810192515E-002
   2.9086740607588337E-003  -7.1152164348098693E-003   5.1907258067786566E-002
   2.6114408142667855E-003  -1.2169452961292904E-002   4.8281279831805246E-002
   1.7505657971072699E-003  -7.0238226860511177E-004   7.1358984556505703E-002
   1.7230996154502399E-003  -8.6643611138990939E-004   6.5556813355467647E-002
   1.6956334337931969E-003  -1.8181780943296172E-003   5.9903258777674558E-002
   1.6681672521361795E-003  -3.5576082174241970E-003   5.4398320823126414E-002
   1.6407010704791378E-003  -6.0847264806733747E-003   4.9041999491824029E-002
   1.8325618800218990E-014  -6.4948046940571658E-015   7.7357481071432310E-002
   1.6493750809587482E-014  -1.4599432773820809E-014   7.1339557564764455E-002
   1.4665352265907927E-014  -2.5188184871183239E-014   6.5227949798161849E-002
   1.2824810657896535E-014  -3.8493513931925349E-014   5.9022657771624673E-002
   1.1005085731596864E-014  -5.3956838996782608E-014   5.2723681485152607E-002
  -1.5692308563686197E-013   4.6623815919133449E-013   5.6388867089119332E-002
  -1.3060386105934185E-013   4.0403791423671009E-013   6.2017573816984972E-002
  -1.0430198371658150E-013   3.4489078259980488E-013   6.7243949222345251E-002
  -7.7991432756441270E-014   2.8890084768917745E-013   7.2067993305200251E-002
  -5.1680881796301037E-014   2.3589463715723014E-013   7.6489706065549862E-002
  -9.8136465816718275E-003   3.8264200610225174E-003   5.5010438133054590E-002
  -9.9903663002121057E-003   3.9953497120238796E-003   5.9024314374127598E-002
  -1.0167086018752386E-002   3.9640835819227185E-003   6.3087082500572975E-002
  -1.0343805737292665E-002   3.7326216707191402E-003   6.7198742512390303E-002
  -1.0520525455832951E-002   3.3009639784129796E-003   7.1359294409579804E-002
  -2.1367637363368254E-002   7.6528401215788106E-003   5.3901036718606216E-002
  -2.1269853592597664E-002   7.9906994236437351E-003   5.6099886691781224E-002
  -2.1172069821827077E-002   7.9281671635006157E-003   5.8798851758205775E-002
  -2.1074286051056490E-002   7.4652433411493795E-003   6.1997931917880021E-002
  -2.0976502280285910E-002   6.6019279565900507E-003   6.5697127170803782E-002
  -3.4661972345246220E-002   1.1479260182135104E-002   5.3060662845774147E-002
  -3.3838461877287292E-002   1.1986049135263611E-002   5.3244290769945454E-002
  -3.3014951409328405E-002   1.1892250745078478E-002   5.4379256995243860E-002
  -3.2191440941369470E-002   1.1197865011579653E-002   5.6465561521669275E-002
  -3.1367930473410570E-002   9.9028919347671010E-003   5.9503204349221808E-002
  -4.9696651527305707E-002   1.5305680242691383E-002   5.2489316514558515E-002
  -4.7696191154280990E-002   1.5981398846883432E-002   5.0457526608620518E-002
  -4.5695730781256300E-002   1.5856334326656327E-002   4.9828298211687105E-002
  -4.3695270408231610E-002   1.4930486682009882E-002   5.0601631323758223E-002
  -4.1694810035206906E-002   1.3203855912944179E-002   5.2777525944833786E-002
  -5.1680881796301037E-014   2.3589463715723014E-013   7.6489706065549862E-002
  -3.6397967972945366E-014   1.8707257964933888E-013   7.4207106225075620E-002
  -2.1104645808733835E-014   1.4305917561685533E-013   7.2991753811393653E-002
  -5.8147930914742574E-015   1.0418228779673910E-013   7.2843648824504087E-002
   9.4715901788333667E-015   7.0388139761234925E-014   7.3762791264406824E-002
  -1.0520525455832951E-002   3.3009639784129796E-003   7.1359294409579804E-002
  -9.4785241200444660E-003   2.8020687781161041E-003   6.9148857491977730E-002
  -8.4365227842559832E-003   2.3688943429402073E-003   6.7955175819129646E-002
  -7.3945214484674900E-003   2.0014406728851627E-003   6.7778249391035592E-002
  -6.3525201126790158E-003   1.6997077679511974E-003   6.8618078207695721E-002
  -2.0976502280285910E-002   6.6019279565900507E-003   6.5697127170803782E-002
  -1.8942991790762524E-002   5.6041375560451356E-003   6.3624573941189783E-002
  -1.6909481301239135E-002   4.7377886857371855E-003   6.2518283774291486E-002
  -1.4875970811715763E-002   4.0028813456661422E-003   6.2378256670109003E-002
  -1.2842460322192365E-002   3.3994155358320621E-003   6.3204492628642236E-002
  -3.1367930473410570E-002   9.9028919347671010E-003   5.9503204349221808E-002
  -2.8393403012190579E-002   8.4062063339742227E-003   5.7634255572711894E-002
  -2.5418875550970606E-002   7.1066830285342209E-003   5.6681077676879382E-002
  -2.2444348089750616E-002   6.0043220184470940E-003   5.6643670661724363E-002
  -1.9469820628530636E-002   5.0991233037129824E-003   5.7522034527246774E-002
  -4.1694810035206906E-002   1.3203855912944179E-002   5.2777525944833786E-002
  -3.7829757784328621E-002   1.1208275111903185E-002   5.1177902386543905E-002
  -3.3964705533450351E-002   9.4755773713312771E-003   5.0443557526893182E-002
  -3.0099653282572077E-002   8.0057626912280518E-003   5.0574491365881595E-002
  -2.6234601031693797E-002   6.7988310715937916E-003   5.1570703903509096E-002
   9.4715901788333667E-015   7.0388139761234925E-014   7.3762791264406824E-002
   1.1685097334179773E-014   4.2049697057677804E-014   7.2905389202335746E-002
   1.3898604489526178E-014   1.9748092050519972E-014   7.3218703482816311E-002
   1.6108642197920631E-014   3.5492442318485473E-015   7.4702734105848531E-002
   1.8325618800218990E-014  -6.4948046940571658E-015   7.7357481071432310E-002
  -6.3525201126790158E-003   1.6997077679511974E-003   6.8618078207695721E-002
  -5.2020315337772960E-003   1.4357205324611044E-003   6.7607913572034134E-002
  -4.0515429548755883E-003   1.1815038707382181E-003   6.7728009751619925E-002
  -2.9010543759738754E-003   9.3705778278227111E-004   6.8978366746453079E-002
  -1.7505657970721608E-003   7.0238226859337116E-004   7.1358984556533778E-002
  -1.2842460322192365E-002   3.3994155358320621E-003   6.3204492628642236E-002
  -1.0581938691695405E-002   2.8714410648803951E-003   6.2051335993151213E-002
  -8.3214170611984380E-003   2.3630077414567505E-003   6.1987984645603310E-002
  -6.0608954307014651E-003   1.8741155655609392E-003   6.3014438585998547E-002
  -3.8003738002044974E-003   1.4047645371931539E-003   6.5130697814336960E-002
  -1.9469820628530636E-002   5.0991233037129824E-003   5.7522034527246774E-002
  -1.6139721473742659E-002   4.3071615972996510E-003   5.6235656465687150E-002
  -1.2809622318954661E-002   3.5445116121752239E-003   5.5998628164766320E-002
  -9.4795231641666752E-003   2.8111733483396064E-003   5.6810949624484443E-002
  -6.1494240093786824E-003   2.1071468057928949E-003   5.8672620844841455E-002
  -2.6234601031693797E-002   6.7988310715937916E-003   5.1570703903509096E-002
  -2.1875379879919027E-002   5.7428821297186849E-003   5.0160874989641807E-002
  -1.7516158728144257E-002   4.7260154828937528E-003   4.9759940309109074E-002
  -1.3156937576369487E-002   3.7482311311182737E-003   5.0367899861911106E-002
  -8.7977164245947176E-003   2.8095290743927470E-003   5.1984753648047777E-002
   1.8325618800218990E-014  -6.4948046940571658E-015   7.7357481071432310E-002
   1.6493750809587482E-014  -1.4599432773820809E-014   7.1339557564764455E-002
   1.4665352265907927E-014  -2.5188184871183239E-014   6.5227949798161849E-002
   1.2824810657896535E-014  -3.8493513931925349E-014   5.9022657771624673E-002
   1.1005085731596864E-014  -5.3956838996782608E-014   5.2723681485152607E-002
  -1.7505657970721608E-003   7.0238226859337116E-004   7.1358984556533778E-002
  -1.7230996154185794E-003   8.6643611136347221E-004   6.5556813355488547E-002
  -1.6956334337649842E-003   1.8181780942844589E-003   5.9903258777688734E-002
  -1.6681672521113950E-003   3.5576082173564526E-003   5.4398320823134616E-002
  -1.6407010704578215E-003   6.0847264805795609E-003   4.9041999491825861E-002
  -3.8003738002044974E-003   1.4047645371931539E-003   6.5130697814336960E-002
  -3.5031405537152543E-003   1.7328722227414606E-003   6.0331967059067695E-002
  -3.2059073072260328E-003   3.6363561885943210E-003   5.5924153810223996E-002
  -2.9086740607367763E-003   7.1152164347515080E-003   5.1907258067806286E-002
  -2.6114408142475544E-003   1.2169452961213079E-002   4.8281279831814072E-002
  -6.1494240093786824E-003   2.1071468057928949E-003   5.8672620844841455E-002
  -5.3401228148735533E-003   2.5993083341195183E-003   5.5665018675501596E-002
  -4.5308216203684094E-003   5.4545342829041867E-003   5.3290634895767755E-002
  -3.7215204258632655E-003   1.0672824652146452E-002   5.1549469505639683E-002
  -2.9122192313581355E-003   1.8254179441846596E-002   5.0441522505117936E-002
  -8.7977164245947176E-003   2.8095290743927470E-003   5.1984753648047777E-002
  -7.2340463988934400E-003   3.4657444454975761E-003   5.1555968204790581E-002
  -5.6703763731921694E-003   7.2727123772140106E-003   5.2002702034319781E-002
  -4.1067063474909092E-003   1.4230432869541360E-002   5.3324955136635308E-002
  -2.5430363217896212E-003   2.4338905922480114E-002   5.5522727511736925E-002
  -4.9696651527305707E-002   1.5305680242691383E-002   5.2489316514558515E-002
  -4.7696191154280990E-002   1.5981398846883432E-002   5.0457526608620518E-002
  -4.5695730781256300E-002   1.5856334326656327E-002   4.9828298211687105E-002
  -4.3695270408231610E-002   1.4930486682009882E-002   5.0601631323758223E-002
  -4.1694810035206906E-002   1.3203855912944179E-002   5.2777525944833786E-002
  -6.1267159014199921E-002   9.8359081121303094E-003   1.8690339465953693E-002
  -5.8744741474383508E-002   1.3820874560153296E-002   2.3179008858149941E-002
  -5.6222323934567088E-002   1.6071376232265441E-002   2.7309031074925230E-002
  -5.3699906394750654E-002   1.6587413128466722E-002   3.1080406116279297E-002
  -5.1177488854934269E-002   1.5368985248757239E-002   3.4493133982212321E-002
  -6.4168978910582014E-002   4.3661359815692774E-003  -1.1332548913074530E-002
  -6.2885812888399492E-002   1.1660350273423076E-002  -1.2571018742354723E-003
  -6.1602646866216998E-002   1.6286418137874646E-002   6.6984893047567426E-003
  -6.0319480844034434E-002   1.8244339574923649E-002   1.2534224623902312E-002
  -5.9036314821851954E-002   1.7534114584570312E-002   1.6250104083201211E-002
  -5.8402111216452009E-002  -1.1036361489917962E-003  -3.7579348622526029E-002
  -6.0119405396329012E-002   9.4998259866929669E-003  -2.2850805588535868E-002
  -6.1836699576206015E-002   1.6501460043483736E-002  -1.2003327098818064E-002
  -6.3553993756082977E-002   1.9901266021380502E-002  -5.0369131533726207E-003
  -6.5271287935959973E-002   1.9699243920383407E-002  -1.9515637521993669E-003
  -4.3966555931809870E-002  -6.5734082795528281E-003  -6.0050059662400845E-002
  -5.0445518998172012E-002   7.3393016999626637E-003  -4.1602102284751197E-002
  -5.6924482064534099E-002   1.6716501949092952E-002  -2.8796418135799445E-002
  -6.3403445130896185E-002   2.1558192467837436E-002  -2.1633007215545556E-002
  -6.9882408197258328E-002   2.1864373256196501E-002  -2.0111869523989689E-002
  -4.1694810035206906E-002   1.3203855912944179E-002   5.2777525944833786E-002
  -3.7829757784328621E-002   1.1208275111903185E-002   5.1177902386543905E-002
  -3.3964705533450351E-002   9.4755773713312771E-003   5.0443557526893182E-002
  -3.0099653282572077E-002   8.0057626912280518E-003   5.0574491365881595E-002
  -2.6234601031693797E-002   6.7988310715937916E-003   5.1570703903509096E-002
  -5.1177488854934269E-002   1.5368985248757239E-002   3.4493133982212321E-002
  -4.6561849683727910E-002   1.3403917676499441E-002   3.4654705724062568E-002
  -4.1946210512521523E-002   1.1680035495055932E-002   3.5452172607929912E-002
  -3.7330571341315164E-002   1.0197338704426521E-002   3.6885534633814207E-002
  -3.2714932170108804E-002   8.9558273046115300E-003   3.8954791801715571E-002
  -5.9036314821851954E-002   1.7534114584570312E-002   1.6250104083201211E-002
  -5.3899472286939608E-002   1.5599560241095510E-002   1.8151173455537011E-002
  -4.8762629752027296E-002   1.3884493618780563E-002   2.0458754413267801E-002
  -4.3625787217114971E-002   1.2388914717625075E-002   2.3172846956393385E-002
  -3.8488944682202639E-002   1.1112823537629241E-002   2.6293451084913877E-002
  -6.5271287935959973E-002   1.9699243920383407E-002  -1.9515637521993669E-003
  -5.9842625593963812E-002   1.7795202805691645E-002   1.6673055809673029E-003
  -5.4413963251967623E-002   1.6088951742505207E-002   5.4633029429067689E-003
  -4.8985300909971441E-002   1.4580490730823447E-002   9.4364283336190891E-003
  -4.3556638567975273E-002   1.3269819770646910E-002   1.3586681753104089E-002
  -6.9882408197258328E-002   2.1864373256196501E-002  -2.0111869523989689E-002
  -6.4391309604800440E-002   1.9990845370287891E-002  -1.4796897899646735E-002
  -5.8900211012342552E-002   1.8293409866229793E-002  -9.5341818031530745E-003
  -5.3409112419884663E-002   1.6772066744022027E-002  -4.3237212345088177E-003
  -4.7918013827426775E-002   1.5426816003664579E-002   8.3448380628620145E-004
  -2.6234601031693797E-002   6.7988310715937916E-003   5.1570703903509096E-002
  -2.1875379879919027E-002   5.7428821297186849E-003   5.0160874989641807E-002
  -1.7516158728144257E-002   4.7260154828937528E-003   4.9759940309109074E-002
  -1.3156937576369487E-002   3.7482311311182737E-003   5.0367899861911106E-002
  -8.7977164245947176E-003   2.8095290743927470E-003   5.1984753648047777E-002
  -3.2714932170108804E-002   8.9558273046115300E-003   3.8954791801715571E-002
  -2.7613286061915203E-002   7.7988652937839437E-003   3.7968310078358894E-002
  -2.2511639953721581E-002   6.5698166701173011E-003   3.7457784034505295E-002
  -1.7409993845527990E-002   5.2686814336117133E-003   3.7423213670154720E-002
  -1.2308347737334392E-002   3.8954595842669582E-003   3.7864598985307085E-002
  -3.8488944682202639E-002   1.1112823537629241E-002   2.6293451084913877E-002
  -3.3177812171421864E-002   9.8548484578490914E-003   2.5619147644179094E-002
  -2.7866679660641068E-002   8.4136178573410159E-003   2.4887861329115614E-002
  -2.2555547149860303E-002   6.7891317361050418E-003   2.4099592139723541E-002
  -1.7244414639079508E-002   4.9813900941410860E-003   2.3254340076002841E-002
  -4.3556638567975273E-002   1.3269819770646910E-002   1.3586681753104089E-002
  -3.8568958208438961E-002   1.1910831621914184E-002   1.3113387687102237E-002
  -3.3581277848902656E-002   1.0257419044564675E-002   1.2050172192940224E-002
  -2.8593597489366355E-002   8.3095820385982871E-003   1.0397035270617673E-002
  -2.3605917129830026E-002   6.0673206040152000E-003   8.1539769201348956E-003
  -4.7918013827426775E-002   1.5426816003664579E-002   8.3448380628620145E-004
  -4.3786724172966585E-002   1.3966814785979498E-002   4.5103020712833342E-004
  -3.9655434518506394E-002   1.2101220231788251E-002  -1.0552833740212209E-003
  -3.5524144864046231E-002   9.8300323410920806E-003  -3.6844569371631414E-003
  -3.1392855209586012E-002   7.1532511138895361E-003  -7.4364904822966094E-003
  -8.7977164245947176E-003   2.8095290743927470E-003   5.1984753648047777E-002
  -7.2340463988934400E-003   3.4657444454975761E-003   5.1555968204790581E-002
  -5.6703763731921694E-003   7.2727123772140106E-003   5.2002702034319781E-002
  -4.1067063474909092E-003   1.4230432869541360E-002   5.3324955136635308E-002
  -2.5430363217896212E-003   2.4338905922480114E-002   5.5522727511736925E-002
  -1.2308347737334392E-002   3.8954595842669582E-003   3.7864598985307085E-002
  -9.8326427822591975E-003   3.9306601811970598E-003   3.9066735642632411E-002
  -7.3569378271839923E-003   6.8547922835163755E-003   4.1217422885919369E-002
  -4.8812328721087803E-003   1.2667855891224641E-002   4.4316660715167627E-002
  -2.4055279170336410E-003   2.1369851004321871E-002   4.8364449130377851E-002
  -1.7244414639079508E-002   4.9813900941410860E-003   2.3254340076002841E-002
  -1.3783643441455006E-002   4.3955759168964603E-003   2.5825577778688269E-002
  -1.0322872243830524E-002   6.4368721898190109E-003   2.9418397380510698E-002
  -6.8621010462059781E-003   1.1105278912907949E-002   3.4032798881469900E-002
  -3.4013298485815122E-003   1.8400796086163740E-002   3.9668782281566284E-002
  -2.3605917129830026E-002   6.0673206040152000E-003   8.1539769201348956E-003
  -1.9087048376480925E-002   4.8604916525961245E-003   1.1832494612958384E-002
  -1.4568179623131800E-002   6.0189520961213445E-003   1.6605625518094108E-002
  -1.0049310869782632E-002   9.5427019345911308E-003   2.2473369635541935E-002
  -5.5304421164335728E-003   1.5431741168005553E-002   2.9435726965302486E-002
  -3.1392855209586012E-002   7.1532511138895361E-003  -7.4364904822966094E-003
  -2.5742857587336909E-002   5.3254073882953445E-003  -2.9125138545574580E-003
  -2.0092859965087750E-002   5.6010320024238724E-003   2.7791072986690507E-003
  -1.4442862342838592E-002   7.9801249562746132E-003   9.6383729773835171E-003
  -8.7928647205894883E-003   1.2462686249847366E-002   1.7665283181585556E-002
 </DataArray>
 </PointData>
 </Piece>
 </UnstructuredGrid>
 </VTKFile>
