 <VTKFile type="UnstructuredGrid"  version="0.1"   >
 <UnstructuredGrid>
 <Piece  NumberOfPoints="          1600 "  NumberOfCells="         1024 ">
 <Points>
 <DataArray  type="Float64" NumberOfComponents="3"  format="ascii" >
   0.0000000000000000        0.0000000000000000        0.0000000000000000     
   3.1250000000000000E-002   0.0000000000000000        0.0000000000000000     
   6.2500000000000000E-002   0.0000000000000000        0.0000000000000000     
   9.3750000000000000E-002   0.0000000000000000        0.0000000000000000     
  0.12500000000000000        0.0000000000000000        0.0000000000000000     
   0.0000000000000000        3.1250000000000000E-002   0.0000000000000000     
   3.1250000000000000E-002   3.1250000000000000E-002   0.0000000000000000     
   6.2500000000000000E-002   3.1250000000000000E-002   0.0000000000000000     
   9.3750000000000000E-002   3.1250000000000000E-002   0.0000000000000000     
  0.12500000000000000        3.1250000000000000E-002   0.0000000000000000     
   0.0000000000000000        6.2500000000000000E-002   0.0000000000000000     
   3.1250000000000000E-002   6.2500000000000000E-002   0.0000000000000000     
   6.2500000000000000E-002   6.2500000000000000E-002   0.0000000000000000     
   9.3750000000000000E-002   6.2500000000000000E-002   0.0000000000000000     
  0.12500000000000000        6.2500000000000000E-002   0.0000000000000000     
   0.0000000000000000        9.3750000000000000E-002   0.0000000000000000     
   3.1250000000000000E-002   9.3750000000000000E-002   0.0000000000000000     
   6.2500000000000000E-002   9.3750000000000000E-002   0.0000000000000000     
   9.3750000000000000E-002   9.3750000000000000E-002   0.0000000000000000     
  0.12500000000000000        9.3750000000000000E-002   0.0000000000000000     
   0.0000000000000000       0.12500000000000000        0.0000000000000000     
   3.1250000000000000E-002  0.12500000000000000        0.0000000000000000     
   6.2500000000000000E-002  0.12500000000000000        0.0000000000000000     
   9.3750000000000000E-002  0.12500000000000000        0.0000000000000000     
  0.12500000000000000       0.12500000000000000        0.0000000000000000     
  0.12500000000000000        0.0000000000000000        0.0000000000000000     
  0.15625000000000000        0.0000000000000000        0.0000000000000000     
  0.18750000000000000        0.0000000000000000        0.0000000000000000     
  0.21875000000000000        0.0000000000000000        0.0000000000000000     
  0.25000000000000000        0.0000000000000000        0.0000000000000000     
  0.12500000000000000        3.1250000000000000E-002   0.0000000000000000     
  0.15625000000000000        3.1250000000000000E-002   0.0000000000000000     
  0.18750000000000000        3.1250000000000000E-002   0.0000000000000000     
  0.21875000000000000        3.1250000000000000E-002   0.0000000000000000     
  0.25000000000000000        3.1250000000000000E-002   0.0000000000000000     
  0.12500000000000000        6.2500000000000000E-002   0.0000000000000000     
  0.15625000000000000        6.2500000000000000E-002   0.0000000000000000     
  0.18750000000000000        6.2500000000000000E-002   0.0000000000000000     
  0.21875000000000000        6.2500000000000000E-002   0.0000000000000000     
  0.25000000000000000        6.2500000000000000E-002   0.0000000000000000     
  0.12500000000000000        9.3750000000000000E-002   0.0000000000000000     
  0.15625000000000000        9.3750000000000000E-002   0.0000000000000000     
  0.18750000000000000        9.3750000000000000E-002   0.0000000000000000     
  0.21875000000000000        9.3750000000000000E-002   0.0000000000000000     
  0.25000000000000000        9.3750000000000000E-002   0.0000000000000000     
  0.12500000000000000       0.12500000000000000        0.0000000000000000     
  0.15625000000000000       0.12500000000000000        0.0000000000000000     
  0.18750000000000000       0.12500000000000000        0.0000000000000000     
  0.21875000000000000       0.12500000000000000        0.0000000000000000     
  0.25000000000000000       0.12500000000000000        0.0000000000000000     
  0.25000000000000000        0.0000000000000000        0.0000000000000000     
  0.28125000000000000        0.0000000000000000        0.0000000000000000     
  0.31250000000000000        0.0000000000000000        0.0000000000000000     
  0.34375000000000000        0.0000000000000000        0.0000000000000000     
  0.37500000000000000        0.0000000000000000        0.0000000000000000     
  0.25000000000000000        3.1250000000000000E-002   0.0000000000000000     
  0.28125000000000000        3.1250000000000000E-002   0.0000000000000000     
  0.31250000000000000        3.1250000000000000E-002   0.0000000000000000     
  0.34375000000000000        3.1250000000000000E-002   0.0000000000000000     
  0.37500000000000000        3.1250000000000000E-002   0.0000000000000000     
  0.25000000000000000        6.2500000000000000E-002   0.0000000000000000     
  0.28125000000000000        6.2500000000000000E-002   0.0000000000000000     
  0.31250000000000000        6.2500000000000000E-002   0.0000000000000000     
  0.34375000000000000        6.2500000000000000E-002   0.0000000000000000     
  0.37500000000000000        6.2500000000000000E-002   0.0000000000000000     
  0.25000000000000000        9.3750000000000000E-002   0.0000000000000000     
  0.28125000000000000        9.3750000000000000E-002   0.0000000000000000     
  0.31250000000000000        9.3750000000000000E-002   0.0000000000000000     
  0.34375000000000000        9.3750000000000000E-002   0.0000000000000000     
  0.37500000000000000        9.3750000000000000E-002   0.0000000000000000     
  0.25000000000000000       0.12500000000000000        0.0000000000000000     
  0.28125000000000000       0.12500000000000000        0.0000000000000000     
  0.31250000000000000       0.12500000000000000        0.0000000000000000     
  0.34375000000000000       0.12500000000000000        0.0000000000000000     
  0.37500000000000000       0.12500000000000000        0.0000000000000000     
  0.37500000000000000        0.0000000000000000        0.0000000000000000     
  0.40625000000000000        0.0000000000000000        0.0000000000000000     
  0.43750000000000000        0.0000000000000000        0.0000000000000000     
  0.46875000000000000        0.0000000000000000        0.0000000000000000     
  0.50000000000000000        0.0000000000000000        0.0000000000000000     
  0.37500000000000000        3.1250000000000000E-002   0.0000000000000000     
  0.40625000000000000        3.1250000000000000E-002   0.0000000000000000     
  0.43750000000000000        3.1250000000000000E-002   0.0000000000000000     
  0.46875000000000000        3.1250000000000000E-002   0.0000000000000000     
  0.50000000000000000        3.1250000000000000E-002   0.0000000000000000     
  0.37500000000000000        6.2500000000000000E-002   0.0000000000000000     
  0.40625000000000000        6.2500000000000000E-002   0.0000000000000000     
  0.43750000000000000        6.2500000000000000E-002   0.0000000000000000     
  0.46875000000000000        6.2500000000000000E-002   0.0000000000000000     
  0.50000000000000000        6.2500000000000000E-002   0.0000000000000000     
  0.37500000000000000        9.3750000000000000E-002   0.0000000000000000     
  0.40625000000000000        9.3750000000000000E-002   0.0000000000000000     
  0.43750000000000000        9.3750000000000000E-002   0.0000000000000000     
  0.46875000000000000        9.3750000000000000E-002   0.0000000000000000     
  0.50000000000000000        9.3750000000000000E-002   0.0000000000000000     
  0.37500000000000000       0.12500000000000000        0.0000000000000000     
  0.40625000000000000       0.12500000000000000        0.0000000000000000     
  0.43750000000000000       0.12500000000000000        0.0000000000000000     
  0.46875000000000000       0.12500000000000000        0.0000000000000000     
  0.50000000000000000       0.12500000000000000        0.0000000000000000     
  0.50000000000000000        0.0000000000000000        0.0000000000000000     
  0.53125000000000000        0.0000000000000000        0.0000000000000000     
  0.56250000000000000        0.0000000000000000        0.0000000000000000     
  0.59375000000000000        0.0000000000000000        0.0000000000000000     
  0.62500000000000000        0.0000000000000000        0.0000000000000000     
  0.50000000000000000        3.1250000000000000E-002   0.0000000000000000     
  0.53125000000000000        3.1250000000000000E-002   0.0000000000000000     
  0.56250000000000000        3.1250000000000000E-002   0.0000000000000000     
  0.59375000000000000        3.1250000000000000E-002   0.0000000000000000     
  0.62500000000000000        3.1250000000000000E-002   0.0000000000000000     
  0.50000000000000000        6.2500000000000000E-002   0.0000000000000000     
  0.53125000000000000        6.2500000000000000E-002   0.0000000000000000     
  0.56250000000000000        6.2500000000000000E-002   0.0000000000000000     
  0.59375000000000000        6.2500000000000000E-002   0.0000000000000000     
  0.62500000000000000        6.2500000000000000E-002   0.0000000000000000     
  0.50000000000000000        9.3750000000000000E-002   0.0000000000000000     
  0.53125000000000000        9.3750000000000000E-002   0.0000000000000000     
  0.56250000000000000        9.3750000000000000E-002   0.0000000000000000     
  0.59375000000000000        9.3750000000000000E-002   0.0000000000000000     
  0.62500000000000000        9.3750000000000000E-002   0.0000000000000000     
  0.50000000000000000       0.12500000000000000        0.0000000000000000     
  0.53125000000000000       0.12500000000000000        0.0000000000000000     
  0.56250000000000000       0.12500000000000000        0.0000000000000000     
  0.59375000000000000       0.12500000000000000        0.0000000000000000     
  0.62500000000000000       0.12500000000000000        0.0000000000000000     
  0.62500000000000000        0.0000000000000000        0.0000000000000000     
  0.65625000000000000        0.0000000000000000        0.0000000000000000     
  0.68750000000000000        0.0000000000000000        0.0000000000000000     
  0.71875000000000000        0.0000000000000000        0.0000000000000000     
  0.75000000000000000        0.0000000000000000        0.0000000000000000     
  0.62500000000000000        3.1250000000000000E-002   0.0000000000000000     
  0.65625000000000000        3.1250000000000000E-002   0.0000000000000000     
  0.68750000000000000        3.1250000000000000E-002   0.0000000000000000     
  0.71875000000000000        3.1250000000000000E-002   0.0000000000000000     
  0.75000000000000000        3.1250000000000000E-002   0.0000000000000000     
  0.62500000000000000        6.2500000000000000E-002   0.0000000000000000     
  0.65625000000000000        6.2500000000000000E-002   0.0000000000000000     
  0.68750000000000000        6.2500000000000000E-002   0.0000000000000000     
  0.71875000000000000        6.2500000000000000E-002   0.0000000000000000     
  0.75000000000000000        6.2500000000000000E-002   0.0000000000000000     
  0.62500000000000000        9.3750000000000000E-002   0.0000000000000000     
  0.65625000000000000        9.3750000000000000E-002   0.0000000000000000     
  0.68750000000000000        9.3750000000000000E-002   0.0000000000000000     
  0.71875000000000000        9.3750000000000000E-002   0.0000000000000000     
  0.75000000000000000        9.3750000000000000E-002   0.0000000000000000     
  0.62500000000000000       0.12500000000000000        0.0000000000000000     
  0.65625000000000000       0.12500000000000000        0.0000000000000000     
  0.68750000000000000       0.12500000000000000        0.0000000000000000     
  0.71875000000000000       0.12500000000000000        0.0000000000000000     
  0.75000000000000000       0.12500000000000000        0.0000000000000000     
  0.75000000000000000        0.0000000000000000        0.0000000000000000     
  0.78125000000000000        0.0000000000000000        0.0000000000000000     
  0.81250000000000000        0.0000000000000000        0.0000000000000000     
  0.84375000000000000        0.0000000000000000        0.0000000000000000     
  0.87500000000000000        0.0000000000000000        0.0000000000000000     
  0.75000000000000000        3.1250000000000000E-002   0.0000000000000000     
  0.78125000000000000        3.1250000000000000E-002   0.0000000000000000     
  0.81250000000000000        3.1250000000000000E-002   0.0000000000000000     
  0.84375000000000000        3.1250000000000000E-002   0.0000000000000000     
  0.87500000000000000        3.1250000000000000E-002   0.0000000000000000     
  0.75000000000000000        6.2500000000000000E-002   0.0000000000000000     
  0.78125000000000000        6.2500000000000000E-002   0.0000000000000000     
  0.81250000000000000        6.2500000000000000E-002   0.0000000000000000     
  0.84375000000000000        6.2500000000000000E-002   0.0000000000000000     
  0.87500000000000000        6.2500000000000000E-002   0.0000000000000000     
  0.75000000000000000        9.3750000000000000E-002   0.0000000000000000     
  0.78125000000000000        9.3750000000000000E-002   0.0000000000000000     
  0.81250000000000000        9.3750000000000000E-002   0.0000000000000000     
  0.84375000000000000        9.3750000000000000E-002   0.0000000000000000     
  0.87500000000000000        9.3750000000000000E-002   0.0000000000000000     
  0.75000000000000000       0.12500000000000000        0.0000000000000000     
  0.78125000000000000       0.12500000000000000        0.0000000000000000     
  0.81250000000000000       0.12500000000000000        0.0000000000000000     
  0.84375000000000000       0.12500000000000000        0.0000000000000000     
  0.87500000000000000       0.12500000000000000        0.0000000000000000     
  0.87500000000000000        0.0000000000000000        0.0000000000000000     
  0.90625000000000000        0.0000000000000000        0.0000000000000000     
  0.93750000000000000        0.0000000000000000        0.0000000000000000     
  0.96875000000000000        0.0000000000000000        0.0000000000000000     
   1.0000000000000000        0.0000000000000000        0.0000000000000000     
  0.87500000000000000        3.1250000000000000E-002   0.0000000000000000     
  0.90625000000000000        3.1250000000000000E-002   0.0000000000000000     
  0.93750000000000000        3.1250000000000000E-002   0.0000000000000000     
  0.96875000000000000        3.1250000000000000E-002   0.0000000000000000     
   1.0000000000000000        3.1250000000000000E-002   0.0000000000000000     
  0.87500000000000000        6.2500000000000000E-002   0.0000000000000000     
  0.90625000000000000        6.2500000000000000E-002   0.0000000000000000     
  0.93750000000000000        6.2500000000000000E-002   0.0000000000000000     
  0.96875000000000000        6.2500000000000000E-002   0.0000000000000000     
   1.0000000000000000        6.2500000000000000E-002   0.0000000000000000     
  0.87500000000000000        9.3750000000000000E-002   0.0000000000000000     
  0.90625000000000000        9.3750000000000000E-002   0.0000000000000000     
  0.93750000000000000        9.3750000000000000E-002   0.0000000000000000     
  0.96875000000000000        9.3750000000000000E-002   0.0000000000000000     
   1.0000000000000000        9.3750000000000000E-002   0.0000000000000000     
  0.87500000000000000       0.12500000000000000        0.0000000000000000     
  0.90625000000000000       0.12500000000000000        0.0000000000000000     
  0.93750000000000000       0.12500000000000000        0.0000000000000000     
  0.96875000000000000       0.12500000000000000        0.0000000000000000     
   1.0000000000000000       0.12500000000000000        0.0000000000000000     
   0.0000000000000000       0.12500000000000000        0.0000000000000000     
   3.1250000000000000E-002  0.12500000000000000        0.0000000000000000     
   6.2500000000000000E-002  0.12500000000000000        0.0000000000000000     
   9.3750000000000000E-002  0.12500000000000000        0.0000000000000000     
  0.12500000000000000       0.12500000000000000        0.0000000000000000     
   0.0000000000000000       0.15625000000000000        0.0000000000000000     
   3.1250000000000000E-002  0.15625000000000000        0.0000000000000000     
   6.2500000000000000E-002  0.15625000000000000        0.0000000000000000     
   9.3750000000000000E-002  0.15625000000000000        0.0000000000000000     
  0.12500000000000000       0.15625000000000000        0.0000000000000000     
   0.0000000000000000       0.18750000000000000        0.0000000000000000     
   3.1250000000000000E-002  0.18750000000000000        0.0000000000000000     
   6.2500000000000000E-002  0.18750000000000000        0.0000000000000000     
   9.3750000000000000E-002  0.18750000000000000        0.0000000000000000     
  0.12500000000000000       0.18750000000000000        0.0000000000000000     
   0.0000000000000000       0.21875000000000000        0.0000000000000000     
   3.1250000000000000E-002  0.21875000000000000        0.0000000000000000     
   6.2500000000000000E-002  0.21875000000000000        0.0000000000000000     
   9.3750000000000000E-002  0.21875000000000000        0.0000000000000000     
  0.12500000000000000       0.21875000000000000        0.0000000000000000     
   0.0000000000000000       0.25000000000000000        0.0000000000000000     
   3.1250000000000000E-002  0.25000000000000000        0.0000000000000000     
   6.2500000000000000E-002  0.25000000000000000        0.0000000000000000     
   9.3750000000000000E-002  0.25000000000000000        0.0000000000000000     
  0.12500000000000000       0.25000000000000000        0.0000000000000000     
  0.12500000000000000       0.12500000000000000        0.0000000000000000     
  0.15625000000000000       0.12500000000000000        0.0000000000000000     
  0.18750000000000000       0.12500000000000000        0.0000000000000000     
  0.21875000000000000       0.12500000000000000        0.0000000000000000     
  0.25000000000000000       0.12500000000000000        0.0000000000000000     
  0.12500000000000000       0.15625000000000000        0.0000000000000000     
  0.15625000000000000       0.15625000000000000        0.0000000000000000     
  0.18750000000000000       0.15625000000000000        0.0000000000000000     
  0.21875000000000000       0.15625000000000000        0.0000000000000000     
  0.25000000000000000       0.15625000000000000        0.0000000000000000     
  0.12500000000000000       0.18750000000000000        0.0000000000000000     
  0.15625000000000000       0.18750000000000000        0.0000000000000000     
  0.18750000000000000       0.18750000000000000        0.0000000000000000     
  0.21875000000000000       0.18750000000000000        0.0000000000000000     
  0.25000000000000000       0.18750000000000000        0.0000000000000000     
  0.12500000000000000       0.21875000000000000        0.0000000000000000     
  0.15625000000000000       0.21875000000000000        0.0000000000000000     
  0.18750000000000000       0.21875000000000000        0.0000000000000000     
  0.21875000000000000       0.21875000000000000        0.0000000000000000     
  0.25000000000000000       0.21875000000000000        0.0000000000000000     
  0.12500000000000000       0.25000000000000000        0.0000000000000000     
  0.15625000000000000       0.25000000000000000        0.0000000000000000     
  0.18750000000000000       0.25000000000000000        0.0000000000000000     
  0.21875000000000000       0.25000000000000000        0.0000000000000000     
  0.25000000000000000       0.25000000000000000        0.0000000000000000     
  0.25000000000000000       0.12500000000000000        0.0000000000000000     
  0.28125000000000000       0.12500000000000000        0.0000000000000000     
  0.31250000000000000       0.12500000000000000        0.0000000000000000     
  0.34375000000000000       0.12500000000000000        0.0000000000000000     
  0.37500000000000000       0.12500000000000000        0.0000000000000000     
  0.25000000000000000       0.15625000000000000        0.0000000000000000     
  0.28125000000000000       0.15625000000000000        0.0000000000000000     
  0.31250000000000000       0.15625000000000000        0.0000000000000000     
  0.34375000000000000       0.15625000000000000        0.0000000000000000     
  0.37500000000000000       0.15625000000000000        0.0000000000000000     
  0.25000000000000000       0.18750000000000000        0.0000000000000000     
  0.28125000000000000       0.18750000000000000        0.0000000000000000     
  0.31250000000000000       0.18750000000000000        0.0000000000000000     
  0.34375000000000000       0.18750000000000000        0.0000000000000000     
  0.37500000000000000       0.18750000000000000        0.0000000000000000     
  0.25000000000000000       0.21875000000000000        0.0000000000000000     
  0.28125000000000000       0.21875000000000000        0.0000000000000000     
  0.31250000000000000       0.21875000000000000        0.0000000000000000     
  0.34375000000000000       0.21875000000000000        0.0000000000000000     
  0.37500000000000000       0.21875000000000000        0.0000000000000000     
  0.25000000000000000       0.25000000000000000        0.0000000000000000     
  0.28125000000000000       0.25000000000000000        0.0000000000000000     
  0.31250000000000000       0.25000000000000000        0.0000000000000000     
  0.34375000000000000       0.25000000000000000        0.0000000000000000     
  0.37500000000000000       0.25000000000000000        0.0000000000000000     
  0.37500000000000000       0.12500000000000000        0.0000000000000000     
  0.40625000000000000       0.12500000000000000        0.0000000000000000     
  0.43750000000000000       0.12500000000000000        0.0000000000000000     
  0.46875000000000000       0.12500000000000000        0.0000000000000000     
  0.50000000000000000       0.12500000000000000        0.0000000000000000     
  0.37500000000000000       0.15625000000000000        0.0000000000000000     
  0.40625000000000000       0.15625000000000000        0.0000000000000000     
  0.43750000000000000       0.15625000000000000        0.0000000000000000     
  0.46875000000000000       0.15625000000000000        0.0000000000000000     
  0.50000000000000000       0.15625000000000000        0.0000000000000000     
  0.37500000000000000       0.18750000000000000        0.0000000000000000     
  0.40625000000000000       0.18750000000000000        0.0000000000000000     
  0.43750000000000000       0.18750000000000000        0.0000000000000000     
  0.46875000000000000       0.18750000000000000        0.0000000000000000     
  0.50000000000000000       0.18750000000000000        0.0000000000000000     
  0.37500000000000000       0.21875000000000000        0.0000000000000000     
  0.40625000000000000       0.21875000000000000        0.0000000000000000     
  0.43750000000000000       0.21875000000000000        0.0000000000000000     
  0.46875000000000000       0.21875000000000000        0.0000000000000000     
  0.50000000000000000       0.21875000000000000        0.0000000000000000     
  0.37500000000000000       0.25000000000000000        0.0000000000000000     
  0.40625000000000000       0.25000000000000000        0.0000000000000000     
  0.43750000000000000       0.25000000000000000        0.0000000000000000     
  0.46875000000000000       0.25000000000000000        0.0000000000000000     
  0.50000000000000000       0.25000000000000000        0.0000000000000000     
  0.50000000000000000       0.12500000000000000        0.0000000000000000     
  0.53125000000000000       0.12500000000000000        0.0000000000000000     
  0.56250000000000000       0.12500000000000000        0.0000000000000000     
  0.59375000000000000       0.12500000000000000        0.0000000000000000     
  0.62500000000000000       0.12500000000000000        0.0000000000000000     
  0.50000000000000000       0.15625000000000000        0.0000000000000000     
  0.53125000000000000       0.15625000000000000        0.0000000000000000     
  0.56250000000000000       0.15625000000000000        0.0000000000000000     
  0.59375000000000000       0.15625000000000000        0.0000000000000000     
  0.62500000000000000       0.15625000000000000        0.0000000000000000     
  0.50000000000000000       0.18750000000000000        0.0000000000000000     
  0.53125000000000000       0.18750000000000000        0.0000000000000000     
  0.56250000000000000       0.18750000000000000        0.0000000000000000     
  0.59375000000000000       0.18750000000000000        0.0000000000000000     
  0.62500000000000000       0.18750000000000000        0.0000000000000000     
  0.50000000000000000       0.21875000000000000        0.0000000000000000     
  0.53125000000000000       0.21875000000000000        0.0000000000000000     
  0.56250000000000000       0.21875000000000000        0.0000000000000000     
  0.59375000000000000       0.21875000000000000        0.0000000000000000     
  0.62500000000000000       0.21875000000000000        0.0000000000000000     
  0.50000000000000000       0.25000000000000000        0.0000000000000000     
  0.53125000000000000       0.25000000000000000        0.0000000000000000     
  0.56250000000000000       0.25000000000000000        0.0000000000000000     
  0.59375000000000000       0.25000000000000000        0.0000000000000000     
  0.62500000000000000       0.25000000000000000        0.0000000000000000     
  0.62500000000000000       0.12500000000000000        0.0000000000000000     
  0.65625000000000000       0.12500000000000000        0.0000000000000000     
  0.68750000000000000       0.12500000000000000        0.0000000000000000     
  0.71875000000000000       0.12500000000000000        0.0000000000000000     
  0.75000000000000000       0.12500000000000000        0.0000000000000000     
  0.62500000000000000       0.15625000000000000        0.0000000000000000     
  0.65625000000000000       0.15625000000000000        0.0000000000000000     
  0.68750000000000000       0.15625000000000000        0.0000000000000000     
  0.71875000000000000       0.15625000000000000        0.0000000000000000     
  0.75000000000000000       0.15625000000000000        0.0000000000000000     
  0.62500000000000000       0.18750000000000000        0.0000000000000000     
  0.65625000000000000       0.18750000000000000        0.0000000000000000     
  0.68750000000000000       0.18750000000000000        0.0000000000000000     
  0.71875000000000000       0.18750000000000000        0.0000000000000000     
  0.75000000000000000       0.18750000000000000        0.0000000000000000     
  0.62500000000000000       0.21875000000000000        0.0000000000000000     
  0.65625000000000000       0.21875000000000000        0.0000000000000000     
  0.68750000000000000       0.21875000000000000        0.0000000000000000     
  0.71875000000000000       0.21875000000000000        0.0000000000000000     
  0.75000000000000000       0.21875000000000000        0.0000000000000000     
  0.62500000000000000       0.25000000000000000        0.0000000000000000     
  0.65625000000000000       0.25000000000000000        0.0000000000000000     
  0.68750000000000000       0.25000000000000000        0.0000000000000000     
  0.71875000000000000       0.25000000000000000        0.0000000000000000     
  0.75000000000000000       0.25000000000000000        0.0000000000000000     
  0.75000000000000000       0.12500000000000000        0.0000000000000000     
  0.78125000000000000       0.12500000000000000        0.0000000000000000     
  0.81250000000000000       0.12500000000000000        0.0000000000000000     
  0.84375000000000000       0.12500000000000000        0.0000000000000000     
  0.87500000000000000       0.12500000000000000        0.0000000000000000     
  0.75000000000000000       0.15625000000000000        0.0000000000000000     
  0.78125000000000000       0.15625000000000000        0.0000000000000000     
  0.81250000000000000       0.15625000000000000        0.0000000000000000     
  0.84375000000000000       0.15625000000000000        0.0000000000000000     
  0.87500000000000000       0.15625000000000000        0.0000000000000000     
  0.75000000000000000       0.18750000000000000        0.0000000000000000     
  0.78125000000000000       0.18750000000000000        0.0000000000000000     
  0.81250000000000000       0.18750000000000000        0.0000000000000000     
  0.84375000000000000       0.18750000000000000        0.0000000000000000     
  0.87500000000000000       0.18750000000000000        0.0000000000000000     
  0.75000000000000000       0.21875000000000000        0.0000000000000000     
  0.78125000000000000       0.21875000000000000        0.0000000000000000     
  0.81250000000000000       0.21875000000000000        0.0000000000000000     
  0.84375000000000000       0.21875000000000000        0.0000000000000000     
  0.87500000000000000       0.21875000000000000        0.0000000000000000     
  0.75000000000000000       0.25000000000000000        0.0000000000000000     
  0.78125000000000000       0.25000000000000000        0.0000000000000000     
  0.81250000000000000       0.25000000000000000        0.0000000000000000     
  0.84375000000000000       0.25000000000000000        0.0000000000000000     
  0.87500000000000000       0.25000000000000000        0.0000000000000000     
  0.87500000000000000       0.12500000000000000        0.0000000000000000     
  0.90625000000000000       0.12500000000000000        0.0000000000000000     
  0.93750000000000000       0.12500000000000000        0.0000000000000000     
  0.96875000000000000       0.12500000000000000        0.0000000000000000     
   1.0000000000000000       0.12500000000000000        0.0000000000000000     
  0.87500000000000000       0.15625000000000000        0.0000000000000000     
  0.90625000000000000       0.15625000000000000        0.0000000000000000     
  0.93750000000000000       0.15625000000000000        0.0000000000000000     
  0.96875000000000000       0.15625000000000000        0.0000000000000000     
   1.0000000000000000       0.15625000000000000        0.0000000000000000     
  0.87500000000000000       0.18750000000000000        0.0000000000000000     
  0.90625000000000000       0.18750000000000000        0.0000000000000000     
  0.93750000000000000       0.18750000000000000        0.0000000000000000     
  0.96875000000000000       0.18750000000000000        0.0000000000000000     
   1.0000000000000000       0.18750000000000000        0.0000000000000000     
  0.87500000000000000       0.21875000000000000        0.0000000000000000     
  0.90625000000000000       0.21875000000000000        0.0000000000000000     
  0.93750000000000000       0.21875000000000000        0.0000000000000000     
  0.96875000000000000       0.21875000000000000        0.0000000000000000     
   1.0000000000000000       0.21875000000000000        0.0000000000000000     
  0.87500000000000000       0.25000000000000000        0.0000000000000000     
  0.90625000000000000       0.25000000000000000        0.0000000000000000     
  0.93750000000000000       0.25000000000000000        0.0000000000000000     
  0.96875000000000000       0.25000000000000000        0.0000000000000000     
   1.0000000000000000       0.25000000000000000        0.0000000000000000     
   0.0000000000000000       0.25000000000000000        0.0000000000000000     
   3.1250000000000000E-002  0.25000000000000000        0.0000000000000000     
   6.2500000000000000E-002  0.25000000000000000        0.0000000000000000     
   9.3750000000000000E-002  0.25000000000000000        0.0000000000000000     
  0.12500000000000000       0.25000000000000000        0.0000000000000000     
   0.0000000000000000       0.28125000000000000        0.0000000000000000     
   3.1250000000000000E-002  0.28125000000000000        0.0000000000000000     
   6.2500000000000000E-002  0.28125000000000000        0.0000000000000000     
   9.3750000000000000E-002  0.28125000000000000        0.0000000000000000     
  0.12500000000000000       0.28125000000000000        0.0000000000000000     
   0.0000000000000000       0.31250000000000000        0.0000000000000000     
   3.1250000000000000E-002  0.31250000000000000        0.0000000000000000     
   6.2500000000000000E-002  0.31250000000000000        0.0000000000000000     
   9.3750000000000000E-002  0.31250000000000000        0.0000000000000000     
  0.12500000000000000       0.31250000000000000        0.0000000000000000     
   0.0000000000000000       0.34375000000000000        0.0000000000000000     
   3.1250000000000000E-002  0.34375000000000000        0.0000000000000000     
   6.2500000000000000E-002  0.34375000000000000        0.0000000000000000     
   9.3750000000000000E-002  0.34375000000000000        0.0000000000000000     
  0.12500000000000000       0.34375000000000000        0.0000000000000000     
   0.0000000000000000       0.37500000000000000        0.0000000000000000     
   3.1250000000000000E-002  0.37500000000000000        0.0000000000000000     
   6.2500000000000000E-002  0.37500000000000000        0.0000000000000000     
   9.3750000000000000E-002  0.37500000000000000        0.0000000000000000     
  0.12500000000000000       0.37500000000000000        0.0000000000000000     
  0.12500000000000000       0.25000000000000000        0.0000000000000000     
  0.15625000000000000       0.25000000000000000        0.0000000000000000     
  0.18750000000000000       0.25000000000000000        0.0000000000000000     
  0.21875000000000000       0.25000000000000000        0.0000000000000000     
  0.25000000000000000       0.25000000000000000        0.0000000000000000     
  0.12500000000000000       0.28125000000000000        0.0000000000000000     
  0.15625000000000000       0.28125000000000000        0.0000000000000000     
  0.18750000000000000       0.28125000000000000        0.0000000000000000     
  0.21875000000000000       0.28125000000000000        0.0000000000000000     
  0.25000000000000000       0.28125000000000000        0.0000000000000000     
  0.12500000000000000       0.31250000000000000        0.0000000000000000     
  0.15625000000000000       0.31250000000000000        0.0000000000000000     
  0.18750000000000000       0.31250000000000000        0.0000000000000000     
  0.21875000000000000       0.31250000000000000        0.0000000000000000     
  0.25000000000000000       0.31250000000000000        0.0000000000000000     
  0.12500000000000000       0.34375000000000000        0.0000000000000000     
  0.15625000000000000       0.34375000000000000        0.0000000000000000     
  0.18750000000000000       0.34375000000000000        0.0000000000000000     
  0.21875000000000000       0.34375000000000000        0.0000000000000000     
  0.25000000000000000       0.34375000000000000        0.0000000000000000     
  0.12500000000000000       0.37500000000000000        0.0000000000000000     
  0.15625000000000000       0.37500000000000000        0.0000000000000000     
  0.18750000000000000       0.37500000000000000        0.0000000000000000     
  0.21875000000000000       0.37500000000000000        0.0000000000000000     
  0.25000000000000000       0.37500000000000000        0.0000000000000000     
  0.25000000000000000       0.25000000000000000        0.0000000000000000     
  0.28125000000000000       0.25000000000000000        0.0000000000000000     
  0.31250000000000000       0.25000000000000000        0.0000000000000000     
  0.34375000000000000       0.25000000000000000        0.0000000000000000     
  0.37500000000000000       0.25000000000000000        0.0000000000000000     
  0.25000000000000000       0.28125000000000000        0.0000000000000000     
  0.28125000000000000       0.28125000000000000        0.0000000000000000     
  0.31250000000000000       0.28125000000000000        0.0000000000000000     
  0.34375000000000000       0.28125000000000000        0.0000000000000000     
  0.37500000000000000       0.28125000000000000        0.0000000000000000     
  0.25000000000000000       0.31250000000000000        0.0000000000000000     
  0.28125000000000000       0.31250000000000000        0.0000000000000000     
  0.31250000000000000       0.31250000000000000        0.0000000000000000     
  0.34375000000000000       0.31250000000000000        0.0000000000000000     
  0.37500000000000000       0.31250000000000000        0.0000000000000000     
  0.25000000000000000       0.34375000000000000        0.0000000000000000     
  0.28125000000000000       0.34375000000000000        0.0000000000000000     
  0.31250000000000000       0.34375000000000000        0.0000000000000000     
  0.34375000000000000       0.34375000000000000        0.0000000000000000     
  0.37500000000000000       0.34375000000000000        0.0000000000000000     
  0.25000000000000000       0.37500000000000000        0.0000000000000000     
  0.28125000000000000       0.37500000000000000        0.0000000000000000     
  0.31250000000000000       0.37500000000000000        0.0000000000000000     
  0.34375000000000000       0.37500000000000000        0.0000000000000000     
  0.37500000000000000       0.37500000000000000        0.0000000000000000     
  0.37500000000000000       0.25000000000000000        0.0000000000000000     
  0.40625000000000000       0.25000000000000000        0.0000000000000000     
  0.43750000000000000       0.25000000000000000        0.0000000000000000     
  0.46875000000000000       0.25000000000000000        0.0000000000000000     
  0.50000000000000000       0.25000000000000000        0.0000000000000000     
  0.37500000000000000       0.28125000000000000        0.0000000000000000     
  0.40625000000000000       0.28125000000000000        0.0000000000000000     
  0.43750000000000000       0.28125000000000000        0.0000000000000000     
  0.46875000000000000       0.28125000000000000        0.0000000000000000     
  0.50000000000000000       0.28125000000000000        0.0000000000000000     
  0.37500000000000000       0.31250000000000000        0.0000000000000000     
  0.40625000000000000       0.31250000000000000        0.0000000000000000     
  0.43750000000000000       0.31250000000000000        0.0000000000000000     
  0.46875000000000000       0.31250000000000000        0.0000000000000000     
  0.50000000000000000       0.31250000000000000        0.0000000000000000     
  0.37500000000000000       0.34375000000000000        0.0000000000000000     
  0.40625000000000000       0.34375000000000000        0.0000000000000000     
  0.43750000000000000       0.34375000000000000        0.0000000000000000     
  0.46875000000000000       0.34375000000000000        0.0000000000000000     
  0.50000000000000000       0.34375000000000000        0.0000000000000000     
  0.37500000000000000       0.37500000000000000        0.0000000000000000     
  0.40625000000000000       0.37500000000000000        0.0000000000000000     
  0.43750000000000000       0.37500000000000000        0.0000000000000000     
  0.46875000000000000       0.37500000000000000        0.0000000000000000     
  0.50000000000000000       0.37500000000000000        0.0000000000000000     
  0.50000000000000000       0.25000000000000000        0.0000000000000000     
  0.53125000000000000       0.25000000000000000        0.0000000000000000     
  0.56250000000000000       0.25000000000000000        0.0000000000000000     
  0.59375000000000000       0.25000000000000000        0.0000000000000000     
  0.62500000000000000       0.25000000000000000        0.0000000000000000     
  0.50000000000000000       0.28125000000000000        0.0000000000000000     
  0.53125000000000000       0.28125000000000000        0.0000000000000000     
  0.56250000000000000       0.28125000000000000        0.0000000000000000     
  0.59375000000000000       0.28125000000000000        0.0000000000000000     
  0.62500000000000000       0.28125000000000000        0.0000000000000000     
  0.50000000000000000       0.31250000000000000        0.0000000000000000     
  0.53125000000000000       0.31250000000000000        0.0000000000000000     
  0.56250000000000000       0.31250000000000000        0.0000000000000000     
  0.59375000000000000       0.31250000000000000        0.0000000000000000     
  0.62500000000000000       0.31250000000000000        0.0000000000000000     
  0.50000000000000000       0.34375000000000000        0.0000000000000000     
  0.53125000000000000       0.34375000000000000        0.0000000000000000     
  0.56250000000000000       0.34375000000000000        0.0000000000000000     
  0.59375000000000000       0.34375000000000000        0.0000000000000000     
  0.62500000000000000       0.34375000000000000        0.0000000000000000     
  0.50000000000000000       0.37500000000000000        0.0000000000000000     
  0.53125000000000000       0.37500000000000000        0.0000000000000000     
  0.56250000000000000       0.37500000000000000        0.0000000000000000     
  0.59375000000000000       0.37500000000000000        0.0000000000000000     
  0.62500000000000000       0.37500000000000000        0.0000000000000000     
  0.62500000000000000       0.25000000000000000        0.0000000000000000     
  0.65625000000000000       0.25000000000000000        0.0000000000000000     
  0.68750000000000000       0.25000000000000000        0.0000000000000000     
  0.71875000000000000       0.25000000000000000        0.0000000000000000     
  0.75000000000000000       0.25000000000000000        0.0000000000000000     
  0.62500000000000000       0.28125000000000000        0.0000000000000000     
  0.65625000000000000       0.28125000000000000        0.0000000000000000     
  0.68750000000000000       0.28125000000000000        0.0000000000000000     
  0.71875000000000000       0.28125000000000000        0.0000000000000000     
  0.75000000000000000       0.28125000000000000        0.0000000000000000     
  0.62500000000000000       0.31250000000000000        0.0000000000000000     
  0.65625000000000000       0.31250000000000000        0.0000000000000000     
  0.68750000000000000       0.31250000000000000        0.0000000000000000     
  0.71875000000000000       0.31250000000000000        0.0000000000000000     
  0.75000000000000000       0.31250000000000000        0.0000000000000000     
  0.62500000000000000       0.34375000000000000        0.0000000000000000     
  0.65625000000000000       0.34375000000000000        0.0000000000000000     
  0.68750000000000000       0.34375000000000000        0.0000000000000000     
  0.71875000000000000       0.34375000000000000        0.0000000000000000     
  0.75000000000000000       0.34375000000000000        0.0000000000000000     
  0.62500000000000000       0.37500000000000000        0.0000000000000000     
  0.65625000000000000       0.37500000000000000        0.0000000000000000     
  0.68750000000000000       0.37500000000000000        0.0000000000000000     
  0.71875000000000000       0.37500000000000000        0.0000000000000000     
  0.75000000000000000       0.37500000000000000        0.0000000000000000     
  0.75000000000000000       0.25000000000000000        0.0000000000000000     
  0.78125000000000000       0.25000000000000000        0.0000000000000000     
  0.81250000000000000       0.25000000000000000        0.0000000000000000     
  0.84375000000000000       0.25000000000000000        0.0000000000000000     
  0.87500000000000000       0.25000000000000000        0.0000000000000000     
  0.75000000000000000       0.28125000000000000        0.0000000000000000     
  0.78125000000000000       0.28125000000000000        0.0000000000000000     
  0.81250000000000000       0.28125000000000000        0.0000000000000000     
  0.84375000000000000       0.28125000000000000        0.0000000000000000     
  0.87500000000000000       0.28125000000000000        0.0000000000000000     
  0.75000000000000000       0.31250000000000000        0.0000000000000000     
  0.78125000000000000       0.31250000000000000        0.0000000000000000     
  0.81250000000000000       0.31250000000000000        0.0000000000000000     
  0.84375000000000000       0.31250000000000000        0.0000000000000000     
  0.87500000000000000       0.31250000000000000        0.0000000000000000     
  0.75000000000000000       0.34375000000000000        0.0000000000000000     
  0.78125000000000000       0.34375000000000000        0.0000000000000000     
  0.81250000000000000       0.34375000000000000        0.0000000000000000     
  0.84375000000000000       0.34375000000000000        0.0000000000000000     
  0.87500000000000000       0.34375000000000000        0.0000000000000000     
  0.75000000000000000       0.37500000000000000        0.0000000000000000     
  0.78125000000000000       0.37500000000000000        0.0000000000000000     
  0.81250000000000000       0.37500000000000000        0.0000000000000000     
  0.84375000000000000       0.37500000000000000        0.0000000000000000     
  0.87500000000000000       0.37500000000000000        0.0000000000000000     
  0.87500000000000000       0.25000000000000000        0.0000000000000000     
  0.90625000000000000       0.25000000000000000        0.0000000000000000     
  0.93750000000000000       0.25000000000000000        0.0000000000000000     
  0.96875000000000000       0.25000000000000000        0.0000000000000000     
   1.0000000000000000       0.25000000000000000        0.0000000000000000     
  0.87500000000000000       0.28125000000000000        0.0000000000000000     
  0.90625000000000000       0.28125000000000000        0.0000000000000000     
  0.93750000000000000       0.28125000000000000        0.0000000000000000     
  0.96875000000000000       0.28125000000000000        0.0000000000000000     
   1.0000000000000000       0.28125000000000000        0.0000000000000000     
  0.87500000000000000       0.31250000000000000        0.0000000000000000     
  0.90625000000000000       0.31250000000000000        0.0000000000000000     
  0.93750000000000000       0.31250000000000000        0.0000000000000000     
  0.96875000000000000       0.31250000000000000        0.0000000000000000     
   1.0000000000000000       0.31250000000000000        0.0000000000000000     
  0.87500000000000000       0.34375000000000000        0.0000000000000000     
  0.90625000000000000       0.34375000000000000        0.0000000000000000     
  0.93750000000000000       0.34375000000000000        0.0000000000000000     
  0.96875000000000000       0.34375000000000000        0.0000000000000000     
   1.0000000000000000       0.34375000000000000        0.0000000000000000     
  0.87500000000000000       0.37500000000000000        0.0000000000000000     
  0.90625000000000000       0.37500000000000000        0.0000000000000000     
  0.93750000000000000       0.37500000000000000        0.0000000000000000     
  0.96875000000000000       0.37500000000000000        0.0000000000000000     
   1.0000000000000000       0.37500000000000000        0.0000000000000000     
   0.0000000000000000       0.37500000000000000        0.0000000000000000     
   3.1250000000000000E-002  0.37500000000000000        0.0000000000000000     
   6.2500000000000000E-002  0.37500000000000000        0.0000000000000000     
   9.3750000000000000E-002  0.37500000000000000        0.0000000000000000     
  0.12500000000000000       0.37500000000000000        0.0000000000000000     
   0.0000000000000000       0.40625000000000000        0.0000000000000000     
   3.1250000000000000E-002  0.40625000000000000        0.0000000000000000     
   6.2500000000000000E-002  0.40625000000000000        0.0000000000000000     
   9.3750000000000000E-002  0.40625000000000000        0.0000000000000000     
  0.12500000000000000       0.40625000000000000        0.0000000000000000     
   0.0000000000000000       0.43750000000000000        0.0000000000000000     
   3.1250000000000000E-002  0.43750000000000000        0.0000000000000000     
   6.2500000000000000E-002  0.43750000000000000        0.0000000000000000     
   9.3750000000000000E-002  0.43750000000000000        0.0000000000000000     
  0.12500000000000000       0.43750000000000000        0.0000000000000000     
   0.0000000000000000       0.46875000000000000        0.0000000000000000     
   3.1250000000000000E-002  0.46875000000000000        0.0000000000000000     
   6.2500000000000000E-002  0.46875000000000000        0.0000000000000000     
   9.3750000000000000E-002  0.46875000000000000        0.0000000000000000     
  0.12500000000000000       0.46875000000000000        0.0000000000000000     
   0.0000000000000000       0.50000000000000000        0.0000000000000000     
   3.1250000000000000E-002  0.50000000000000000        0.0000000000000000     
   6.2500000000000000E-002  0.50000000000000000        0.0000000000000000     
   9.3750000000000000E-002  0.50000000000000000        0.0000000000000000     
  0.12500000000000000       0.50000000000000000        0.0000000000000000     
  0.12500000000000000       0.37500000000000000        0.0000000000000000     
  0.15625000000000000       0.37500000000000000        0.0000000000000000     
  0.18750000000000000       0.37500000000000000        0.0000000000000000     
  0.21875000000000000       0.37500000000000000        0.0000000000000000     
  0.25000000000000000       0.37500000000000000        0.0000000000000000     
  0.12500000000000000       0.40625000000000000        0.0000000000000000     
  0.15625000000000000       0.40625000000000000        0.0000000000000000     
  0.18750000000000000       0.40625000000000000        0.0000000000000000     
  0.21875000000000000       0.40625000000000000        0.0000000000000000     
  0.25000000000000000       0.40625000000000000        0.0000000000000000     
  0.12500000000000000       0.43750000000000000        0.0000000000000000     
  0.15625000000000000       0.43750000000000000        0.0000000000000000     
  0.18750000000000000       0.43750000000000000        0.0000000000000000     
  0.21875000000000000       0.43750000000000000        0.0000000000000000     
  0.25000000000000000       0.43750000000000000        0.0000000000000000     
  0.12500000000000000       0.46875000000000000        0.0000000000000000     
  0.15625000000000000       0.46875000000000000        0.0000000000000000     
  0.18750000000000000       0.46875000000000000        0.0000000000000000     
  0.21875000000000000       0.46875000000000000        0.0000000000000000     
  0.25000000000000000       0.46875000000000000        0.0000000000000000     
  0.12500000000000000       0.50000000000000000        0.0000000000000000     
  0.15625000000000000       0.50000000000000000        0.0000000000000000     
  0.18750000000000000       0.50000000000000000        0.0000000000000000     
  0.21875000000000000       0.50000000000000000        0.0000000000000000     
  0.25000000000000000       0.50000000000000000        0.0000000000000000     
  0.25000000000000000       0.37500000000000000        0.0000000000000000     
  0.28125000000000000       0.37500000000000000        0.0000000000000000     
  0.31250000000000000       0.37500000000000000        0.0000000000000000     
  0.34375000000000000       0.37500000000000000        0.0000000000000000     
  0.37500000000000000       0.37500000000000000        0.0000000000000000     
  0.25000000000000000       0.40625000000000000        0.0000000000000000     
  0.28125000000000000       0.40625000000000000        0.0000000000000000     
  0.31250000000000000       0.40625000000000000        0.0000000000000000     
  0.34375000000000000       0.40625000000000000        0.0000000000000000     
  0.37500000000000000       0.40625000000000000        0.0000000000000000     
  0.25000000000000000       0.43750000000000000        0.0000000000000000     
  0.28125000000000000       0.43750000000000000        0.0000000000000000     
  0.31250000000000000       0.43750000000000000        0.0000000000000000     
  0.34375000000000000       0.43750000000000000        0.0000000000000000     
  0.37500000000000000       0.43750000000000000        0.0000000000000000     
  0.25000000000000000       0.46875000000000000        0.0000000000000000     
  0.28125000000000000       0.46875000000000000        0.0000000000000000     
  0.31250000000000000       0.46875000000000000        0.0000000000000000     
  0.34375000000000000       0.46875000000000000        0.0000000000000000     
  0.37500000000000000       0.46875000000000000        0.0000000000000000     
  0.25000000000000000       0.50000000000000000        0.0000000000000000     
  0.28125000000000000       0.50000000000000000        0.0000000000000000     
  0.31250000000000000       0.50000000000000000        0.0000000000000000     
  0.34375000000000000       0.50000000000000000        0.0000000000000000     
  0.37500000000000000       0.50000000000000000        0.0000000000000000     
  0.37500000000000000       0.37500000000000000        0.0000000000000000     
  0.40625000000000000       0.37500000000000000        0.0000000000000000     
  0.43750000000000000       0.37500000000000000        0.0000000000000000     
  0.46875000000000000       0.37500000000000000        0.0000000000000000     
  0.50000000000000000       0.37500000000000000        0.0000000000000000     
  0.37500000000000000       0.40625000000000000        0.0000000000000000     
  0.40625000000000000       0.40625000000000000        0.0000000000000000     
  0.43750000000000000       0.40625000000000000        0.0000000000000000     
  0.46875000000000000       0.40625000000000000        0.0000000000000000     
  0.50000000000000000       0.40625000000000000        0.0000000000000000     
  0.37500000000000000       0.43750000000000000        0.0000000000000000     
  0.40625000000000000       0.43750000000000000        0.0000000000000000     
  0.43750000000000000       0.43750000000000000        0.0000000000000000     
  0.46875000000000000       0.43750000000000000        0.0000000000000000     
  0.50000000000000000       0.43750000000000000        0.0000000000000000     
  0.37500000000000000       0.46875000000000000        0.0000000000000000     
  0.40625000000000000       0.46875000000000000        0.0000000000000000     
  0.43750000000000000       0.46875000000000000        0.0000000000000000     
  0.46875000000000000       0.46875000000000000        0.0000000000000000     
  0.50000000000000000       0.46875000000000000        0.0000000000000000     
  0.37500000000000000       0.50000000000000000        0.0000000000000000     
  0.40625000000000000       0.50000000000000000        0.0000000000000000     
  0.43750000000000000       0.50000000000000000        0.0000000000000000     
  0.46875000000000000       0.50000000000000000        0.0000000000000000     
  0.50000000000000000       0.50000000000000000        0.0000000000000000     
  0.50000000000000000       0.37500000000000000        0.0000000000000000     
  0.53125000000000000       0.37500000000000000        0.0000000000000000     
  0.56250000000000000       0.37500000000000000        0.0000000000000000     
  0.59375000000000000       0.37500000000000000        0.0000000000000000     
  0.62500000000000000       0.37500000000000000        0.0000000000000000     
  0.50000000000000000       0.40625000000000000        0.0000000000000000     
  0.53125000000000000       0.40625000000000000        0.0000000000000000     
  0.56250000000000000       0.40625000000000000        0.0000000000000000     
  0.59375000000000000       0.40625000000000000        0.0000000000000000     
  0.62500000000000000       0.40625000000000000        0.0000000000000000     
  0.50000000000000000       0.43750000000000000        0.0000000000000000     
  0.53125000000000000       0.43750000000000000        0.0000000000000000     
  0.56250000000000000       0.43750000000000000        0.0000000000000000     
  0.59375000000000000       0.43750000000000000        0.0000000000000000     
  0.62500000000000000       0.43750000000000000        0.0000000000000000     
  0.50000000000000000       0.46875000000000000        0.0000000000000000     
  0.53125000000000000       0.46875000000000000        0.0000000000000000     
  0.56250000000000000       0.46875000000000000        0.0000000000000000     
  0.59375000000000000       0.46875000000000000        0.0000000000000000     
  0.62500000000000000       0.46875000000000000        0.0000000000000000     
  0.50000000000000000       0.50000000000000000        0.0000000000000000     
  0.53125000000000000       0.50000000000000000        0.0000000000000000     
  0.56250000000000000       0.50000000000000000        0.0000000000000000     
  0.59375000000000000       0.50000000000000000        0.0000000000000000     
  0.62500000000000000       0.50000000000000000        0.0000000000000000     
  0.62500000000000000       0.37500000000000000        0.0000000000000000     
  0.65625000000000000       0.37500000000000000        0.0000000000000000     
  0.68750000000000000       0.37500000000000000        0.0000000000000000     
  0.71875000000000000       0.37500000000000000        0.0000000000000000     
  0.75000000000000000       0.37500000000000000        0.0000000000000000     
  0.62500000000000000       0.40625000000000000        0.0000000000000000     
  0.65625000000000000       0.40625000000000000        0.0000000000000000     
  0.68750000000000000       0.40625000000000000        0.0000000000000000     
  0.71875000000000000       0.40625000000000000        0.0000000000000000     
  0.75000000000000000       0.40625000000000000        0.0000000000000000     
  0.62500000000000000       0.43750000000000000        0.0000000000000000     
  0.65625000000000000       0.43750000000000000        0.0000000000000000     
  0.68750000000000000       0.43750000000000000        0.0000000000000000     
  0.71875000000000000       0.43750000000000000        0.0000000000000000     
  0.75000000000000000       0.43750000000000000        0.0000000000000000     
  0.62500000000000000       0.46875000000000000        0.0000000000000000     
  0.65625000000000000       0.46875000000000000        0.0000000000000000     
  0.68750000000000000       0.46875000000000000        0.0000000000000000     
  0.71875000000000000       0.46875000000000000        0.0000000000000000     
  0.75000000000000000       0.46875000000000000        0.0000000000000000     
  0.62500000000000000       0.50000000000000000        0.0000000000000000     
  0.65625000000000000       0.50000000000000000        0.0000000000000000     
  0.68750000000000000       0.50000000000000000        0.0000000000000000     
  0.71875000000000000       0.50000000000000000        0.0000000000000000     
  0.75000000000000000       0.50000000000000000        0.0000000000000000     
  0.75000000000000000       0.37500000000000000        0.0000000000000000     
  0.78125000000000000       0.37500000000000000        0.0000000000000000     
  0.81250000000000000       0.37500000000000000        0.0000000000000000     
  0.84375000000000000       0.37500000000000000        0.0000000000000000     
  0.87500000000000000       0.37500000000000000        0.0000000000000000     
  0.75000000000000000       0.40625000000000000        0.0000000000000000     
  0.78125000000000000       0.40625000000000000        0.0000000000000000     
  0.81250000000000000       0.40625000000000000        0.0000000000000000     
  0.84375000000000000       0.40625000000000000        0.0000000000000000     
  0.87500000000000000       0.40625000000000000        0.0000000000000000     
  0.75000000000000000       0.43750000000000000        0.0000000000000000     
  0.78125000000000000       0.43750000000000000        0.0000000000000000     
  0.81250000000000000       0.43750000000000000        0.0000000000000000     
  0.84375000000000000       0.43750000000000000        0.0000000000000000     
  0.87500000000000000       0.43750000000000000        0.0000000000000000     
  0.75000000000000000       0.46875000000000000        0.0000000000000000     
  0.78125000000000000       0.46875000000000000        0.0000000000000000     
  0.81250000000000000       0.46875000000000000        0.0000000000000000     
  0.84375000000000000       0.46875000000000000        0.0000000000000000     
  0.87500000000000000       0.46875000000000000        0.0000000000000000     
  0.75000000000000000       0.50000000000000000        0.0000000000000000     
  0.78125000000000000       0.50000000000000000        0.0000000000000000     
  0.81250000000000000       0.50000000000000000        0.0000000000000000     
  0.84375000000000000       0.50000000000000000        0.0000000000000000     
  0.87500000000000000       0.50000000000000000        0.0000000000000000     
  0.87500000000000000       0.37500000000000000        0.0000000000000000     
  0.90625000000000000       0.37500000000000000        0.0000000000000000     
  0.93750000000000000       0.37500000000000000        0.0000000000000000     
  0.96875000000000000       0.37500000000000000        0.0000000000000000     
   1.0000000000000000       0.37500000000000000        0.0000000000000000     
  0.87500000000000000       0.40625000000000000        0.0000000000000000     
  0.90625000000000000       0.40625000000000000        0.0000000000000000     
  0.93750000000000000       0.40625000000000000        0.0000000000000000     
  0.96875000000000000       0.40625000000000000        0.0000000000000000     
   1.0000000000000000       0.40625000000000000        0.0000000000000000     
  0.87500000000000000       0.43750000000000000        0.0000000000000000     
  0.90625000000000000       0.43750000000000000        0.0000000000000000     
  0.93750000000000000       0.43750000000000000        0.0000000000000000     
  0.96875000000000000       0.43750000000000000        0.0000000000000000     
   1.0000000000000000       0.43750000000000000        0.0000000000000000     
  0.87500000000000000       0.46875000000000000        0.0000000000000000     
  0.90625000000000000       0.46875000000000000        0.0000000000000000     
  0.93750000000000000       0.46875000000000000        0.0000000000000000     
  0.96875000000000000       0.46875000000000000        0.0000000000000000     
   1.0000000000000000       0.46875000000000000        0.0000000000000000     
  0.87500000000000000       0.50000000000000000        0.0000000000000000     
  0.90625000000000000       0.50000000000000000        0.0000000000000000     
  0.93750000000000000       0.50000000000000000        0.0000000000000000     
  0.96875000000000000       0.50000000000000000        0.0000000000000000     
   1.0000000000000000       0.50000000000000000        0.0000000000000000     
   0.0000000000000000       0.50000000000000000        0.0000000000000000     
   3.1250000000000000E-002  0.50000000000000000        0.0000000000000000     
   6.2500000000000000E-002  0.50000000000000000        0.0000000000000000     
   9.3750000000000000E-002  0.50000000000000000        0.0000000000000000     
  0.12500000000000000       0.50000000000000000        0.0000000000000000     
   0.0000000000000000       0.53125000000000000        0.0000000000000000     
   3.1250000000000000E-002  0.53125000000000000        0.0000000000000000     
   6.2500000000000000E-002  0.53125000000000000        0.0000000000000000     
   9.3750000000000000E-002  0.53125000000000000        0.0000000000000000     
  0.12500000000000000       0.53125000000000000        0.0000000000000000     
   0.0000000000000000       0.56250000000000000        0.0000000000000000     
   3.1250000000000000E-002  0.56250000000000000        0.0000000000000000     
   6.2500000000000000E-002  0.56250000000000000        0.0000000000000000     
   9.3750000000000000E-002  0.56250000000000000        0.0000000000000000     
  0.12500000000000000       0.56250000000000000        0.0000000000000000     
   0.0000000000000000       0.59375000000000000        0.0000000000000000     
   3.1250000000000000E-002  0.59375000000000000        0.0000000000000000     
   6.2500000000000000E-002  0.59375000000000000        0.0000000000000000     
   9.3750000000000000E-002  0.59375000000000000        0.0000000000000000     
  0.12500000000000000       0.59375000000000000        0.0000000000000000     
   0.0000000000000000       0.62500000000000000        0.0000000000000000     
   3.1250000000000000E-002  0.62500000000000000        0.0000000000000000     
   6.2500000000000000E-002  0.62500000000000000        0.0000000000000000     
   9.3750000000000000E-002  0.62500000000000000        0.0000000000000000     
  0.12500000000000000       0.62500000000000000        0.0000000000000000     
  0.12500000000000000       0.50000000000000000        0.0000000000000000     
  0.15625000000000000       0.50000000000000000        0.0000000000000000     
  0.18750000000000000       0.50000000000000000        0.0000000000000000     
  0.21875000000000000       0.50000000000000000        0.0000000000000000     
  0.25000000000000000       0.50000000000000000        0.0000000000000000     
  0.12500000000000000       0.53125000000000000        0.0000000000000000     
  0.15625000000000000       0.53125000000000000        0.0000000000000000     
  0.18750000000000000       0.53125000000000000        0.0000000000000000     
  0.21875000000000000       0.53125000000000000        0.0000000000000000     
  0.25000000000000000       0.53125000000000000        0.0000000000000000     
  0.12500000000000000       0.56250000000000000        0.0000000000000000     
  0.15625000000000000       0.56250000000000000        0.0000000000000000     
  0.18750000000000000       0.56250000000000000        0.0000000000000000     
  0.21875000000000000       0.56250000000000000        0.0000000000000000     
  0.25000000000000000       0.56250000000000000        0.0000000000000000     
  0.12500000000000000       0.59375000000000000        0.0000000000000000     
  0.15625000000000000       0.59375000000000000        0.0000000000000000     
  0.18750000000000000       0.59375000000000000        0.0000000000000000     
  0.21875000000000000       0.59375000000000000        0.0000000000000000     
  0.25000000000000000       0.59375000000000000        0.0000000000000000     
  0.12500000000000000       0.62500000000000000        0.0000000000000000     
  0.15625000000000000       0.62500000000000000        0.0000000000000000     
  0.18750000000000000       0.62500000000000000        0.0000000000000000     
  0.21875000000000000       0.62500000000000000        0.0000000000000000     
  0.25000000000000000       0.62500000000000000        0.0000000000000000     
  0.25000000000000000       0.50000000000000000        0.0000000000000000     
  0.28125000000000000       0.50000000000000000        0.0000000000000000     
  0.31250000000000000       0.50000000000000000        0.0000000000000000     
  0.34375000000000000       0.50000000000000000        0.0000000000000000     
  0.37500000000000000       0.50000000000000000        0.0000000000000000     
  0.25000000000000000       0.53125000000000000        0.0000000000000000     
  0.28125000000000000       0.53125000000000000        0.0000000000000000     
  0.31250000000000000       0.53125000000000000        0.0000000000000000     
  0.34375000000000000       0.53125000000000000        0.0000000000000000     
  0.37500000000000000       0.53125000000000000        0.0000000000000000     
  0.25000000000000000       0.56250000000000000        0.0000000000000000     
  0.28125000000000000       0.56250000000000000        0.0000000000000000     
  0.31250000000000000       0.56250000000000000        0.0000000000000000     
  0.34375000000000000       0.56250000000000000        0.0000000000000000     
  0.37500000000000000       0.56250000000000000        0.0000000000000000     
  0.25000000000000000       0.59375000000000000        0.0000000000000000     
  0.28125000000000000       0.59375000000000000        0.0000000000000000     
  0.31250000000000000       0.59375000000000000        0.0000000000000000     
  0.34375000000000000       0.59375000000000000        0.0000000000000000     
  0.37500000000000000       0.59375000000000000        0.0000000000000000     
  0.25000000000000000       0.62500000000000000        0.0000000000000000     
  0.28125000000000000       0.62500000000000000        0.0000000000000000     
  0.31250000000000000       0.62500000000000000        0.0000000000000000     
  0.34375000000000000       0.62500000000000000        0.0000000000000000     
  0.37500000000000000       0.62500000000000000        0.0000000000000000     
  0.37500000000000000       0.50000000000000000        0.0000000000000000     
  0.40625000000000000       0.50000000000000000        0.0000000000000000     
  0.43750000000000000       0.50000000000000000        0.0000000000000000     
  0.46875000000000000       0.50000000000000000        0.0000000000000000     
  0.50000000000000000       0.50000000000000000        0.0000000000000000     
  0.37500000000000000       0.53125000000000000        0.0000000000000000     
  0.40625000000000000       0.53125000000000000        0.0000000000000000     
  0.43750000000000000       0.53125000000000000        0.0000000000000000     
  0.46875000000000000       0.53125000000000000        0.0000000000000000     
  0.50000000000000000       0.53125000000000000        0.0000000000000000     
  0.37500000000000000       0.56250000000000000        0.0000000000000000     
  0.40625000000000000       0.56250000000000000        0.0000000000000000     
  0.43750000000000000       0.56250000000000000        0.0000000000000000     
  0.46875000000000000       0.56250000000000000        0.0000000000000000     
  0.50000000000000000       0.56250000000000000        0.0000000000000000     
  0.37500000000000000       0.59375000000000000        0.0000000000000000     
  0.40625000000000000       0.59375000000000000        0.0000000000000000     
  0.43750000000000000       0.59375000000000000        0.0000000000000000     
  0.46875000000000000       0.59375000000000000        0.0000000000000000     
  0.50000000000000000       0.59375000000000000        0.0000000000000000     
  0.37500000000000000       0.62500000000000000        0.0000000000000000     
  0.40625000000000000       0.62500000000000000        0.0000000000000000     
  0.43750000000000000       0.62500000000000000        0.0000000000000000     
  0.46875000000000000       0.62500000000000000        0.0000000000000000     
  0.50000000000000000       0.62500000000000000        0.0000000000000000     
  0.50000000000000000       0.50000000000000000        0.0000000000000000     
  0.53125000000000000       0.50000000000000000        0.0000000000000000     
  0.56250000000000000       0.50000000000000000        0.0000000000000000     
  0.59375000000000000       0.50000000000000000        0.0000000000000000     
  0.62500000000000000       0.50000000000000000        0.0000000000000000     
  0.50000000000000000       0.53125000000000000        0.0000000000000000     
  0.53125000000000000       0.53125000000000000        0.0000000000000000     
  0.56250000000000000       0.53125000000000000        0.0000000000000000     
  0.59375000000000000       0.53125000000000000        0.0000000000000000     
  0.62500000000000000       0.53125000000000000        0.0000000000000000     
  0.50000000000000000       0.56250000000000000        0.0000000000000000     
  0.53125000000000000       0.56250000000000000        0.0000000000000000     
  0.56250000000000000       0.56250000000000000        0.0000000000000000     
  0.59375000000000000       0.56250000000000000        0.0000000000000000     
  0.62500000000000000       0.56250000000000000        0.0000000000000000     
  0.50000000000000000       0.59375000000000000        0.0000000000000000     
  0.53125000000000000       0.59375000000000000        0.0000000000000000     
  0.56250000000000000       0.59375000000000000        0.0000000000000000     
  0.59375000000000000       0.59375000000000000        0.0000000000000000     
  0.62500000000000000       0.59375000000000000        0.0000000000000000     
  0.50000000000000000       0.62500000000000000        0.0000000000000000     
  0.53125000000000000       0.62500000000000000        0.0000000000000000     
  0.56250000000000000       0.62500000000000000        0.0000000000000000     
  0.59375000000000000       0.62500000000000000        0.0000000000000000     
  0.62500000000000000       0.62500000000000000        0.0000000000000000     
  0.62500000000000000       0.50000000000000000        0.0000000000000000     
  0.65625000000000000       0.50000000000000000        0.0000000000000000     
  0.68750000000000000       0.50000000000000000        0.0000000000000000     
  0.71875000000000000       0.50000000000000000        0.0000000000000000     
  0.75000000000000000       0.50000000000000000        0.0000000000000000     
  0.62500000000000000       0.53125000000000000        0.0000000000000000     
  0.65625000000000000       0.53125000000000000        0.0000000000000000     
  0.68750000000000000       0.53125000000000000        0.0000000000000000     
  0.71875000000000000       0.53125000000000000        0.0000000000000000     
  0.75000000000000000       0.53125000000000000        0.0000000000000000     
  0.62500000000000000       0.56250000000000000        0.0000000000000000     
  0.65625000000000000       0.56250000000000000        0.0000000000000000     
  0.68750000000000000       0.56250000000000000        0.0000000000000000     
  0.71875000000000000       0.56250000000000000        0.0000000000000000     
  0.75000000000000000       0.56250000000000000        0.0000000000000000     
  0.62500000000000000       0.59375000000000000        0.0000000000000000     
  0.65625000000000000       0.59375000000000000        0.0000000000000000     
  0.68750000000000000       0.59375000000000000        0.0000000000000000     
  0.71875000000000000       0.59375000000000000        0.0000000000000000     
  0.75000000000000000       0.59375000000000000        0.0000000000000000     
  0.62500000000000000       0.62500000000000000        0.0000000000000000     
  0.65625000000000000       0.62500000000000000        0.0000000000000000     
  0.68750000000000000       0.62500000000000000        0.0000000000000000     
  0.71875000000000000       0.62500000000000000        0.0000000000000000     
  0.75000000000000000       0.62500000000000000        0.0000000000000000     
  0.75000000000000000       0.50000000000000000        0.0000000000000000     
  0.78125000000000000       0.50000000000000000        0.0000000000000000     
  0.81250000000000000       0.50000000000000000        0.0000000000000000     
  0.84375000000000000       0.50000000000000000        0.0000000000000000     
  0.87500000000000000       0.50000000000000000        0.0000000000000000     
  0.75000000000000000       0.53125000000000000        0.0000000000000000     
  0.78125000000000000       0.53125000000000000        0.0000000000000000     
  0.81250000000000000       0.53125000000000000        0.0000000000000000     
  0.84375000000000000       0.53125000000000000        0.0000000000000000     
  0.87500000000000000       0.53125000000000000        0.0000000000000000     
  0.75000000000000000       0.56250000000000000        0.0000000000000000     
  0.78125000000000000       0.56250000000000000        0.0000000000000000     
  0.81250000000000000       0.56250000000000000        0.0000000000000000     
  0.84375000000000000       0.56250000000000000        0.0000000000000000     
  0.87500000000000000       0.56250000000000000        0.0000000000000000     
  0.75000000000000000       0.59375000000000000        0.0000000000000000     
  0.78125000000000000       0.59375000000000000        0.0000000000000000     
  0.81250000000000000       0.59375000000000000        0.0000000000000000     
  0.84375000000000000       0.59375000000000000        0.0000000000000000     
  0.87500000000000000       0.59375000000000000        0.0000000000000000     
  0.75000000000000000       0.62500000000000000        0.0000000000000000     
  0.78125000000000000       0.62500000000000000        0.0000000000000000     
  0.81250000000000000       0.62500000000000000        0.0000000000000000     
  0.84375000000000000       0.62500000000000000        0.0000000000000000     
  0.87500000000000000       0.62500000000000000        0.0000000000000000     
  0.87500000000000000       0.50000000000000000        0.0000000000000000     
  0.90625000000000000       0.50000000000000000        0.0000000000000000     
  0.93750000000000000       0.50000000000000000        0.0000000000000000     
  0.96875000000000000       0.50000000000000000        0.0000000000000000     
   1.0000000000000000       0.50000000000000000        0.0000000000000000     
  0.87500000000000000       0.53125000000000000        0.0000000000000000     
  0.90625000000000000       0.53125000000000000        0.0000000000000000     
  0.93750000000000000       0.53125000000000000        0.0000000000000000     
  0.96875000000000000       0.53125000000000000        0.0000000000000000     
   1.0000000000000000       0.53125000000000000        0.0000000000000000     
  0.87500000000000000       0.56250000000000000        0.0000000000000000     
  0.90625000000000000       0.56250000000000000        0.0000000000000000     
  0.93750000000000000       0.56250000000000000        0.0000000000000000     
  0.96875000000000000       0.56250000000000000        0.0000000000000000     
   1.0000000000000000       0.56250000000000000        0.0000000000000000     
  0.87500000000000000       0.59375000000000000        0.0000000000000000     
  0.90625000000000000       0.59375000000000000        0.0000000000000000     
  0.93750000000000000       0.59375000000000000        0.0000000000000000     
  0.96875000000000000       0.59375000000000000        0.0000000000000000     
   1.0000000000000000       0.59375000000000000        0.0000000000000000     
  0.87500000000000000       0.62500000000000000        0.0000000000000000     
  0.90625000000000000       0.62500000000000000        0.0000000000000000     
  0.93750000000000000       0.62500000000000000        0.0000000000000000     
  0.96875000000000000       0.62500000000000000        0.0000000000000000     
   1.0000000000000000       0.62500000000000000        0.0000000000000000     
   0.0000000000000000       0.62500000000000000        0.0000000000000000     
   3.1250000000000000E-002  0.62500000000000000        0.0000000000000000     
   6.2500000000000000E-002  0.62500000000000000        0.0000000000000000     
   9.3750000000000000E-002  0.62500000000000000        0.0000000000000000     
  0.12500000000000000       0.62500000000000000        0.0000000000000000     
   0.0000000000000000       0.65625000000000000        0.0000000000000000     
   3.1250000000000000E-002  0.65625000000000000        0.0000000000000000     
   6.2500000000000000E-002  0.65625000000000000        0.0000000000000000     
   9.3750000000000000E-002  0.65625000000000000        0.0000000000000000     
  0.12500000000000000       0.65625000000000000        0.0000000000000000     
   0.0000000000000000       0.68750000000000000        0.0000000000000000     
   3.1250000000000000E-002  0.68750000000000000        0.0000000000000000     
   6.2500000000000000E-002  0.68750000000000000        0.0000000000000000     
   9.3750000000000000E-002  0.68750000000000000        0.0000000000000000     
  0.12500000000000000       0.68750000000000000        0.0000000000000000     
   0.0000000000000000       0.71875000000000000        0.0000000000000000     
   3.1250000000000000E-002  0.71875000000000000        0.0000000000000000     
   6.2500000000000000E-002  0.71875000000000000        0.0000000000000000     
   9.3750000000000000E-002  0.71875000000000000        0.0000000000000000     
  0.12500000000000000       0.71875000000000000        0.0000000000000000     
   0.0000000000000000       0.75000000000000000        0.0000000000000000     
   3.1250000000000000E-002  0.75000000000000000        0.0000000000000000     
   6.2500000000000000E-002  0.75000000000000000        0.0000000000000000     
   9.3750000000000000E-002  0.75000000000000000        0.0000000000000000     
  0.12500000000000000       0.75000000000000000        0.0000000000000000     
  0.12500000000000000       0.62500000000000000        0.0000000000000000     
  0.15625000000000000       0.62500000000000000        0.0000000000000000     
  0.18750000000000000       0.62500000000000000        0.0000000000000000     
  0.21875000000000000       0.62500000000000000        0.0000000000000000     
  0.25000000000000000       0.62500000000000000        0.0000000000000000     
  0.12500000000000000       0.65625000000000000        0.0000000000000000     
  0.15625000000000000       0.65625000000000000        0.0000000000000000     
  0.18750000000000000       0.65625000000000000        0.0000000000000000     
  0.21875000000000000       0.65625000000000000        0.0000000000000000     
  0.25000000000000000       0.65625000000000000        0.0000000000000000     
  0.12500000000000000       0.68750000000000000        0.0000000000000000     
  0.15625000000000000       0.68750000000000000        0.0000000000000000     
  0.18750000000000000       0.68750000000000000        0.0000000000000000     
  0.21875000000000000       0.68750000000000000        0.0000000000000000     
  0.25000000000000000       0.68750000000000000        0.0000000000000000     
  0.12500000000000000       0.71875000000000000        0.0000000000000000     
  0.15625000000000000       0.71875000000000000        0.0000000000000000     
  0.18750000000000000       0.71875000000000000        0.0000000000000000     
  0.21875000000000000       0.71875000000000000        0.0000000000000000     
  0.25000000000000000       0.71875000000000000        0.0000000000000000     
  0.12500000000000000       0.75000000000000000        0.0000000000000000     
  0.15625000000000000       0.75000000000000000        0.0000000000000000     
  0.18750000000000000       0.75000000000000000        0.0000000000000000     
  0.21875000000000000       0.75000000000000000        0.0000000000000000     
  0.25000000000000000       0.75000000000000000        0.0000000000000000     
  0.25000000000000000       0.62500000000000000        0.0000000000000000     
  0.28125000000000000       0.62500000000000000        0.0000000000000000     
  0.31250000000000000       0.62500000000000000        0.0000000000000000     
  0.34375000000000000       0.62500000000000000        0.0000000000000000     
  0.37500000000000000       0.62500000000000000        0.0000000000000000     
  0.25000000000000000       0.65625000000000000        0.0000000000000000     
  0.28125000000000000       0.65625000000000000        0.0000000000000000     
  0.31250000000000000       0.65625000000000000        0.0000000000000000     
  0.34375000000000000       0.65625000000000000        0.0000000000000000     
  0.37500000000000000       0.65625000000000000        0.0000000000000000     
  0.25000000000000000       0.68750000000000000        0.0000000000000000     
  0.28125000000000000       0.68750000000000000        0.0000000000000000     
  0.31250000000000000       0.68750000000000000        0.0000000000000000     
  0.34375000000000000       0.68750000000000000        0.0000000000000000     
  0.37500000000000000       0.68750000000000000        0.0000000000000000     
  0.25000000000000000       0.71875000000000000        0.0000000000000000     
  0.28125000000000000       0.71875000000000000        0.0000000000000000     
  0.31250000000000000       0.71875000000000000        0.0000000000000000     
  0.34375000000000000       0.71875000000000000        0.0000000000000000     
  0.37500000000000000       0.71875000000000000        0.0000000000000000     
  0.25000000000000000       0.75000000000000000        0.0000000000000000     
  0.28125000000000000       0.75000000000000000        0.0000000000000000     
  0.31250000000000000       0.75000000000000000        0.0000000000000000     
  0.34375000000000000       0.75000000000000000        0.0000000000000000     
  0.37500000000000000       0.75000000000000000        0.0000000000000000     
  0.37500000000000000       0.62500000000000000        0.0000000000000000     
  0.40625000000000000       0.62500000000000000        0.0000000000000000     
  0.43750000000000000       0.62500000000000000        0.0000000000000000     
  0.46875000000000000       0.62500000000000000        0.0000000000000000     
  0.50000000000000000       0.62500000000000000        0.0000000000000000     
  0.37500000000000000       0.65625000000000000        0.0000000000000000     
  0.40625000000000000       0.65625000000000000        0.0000000000000000     
  0.43750000000000000       0.65625000000000000        0.0000000000000000     
  0.46875000000000000       0.65625000000000000        0.0000000000000000     
  0.50000000000000000       0.65625000000000000        0.0000000000000000     
  0.37500000000000000       0.68750000000000000        0.0000000000000000     
  0.40625000000000000       0.68750000000000000        0.0000000000000000     
  0.43750000000000000       0.68750000000000000        0.0000000000000000     
  0.46875000000000000       0.68750000000000000        0.0000000000000000     
  0.50000000000000000       0.68750000000000000        0.0000000000000000     
  0.37500000000000000       0.71875000000000000        0.0000000000000000     
  0.40625000000000000       0.71875000000000000        0.0000000000000000     
  0.43750000000000000       0.71875000000000000        0.0000000000000000     
  0.46875000000000000       0.71875000000000000        0.0000000000000000     
  0.50000000000000000       0.71875000000000000        0.0000000000000000     
  0.37500000000000000       0.75000000000000000        0.0000000000000000     
  0.40625000000000000       0.75000000000000000        0.0000000000000000     
  0.43750000000000000       0.75000000000000000        0.0000000000000000     
  0.46875000000000000       0.75000000000000000        0.0000000000000000     
  0.50000000000000000       0.75000000000000000        0.0000000000000000     
  0.50000000000000000       0.62500000000000000        0.0000000000000000     
  0.53125000000000000       0.62500000000000000        0.0000000000000000     
  0.56250000000000000       0.62500000000000000        0.0000000000000000     
  0.59375000000000000       0.62500000000000000        0.0000000000000000     
  0.62500000000000000       0.62500000000000000        0.0000000000000000     
  0.50000000000000000       0.65625000000000000        0.0000000000000000     
  0.53125000000000000       0.65625000000000000        0.0000000000000000     
  0.56250000000000000       0.65625000000000000        0.0000000000000000     
  0.59375000000000000       0.65625000000000000        0.0000000000000000     
  0.62500000000000000       0.65625000000000000        0.0000000000000000     
  0.50000000000000000       0.68750000000000000        0.0000000000000000     
  0.53125000000000000       0.68750000000000000        0.0000000000000000     
  0.56250000000000000       0.68750000000000000        0.0000000000000000     
  0.59375000000000000       0.68750000000000000        0.0000000000000000     
  0.62500000000000000       0.68750000000000000        0.0000000000000000     
  0.50000000000000000       0.71875000000000000        0.0000000000000000     
  0.53125000000000000       0.71875000000000000        0.0000000000000000     
  0.56250000000000000       0.71875000000000000        0.0000000000000000     
  0.59375000000000000       0.71875000000000000        0.0000000000000000     
  0.62500000000000000       0.71875000000000000        0.0000000000000000     
  0.50000000000000000       0.75000000000000000        0.0000000000000000     
  0.53125000000000000       0.75000000000000000        0.0000000000000000     
  0.56250000000000000       0.75000000000000000        0.0000000000000000     
  0.59375000000000000       0.75000000000000000        0.0000000000000000     
  0.62500000000000000       0.75000000000000000        0.0000000000000000     
  0.62500000000000000       0.62500000000000000        0.0000000000000000     
  0.65625000000000000       0.62500000000000000        0.0000000000000000     
  0.68750000000000000       0.62500000000000000        0.0000000000000000     
  0.71875000000000000       0.62500000000000000        0.0000000000000000     
  0.75000000000000000       0.62500000000000000        0.0000000000000000     
  0.62500000000000000       0.65625000000000000        0.0000000000000000     
  0.65625000000000000       0.65625000000000000        0.0000000000000000     
  0.68750000000000000       0.65625000000000000        0.0000000000000000     
  0.71875000000000000       0.65625000000000000        0.0000000000000000     
  0.75000000000000000       0.65625000000000000        0.0000000000000000     
  0.62500000000000000       0.68750000000000000        0.0000000000000000     
  0.65625000000000000       0.68750000000000000        0.0000000000000000     
  0.68750000000000000       0.68750000000000000        0.0000000000000000     
  0.71875000000000000       0.68750000000000000        0.0000000000000000     
  0.75000000000000000       0.68750000000000000        0.0000000000000000     
  0.62500000000000000       0.71875000000000000        0.0000000000000000     
  0.65625000000000000       0.71875000000000000        0.0000000000000000     
  0.68750000000000000       0.71875000000000000        0.0000000000000000     
  0.71875000000000000       0.71875000000000000        0.0000000000000000     
  0.75000000000000000       0.71875000000000000        0.0000000000000000     
  0.62500000000000000       0.75000000000000000        0.0000000000000000     
  0.65625000000000000       0.75000000000000000        0.0000000000000000     
  0.68750000000000000       0.75000000000000000        0.0000000000000000     
  0.71875000000000000       0.75000000000000000        0.0000000000000000     
  0.75000000000000000       0.75000000000000000        0.0000000000000000     
  0.75000000000000000       0.62500000000000000        0.0000000000000000     
  0.78125000000000000       0.62500000000000000        0.0000000000000000     
  0.81250000000000000       0.62500000000000000        0.0000000000000000     
  0.84375000000000000       0.62500000000000000        0.0000000000000000     
  0.87500000000000000       0.62500000000000000        0.0000000000000000     
  0.75000000000000000       0.65625000000000000        0.0000000000000000     
  0.78125000000000000       0.65625000000000000        0.0000000000000000     
  0.81250000000000000       0.65625000000000000        0.0000000000000000     
  0.84375000000000000       0.65625000000000000        0.0000000000000000     
  0.87500000000000000       0.65625000000000000        0.0000000000000000     
  0.75000000000000000       0.68750000000000000        0.0000000000000000     
  0.78125000000000000       0.68750000000000000        0.0000000000000000     
  0.81250000000000000       0.68750000000000000        0.0000000000000000     
  0.84375000000000000       0.68750000000000000        0.0000000000000000     
  0.87500000000000000       0.68750000000000000        0.0000000000000000     
  0.75000000000000000       0.71875000000000000        0.0000000000000000     
  0.78125000000000000       0.71875000000000000        0.0000000000000000     
  0.81250000000000000       0.71875000000000000        0.0000000000000000     
  0.84375000000000000       0.71875000000000000        0.0000000000000000     
  0.87500000000000000       0.71875000000000000        0.0000000000000000     
  0.75000000000000000       0.75000000000000000        0.0000000000000000     
  0.78125000000000000       0.75000000000000000        0.0000000000000000     
  0.81250000000000000       0.75000000000000000        0.0000000000000000     
  0.84375000000000000       0.75000000000000000        0.0000000000000000     
  0.87500000000000000       0.75000000000000000        0.0000000000000000     
  0.87500000000000000       0.62500000000000000        0.0000000000000000     
  0.90625000000000000       0.62500000000000000        0.0000000000000000     
  0.93750000000000000       0.62500000000000000        0.0000000000000000     
  0.96875000000000000       0.62500000000000000        0.0000000000000000     
   1.0000000000000000       0.62500000000000000        0.0000000000000000     
  0.87500000000000000       0.65625000000000000        0.0000000000000000     
  0.90625000000000000       0.65625000000000000        0.0000000000000000     
  0.93750000000000000       0.65625000000000000        0.0000000000000000     
  0.96875000000000000       0.65625000000000000        0.0000000000000000     
   1.0000000000000000       0.65625000000000000        0.0000000000000000     
  0.87500000000000000       0.68750000000000000        0.0000000000000000     
  0.90625000000000000       0.68750000000000000        0.0000000000000000     
  0.93750000000000000       0.68750000000000000        0.0000000000000000     
  0.96875000000000000       0.68750000000000000        0.0000000000000000     
   1.0000000000000000       0.68750000000000000        0.0000000000000000     
  0.87500000000000000       0.71875000000000000        0.0000000000000000     
  0.90625000000000000       0.71875000000000000        0.0000000000000000     
  0.93750000000000000       0.71875000000000000        0.0000000000000000     
  0.96875000000000000       0.71875000000000000        0.0000000000000000     
   1.0000000000000000       0.71875000000000000        0.0000000000000000     
  0.87500000000000000       0.75000000000000000        0.0000000000000000     
  0.90625000000000000       0.75000000000000000        0.0000000000000000     
  0.93750000000000000       0.75000000000000000        0.0000000000000000     
  0.96875000000000000       0.75000000000000000        0.0000000000000000     
   1.0000000000000000       0.75000000000000000        0.0000000000000000     
   0.0000000000000000       0.75000000000000000        0.0000000000000000     
   3.1250000000000000E-002  0.75000000000000000        0.0000000000000000     
   6.2500000000000000E-002  0.75000000000000000        0.0000000000000000     
   9.3750000000000000E-002  0.75000000000000000        0.0000000000000000     
  0.12500000000000000       0.75000000000000000        0.0000000000000000     
   0.0000000000000000       0.78125000000000000        0.0000000000000000     
   3.1250000000000000E-002  0.78125000000000000        0.0000000000000000     
   6.2500000000000000E-002  0.78125000000000000        0.0000000000000000     
   9.3750000000000000E-002  0.78125000000000000        0.0000000000000000     
  0.12500000000000000       0.78125000000000000        0.0000000000000000     
   0.0000000000000000       0.81250000000000000        0.0000000000000000     
   3.1250000000000000E-002  0.81250000000000000        0.0000000000000000     
   6.2500000000000000E-002  0.81250000000000000        0.0000000000000000     
   9.3750000000000000E-002  0.81250000000000000        0.0000000000000000     
  0.12500000000000000       0.81250000000000000        0.0000000000000000     
   0.0000000000000000       0.84375000000000000        0.0000000000000000     
   3.1250000000000000E-002  0.84375000000000000        0.0000000000000000     
   6.2500000000000000E-002  0.84375000000000000        0.0000000000000000     
   9.3750000000000000E-002  0.84375000000000000        0.0000000000000000     
  0.12500000000000000       0.84375000000000000        0.0000000000000000     
   0.0000000000000000       0.87500000000000000        0.0000000000000000     
   3.1250000000000000E-002  0.87500000000000000        0.0000000000000000     
   6.2500000000000000E-002  0.87500000000000000        0.0000000000000000     
   9.3750000000000000E-002  0.87500000000000000        0.0000000000000000     
  0.12500000000000000       0.87500000000000000        0.0000000000000000     
  0.12500000000000000       0.75000000000000000        0.0000000000000000     
  0.15625000000000000       0.75000000000000000        0.0000000000000000     
  0.18750000000000000       0.75000000000000000        0.0000000000000000     
  0.21875000000000000       0.75000000000000000        0.0000000000000000     
  0.25000000000000000       0.75000000000000000        0.0000000000000000     
  0.12500000000000000       0.78125000000000000        0.0000000000000000     
  0.15625000000000000       0.78125000000000000        0.0000000000000000     
  0.18750000000000000       0.78125000000000000        0.0000000000000000     
  0.21875000000000000       0.78125000000000000        0.0000000000000000     
  0.25000000000000000       0.78125000000000000        0.0000000000000000     
  0.12500000000000000       0.81250000000000000        0.0000000000000000     
  0.15625000000000000       0.81250000000000000        0.0000000000000000     
  0.18750000000000000       0.81250000000000000        0.0000000000000000     
  0.21875000000000000       0.81250000000000000        0.0000000000000000     
  0.25000000000000000       0.81250000000000000        0.0000000000000000     
  0.12500000000000000       0.84375000000000000        0.0000000000000000     
  0.15625000000000000       0.84375000000000000        0.0000000000000000     
  0.18750000000000000       0.84375000000000000        0.0000000000000000     
  0.21875000000000000       0.84375000000000000        0.0000000000000000     
  0.25000000000000000       0.84375000000000000        0.0000000000000000     
  0.12500000000000000       0.87500000000000000        0.0000000000000000     
  0.15625000000000000       0.87500000000000000        0.0000000000000000     
  0.18750000000000000       0.87500000000000000        0.0000000000000000     
  0.21875000000000000       0.87500000000000000        0.0000000000000000     
  0.25000000000000000       0.87500000000000000        0.0000000000000000     
  0.25000000000000000       0.75000000000000000        0.0000000000000000     
  0.28125000000000000       0.75000000000000000        0.0000000000000000     
  0.31250000000000000       0.75000000000000000        0.0000000000000000     
  0.34375000000000000       0.75000000000000000        0.0000000000000000     
  0.37500000000000000       0.75000000000000000        0.0000000000000000     
  0.25000000000000000       0.78125000000000000        0.0000000000000000     
  0.28125000000000000       0.78125000000000000        0.0000000000000000     
  0.31250000000000000       0.78125000000000000        0.0000000000000000     
  0.34375000000000000       0.78125000000000000        0.0000000000000000     
  0.37500000000000000       0.78125000000000000        0.0000000000000000     
  0.25000000000000000       0.81250000000000000        0.0000000000000000     
  0.28125000000000000       0.81250000000000000        0.0000000000000000     
  0.31250000000000000       0.81250000000000000        0.0000000000000000     
  0.34375000000000000       0.81250000000000000        0.0000000000000000     
  0.37500000000000000       0.81250000000000000        0.0000000000000000     
  0.25000000000000000       0.84375000000000000        0.0000000000000000     
  0.28125000000000000       0.84375000000000000        0.0000000000000000     
  0.31250000000000000       0.84375000000000000        0.0000000000000000     
  0.34375000000000000       0.84375000000000000        0.0000000000000000     
  0.37500000000000000       0.84375000000000000        0.0000000000000000     
  0.25000000000000000       0.87500000000000000        0.0000000000000000     
  0.28125000000000000       0.87500000000000000        0.0000000000000000     
  0.31250000000000000       0.87500000000000000        0.0000000000000000     
  0.34375000000000000       0.87500000000000000        0.0000000000000000     
  0.37500000000000000       0.87500000000000000        0.0000000000000000     
  0.37500000000000000       0.75000000000000000        0.0000000000000000     
  0.40625000000000000       0.75000000000000000        0.0000000000000000     
  0.43750000000000000       0.75000000000000000        0.0000000000000000     
  0.46875000000000000       0.75000000000000000        0.0000000000000000     
  0.50000000000000000       0.75000000000000000        0.0000000000000000     
  0.37500000000000000       0.78125000000000000        0.0000000000000000     
  0.40625000000000000       0.78125000000000000        0.0000000000000000     
  0.43750000000000000       0.78125000000000000        0.0000000000000000     
  0.46875000000000000       0.78125000000000000        0.0000000000000000     
  0.50000000000000000       0.78125000000000000        0.0000000000000000     
  0.37500000000000000       0.81250000000000000        0.0000000000000000     
  0.40625000000000000       0.81250000000000000        0.0000000000000000     
  0.43750000000000000       0.81250000000000000        0.0000000000000000     
  0.46875000000000000       0.81250000000000000        0.0000000000000000     
  0.50000000000000000       0.81250000000000000        0.0000000000000000     
  0.37500000000000000       0.84375000000000000        0.0000000000000000     
  0.40625000000000000       0.84375000000000000        0.0000000000000000     
  0.43750000000000000       0.84375000000000000        0.0000000000000000     
  0.46875000000000000       0.84375000000000000        0.0000000000000000     
  0.50000000000000000       0.84375000000000000        0.0000000000000000     
  0.37500000000000000       0.87500000000000000        0.0000000000000000     
  0.40625000000000000       0.87500000000000000        0.0000000000000000     
  0.43750000000000000       0.87500000000000000        0.0000000000000000     
  0.46875000000000000       0.87500000000000000        0.0000000000000000     
  0.50000000000000000       0.87500000000000000        0.0000000000000000     
  0.50000000000000000       0.75000000000000000        0.0000000000000000     
  0.53125000000000000       0.75000000000000000        0.0000000000000000     
  0.56250000000000000       0.75000000000000000        0.0000000000000000     
  0.59375000000000000       0.75000000000000000        0.0000000000000000     
  0.62500000000000000       0.75000000000000000        0.0000000000000000     
  0.50000000000000000       0.78125000000000000        0.0000000000000000     
  0.53125000000000000       0.78125000000000000        0.0000000000000000     
  0.56250000000000000       0.78125000000000000        0.0000000000000000     
  0.59375000000000000       0.78125000000000000        0.0000000000000000     
  0.62500000000000000       0.78125000000000000        0.0000000000000000     
  0.50000000000000000       0.81250000000000000        0.0000000000000000     
  0.53125000000000000       0.81250000000000000        0.0000000000000000     
  0.56250000000000000       0.81250000000000000        0.0000000000000000     
  0.59375000000000000       0.81250000000000000        0.0000000000000000     
  0.62500000000000000       0.81250000000000000        0.0000000000000000     
  0.50000000000000000       0.84375000000000000        0.0000000000000000     
  0.53125000000000000       0.84375000000000000        0.0000000000000000     
  0.56250000000000000       0.84375000000000000        0.0000000000000000     
  0.59375000000000000       0.84375000000000000        0.0000000000000000     
  0.62500000000000000       0.84375000000000000        0.0000000000000000     
  0.50000000000000000       0.87500000000000000        0.0000000000000000     
  0.53125000000000000       0.87500000000000000        0.0000000000000000     
  0.56250000000000000       0.87500000000000000        0.0000000000000000     
  0.59375000000000000       0.87500000000000000        0.0000000000000000     
  0.62500000000000000       0.87500000000000000        0.0000000000000000     
  0.62500000000000000       0.75000000000000000        0.0000000000000000     
  0.65625000000000000       0.75000000000000000        0.0000000000000000     
  0.68750000000000000       0.75000000000000000        0.0000000000000000     
  0.71875000000000000       0.75000000000000000        0.0000000000000000     
  0.75000000000000000       0.75000000000000000        0.0000000000000000     
  0.62500000000000000       0.78125000000000000        0.0000000000000000     
  0.65625000000000000       0.78125000000000000        0.0000000000000000     
  0.68750000000000000       0.78125000000000000        0.0000000000000000     
  0.71875000000000000       0.78125000000000000        0.0000000000000000     
  0.75000000000000000       0.78125000000000000        0.0000000000000000     
  0.62500000000000000       0.81250000000000000        0.0000000000000000     
  0.65625000000000000       0.81250000000000000        0.0000000000000000     
  0.68750000000000000       0.81250000000000000        0.0000000000000000     
  0.71875000000000000       0.81250000000000000        0.0000000000000000     
  0.75000000000000000       0.81250000000000000        0.0000000000000000     
  0.62500000000000000       0.84375000000000000        0.0000000000000000     
  0.65625000000000000       0.84375000000000000        0.0000000000000000     
  0.68750000000000000       0.84375000000000000        0.0000000000000000     
  0.71875000000000000       0.84375000000000000        0.0000000000000000     
  0.75000000000000000       0.84375000000000000        0.0000000000000000     
  0.62500000000000000       0.87500000000000000        0.0000000000000000     
  0.65625000000000000       0.87500000000000000        0.0000000000000000     
  0.68750000000000000       0.87500000000000000        0.0000000000000000     
  0.71875000000000000       0.87500000000000000        0.0000000000000000     
  0.75000000000000000       0.87500000000000000        0.0000000000000000     
  0.75000000000000000       0.75000000000000000        0.0000000000000000     
  0.78125000000000000       0.75000000000000000        0.0000000000000000     
  0.81250000000000000       0.75000000000000000        0.0000000000000000     
  0.84375000000000000       0.75000000000000000        0.0000000000000000     
  0.87500000000000000       0.75000000000000000        0.0000000000000000     
  0.75000000000000000       0.78125000000000000        0.0000000000000000     
  0.78125000000000000       0.78125000000000000        0.0000000000000000     
  0.81250000000000000       0.78125000000000000        0.0000000000000000     
  0.84375000000000000       0.78125000000000000        0.0000000000000000     
  0.87500000000000000       0.78125000000000000        0.0000000000000000     
  0.75000000000000000       0.81250000000000000        0.0000000000000000     
  0.78125000000000000       0.81250000000000000        0.0000000000000000     
  0.81250000000000000       0.81250000000000000        0.0000000000000000     
  0.84375000000000000       0.81250000000000000        0.0000000000000000     
  0.87500000000000000       0.81250000000000000        0.0000000000000000     
  0.75000000000000000       0.84375000000000000        0.0000000000000000     
  0.78125000000000000       0.84375000000000000        0.0000000000000000     
  0.81250000000000000       0.84375000000000000        0.0000000000000000     
  0.84375000000000000       0.84375000000000000        0.0000000000000000     
  0.87500000000000000       0.84375000000000000        0.0000000000000000     
  0.75000000000000000       0.87500000000000000        0.0000000000000000     
  0.78125000000000000       0.87500000000000000        0.0000000000000000     
  0.81250000000000000       0.87500000000000000        0.0000000000000000     
  0.84375000000000000       0.87500000000000000        0.0000000000000000     
  0.87500000000000000       0.87500000000000000        0.0000000000000000     
  0.87500000000000000       0.75000000000000000        0.0000000000000000     
  0.90625000000000000       0.75000000000000000        0.0000000000000000     
  0.93750000000000000       0.75000000000000000        0.0000000000000000     
  0.96875000000000000       0.75000000000000000        0.0000000000000000     
   1.0000000000000000       0.75000000000000000        0.0000000000000000     
  0.87500000000000000       0.78125000000000000        0.0000000000000000     
  0.90625000000000000       0.78125000000000000        0.0000000000000000     
  0.93750000000000000       0.78125000000000000        0.0000000000000000     
  0.96875000000000000       0.78125000000000000        0.0000000000000000     
   1.0000000000000000       0.78125000000000000        0.0000000000000000     
  0.87500000000000000       0.81250000000000000        0.0000000000000000     
  0.90625000000000000       0.81250000000000000        0.0000000000000000     
  0.93750000000000000       0.81250000000000000        0.0000000000000000     
  0.96875000000000000       0.81250000000000000        0.0000000000000000     
   1.0000000000000000       0.81250000000000000        0.0000000000000000     
  0.87500000000000000       0.84375000000000000        0.0000000000000000     
  0.90625000000000000       0.84375000000000000        0.0000000000000000     
  0.93750000000000000       0.84375000000000000        0.0000000000000000     
  0.96875000000000000       0.84375000000000000        0.0000000000000000     
   1.0000000000000000       0.84375000000000000        0.0000000000000000     
  0.87500000000000000       0.87500000000000000        0.0000000000000000     
  0.90625000000000000       0.87500000000000000        0.0000000000000000     
  0.93750000000000000       0.87500000000000000        0.0000000000000000     
  0.96875000000000000       0.87500000000000000        0.0000000000000000     
   1.0000000000000000       0.87500000000000000        0.0000000000000000     
   0.0000000000000000       0.87500000000000000        0.0000000000000000     
   3.1250000000000000E-002  0.87500000000000000        0.0000000000000000     
   6.2500000000000000E-002  0.87500000000000000        0.0000000000000000     
   9.3750000000000000E-002  0.87500000000000000        0.0000000000000000     
  0.12500000000000000       0.87500000000000000        0.0000000000000000     
   0.0000000000000000       0.90625000000000000        0.0000000000000000     
   3.1250000000000000E-002  0.90625000000000000        0.0000000000000000     
   6.2500000000000000E-002  0.90625000000000000        0.0000000000000000     
   9.3750000000000000E-002  0.90625000000000000        0.0000000000000000     
  0.12500000000000000       0.90625000000000000        0.0000000000000000     
   0.0000000000000000       0.93750000000000000        0.0000000000000000     
   3.1250000000000000E-002  0.93750000000000000        0.0000000000000000     
   6.2500000000000000E-002  0.93750000000000000        0.0000000000000000     
   9.3750000000000000E-002  0.93750000000000000        0.0000000000000000     
  0.12500000000000000       0.93750000000000000        0.0000000000000000     
   0.0000000000000000       0.96875000000000000        0.0000000000000000     
   3.1250000000000000E-002  0.96875000000000000        0.0000000000000000     
   6.2500000000000000E-002  0.96875000000000000        0.0000000000000000     
   9.3750000000000000E-002  0.96875000000000000        0.0000000000000000     
  0.12500000000000000       0.96875000000000000        0.0000000000000000     
   0.0000000000000000        1.0000000000000000        0.0000000000000000     
   3.1250000000000000E-002   1.0000000000000000        0.0000000000000000     
   6.2500000000000000E-002   1.0000000000000000        0.0000000000000000     
   9.3750000000000000E-002   1.0000000000000000        0.0000000000000000     
  0.12500000000000000        1.0000000000000000        0.0000000000000000     
  0.12500000000000000       0.87500000000000000        0.0000000000000000     
  0.15625000000000000       0.87500000000000000        0.0000000000000000     
  0.18750000000000000       0.87500000000000000        0.0000000000000000     
  0.21875000000000000       0.87500000000000000        0.0000000000000000     
  0.25000000000000000       0.87500000000000000        0.0000000000000000     
  0.12500000000000000       0.90625000000000000        0.0000000000000000     
  0.15625000000000000       0.90625000000000000        0.0000000000000000     
  0.18750000000000000       0.90625000000000000        0.0000000000000000     
  0.21875000000000000       0.90625000000000000        0.0000000000000000     
  0.25000000000000000       0.90625000000000000        0.0000000000000000     
  0.12500000000000000       0.93750000000000000        0.0000000000000000     
  0.15625000000000000       0.93750000000000000        0.0000000000000000     
  0.18750000000000000       0.93750000000000000        0.0000000000000000     
  0.21875000000000000       0.93750000000000000        0.0000000000000000     
  0.25000000000000000       0.93750000000000000        0.0000000000000000     
  0.12500000000000000       0.96875000000000000        0.0000000000000000     
  0.15625000000000000       0.96875000000000000        0.0000000000000000     
  0.18750000000000000       0.96875000000000000        0.0000000000000000     
  0.21875000000000000       0.96875000000000000        0.0000000000000000     
  0.25000000000000000       0.96875000000000000        0.0000000000000000     
  0.12500000000000000        1.0000000000000000        0.0000000000000000     
  0.15625000000000000        1.0000000000000000        0.0000000000000000     
  0.18750000000000000        1.0000000000000000        0.0000000000000000     
  0.21875000000000000        1.0000000000000000        0.0000000000000000     
  0.25000000000000000        1.0000000000000000        0.0000000000000000     
  0.25000000000000000       0.87500000000000000        0.0000000000000000     
  0.28125000000000000       0.87500000000000000        0.0000000000000000     
  0.31250000000000000       0.87500000000000000        0.0000000000000000     
  0.34375000000000000       0.87500000000000000        0.0000000000000000     
  0.37500000000000000       0.87500000000000000        0.0000000000000000     
  0.25000000000000000       0.90625000000000000        0.0000000000000000     
  0.28125000000000000       0.90625000000000000        0.0000000000000000     
  0.31250000000000000       0.90625000000000000        0.0000000000000000     
  0.34375000000000000       0.90625000000000000        0.0000000000000000     
  0.37500000000000000       0.90625000000000000        0.0000000000000000     
  0.25000000000000000       0.93750000000000000        0.0000000000000000     
  0.28125000000000000       0.93750000000000000        0.0000000000000000     
  0.31250000000000000       0.93750000000000000        0.0000000000000000     
  0.34375000000000000       0.93750000000000000        0.0000000000000000     
  0.37500000000000000       0.93750000000000000        0.0000000000000000     
  0.25000000000000000       0.96875000000000000        0.0000000000000000     
  0.28125000000000000       0.96875000000000000        0.0000000000000000     
  0.31250000000000000       0.96875000000000000        0.0000000000000000     
  0.34375000000000000       0.96875000000000000        0.0000000000000000     
  0.37500000000000000       0.96875000000000000        0.0000000000000000     
  0.25000000000000000        1.0000000000000000        0.0000000000000000     
  0.28125000000000000        1.0000000000000000        0.0000000000000000     
  0.31250000000000000        1.0000000000000000        0.0000000000000000     
  0.34375000000000000        1.0000000000000000        0.0000000000000000     
  0.37500000000000000        1.0000000000000000        0.0000000000000000     
  0.37500000000000000       0.87500000000000000        0.0000000000000000     
  0.40625000000000000       0.87500000000000000        0.0000000000000000     
  0.43750000000000000       0.87500000000000000        0.0000000000000000     
  0.46875000000000000       0.87500000000000000        0.0000000000000000     
  0.50000000000000000       0.87500000000000000        0.0000000000000000     
  0.37500000000000000       0.90625000000000000        0.0000000000000000     
  0.40625000000000000       0.90625000000000000        0.0000000000000000     
  0.43750000000000000       0.90625000000000000        0.0000000000000000     
  0.46875000000000000       0.90625000000000000        0.0000000000000000     
  0.50000000000000000       0.90625000000000000        0.0000000000000000     
  0.37500000000000000       0.93750000000000000        0.0000000000000000     
  0.40625000000000000       0.93750000000000000        0.0000000000000000     
  0.43750000000000000       0.93750000000000000        0.0000000000000000     
  0.46875000000000000       0.93750000000000000        0.0000000000000000     
  0.50000000000000000       0.93750000000000000        0.0000000000000000     
  0.37500000000000000       0.96875000000000000        0.0000000000000000     
  0.40625000000000000       0.96875000000000000        0.0000000000000000     
  0.43750000000000000       0.96875000000000000        0.0000000000000000     
  0.46875000000000000       0.96875000000000000        0.0000000000000000     
  0.50000000000000000       0.96875000000000000        0.0000000000000000     
  0.37500000000000000        1.0000000000000000        0.0000000000000000     
  0.40625000000000000        1.0000000000000000        0.0000000000000000     
  0.43750000000000000        1.0000000000000000        0.0000000000000000     
  0.46875000000000000        1.0000000000000000        0.0000000000000000     
  0.50000000000000000        1.0000000000000000        0.0000000000000000     
  0.50000000000000000       0.87500000000000000        0.0000000000000000     
  0.53125000000000000       0.87500000000000000        0.0000000000000000     
  0.56250000000000000       0.87500000000000000        0.0000000000000000     
  0.59375000000000000       0.87500000000000000        0.0000000000000000     
  0.62500000000000000       0.87500000000000000        0.0000000000000000     
  0.50000000000000000       0.90625000000000000        0.0000000000000000     
  0.53125000000000000       0.90625000000000000        0.0000000000000000     
  0.56250000000000000       0.90625000000000000        0.0000000000000000     
  0.59375000000000000       0.90625000000000000        0.0000000000000000     
  0.62500000000000000       0.90625000000000000        0.0000000000000000     
  0.50000000000000000       0.93750000000000000        0.0000000000000000     
  0.53125000000000000       0.93750000000000000        0.0000000000000000     
  0.56250000000000000       0.93750000000000000        0.0000000000000000     
  0.59375000000000000       0.93750000000000000        0.0000000000000000     
  0.62500000000000000       0.93750000000000000        0.0000000000000000     
  0.50000000000000000       0.96875000000000000        0.0000000000000000     
  0.53125000000000000       0.96875000000000000        0.0000000000000000     
  0.56250000000000000       0.96875000000000000        0.0000000000000000     
  0.59375000000000000       0.96875000000000000        0.0000000000000000     
  0.62500000000000000       0.96875000000000000        0.0000000000000000     
  0.50000000000000000        1.0000000000000000        0.0000000000000000     
  0.53125000000000000        1.0000000000000000        0.0000000000000000     
  0.56250000000000000        1.0000000000000000        0.0000000000000000     
  0.59375000000000000        1.0000000000000000        0.0000000000000000     
  0.62500000000000000        1.0000000000000000        0.0000000000000000     
  0.62500000000000000       0.87500000000000000        0.0000000000000000     
  0.65625000000000000       0.87500000000000000        0.0000000000000000     
  0.68750000000000000       0.87500000000000000        0.0000000000000000     
  0.71875000000000000       0.87500000000000000        0.0000000000000000     
  0.75000000000000000       0.87500000000000000        0.0000000000000000     
  0.62500000000000000       0.90625000000000000        0.0000000000000000     
  0.65625000000000000       0.90625000000000000        0.0000000000000000     
  0.68750000000000000       0.90625000000000000        0.0000000000000000     
  0.71875000000000000       0.90625000000000000        0.0000000000000000     
  0.75000000000000000       0.90625000000000000        0.0000000000000000     
  0.62500000000000000       0.93750000000000000        0.0000000000000000     
  0.65625000000000000       0.93750000000000000        0.0000000000000000     
  0.68750000000000000       0.93750000000000000        0.0000000000000000     
  0.71875000000000000       0.93750000000000000        0.0000000000000000     
  0.75000000000000000       0.93750000000000000        0.0000000000000000     
  0.62500000000000000       0.96875000000000000        0.0000000000000000     
  0.65625000000000000       0.96875000000000000        0.0000000000000000     
  0.68750000000000000       0.96875000000000000        0.0000000000000000     
  0.71875000000000000       0.96875000000000000        0.0000000000000000     
  0.75000000000000000       0.96875000000000000        0.0000000000000000     
  0.62500000000000000        1.0000000000000000        0.0000000000000000     
  0.65625000000000000        1.0000000000000000        0.0000000000000000     
  0.68750000000000000        1.0000000000000000        0.0000000000000000     
  0.71875000000000000        1.0000000000000000        0.0000000000000000     
  0.75000000000000000        1.0000000000000000        0.0000000000000000     
  0.75000000000000000       0.87500000000000000        0.0000000000000000     
  0.78125000000000000       0.87500000000000000        0.0000000000000000     
  0.81250000000000000       0.87500000000000000        0.0000000000000000     
  0.84375000000000000       0.87500000000000000        0.0000000000000000     
  0.87500000000000000       0.87500000000000000        0.0000000000000000     
  0.75000000000000000       0.90625000000000000        0.0000000000000000     
  0.78125000000000000       0.90625000000000000        0.0000000000000000     
  0.81250000000000000       0.90625000000000000        0.0000000000000000     
  0.84375000000000000       0.90625000000000000        0.0000000000000000     
  0.87500000000000000       0.90625000000000000        0.0000000000000000     
  0.75000000000000000       0.93750000000000000        0.0000000000000000     
  0.78125000000000000       0.93750000000000000        0.0000000000000000     
  0.81250000000000000       0.93750000000000000        0.0000000000000000     
  0.84375000000000000       0.93750000000000000        0.0000000000000000     
  0.87500000000000000       0.93750000000000000        0.0000000000000000     
  0.75000000000000000       0.96875000000000000        0.0000000000000000     
  0.78125000000000000       0.96875000000000000        0.0000000000000000     
  0.81250000000000000       0.96875000000000000        0.0000000000000000     
  0.84375000000000000       0.96875000000000000        0.0000000000000000     
  0.87500000000000000       0.96875000000000000        0.0000000000000000     
  0.75000000000000000        1.0000000000000000        0.0000000000000000     
  0.78125000000000000        1.0000000000000000        0.0000000000000000     
  0.81250000000000000        1.0000000000000000        0.0000000000000000     
  0.84375000000000000        1.0000000000000000        0.0000000000000000     
  0.87500000000000000        1.0000000000000000        0.0000000000000000     
  0.87500000000000000       0.87500000000000000        0.0000000000000000     
  0.90625000000000000       0.87500000000000000        0.0000000000000000     
  0.93750000000000000       0.87500000000000000        0.0000000000000000     
  0.96875000000000000       0.87500000000000000        0.0000000000000000     
   1.0000000000000000       0.87500000000000000        0.0000000000000000     
  0.87500000000000000       0.90625000000000000        0.0000000000000000     
  0.90625000000000000       0.90625000000000000        0.0000000000000000     
  0.93750000000000000       0.90625000000000000        0.0000000000000000     
  0.96875000000000000       0.90625000000000000        0.0000000000000000     
   1.0000000000000000       0.90625000000000000        0.0000000000000000     
  0.87500000000000000       0.93750000000000000        0.0000000000000000     
  0.90625000000000000       0.93750000000000000        0.0000000000000000     
  0.93750000000000000       0.93750000000000000        0.0000000000000000     
  0.96875000000000000       0.93750000000000000        0.0000000000000000     
   1.0000000000000000       0.93750000000000000        0.0000000000000000     
  0.87500000000000000       0.96875000000000000        0.0000000000000000     
  0.90625000000000000       0.96875000000000000        0.0000000000000000     
  0.93750000000000000       0.96875000000000000        0.0000000000000000     
  0.96875000000000000       0.96875000000000000        0.0000000000000000     
   1.0000000000000000       0.96875000000000000        0.0000000000000000     
  0.87500000000000000        1.0000000000000000        0.0000000000000000     
  0.90625000000000000        1.0000000000000000        0.0000000000000000     
  0.93750000000000000        1.0000000000000000        0.0000000000000000     
  0.96875000000000000        1.0000000000000000        0.0000000000000000     
   1.0000000000000000        1.0000000000000000        0.0000000000000000     
 </DataArray>
 </Points>
 <Cells>
 <DataArray  type="Int32"  Name="connectivity"  format="ascii">
           0           1           6           5
           1           2           7           6
           2           3           8           7
           3           4           9           8
           5           6          11          10
           6           7          12          11
           7           8          13          12
           8           9          14          13
          10          11          16          15
          11          12          17          16
          12          13          18          17
          13          14          19          18
          15          16          21          20
          16          17          22          21
          17          18          23          22
          18          19          24          23
          25          26          31          30
          26          27          32          31
          27          28          33          32
          28          29          34          33
          30          31          36          35
          31          32          37          36
          32          33          38          37
          33          34          39          38
          35          36          41          40
          36          37          42          41
          37          38          43          42
          38          39          44          43
          40          41          46          45
          41          42          47          46
          42          43          48          47
          43          44          49          48
          50          51          56          55
          51          52          57          56
          52          53          58          57
          53          54          59          58
          55          56          61          60
          56          57          62          61
          57          58          63          62
          58          59          64          63
          60          61          66          65
          61          62          67          66
          62          63          68          67
          63          64          69          68
          65          66          71          70
          66          67          72          71
          67          68          73          72
          68          69          74          73
          75          76          81          80
          76          77          82          81
          77          78          83          82
          78          79          84          83
          80          81          86          85
          81          82          87          86
          82          83          88          87
          83          84          89          88
          85          86          91          90
          86          87          92          91
          87          88          93          92
          88          89          94          93
          90          91          96          95
          91          92          97          96
          92          93          98          97
          93          94          99          98
         100         101         106         105
         101         102         107         106
         102         103         108         107
         103         104         109         108
         105         106         111         110
         106         107         112         111
         107         108         113         112
         108         109         114         113
         110         111         116         115
         111         112         117         116
         112         113         118         117
         113         114         119         118
         115         116         121         120
         116         117         122         121
         117         118         123         122
         118         119         124         123
         125         126         131         130
         126         127         132         131
         127         128         133         132
         128         129         134         133
         130         131         136         135
         131         132         137         136
         132         133         138         137
         133         134         139         138
         135         136         141         140
         136         137         142         141
         137         138         143         142
         138         139         144         143
         140         141         146         145
         141         142         147         146
         142         143         148         147
         143         144         149         148
         150         151         156         155
         151         152         157         156
         152         153         158         157
         153         154         159         158
         155         156         161         160
         156         157         162         161
         157         158         163         162
         158         159         164         163
         160         161         166         165
         161         162         167         166
         162         163         168         167
         163         164         169         168
         165         166         171         170
         166         167         172         171
         167         168         173         172
         168         169         174         173
         175         176         181         180
         176         177         182         181
         177         178         183         182
         178         179         184         183
         180         181         186         185
         181         182         187         186
         182         183         188         187
         183         184         189         188
         185         186         191         190
         186         187         192         191
         187         188         193         192
         188         189         194         193
         190         191         196         195
         191         192         197         196
         192         193         198         197
         193         194         199         198
         200         201         206         205
         201         202         207         206
         202         203         208         207
         203         204         209         208
         205         206         211         210
         206         207         212         211
         207         208         213         212
         208         209         214         213
         210         211         216         215
         211         212         217         216
         212         213         218         217
         213         214         219         218
         215         216         221         220
         216         217         222         221
         217         218         223         222
         218         219         224         223
         225         226         231         230
         226         227         232         231
         227         228         233         232
         228         229         234         233
         230         231         236         235
         231         232         237         236
         232         233         238         237
         233         234         239         238
         235         236         241         240
         236         237         242         241
         237         238         243         242
         238         239         244         243
         240         241         246         245
         241         242         247         246
         242         243         248         247
         243         244         249         248
         250         251         256         255
         251         252         257         256
         252         253         258         257
         253         254         259         258
         255         256         261         260
         256         257         262         261
         257         258         263         262
         258         259         264         263
         260         261         266         265
         261         262         267         266
         262         263         268         267
         263         264         269         268
         265         266         271         270
         266         267         272         271
         267         268         273         272
         268         269         274         273
         275         276         281         280
         276         277         282         281
         277         278         283         282
         278         279         284         283
         280         281         286         285
         281         282         287         286
         282         283         288         287
         283         284         289         288
         285         286         291         290
         286         287         292         291
         287         288         293         292
         288         289         294         293
         290         291         296         295
         291         292         297         296
         292         293         298         297
         293         294         299         298
         300         301         306         305
         301         302         307         306
         302         303         308         307
         303         304         309         308
         305         306         311         310
         306         307         312         311
         307         308         313         312
         308         309         314         313
         310         311         316         315
         311         312         317         316
         312         313         318         317
         313         314         319         318
         315         316         321         320
         316         317         322         321
         317         318         323         322
         318         319         324         323
         325         326         331         330
         326         327         332         331
         327         328         333         332
         328         329         334         333
         330         331         336         335
         331         332         337         336
         332         333         338         337
         333         334         339         338
         335         336         341         340
         336         337         342         341
         337         338         343         342
         338         339         344         343
         340         341         346         345
         341         342         347         346
         342         343         348         347
         343         344         349         348
         350         351         356         355
         351         352         357         356
         352         353         358         357
         353         354         359         358
         355         356         361         360
         356         357         362         361
         357         358         363         362
         358         359         364         363
         360         361         366         365
         361         362         367         366
         362         363         368         367
         363         364         369         368
         365         366         371         370
         366         367         372         371
         367         368         373         372
         368         369         374         373
         375         376         381         380
         376         377         382         381
         377         378         383         382
         378         379         384         383
         380         381         386         385
         381         382         387         386
         382         383         388         387
         383         384         389         388
         385         386         391         390
         386         387         392         391
         387         388         393         392
         388         389         394         393
         390         391         396         395
         391         392         397         396
         392         393         398         397
         393         394         399         398
         400         401         406         405
         401         402         407         406
         402         403         408         407
         403         404         409         408
         405         406         411         410
         406         407         412         411
         407         408         413         412
         408         409         414         413
         410         411         416         415
         411         412         417         416
         412         413         418         417
         413         414         419         418
         415         416         421         420
         416         417         422         421
         417         418         423         422
         418         419         424         423
         425         426         431         430
         426         427         432         431
         427         428         433         432
         428         429         434         433
         430         431         436         435
         431         432         437         436
         432         433         438         437
         433         434         439         438
         435         436         441         440
         436         437         442         441
         437         438         443         442
         438         439         444         443
         440         441         446         445
         441         442         447         446
         442         443         448         447
         443         444         449         448
         450         451         456         455
         451         452         457         456
         452         453         458         457
         453         454         459         458
         455         456         461         460
         456         457         462         461
         457         458         463         462
         458         459         464         463
         460         461         466         465
         461         462         467         466
         462         463         468         467
         463         464         469         468
         465         466         471         470
         466         467         472         471
         467         468         473         472
         468         469         474         473
         475         476         481         480
         476         477         482         481
         477         478         483         482
         478         479         484         483
         480         481         486         485
         481         482         487         486
         482         483         488         487
         483         484         489         488
         485         486         491         490
         486         487         492         491
         487         488         493         492
         488         489         494         493
         490         491         496         495
         491         492         497         496
         492         493         498         497
         493         494         499         498
         500         501         506         505
         501         502         507         506
         502         503         508         507
         503         504         509         508
         505         506         511         510
         506         507         512         511
         507         508         513         512
         508         509         514         513
         510         511         516         515
         511         512         517         516
         512         513         518         517
         513         514         519         518
         515         516         521         520
         516         517         522         521
         517         518         523         522
         518         519         524         523
         525         526         531         530
         526         527         532         531
         527         528         533         532
         528         529         534         533
         530         531         536         535
         531         532         537         536
         532         533         538         537
         533         534         539         538
         535         536         541         540
         536         537         542         541
         537         538         543         542
         538         539         544         543
         540         541         546         545
         541         542         547         546
         542         543         548         547
         543         544         549         548
         550         551         556         555
         551         552         557         556
         552         553         558         557
         553         554         559         558
         555         556         561         560
         556         557         562         561
         557         558         563         562
         558         559         564         563
         560         561         566         565
         561         562         567         566
         562         563         568         567
         563         564         569         568
         565         566         571         570
         566         567         572         571
         567         568         573         572
         568         569         574         573
         575         576         581         580
         576         577         582         581
         577         578         583         582
         578         579         584         583
         580         581         586         585
         581         582         587         586
         582         583         588         587
         583         584         589         588
         585         586         591         590
         586         587         592         591
         587         588         593         592
         588         589         594         593
         590         591         596         595
         591         592         597         596
         592         593         598         597
         593         594         599         598
         600         601         606         605
         601         602         607         606
         602         603         608         607
         603         604         609         608
         605         606         611         610
         606         607         612         611
         607         608         613         612
         608         609         614         613
         610         611         616         615
         611         612         617         616
         612         613         618         617
         613         614         619         618
         615         616         621         620
         616         617         622         621
         617         618         623         622
         618         619         624         623
         625         626         631         630
         626         627         632         631
         627         628         633         632
         628         629         634         633
         630         631         636         635
         631         632         637         636
         632         633         638         637
         633         634         639         638
         635         636         641         640
         636         637         642         641
         637         638         643         642
         638         639         644         643
         640         641         646         645
         641         642         647         646
         642         643         648         647
         643         644         649         648
         650         651         656         655
         651         652         657         656
         652         653         658         657
         653         654         659         658
         655         656         661         660
         656         657         662         661
         657         658         663         662
         658         659         664         663
         660         661         666         665
         661         662         667         666
         662         663         668         667
         663         664         669         668
         665         666         671         670
         666         667         672         671
         667         668         673         672
         668         669         674         673
         675         676         681         680
         676         677         682         681
         677         678         683         682
         678         679         684         683
         680         681         686         685
         681         682         687         686
         682         683         688         687
         683         684         689         688
         685         686         691         690
         686         687         692         691
         687         688         693         692
         688         689         694         693
         690         691         696         695
         691         692         697         696
         692         693         698         697
         693         694         699         698
         700         701         706         705
         701         702         707         706
         702         703         708         707
         703         704         709         708
         705         706         711         710
         706         707         712         711
         707         708         713         712
         708         709         714         713
         710         711         716         715
         711         712         717         716
         712         713         718         717
         713         714         719         718
         715         716         721         720
         716         717         722         721
         717         718         723         722
         718         719         724         723
         725         726         731         730
         726         727         732         731
         727         728         733         732
         728         729         734         733
         730         731         736         735
         731         732         737         736
         732         733         738         737
         733         734         739         738
         735         736         741         740
         736         737         742         741
         737         738         743         742
         738         739         744         743
         740         741         746         745
         741         742         747         746
         742         743         748         747
         743         744         749         748
         750         751         756         755
         751         752         757         756
         752         753         758         757
         753         754         759         758
         755         756         761         760
         756         757         762         761
         757         758         763         762
         758         759         764         763
         760         761         766         765
         761         762         767         766
         762         763         768         767
         763         764         769         768
         765         766         771         770
         766         767         772         771
         767         768         773         772
         768         769         774         773
         775         776         781         780
         776         777         782         781
         777         778         783         782
         778         779         784         783
         780         781         786         785
         781         782         787         786
         782         783         788         787
         783         784         789         788
         785         786         791         790
         786         787         792         791
         787         788         793         792
         788         789         794         793
         790         791         796         795
         791         792         797         796
         792         793         798         797
         793         794         799         798
         800         801         806         805
         801         802         807         806
         802         803         808         807
         803         804         809         808
         805         806         811         810
         806         807         812         811
         807         808         813         812
         808         809         814         813
         810         811         816         815
         811         812         817         816
         812         813         818         817
         813         814         819         818
         815         816         821         820
         816         817         822         821
         817         818         823         822
         818         819         824         823
         825         826         831         830
         826         827         832         831
         827         828         833         832
         828         829         834         833
         830         831         836         835
         831         832         837         836
         832         833         838         837
         833         834         839         838
         835         836         841         840
         836         837         842         841
         837         838         843         842
         838         839         844         843
         840         841         846         845
         841         842         847         846
         842         843         848         847
         843         844         849         848
         850         851         856         855
         851         852         857         856
         852         853         858         857
         853         854         859         858
         855         856         861         860
         856         857         862         861
         857         858         863         862
         858         859         864         863
         860         861         866         865
         861         862         867         866
         862         863         868         867
         863         864         869         868
         865         866         871         870
         866         867         872         871
         867         868         873         872
         868         869         874         873
         875         876         881         880
         876         877         882         881
         877         878         883         882
         878         879         884         883
         880         881         886         885
         881         882         887         886
         882         883         888         887
         883         884         889         888
         885         886         891         890
         886         887         892         891
         887         888         893         892
         888         889         894         893
         890         891         896         895
         891         892         897         896
         892         893         898         897
         893         894         899         898
         900         901         906         905
         901         902         907         906
         902         903         908         907
         903         904         909         908
         905         906         911         910
         906         907         912         911
         907         908         913         912
         908         909         914         913
         910         911         916         915
         911         912         917         916
         912         913         918         917
         913         914         919         918
         915         916         921         920
         916         917         922         921
         917         918         923         922
         918         919         924         923
         925         926         931         930
         926         927         932         931
         927         928         933         932
         928         929         934         933
         930         931         936         935
         931         932         937         936
         932         933         938         937
         933         934         939         938
         935         936         941         940
         936         937         942         941
         937         938         943         942
         938         939         944         943
         940         941         946         945
         941         942         947         946
         942         943         948         947
         943         944         949         948
         950         951         956         955
         951         952         957         956
         952         953         958         957
         953         954         959         958
         955         956         961         960
         956         957         962         961
         957         958         963         962
         958         959         964         963
         960         961         966         965
         961         962         967         966
         962         963         968         967
         963         964         969         968
         965         966         971         970
         966         967         972         971
         967         968         973         972
         968         969         974         973
         975         976         981         980
         976         977         982         981
         977         978         983         982
         978         979         984         983
         980         981         986         985
         981         982         987         986
         982         983         988         987
         983         984         989         988
         985         986         991         990
         986         987         992         991
         987         988         993         992
         988         989         994         993
         990         991         996         995
         991         992         997         996
         992         993         998         997
         993         994         999         998
        1000        1001        1006        1005
        1001        1002        1007        1006
        1002        1003        1008        1007
        1003        1004        1009        1008
        1005        1006        1011        1010
        1006        1007        1012        1011
        1007        1008        1013        1012
        1008        1009        1014        1013
        1010        1011        1016        1015
        1011        1012        1017        1016
        1012        1013        1018        1017
        1013        1014        1019        1018
        1015        1016        1021        1020
        1016        1017        1022        1021
        1017        1018        1023        1022
        1018        1019        1024        1023
        1025        1026        1031        1030
        1026        1027        1032        1031
        1027        1028        1033        1032
        1028        1029        1034        1033
        1030        1031        1036        1035
        1031        1032        1037        1036
        1032        1033        1038        1037
        1033        1034        1039        1038
        1035        1036        1041        1040
        1036        1037        1042        1041
        1037        1038        1043        1042
        1038        1039        1044        1043
        1040        1041        1046        1045
        1041        1042        1047        1046
        1042        1043        1048        1047
        1043        1044        1049        1048
        1050        1051        1056        1055
        1051        1052        1057        1056
        1052        1053        1058        1057
        1053        1054        1059        1058
        1055        1056        1061        1060
        1056        1057        1062        1061
        1057        1058        1063        1062
        1058        1059        1064        1063
        1060        1061        1066        1065
        1061        1062        1067        1066
        1062        1063        1068        1067
        1063        1064        1069        1068
        1065        1066        1071        1070
        1066        1067        1072        1071
        1067        1068        1073        1072
        1068        1069        1074        1073
        1075        1076        1081        1080
        1076        1077        1082        1081
        1077        1078        1083        1082
        1078        1079        1084        1083
        1080        1081        1086        1085
        1081        1082        1087        1086
        1082        1083        1088        1087
        1083        1084        1089        1088
        1085        1086        1091        1090
        1086        1087        1092        1091
        1087        1088        1093        1092
        1088        1089        1094        1093
        1090        1091        1096        1095
        1091        1092        1097        1096
        1092        1093        1098        1097
        1093        1094        1099        1098
        1100        1101        1106        1105
        1101        1102        1107        1106
        1102        1103        1108        1107
        1103        1104        1109        1108
        1105        1106        1111        1110
        1106        1107        1112        1111
        1107        1108        1113        1112
        1108        1109        1114        1113
        1110        1111        1116        1115
        1111        1112        1117        1116
        1112        1113        1118        1117
        1113        1114        1119        1118
        1115        1116        1121        1120
        1116        1117        1122        1121
        1117        1118        1123        1122
        1118        1119        1124        1123
        1125        1126        1131        1130
        1126        1127        1132        1131
        1127        1128        1133        1132
        1128        1129        1134        1133
        1130        1131        1136        1135
        1131        1132        1137        1136
        1132        1133        1138        1137
        1133        1134        1139        1138
        1135        1136        1141        1140
        1136        1137        1142        1141
        1137        1138        1143        1142
        1138        1139        1144        1143
        1140        1141        1146        1145
        1141        1142        1147        1146
        1142        1143        1148        1147
        1143        1144        1149        1148
        1150        1151        1156        1155
        1151        1152        1157        1156
        1152        1153        1158        1157
        1153        1154        1159        1158
        1155        1156        1161        1160
        1156        1157        1162        1161
        1157        1158        1163        1162
        1158        1159        1164        1163
        1160        1161        1166        1165
        1161        1162        1167        1166
        1162        1163        1168        1167
        1163        1164        1169        1168
        1165        1166        1171        1170
        1166        1167        1172        1171
        1167        1168        1173        1172
        1168        1169        1174        1173
        1175        1176        1181        1180
        1176        1177        1182        1181
        1177        1178        1183        1182
        1178        1179        1184        1183
        1180        1181        1186        1185
        1181        1182        1187        1186
        1182        1183        1188        1187
        1183        1184        1189        1188
        1185        1186        1191        1190
        1186        1187        1192        1191
        1187        1188        1193        1192
        1188        1189        1194        1193
        1190        1191        1196        1195
        1191        1192        1197        1196
        1192        1193        1198        1197
        1193        1194        1199        1198
        1200        1201        1206        1205
        1201        1202        1207        1206
        1202        1203        1208        1207
        1203        1204        1209        1208
        1205        1206        1211        1210
        1206        1207        1212        1211
        1207        1208        1213        1212
        1208        1209        1214        1213
        1210        1211        1216        1215
        1211        1212        1217        1216
        1212        1213        1218        1217
        1213        1214        1219        1218
        1215        1216        1221        1220
        1216        1217        1222        1221
        1217        1218        1223        1222
        1218        1219        1224        1223
        1225        1226        1231        1230
        1226        1227        1232        1231
        1227        1228        1233        1232
        1228        1229        1234        1233
        1230        1231        1236        1235
        1231        1232        1237        1236
        1232        1233        1238        1237
        1233        1234        1239        1238
        1235        1236        1241        1240
        1236        1237        1242        1241
        1237        1238        1243        1242
        1238        1239        1244        1243
        1240        1241        1246        1245
        1241        1242        1247        1246
        1242        1243        1248        1247
        1243        1244        1249        1248
        1250        1251        1256        1255
        1251        1252        1257        1256
        1252        1253        1258        1257
        1253        1254        1259        1258
        1255        1256        1261        1260
        1256        1257        1262        1261
        1257        1258        1263        1262
        1258        1259        1264        1263
        1260        1261        1266        1265
        1261        1262        1267        1266
        1262        1263        1268        1267
        1263        1264        1269        1268
        1265        1266        1271        1270
        1266        1267        1272        1271
        1267        1268        1273        1272
        1268        1269        1274        1273
        1275        1276        1281        1280
        1276        1277        1282        1281
        1277        1278        1283        1282
        1278        1279        1284        1283
        1280        1281        1286        1285
        1281        1282        1287        1286
        1282        1283        1288        1287
        1283        1284        1289        1288
        1285        1286        1291        1290
        1286        1287        1292        1291
        1287        1288        1293        1292
        1288        1289        1294        1293
        1290        1291        1296        1295
        1291        1292        1297        1296
        1292        1293        1298        1297
        1293        1294        1299        1298
        1300        1301        1306        1305
        1301        1302        1307        1306
        1302        1303        1308        1307
        1303        1304        1309        1308
        1305        1306        1311        1310
        1306        1307        1312        1311
        1307        1308        1313        1312
        1308        1309        1314        1313
        1310        1311        1316        1315
        1311        1312        1317        1316
        1312        1313        1318        1317
        1313        1314        1319        1318
        1315        1316        1321        1320
        1316        1317        1322        1321
        1317        1318        1323        1322
        1318        1319        1324        1323
        1325        1326        1331        1330
        1326        1327        1332        1331
        1327        1328        1333        1332
        1328        1329        1334        1333
        1330        1331        1336        1335
        1331        1332        1337        1336
        1332        1333        1338        1337
        1333        1334        1339        1338
        1335        1336        1341        1340
        1336        1337        1342        1341
        1337        1338        1343        1342
        1338        1339        1344        1343
        1340        1341        1346        1345
        1341        1342        1347        1346
        1342        1343        1348        1347
        1343        1344        1349        1348
        1350        1351        1356        1355
        1351        1352        1357        1356
        1352        1353        1358        1357
        1353        1354        1359        1358
        1355        1356        1361        1360
        1356        1357        1362        1361
        1357        1358        1363        1362
        1358        1359        1364        1363
        1360        1361        1366        1365
        1361        1362        1367        1366
        1362        1363        1368        1367
        1363        1364        1369        1368
        1365        1366        1371        1370
        1366        1367        1372        1371
        1367        1368        1373        1372
        1368        1369        1374        1373
        1375        1376        1381        1380
        1376        1377        1382        1381
        1377        1378        1383        1382
        1378        1379        1384        1383
        1380        1381        1386        1385
        1381        1382        1387        1386
        1382        1383        1388        1387
        1383        1384        1389        1388
        1385        1386        1391        1390
        1386        1387        1392        1391
        1387        1388        1393        1392
        1388        1389        1394        1393
        1390        1391        1396        1395
        1391        1392        1397        1396
        1392        1393        1398        1397
        1393        1394        1399        1398
        1400        1401        1406        1405
        1401        1402        1407        1406
        1402        1403        1408        1407
        1403        1404        1409        1408
        1405        1406        1411        1410
        1406        1407        1412        1411
        1407        1408        1413        1412
        1408        1409        1414        1413
        1410        1411        1416        1415
        1411        1412        1417        1416
        1412        1413        1418        1417
        1413        1414        1419        1418
        1415        1416        1421        1420
        1416        1417        1422        1421
        1417        1418        1423        1422
        1418        1419        1424        1423
        1425        1426        1431        1430
        1426        1427        1432        1431
        1427        1428        1433        1432
        1428        1429        1434        1433
        1430        1431        1436        1435
        1431        1432        1437        1436
        1432        1433        1438        1437
        1433        1434        1439        1438
        1435        1436        1441        1440
        1436        1437        1442        1441
        1437        1438        1443        1442
        1438        1439        1444        1443
        1440        1441        1446        1445
        1441        1442        1447        1446
        1442        1443        1448        1447
        1443        1444        1449        1448
        1450        1451        1456        1455
        1451        1452        1457        1456
        1452        1453        1458        1457
        1453        1454        1459        1458
        1455        1456        1461        1460
        1456        1457        1462        1461
        1457        1458        1463        1462
        1458        1459        1464        1463
        1460        1461        1466        1465
        1461        1462        1467        1466
        1462        1463        1468        1467
        1463        1464        1469        1468
        1465        1466        1471        1470
        1466        1467        1472        1471
        1467        1468        1473        1472
        1468        1469        1474        1473
        1475        1476        1481        1480
        1476        1477        1482        1481
        1477        1478        1483        1482
        1478        1479        1484        1483
        1480        1481        1486        1485
        1481        1482        1487        1486
        1482        1483        1488        1487
        1483        1484        1489        1488
        1485        1486        1491        1490
        1486        1487        1492        1491
        1487        1488        1493        1492
        1488        1489        1494        1493
        1490        1491        1496        1495
        1491        1492        1497        1496
        1492        1493        1498        1497
        1493        1494        1499        1498
        1500        1501        1506        1505
        1501        1502        1507        1506
        1502        1503        1508        1507
        1503        1504        1509        1508
        1505        1506        1511        1510
        1506        1507        1512        1511
        1507        1508        1513        1512
        1508        1509        1514        1513
        1510        1511        1516        1515
        1511        1512        1517        1516
        1512        1513        1518        1517
        1513        1514        1519        1518
        1515        1516        1521        1520
        1516        1517        1522        1521
        1517        1518        1523        1522
        1518        1519        1524        1523
        1525        1526        1531        1530
        1526        1527        1532        1531
        1527        1528        1533        1532
        1528        1529        1534        1533
        1530        1531        1536        1535
        1531        1532        1537        1536
        1532        1533        1538        1537
        1533        1534        1539        1538
        1535        1536        1541        1540
        1536        1537        1542        1541
        1537        1538        1543        1542
        1538        1539        1544        1543
        1540        1541        1546        1545
        1541        1542        1547        1546
        1542        1543        1548        1547
        1543        1544        1549        1548
        1550        1551        1556        1555
        1551        1552        1557        1556
        1552        1553        1558        1557
        1553        1554        1559        1558
        1555        1556        1561        1560
        1556        1557        1562        1561
        1557        1558        1563        1562
        1558        1559        1564        1563
        1560        1561        1566        1565
        1561        1562        1567        1566
        1562        1563        1568        1567
        1563        1564        1569        1568
        1565        1566        1571        1570
        1566        1567        1572        1571
        1567        1568        1573        1572
        1568        1569        1574        1573
        1575        1576        1581        1580
        1576        1577        1582        1581
        1577        1578        1583        1582
        1578        1579        1584        1583
        1580        1581        1586        1585
        1581        1582        1587        1586
        1582        1583        1588        1587
        1583        1584        1589        1588
        1585        1586        1591        1590
        1586        1587        1592        1591
        1587        1588        1593        1592
        1588        1589        1594        1593
        1590        1591        1596        1595
        1591        1592        1597        1596
        1592        1593        1598        1597
        1593        1594        1599        1598
 </DataArray>
 <DataArray  type="Int32"  Name="offsets"  format="ascii"> 
           4
           8
          12
          16
          20
          24
          28
          32
          36
          40
          44
          48
          52
          56
          60
          64
          68
          72
          76
          80
          84
          88
          92
          96
         100
         104
         108
         112
         116
         120
         124
         128
         132
         136
         140
         144
         148
         152
         156
         160
         164
         168
         172
         176
         180
         184
         188
         192
         196
         200
         204
         208
         212
         216
         220
         224
         228
         232
         236
         240
         244
         248
         252
         256
         260
         264
         268
         272
         276
         280
         284
         288
         292
         296
         300
         304
         308
         312
         316
         320
         324
         328
         332
         336
         340
         344
         348
         352
         356
         360
         364
         368
         372
         376
         380
         384
         388
         392
         396
         400
         404
         408
         412
         416
         420
         424
         428
         432
         436
         440
         444
         448
         452
         456
         460
         464
         468
         472
         476
         480
         484
         488
         492
         496
         500
         504
         508
         512
         516
         520
         524
         528
         532
         536
         540
         544
         548
         552
         556
         560
         564
         568
         572
         576
         580
         584
         588
         592
         596
         600
         604
         608
         612
         616
         620
         624
         628
         632
         636
         640
         644
         648
         652
         656
         660
         664
         668
         672
         676
         680
         684
         688
         692
         696
         700
         704
         708
         712
         716
         720
         724
         728
         732
         736
         740
         744
         748
         752
         756
         760
         764
         768
         772
         776
         780
         784
         788
         792
         796
         800
         804
         808
         812
         816
         820
         824
         828
         832
         836
         840
         844
         848
         852
         856
         860
         864
         868
         872
         876
         880
         884
         888
         892
         896
         900
         904
         908
         912
         916
         920
         924
         928
         932
         936
         940
         944
         948
         952
         956
         960
         964
         968
         972
         976
         980
         984
         988
         992
         996
        1000
        1004
        1008
        1012
        1016
        1020
        1024
        1028
        1032
        1036
        1040
        1044
        1048
        1052
        1056
        1060
        1064
        1068
        1072
        1076
        1080
        1084
        1088
        1092
        1096
        1100
        1104
        1108
        1112
        1116
        1120
        1124
        1128
        1132
        1136
        1140
        1144
        1148
        1152
        1156
        1160
        1164
        1168
        1172
        1176
        1180
        1184
        1188
        1192
        1196
        1200
        1204
        1208
        1212
        1216
        1220
        1224
        1228
        1232
        1236
        1240
        1244
        1248
        1252
        1256
        1260
        1264
        1268
        1272
        1276
        1280
        1284
        1288
        1292
        1296
        1300
        1304
        1308
        1312
        1316
        1320
        1324
        1328
        1332
        1336
        1340
        1344
        1348
        1352
        1356
        1360
        1364
        1368
        1372
        1376
        1380
        1384
        1388
        1392
        1396
        1400
        1404
        1408
        1412
        1416
        1420
        1424
        1428
        1432
        1436
        1440
        1444
        1448
        1452
        1456
        1460
        1464
        1468
        1472
        1476
        1480
        1484
        1488
        1492
        1496
        1500
        1504
        1508
        1512
        1516
        1520
        1524
        1528
        1532
        1536
        1540
        1544
        1548
        1552
        1556
        1560
        1564
        1568
        1572
        1576
        1580
        1584
        1588
        1592
        1596
        1600
        1604
        1608
        1612
        1616
        1620
        1624
        1628
        1632
        1636
        1640
        1644
        1648
        1652
        1656
        1660
        1664
        1668
        1672
        1676
        1680
        1684
        1688
        1692
        1696
        1700
        1704
        1708
        1712
        1716
        1720
        1724
        1728
        1732
        1736
        1740
        1744
        1748
        1752
        1756
        1760
        1764
        1768
        1772
        1776
        1780
        1784
        1788
        1792
        1796
        1800
        1804
        1808
        1812
        1816
        1820
        1824
        1828
        1832
        1836
        1840
        1844
        1848
        1852
        1856
        1860
        1864
        1868
        1872
        1876
        1880
        1884
        1888
        1892
        1896
        1900
        1904
        1908
        1912
        1916
        1920
        1924
        1928
        1932
        1936
        1940
        1944
        1948
        1952
        1956
        1960
        1964
        1968
        1972
        1976
        1980
        1984
        1988
        1992
        1996
        2000
        2004
        2008
        2012
        2016
        2020
        2024
        2028
        2032
        2036
        2040
        2044
        2048
        2052
        2056
        2060
        2064
        2068
        2072
        2076
        2080
        2084
        2088
        2092
        2096
        2100
        2104
        2108
        2112
        2116
        2120
        2124
        2128
        2132
        2136
        2140
        2144
        2148
        2152
        2156
        2160
        2164
        2168
        2172
        2176
        2180
        2184
        2188
        2192
        2196
        2200
        2204
        2208
        2212
        2216
        2220
        2224
        2228
        2232
        2236
        2240
        2244
        2248
        2252
        2256
        2260
        2264
        2268
        2272
        2276
        2280
        2284
        2288
        2292
        2296
        2300
        2304
        2308
        2312
        2316
        2320
        2324
        2328
        2332
        2336
        2340
        2344
        2348
        2352
        2356
        2360
        2364
        2368
        2372
        2376
        2380
        2384
        2388
        2392
        2396
        2400
        2404
        2408
        2412
        2416
        2420
        2424
        2428
        2432
        2436
        2440
        2444
        2448
        2452
        2456
        2460
        2464
        2468
        2472
        2476
        2480
        2484
        2488
        2492
        2496
        2500
        2504
        2508
        2512
        2516
        2520
        2524
        2528
        2532
        2536
        2540
        2544
        2548
        2552
        2556
        2560
        2564
        2568
        2572
        2576
        2580
        2584
        2588
        2592
        2596
        2600
        2604
        2608
        2612
        2616
        2620
        2624
        2628
        2632
        2636
        2640
        2644
        2648
        2652
        2656
        2660
        2664
        2668
        2672
        2676
        2680
        2684
        2688
        2692
        2696
        2700
        2704
        2708
        2712
        2716
        2720
        2724
        2728
        2732
        2736
        2740
        2744
        2748
        2752
        2756
        2760
        2764
        2768
        2772
        2776
        2780
        2784
        2788
        2792
        2796
        2800
        2804
        2808
        2812
        2816
        2820
        2824
        2828
        2832
        2836
        2840
        2844
        2848
        2852
        2856
        2860
        2864
        2868
        2872
        2876
        2880
        2884
        2888
        2892
        2896
        2900
        2904
        2908
        2912
        2916
        2920
        2924
        2928
        2932
        2936
        2940
        2944
        2948
        2952
        2956
        2960
        2964
        2968
        2972
        2976
        2980
        2984
        2988
        2992
        2996
        3000
        3004
        3008
        3012
        3016
        3020
        3024
        3028
        3032
        3036
        3040
        3044
        3048
        3052
        3056
        3060
        3064
        3068
        3072
        3076
        3080
        3084
        3088
        3092
        3096
        3100
        3104
        3108
        3112
        3116
        3120
        3124
        3128
        3132
        3136
        3140
        3144
        3148
        3152
        3156
        3160
        3164
        3168
        3172
        3176
        3180
        3184
        3188
        3192
        3196
        3200
        3204
        3208
        3212
        3216
        3220
        3224
        3228
        3232
        3236
        3240
        3244
        3248
        3252
        3256
        3260
        3264
        3268
        3272
        3276
        3280
        3284
        3288
        3292
        3296
        3300
        3304
        3308
        3312
        3316
        3320
        3324
        3328
        3332
        3336
        3340
        3344
        3348
        3352
        3356
        3360
        3364
        3368
        3372
        3376
        3380
        3384
        3388
        3392
        3396
        3400
        3404
        3408
        3412
        3416
        3420
        3424
        3428
        3432
        3436
        3440
        3444
        3448
        3452
        3456
        3460
        3464
        3468
        3472
        3476
        3480
        3484
        3488
        3492
        3496
        3500
        3504
        3508
        3512
        3516
        3520
        3524
        3528
        3532
        3536
        3540
        3544
        3548
        3552
        3556
        3560
        3564
        3568
        3572
        3576
        3580
        3584
        3588
        3592
        3596
        3600
        3604
        3608
        3612
        3616
        3620
        3624
        3628
        3632
        3636
        3640
        3644
        3648
        3652
        3656
        3660
        3664
        3668
        3672
        3676
        3680
        3684
        3688
        3692
        3696
        3700
        3704
        3708
        3712
        3716
        3720
        3724
        3728
        3732
        3736
        3740
        3744
        3748
        3752
        3756
        3760
        3764
        3768
        3772
        3776
        3780
        3784
        3788
        3792
        3796
        3800
        3804
        3808
        3812
        3816
        3820
        3824
        3828
        3832
        3836
        3840
        3844
        3848
        3852
        3856
        3860
        3864
        3868
        3872
        3876
        3880
        3884
        3888
        3892
        3896
        3900
        3904
        3908
        3912
        3916
        3920
        3924
        3928
        3932
        3936
        3940
        3944
        3948
        3952
        3956
        3960
        3964
        3968
        3972
        3976
        3980
        3984
        3988
        3992
        3996
        4000
        4004
        4008
        4012
        4016
        4020
        4024
        4028
        4032
        4036
        4040
        4044
        4048
        4052
        4056
        4060
        4064
        4068
        4072
        4076
        4080
        4084
        4088
        4092
        4096
 </DataArray>
 <DataArray  type="UInt8"  Name="types"  format="ascii">
 9
 9
 9
 9
 9
 9
 9
 9
 9
 9
 9
 9
 9
 9
 9
 9
 9
 9
 9
 9
 9
 9
 9
 9
 9
 9
 9
 9
 9
 9
 9
 9
 9
 9
 9
 9
 9
 9
 9
 9
 9
 9
 9
 9
 9
 9
 9
 9
 9
 9
 9
 9
 9
 9
 9
 9
 9
 9
 9
 9
 9
 9
 9
 9
 9
 9
 9
 9
 9
 9
 9
 9
 9
 9
 9
 9
 9
 9
 9
 9
 9
 9
 9
 9
 9
 9
 9
 9
 9
 9
 9
 9
 9
 9
 9
 9
 9
 9
 9
 9
 9
 9
 9
 9
 9
 9
 9
 9
 9
 9
 9
 9
 9
 9
 9
 9
 9
 9
 9
 9
 9
 9
 9
 9
 9
 9
 9
 9
 9
 9
 9
 9
 9
 9
 9
 9
 9
 9
 9
 9
 9
 9
 9
 9
 9
 9
 9
 9
 9
 9
 9
 9
 9
 9
 9
 9
 9
 9
 9
 9
 9
 9
 9
 9
 9
 9
 9
 9
 9
 9
 9
 9
 9
 9
 9
 9
 9
 9
 9
 9
 9
 9
 9
 9
 9
 9
 9
 9
 9
 9
 9
 9
 9
 9
 9
 9
 9
 9
 9
 9
 9
 9
 9
 9
 9
 9
 9
 9
 9
 9
 9
 9
 9
 9
 9
 9
 9
 9
 9
 9
 9
 9
 9
 9
 9
 9
 9
 9
 9
 9
 9
 9
 9
 9
 9
 9
 9
 9
 9
 9
 9
 9
 9
 9
 9
 9
 9
 9
 9
 9
 9
 9
 9
 9
 9
 9
 9
 9
 9
 9
 9
 9
 9
 9
 9
 9
 9
 9
 9
 9
 9
 9
 9
 9
 9
 9
 9
 9
 9
 9
 9
 9
 9
 9
 9
 9
 9
 9
 9
 9
 9
 9
 9
 9
 9
 9
 9
 9
 9
 9
 9
 9
 9
 9
 9
 9
 9
 9
 9
 9
 9
 9
 9
 9
 9
 9
 9
 9
 9
 9
 9
 9
 9
 9
 9
 9
 9
 9
 9
 9
 9
 9
 9
 9
 9
 9
 9
 9
 9
 9
 9
 9
 9
 9
 9
 9
 9
 9
 9
 9
 9
 9
 9
 9
 9
 9
 9
 9
 9
 9
 9
 9
 9
 9
 9
 9
 9
 9
 9
 9
 9
 9
 9
 9
 9
 9
 9
 9
 9
 9
 9
 9
 9
 9
 9
 9
 9
 9
 9
 9
 9
 9
 9
 9
 9
 9
 9
 9
 9
 9
 9
 9
 9
 9
 9
 9
 9
 9
 9
 9
 9
 9
 9
 9
 9
 9
 9
 9
 9
 9
 9
 9
 9
 9
 9
 9
 9
 9
 9
 9
 9
 9
 9
 9
 9
 9
 9
 9
 9
 9
 9
 9
 9
 9
 9
 9
 9
 9
 9
 9
 9
 9
 9
 9
 9
 9
 9
 9
 9
 9
 9
 9
 9
 9
 9
 9
 9
 9
 9
 9
 9
 9
 9
 9
 9
 9
 9
 9
 9
 9
 9
 9
 9
 9
 9
 9
 9
 9
 9
 9
 9
 9
 9
 9
 9
 9
 9
 9
 9
 9
 9
 9
 9
 9
 9
 9
 9
 9
 9
 9
 9
 9
 9
 9
 9
 9
 9
 9
 9
 9
 9
 9
 9
 9
 9
 9
 9
 9
 9
 9
 9
 9
 9
 9
 9
 9
 9
 9
 9
 9
 9
 9
 9
 9
 9
 9
 9
 9
 9
 9
 9
 9
 9
 9
 9
 9
 9
 9
 9
 9
 9
 9
 9
 9
 9
 9
 9
 9
 9
 9
 9
 9
 9
 9
 9
 9
 9
 9
 9
 9
 9
 9
 9
 9
 9
 9
 9
 9
 9
 9
 9
 9
 9
 9
 9
 9
 9
 9
 9
 9
 9
 9
 9
 9
 9
 9
 9
 9
 9
 9
 9
 9
 9
 9
 9
 9
 9
 9
 9
 9
 9
 9
 9
 9
 9
 9
 9
 9
 9
 9
 9
 9
 9
 9
 9
 9
 9
 9
 9
 9
 9
 9
 9
 9
 9
 9
 9
 9
 9
 9
 9
 9
 9
 9
 9
 9
 9
 9
 9
 9
 9
 9
 9
 9
 9
 9
 9
 9
 9
 9
 9
 9
 9
 9
 9
 9
 9
 9
 9
 9
 9
 9
 9
 9
 9
 9
 9
 9
 9
 9
 9
 9
 9
 9
 9
 9
 9
 9
 9
 9
 9
 9
 9
 9
 9
 9
 9
 9
 9
 9
 9
 9
 9
 9
 9
 9
 9
 9
 9
 9
 9
 9
 9
 9
 9
 9
 9
 9
 9
 9
 9
 9
 9
 9
 9
 9
 9
 9
 9
 9
 9
 9
 9
 9
 9
 9
 9
 9
 9
 9
 9
 9
 9
 9
 9
 9
 9
 9
 9
 9
 9
 9
 9
 9
 9
 9
 9
 9
 9
 9
 9
 9
 9
 9
 9
 9
 9
 9
 9
 9
 9
 9
 9
 9
 9
 9
 9
 9
 9
 9
 9
 9
 9
 9
 9
 9
 9
 9
 9
 9
 9
 9
 9
 9
 9
 9
 9
 9
 9
 9
 9
 9
 9
 9
 9
 9
 9
 9
 9
 9
 9
 9
 9
 9
 9
 9
 9
 9
 9
 9
 9
 9
 9
 9
 9
 9
 9
 9
 9
 9
 9
 9
 9
 9
 9
 9
 9
 9
 9
 9
 9
 9
 9
 9
 9
 9
 9
 9
 9
 9
 9
 9
 9
 9
 9
 9
 9
 9
 9
 9
 9
 9
 9
 9
 9
 9
 9
 9
 9
 9
 9
 9
 9
 9
 9
 9
 9
 9
 9
 9
 9
 9
 9
 9
 9
 9
 9
 9
 9
 9
 9
 9
 9
 9
 9
 9
 9
 9
 9
 9
 9
 9
 9
 9
 9
 9
 9
 9
 9
 9
 9
 9
 9
 9
 9
 9
 9
 9
 9
 9
 9
 9
 9
 9
 9
 9
 9
 9
 9
 9
 9
 9
 9
 9
 9
 9
 9
 9
 9
 9
 9
 9
 9
 9
 9
 9
 9
 9
 9
 9
 9
 9
 9
 9
 9
 9
 9
 9
 9
 9
 9
 9
 9
 9
 9
 9
 9
 9
 9
 9
 9
 9
 9
 9
 9
 9
 9
 9
 9
 9
 9
 9
 9
 9
 9
 9
 9
 9
 9
 9
 9
 9
 9
 9
 9
 9
 9
 9
 9
 9
 9
 9
 9
 9
 9
 9
 9
 9
 9
 9
 9
 9
 9
 9
 </DataArray>
 </Cells> 
 <PointData>
 <DataArray  type="Float64" Name="disp" NumberOfComponents="3" format="ascii">
   0.0000000000000000        0.0000000000000000        0.0000000000000000     
   6.0960668781095744E-003   3.7904995134035446E-003   0.0000000000000000     
   1.1666148649126721E-002   7.3241032903459706E-003   0.0000000000000000     
   1.6710245313051438E-002   1.0600811330827277E-002   0.0000000000000000     
   2.1228356869883728E-002   1.3620623634847465E-002   0.0000000000000000     
   0.0000000000000000        0.0000000000000000        0.0000000000000000     
   4.8911449319930193E-003   3.0222941893846876E-003   0.0000000000000000     
   9.5735983146620386E-003   6.0608929841383490E-003   0.0000000000000000     
   1.4047360148007056E-002   9.1157963842609848E-003   0.0000000000000000     
   1.8312430432028078E-002   1.2187004389752594E-002   0.0000000000000000     
   0.0000000000000000        0.0000000000000000        0.0000000000000000     
   3.9534936575733280E-003   2.4253197269747265E-003   0.0000000000000000     
   7.9104796079471386E-003   5.0633151001515551E-003   0.0000000000000000     
   1.1870957851121432E-002   7.9139861195304841E-003   0.0000000000000000     
   1.5834928387096204E-002   1.0977332785111515E-002   0.0000000000000000     
   0.0000000000000000        0.0000000000000000        0.0000000000000000     
   3.2831130548504985E-003   1.9995761261736625E-003   0.0000000000000000     
   6.6767925289820170E-003   4.3313696383855882E-003   0.0000000000000000     
   1.0181038422394555E-002   6.9953805366357764E-003   0.0000000000000000     
   1.3795850735088114E-002   9.9916088209242235E-003   0.0000000000000000     
   0.0000000000000000        0.0000000000000000        0.0000000000000000     
   2.8800031238245317E-003   1.7450633869814953E-003   0.0000000000000000     
   5.8725370777666756E-003   3.8650565988404481E-003   0.0000000000000000     
   8.9776018618264331E-003   6.3599796355768594E-003   0.0000000000000000     
   1.2195197476003802E-002   9.2298324971907281E-003   0.0000000000000000     
   2.1228356869883728E-002   1.3620623634847465E-002   0.0000000000000000     
   2.5433360087598375E-002   1.6614045798949168E-002   0.0000000000000000     
   2.9538131734170185E-002   1.9811583419675018E-002   0.0000000000000000     
   3.3542671809599134E-002   2.3213236497025024E-002   0.0000000000000000     
   3.7446980313885242E-002   2.6819005030999172E-002   0.0000000000000000     
   1.8312430432028078E-002   1.2187004389752594E-002   0.0000000000000000     
   2.2406990246962737E-002   1.5342861583823109E-002   0.0000000000000000     
   2.6369220673048682E-002   1.8651712549682467E-002   0.0000000000000000     
   3.0199121710285909E-002   2.2113557287330665E-002   0.0000000000000000     
   3.3896693358674422E-002   2.5728395796767708E-002   0.0000000000000000     
   1.5834928387096204E-002   1.0977332785111515E-002   0.0000000000000000     
   1.9730567844701622E-002   1.4212230347785222E-002   0.0000000000000000     
   2.3486052852767843E-002   1.7577554058442177E-002   0.0000000000000000     
   2.7101383411294866E-002   2.1073303917082373E-002   0.0000000000000000     
   3.0576559520282699E-002   2.4699479923705820E-002   0.0000000000000000     
   1.3795850735088114E-002   9.9916088209242235E-003   0.0000000000000000     
   1.7404092880815038E-002   1.3222152090835493E-002   0.0000000000000000     
   2.0888628273327672E-002   1.6589107945954130E-002   0.0000000000000000     
   2.4249456912626016E-002   2.0092476386280134E-002   0.0000000000000000     
   2.7486578798710075E-002   2.3732257411813514E-002   0.0000000000000000     
   1.2195197476003802E-002   9.2298324971907281E-003   0.0000000000000000     
   1.5427565355302979E-002   1.2372626812973927E-002   0.0000000000000000     
   1.8576946934728167E-002   1.5686374212218336E-002   0.0000000000000000     
   2.1643342214279351E-002   1.9171074694923955E-002   0.0000000000000000     
   2.4626751193956544E-002   2.2826728261090778E-002   0.0000000000000000     
   3.7446980313885242E-002   2.6819005030999172E-002   0.0000000000000000     
   4.1254924867715786E-002   3.0624678331997064E-002   0.0000000000000000     
   4.4970373091778044E-002   3.4626045710418302E-002   0.0000000000000000     
   4.8593324986072044E-002   3.8823107166262867E-002   0.0000000000000000     
   5.2123780550597743E-002   4.3215862699530767E-002   0.0000000000000000     
   3.3896693358674422E-002   2.5728395796767708E-002   0.0000000000000000     
   3.7484900061679940E-002   2.9525299264651014E-002   0.0000000000000000     
   4.0986706262768180E-002   3.3533338877638000E-002   0.0000000000000000     
   4.4402111961939147E-002   3.7752514635728686E-002   0.0000000000000000     
   4.7731117159192843E-002   4.2182826538923052E-002   0.0000000000000000     
   3.0576559520282699E-002   2.4699479923705820E-002   0.0000000000000000     
   3.3941001454201342E-002   2.8500697368581938E-002   0.0000000000000000     
   3.7224129487520810E-002   3.2521571541980154E-002   0.0000000000000000     
   4.0425943620241107E-002   3.6762102443900456E-002   0.0000000000000000     
   4.3546443852362240E-002   4.1222290074342867E-002   0.0000000000000000     
   2.7486578798710075E-002   2.3732257411813514E-002   0.0000000000000000     
   3.0623229045279997E-002   2.7550872643789852E-002   0.0000000000000000     
   3.3682642766035942E-002   3.1590743703444744E-002   0.0000000000000000     
   3.6664819960977917E-002   3.5851870590778198E-002   0.0000000000000000     
   3.9569760630105914E-002   4.0334253305790206E-002   0.0000000000000000     
   2.4626751193956544E-002   2.2826728261090778E-002   0.0000000000000000     
   2.7531582834915899E-002   2.6675825090274746E-002   0.0000000000000000     
   3.0362246098313572E-002   3.0740855362031781E-002   0.0000000000000000     
   3.3118740984149561E-002   3.5021819076361892E-002   0.0000000000000000     
   3.5801067492423878E-002   3.9518716233265069E-002   0.0000000000000000     
   5.2123780550597743E-002   4.3215862699530767E-002   0.0000000000000000     
   5.5556040630249839E-002   4.7805804078443974E-002   0.0000000000000000     
   5.8884406069922991E-002   5.2594423071224479E-002   0.0000000000000000     
   6.2108876869617198E-002   5.7581719677872248E-002   0.0000000000000000     
   6.5229453029332460E-002   6.2767693898387308E-002   0.0000000000000000     
   4.7731117159192843E-002   4.2182826538923052E-002   0.0000000000000000     
   5.0969286079081209E-002   4.6815486278096716E-002   0.0000000000000000     
   5.4112182946156176E-002   5.1641705544125303E-002   0.0000000000000000     
   5.7159807760417750E-002   5.6661484337008808E-002   0.0000000000000000     
   6.0112160521865944E-002   6.1874822656747229E-002   0.0000000000000000     
   4.3546443852362240E-002   4.1222290074342867E-002   0.0000000000000000     
   4.6582671424134123E-002   4.5888035637868169E-002   0.0000000000000000     
   4.9531667575806688E-002   5.0745240339037198E-002   0.0000000000000000     
   5.2393432307379945E-002   5.5793904177849935E-002   0.0000000000000000     
   5.5167965618853877E-002   6.1034027154306413E-002   0.0000000000000000     
   3.9569760630105914E-002   4.0334253305790206E-002   0.0000000000000000     
   4.2396196665408573E-002   4.5023452157758326E-002   0.0000000000000000     
   4.5142859958874515E-002   4.9905027455960156E-002   0.0000000000000000     
   4.7809750510503755E-002   5.4978979200395656E-002   0.0000000000000000     
   5.0396868320296280E-002   6.0245307391064852E-002   0.0000000000000000     
   3.5801067492423878E-002   3.9518716233265069E-002   0.0000000000000000     
   3.8409861802904559E-002   4.4221735837767201E-002   0.0000000000000000     
   4.0945760095359669E-002   4.9121066894894157E-002   0.0000000000000000     
   4.3408762369789189E-002   5.4216709404645951E-002   0.0000000000000000     
   4.5798868626193145E-002   5.9508663367022561E-002   0.0000000000000000     
   6.5229453029332460E-002   6.2767693898387308E-002   0.0000000000000000     
   6.8255604401723458E-002   6.8146101327313413E-002   0.0000000000000000     
   7.1196800839444838E-002   7.3710697559194252E-002   0.0000000000000000     
   7.4053042342496600E-002   7.9461482594029895E-002   0.0000000000000000     
   7.6824328910878772E-002   8.5398456431820285E-002   0.0000000000000000     
   6.0112160521865944E-002   6.1874822656747229E-002   0.0000000000000000     
   6.2974465698735327E-002   6.7278417840548305E-002   0.0000000000000000     
   6.5751947759260534E-002   7.2868967225619793E-002   0.0000000000000000     
   6.8444606703441532E-002   7.8646470811961688E-002   0.0000000000000000     
   7.1052442531278334E-002   8.4610928599573976E-002   0.0000000000000000     
   5.5167965618853877E-002   6.1034027154306413E-002   0.0000000000000000     
   5.7857408719671717E-002   6.6463266163981613E-002   0.0000000000000000     
   6.0463902819276646E-002   7.2079278102450628E-002   0.0000000000000000     
   6.2987447917668679E-002   7.7882062969713409E-002   0.0000000000000000     
   6.5428044014847836E-002   8.3871620765769955E-002   0.0000000000000000     
   5.0396868320296280E-002   6.0245307391064852E-002   0.0000000000000000     
   5.2904433464532601E-002   6.5700646297613352E-002   0.0000000000000000     
   5.5332666019493208E-002   7.1341630189686728E-002   0.0000000000000000     
   5.7681565985178089E-002   7.7168259067285028E-002   0.0000000000000000     
   5.9951133361587250E-002   8.3180532930408266E-002   0.0000000000000000     
   4.5798868626193145E-002   5.9508663367022561E-002   0.0000000000000000     
   4.8115539933317991E-002   6.4990558241443466E-002   0.0000000000000000     
   5.0358237359910178E-002   7.0656023487328162E-002   0.0000000000000000     
   5.2526960905969720E-002   7.6505059104676601E-002   0.0000000000000000     
   5.4621710571496611E-002   8.2537665093488824E-002   0.0000000000000000     
   7.6824328910878772E-002   8.5398456431820285E-002   0.0000000000000000     
   7.9500997806471865E-002   9.1505075763692573E-002   0.0000000000000000     
   8.2073386291156389E-002   9.7764797280773835E-002   0.0000000000000000     
   8.4541494364932357E-002  0.10417762098306409        0.0000000000000000     
   8.6905322027799770E-002  0.11074354687056331        0.0000000000000000     
   7.1052442531278334E-002   8.4610928599573976E-002   0.0000000000000000     
   7.3569889108201988E-002   9.0745255556933371E-002   0.0000000000000000     
   7.5991380299643516E-002   9.7032366652516550E-002   0.0000000000000000     
   7.8316916105602929E-002  0.10347226188632351        0.0000000000000000     
   8.0546496526080202E-002  0.11006494125835425        0.0000000000000000     
   6.5428044014847836E-002   8.3871620765769955E-002   0.0000000000000000     
   6.7783012534951267E-002   9.0031139667312229E-002   0.0000000000000000     
   7.0049674902116207E-002   9.6343807851032040E-002   0.0000000000000000     
   7.2228031116342600E-002  0.10280962531692944        0.0000000000000000     
   7.4318081177630502E-002  0.10942859206500441        0.0000000000000000     
   5.9951133361587250E-002   8.3180532930408266E-002   0.0000000000000000     
   6.2140368086719702E-002   8.9362728094829091E-002   0.0000000000000000     
   6.4248270098574409E-002   9.5699120876320307E-002   0.0000000000000000     
   6.6274839397151397E-002  0.10218971127488188        0.0000000000000000     
   6.8220075982450640E-002  0.10883449929051384        0.0000000000000000     
   5.4621710571496611E-002   8.2537665093488824E-002   0.0000000000000000     
   5.6641955763507293E-002   8.8740020839484013E-002   0.0000000000000000     
   5.8587165889018189E-002   9.5098305728381335E-002   0.0000000000000000     
   6.0457340948029292E-002  0.10161251976018082        0.0000000000000000     
   6.2252480940540623E-002  0.10828266293488245        0.0000000000000000     
   8.6905322027799770E-002  0.11074354687056331        0.0000000000000000     
   8.9166956107919276E-002  0.11745403103569717        0.0000000000000000     
   9.1328483433451527E-002  0.12430052957089123        0.0000000000000000     
   9.3389904004396507E-002  0.13128304247614553        0.0000000000000000     
   9.5351217820754230E-002  0.13840156975146006        0.0000000000000000     
   8.0546496526080202E-002  0.11006494125835425        0.0000000000000000     
   8.2684835207490898E-002  0.11680245428840556        0.0000000000000000     
   8.4736645796250482E-002  0.12367685049627423        0.0000000000000000     
   8.6701928292359010E-002  0.13068812988196021        0.0000000000000000     
   8.8580682695816440E-002  0.13783629244546358        0.0000000000000000     
   7.4318081177630502E-002  0.10942859206500441        0.0000000000000000     
   7.6325804335786701E-002  0.11619261242253821        0.0000000000000000     
   7.8257179840617988E-002  0.12309359071681206        0.0000000000000000     
   8.0112207692124418E-002  0.13013152694782595        0.0000000000000000     
   8.1890887890305936E-002  0.13730642111557989        0.0000000000000000     
   6.8220075982450640E-002  0.10883449929051384        0.0000000000000000     
   7.0089863492806659E-002  0.11562450543809512        0.0000000000000000     
   7.1890085566554018E-002  0.12255075023250471        0.0000000000000000     
   7.3620742203692704E-002  0.12961323367374269        0.0000000000000000     
   7.5281833404222703E-002  0.13681195576180896        0.0000000000000000     
   6.2252480940540623E-002  0.10828266293488245        0.0000000000000000     
   6.3977012678550826E-002  0.11509813333507626        0.0000000000000000     
   6.5635362974058600E-002  0.12204832904335225        0.0000000000000000     
   6.7227531827063897E-002  0.12913325005971044        0.0000000000000000     
   6.8753519237566757E-002  0.13635289638415082        0.0000000000000000     
   9.5351217820754230E-002  0.13840156975146006        0.0000000000000000     
   9.7169835614716454E-002  0.14564088807476455        0.0000000000000000     
   9.8803168118474921E-002  0.15298577412398878        0.0000000000000000     
  0.10025121533202962       0.16043622789913278        0.0000000000000000     
  0.10151397725538054       0.16799224940019650        0.0000000000000000     
   8.8580682695816440E-002  0.13783629244546358        0.0000000000000000     
   9.0354803117638993E-002  0.14510471135552067        0.0000000000000000     
   9.2006183668842917E-002  0.15247675978086792        0.0000000000000000     
   9.3534824349428169E-002  0.15995243772150525        0.0000000000000000     
   9.4940725159394751E-002  0.16753174517743274        0.0000000000000000     
   8.1890887890305936E-002  0.13730642111557989        0.0000000000000000     
   8.3590549423073410E-002  0.14460145101849117        0.0000000000000000     
   8.5208521278337737E-002  0.15199979445497697        0.0000000000000000     
   8.6744803456098876E-002  0.15950145142503744        0.0000000000000000     
   8.8199395956356827E-002  0.16710642192867242        0.0000000000000000     
   7.5281833404222703E-002  0.13681195576180896        0.0000000000000000     
   7.6877074531019704E-002  0.14413110706367596        0.0000000000000000     
   7.8410180946959368E-002  0.15155487814631610        0.0000000000000000     
   7.9881152652041723E-002  0.15908326900972924        0.0000000000000000     
   8.1289989646266755E-002  0.16671627965391550        0.0000000000000000     
   6.8753519237566757E-002  0.13635289638415082        0.0000000000000000     
   7.0214378441477848E-002  0.14369367949107517        0.0000000000000000     
   7.1611162674707851E-002  0.15114201085488510        0.0000000000000000     
   7.2943871937256738E-002  0.15869789047558078        0.0000000000000000     
   7.4212506229124550E-002  0.16636131835316206        0.0000000000000000     
   0.0000000000000000        0.0000000000000000        0.0000000000000000     
   2.8800031238245317E-003   1.7450633869814953E-003   0.0000000000000000     
   5.8725370777666756E-003   3.8650565988404481E-003   0.0000000000000000     
   8.9776018618264331E-003   6.3599796355768594E-003   0.0000000000000000     
   1.2195197476003802E-002   9.2298324971907281E-003   0.0000000000000000     
   0.0000000000000000        0.0000000000000000        0.0000000000000000     
   2.6102966440141890E-003   1.5891293714550346E-003   0.0000000000000000     
   5.2896918115404763E-003   3.5570711292615743E-003   0.0000000000000000     
   8.0381855025788602E-003   5.9038252734196182E-003   0.0000000000000000     
   1.0855777717129344E-002   8.6293918039291682E-003   0.0000000000000000     
   0.0000000000000000        0.0000000000000000        0.0000000000000000     
   2.3401263949382302E-003   1.4591219416510918E-003   0.0000000000000000     
   4.7202352875427775E-003   3.3001083773944043E-003   0.0000000000000000     
   7.1403266778136392E-003   5.5229593072299377E-003   0.0000000000000000     
   9.6004005657508197E-003   8.1276747311576913E-003   0.0000000000000000     
   0.0000000000000000        0.0000000000000000        0.0000000000000000     
   2.0694923765966571E-003   1.3550410975696667E-003   0.0000000000000000     
   4.1641675057735800E-003   3.0941683432389399E-003   0.0000000000000000     
   6.2840253875307674E-003   5.2173817370078195E-003   0.0000000000000000     
   8.4290660218682232E-003   7.7246812788763046E-003   0.0000000000000000     
   0.0000000000000000        0.0000000000000000        0.0000000000000000     
   1.7983945889894683E-003   1.2768868392107591E-003   0.0000000000000000     
   3.6214884662328830E-003   2.9392510267951793E-003   0.0000000000000000     
   5.4692816317302457E-003   4.9870925627532601E-003   0.0000000000000000     
   7.3417740854815547E-003   7.4204114470850027E-003   0.0000000000000000     
   1.2195197476003802E-002   9.2298324971907281E-003   0.0000000000000000     
   1.5427565355302979E-002   1.2372626812973927E-002   0.0000000000000000     
   1.8576946934728167E-002   1.5686374212218336E-002   0.0000000000000000     
   2.1643342214279351E-002   1.9171074694923955E-002   0.0000000000000000     
   2.4626751193956544E-002   2.2826728261090778E-002   0.0000000000000000     
   1.0855777717129344E-002   8.6293918039291682E-003   0.0000000000000000     
   1.3689137124241264E-002   1.1651574203771975E-002   0.0000000000000000     
   1.6484932392963947E-002   1.4888175955929799E-002   0.0000000000000000     
   1.9243163523297403E-002   1.8339197060402636E-002   0.0000000000000000     
   2.1963830515241624E-002   2.2004637517190482E-002   0.0000000000000000     
   9.6004005657508197E-003   8.1276747311576913E-003   0.0000000000000000     
   1.2076960043705696E-002   1.1046913952801078E-002   0.0000000000000000     
   1.4546508204029656E-002   1.4213336275783505E-002   0.0000000000000000     
   1.7009045046722692E-002   1.7626941700104974E-002   0.0000000000000000     
   1.9464570571784811E-002   2.1287730225765480E-002   0.0000000000000000     
   8.4290660218682232E-003   7.7246812788763046E-003   0.0000000000000000     
   1.0591034113696281E-002   1.0558646060061239E-002   0.0000000000000000     
   1.2761674367925278E-002   1.3661855171779459E-002   0.0000000000000000     
   1.4940986784555226E-002   1.7034308614030973E-002   0.0000000000000000     
   1.7128971363586109E-002   2.0676006386815767E-002   0.0000000000000000     
   7.3417740854815547E-003   7.4204114470850027E-003   0.0000000000000000     
   9.2313593342130146E-003   1.0186770525552453E-002   0.0000000000000000     
   1.1130430884650828E-002   1.3233732643917660E-002   0.0000000000000000     
   1.3038988736794994E-002   1.6561297802180627E-002   0.0000000000000000     
   1.4957032890645516E-002   2.0169466000341345E-002   0.0000000000000000     
   2.4626751193956544E-002   2.2826728261090778E-002   0.0000000000000000     
   2.7531582834915899E-002   2.6675825090274746E-002   0.0000000000000000     
   3.0362246098313572E-002   3.0740855362031781E-002   0.0000000000000000     
   3.3118740984149561E-002   3.5021819076361892E-002   0.0000000000000000     
   3.5801067492423878E-002   3.9518716233265069E-002   0.0000000000000000     
   2.1963830515241624E-002   2.2004637517190482E-002   0.0000000000000000     
   2.4630623184137231E-002   2.5882185850542552E-002   0.0000000000000000     
   2.7227231345324829E-002   2.9969530584708030E-002   0.0000000000000000     
   2.9753654998804432E-002   3.4266671719686934E-002   0.0000000000000000     
   3.2209894144576028E-002   3.8773609255479249E-002   0.0000000000000000     
   1.9464570571784811E-002   2.1287730225765480E-002   0.0000000000000000     
   2.1884910453972145E-002   2.5176586067099185E-002   0.0000000000000000     
   2.4241890368040836E-002   2.9274393438440266E-002   0.0000000000000000     
   2.6535510313990870E-002   3.3581152339788714E-002   0.0000000000000000     
   2.8765770291822257E-002   3.8096862771144525E-002   0.0000000000000000     
   1.7128971363586109E-002   2.0676006386815767E-002   0.0000000000000000     
   1.9294444644420653E-002   2.4559025739944670E-002   0.0000000000000000     
   2.1406223166461583E-002   2.8655443923228486E-002   0.0000000000000000     
   2.3464306929708887E-002   3.2965260936667233E-002   0.0000000000000000     
   2.5468695934162570E-002   3.7488476780260890E-002   0.0000000000000000     
   1.4957032890645516E-002   2.0169466000341345E-002   0.0000000000000000     
   1.6859225755482751E-002   2.4029504869078983E-002   0.0000000000000000     
   1.8720229740587079E-002   2.8112682039072696E-002   0.0000000000000000     
   2.0540044845958474E-002   3.2418997510322484E-002   0.0000000000000000     
   2.2318671071596963E-002   3.6948451282828358E-002   0.0000000000000000     
   3.5801067492423878E-002   3.9518716233265069E-002   0.0000000000000000     
   3.8409861802904559E-002   4.4221735837767201E-002   0.0000000000000000     
   4.0945760095359669E-002   4.9121066894894157E-002   0.0000000000000000     
   4.3408762369789189E-002   5.4216709404645951E-002   0.0000000000000000     
   4.5798868626193145E-002   5.9508663367022561E-002   0.0000000000000000     
   3.2209894144576028E-002   3.8773609255479249E-002   0.0000000000000000     
   3.4597848693580166E-002   4.3485953246496768E-002   0.0000000000000000     
   3.6919418556757413E-002   4.8399313747151243E-002   0.0000000000000000     
   3.9174603734107742E-002   5.3513690757442722E-002   0.0000000000000000     
   4.1363404225631180E-002   5.8829084277371158E-002   0.0000000000000000     
   2.8765770291822257E-002   3.8096862771144525E-002   0.0000000000000000     
   3.0934339194393482E-002   4.2819170952549002E-002   0.0000000000000000     
   3.3042885914563024E-002   4.7745723104043451E-002   0.0000000000000000     
   3.5091410452330885E-002   5.2876519225627888E-002   0.0000000000000000     
   3.7079912807697062E-002   5.8211559317302292E-002   0.0000000000000000     
   2.5468695934162570E-002   3.7488476780260890E-002   0.0000000000000000     
   2.7419333305344490E-002   4.2221388955923922E-002   0.0000000000000000     
   2.9316162168776503E-002   4.7160294965570775E-002   0.0000000000000000     
   3.1159182524458609E-002   5.2305194809201462E-002   0.0000000000000000     
   3.2948394372390805E-002   5.7656088486815950E-002   0.0000000000000000     
   2.2318671071596963E-002   3.6948451282828358E-002   0.0000000000000000     
   2.4052831026433196E-002   4.1692607256621522E-002   0.0000000000000000     
   2.5739247319397848E-002   4.6643029331733213E-002   0.0000000000000000     
   2.7377919950490919E-002   5.1799717508163423E-002   0.0000000000000000     
   2.8968848919712409E-002   5.7162671785912153E-002   0.0000000000000000     
   4.5798868626193145E-002   5.9508663367022561E-002   0.0000000000000000     
   4.8115539933317991E-002   6.4990558241443466E-002   0.0000000000000000     
   5.0358237359910178E-002   7.0656023487328162E-002   0.0000000000000000     
   5.2526960905969720E-002   7.6505059104676601E-002   0.0000000000000000     
   5.4621710571496611E-002   8.2537665093488824E-002   0.0000000000000000     
   4.1363404225631180E-002   5.8829084277371158E-002   0.0000000000000000     
   4.3485156341327082E-002   6.4335763563320325E-002   0.0000000000000000     
   4.5539196391194858E-002   7.0023997871673960E-002   0.0000000000000000     
   4.7525524375234482E-002   7.5893787202432061E-002   0.0000000000000000     
   4.9444140293445960E-002   8.1945131555594630E-002   0.0000000000000000     
   3.7079912807697062E-002   5.8211559317302292E-002   0.0000000000000000     
   3.9007710903859086E-002   6.3739023831092229E-002   0.0000000000000000     
   4.0874122664014481E-002   6.9447093219023259E-002   0.0000000000000000     
   4.2679148088163241E-002   7.5335767481095384E-002   0.0000000000000000     
   4.4422787176305378E-002   8.1405046617308602E-002   0.0000000000000000     
   3.2948394372390805E-002   5.7656088486815950E-002   0.0000000000000000     
   3.4683203620913990E-002   6.3200339044759191E-002   0.0000000000000000     
   3.6363016178369054E-002   6.8925309529376047E-002   0.0000000000000000     
   3.7987832044756004E-002   7.4830999940666582E-002   0.0000000000000000     
   3.9557651220074826E-002   8.0917410278630711E-002   0.0000000000000000     
   2.8968848919712409E-002   5.7162671785912153E-002   0.0000000000000000     
   3.0511634492491804E-002   6.2719709204321197E-002   0.0000000000000000     
   3.2005876934258590E-002   6.8458646802732365E-002   0.0000000000000000     
   3.3451576245012778E-002   7.4379484581145600E-002   0.0000000000000000     
   3.4848732424754350E-002   8.0482222539560999E-002   0.0000000000000000     
   5.4621710571496611E-002   8.2537665093488824E-002   0.0000000000000000     
   5.6641955763507293E-002   8.8740020839484013E-002   0.0000000000000000     
   5.8587165889018189E-002   9.5098305728381335E-002   0.0000000000000000     
   6.0457340948029292E-002  0.10161251976018082        0.0000000000000000     
   6.2252480940540623E-002  0.10828266293488245        0.0000000000000000     
   4.9444140293445960E-002   8.1945131555594630E-002   0.0000000000000000     
   5.1294346443927469E-002   8.8166082038971513E-002   0.0000000000000000     
   5.3075445124777167E-002   9.4544689760372599E-002   0.0000000000000000     
   5.4787436335995018E-002  0.10108095471979786        0.0000000000000000     
   5.6430320077581059E-002  0.10777487691724730        0.0000000000000000     
   4.4422787176305378E-002   8.1405046617308602E-002   0.0000000000000000     
   4.6104111006593694E-002   8.7643975830986209E-002   0.0000000000000000     
   4.7722190657180981E-002   9.4041600325451571E-002   0.0000000000000000     
   4.9277026128067287E-002  0.10059792010070463        0.0000000000000000     
   5.0768617419252551E-002  0.10731293515674541        0.0000000000000000     
   3.9557651220074826E-002   8.0917410278630711E-002   0.0000000000000000     
   4.1071249451505927E-002   8.7173702215528059E-002   0.0000000000000000     
   4.2527402486229680E-002   9.3589037423618196E-002   0.0000000000000000     
   4.3926110324246058E-002  0.10016341590290107        0.0000000000000000     
   4.5267372965555108E-002  0.10689683765337672        0.0000000000000000     
   3.4848732424754350E-002   8.0482222539560999E-002   0.0000000000000000     
   3.6195761778664209E-002   8.6755261192597077E-002   0.0000000000000000     
   3.7491080611923217E-002   9.3187001054872501E-002   0.0000000000000000     
   3.8734688924531385E-002   9.9777442126387228E-002   0.0000000000000000     
   3.9926586716488709E-002  0.10652658440714127        0.0000000000000000     
   6.2252480940540623E-002  0.10828266293488245        0.0000000000000000     
   6.3977012678550826E-002  0.11509813333507626        0.0000000000000000     
   6.5635362974058600E-002  0.12204832904335225        0.0000000000000000     
   6.7227531827063897E-002  0.12913325005971044        0.0000000000000000     
   6.8753519237566757E-002  0.13635289638415082        0.0000000000000000     
   5.6430320077581059E-002  0.10777487691724730        0.0000000000000000     
   5.8006737933523754E-002  0.11461424701614843        0.0000000000000000     
   5.9519331487811550E-002  0.12158685567992870        0.0000000000000000     
   6.0968100740444460E-002  0.12869270290858811        0.0000000000000000     
   6.2353045691422471E-002  0.13593178870212669        0.0000000000000000     
   5.0768617419252551E-002  0.10731293515674541        0.0000000000000000     
   5.2198525298229985E-002  0.11417359738397841        0.0000000000000000     
   5.3568310532492745E-002  0.12116685867280813        0.0000000000000000     
   5.4877973122040839E-002  0.12829271902323464        0.0000000000000000     
   5.6127513066874239E-002  0.13555117843525782        0.0000000000000000     
   4.5267372965555108E-002  0.10689683765337672        0.0000000000000000     
   4.6552374772669561E-002  0.11377618443856623        0.0000000000000000     
   4.7782300108102201E-002  0.12078833802199063        0.0000000000000000     
   4.8957148971853028E-002  0.12793329840364992        0.0000000000000000     
   5.0076921363922042E-002  0.13521106558354420        0.0000000000000000     
   3.9926586716488709E-002  0.10652658440714127        0.0000000000000000     
   4.1068286356842461E-002  0.11342200817991185        0.0000000000000000     
   4.2161300214639902E-002  0.12045129372747612        0.0000000000000000     
   4.3205628289881046E-002  0.12761444104983413        0.0000000000000000     
   4.4201270582565878E-002  0.13491145014698583        0.0000000000000000     
   6.8753519237566757E-002  0.13635289638415082        0.0000000000000000     
   7.0214378441477848E-002  0.14369367949107517        0.0000000000000000     
   7.1611162674707851E-002  0.15114201085488510        0.0000000000000000     
   7.2943871937256738E-002  0.15869789047558078        0.0000000000000000     
   7.4212506229124550E-002  0.16636131835316206        0.0000000000000000     
   6.2353045691422471E-002  0.13593178870212669        0.0000000000000000     
   6.3669304852327024E-002  0.14329281093046350        0.0000000000000000     
   6.4912016734739522E-002  0.15076446746351757        0.0000000000000000     
   6.6081181338659936E-002  0.15834675830128891        0.0000000000000000     
   6.7176798664088322E-002  0.16603968344377754        0.0000000000000000     
   5.6127513066874239E-002  0.13555117843525782        0.0000000000000000     
   5.7308697461446415E-002  0.14293214401161583        0.0000000000000000     
   5.8413293400210793E-002  0.15042552285504679        0.0000000000000000     
   5.9441300883167389E-002  0.15803131496555067        0.0000000000000000     
   6.0392719910316188E-002  0.16574952034312743        0.0000000000000000     
   5.0076921363922042E-002  0.13521106558354420        0.0000000000000000     
   5.1132556268835998E-002  0.14261167873453220        0.0000000000000000     
   5.2114992671121685E-002  0.15012517702947281        0.0000000000000000     
   5.3024230570779061E-002  0.15775156046836597        0.0000000000000000     
   5.3860269967808169E-002  0.16549082905121174        0.0000000000000000     
   4.4201270582565878E-002  0.13491145014698583        0.0000000000000000     
   4.5140881274495795E-002  0.14233141509921257        0.0000000000000000     
   4.6017114547472170E-002  0.14986342998679555        0.0000000000000000     
   4.6829970401494975E-002  0.15750749480973492        0.0000000000000000     
   4.7579448836564245E-002  0.16526360956803049        0.0000000000000000     
   0.0000000000000000        0.0000000000000000        0.0000000000000000     
   1.7983945889894683E-003   1.2768868392107591E-003   0.0000000000000000     
   3.6214884662328830E-003   2.9392510267951793E-003   0.0000000000000000     
   5.4692816317302457E-003   4.9870925627532601E-003   0.0000000000000000     
   7.3417740854815547E-003   7.4204114470850027E-003   0.0000000000000000     
   0.0000000000000000        0.0000000000000000        0.0000000000000000     
   1.5351053160211309E-003   1.2175528314593634E-003   0.0000000000000000     
   3.0995482295806138E-003   2.8208571056056240E-003   0.0000000000000000     
   4.6933287406784475E-003   4.8099128224387815E-003   0.0000000000000000     
   6.3164468493146341E-003   7.1847199819588346E-003   0.0000000000000000     
   0.0000000000000000        0.0000000000000000        0.0000000000000000     
   1.2878968415961111E-003   1.1699327392004745E-003   0.0000000000000000     
   2.6056968564766940E-003   2.7244872572127739E-003   0.0000000000000000     
   3.9534000446417505E-003   4.6636635540368999E-003   0.0000000000000000     
   5.3310064060912796E-003   6.9874616296728516E-003   0.0000000000000000     
   0.0000000000000000        0.0000000000000000        0.0000000000000000     
   1.0567691657144087E-003   1.1340265624340919E-003   0.0000000000000000     
   2.1399343469211268E-003   2.6501414816166311E-003   0.0000000000000000     
   3.2494955436201530E-003   4.5483447575476160E-003   0.0000000000000000     
   4.3854527558114887E-003   6.8286363902270485E-003   0.0000000000000000     
   0.0000000000000000        0.0000000000000000        0.0000000000000000     
   8.4172228837602449E-004   1.1098343011602162E-003   0.0000000000000000     
   1.7022607009139095E-003   2.5978197788171934E-003   0.0000000000000000     
   2.5816152376136555E-003   4.4639564329709306E-003   0.0000000000000000     
   3.4797858984752616E-003   6.7082442636214297E-003   0.0000000000000000     
   7.3417740854815547E-003   7.4204114470850027E-003   0.0000000000000000     
   9.2313593342130146E-003   1.0186770525552453E-002   0.0000000000000000     
   1.1130430884650828E-002   1.3233732643917660E-002   0.0000000000000000     
   1.3038988736794994E-002   1.6561297802180627E-002   0.0000000000000000     
   1.4957032890645516E-002   2.0169466000341345E-002   0.0000000000000000     
   6.3164468493146341E-003   7.1847199819588346E-003   0.0000000000000000     
   7.9562703135202771E-003   9.8956692869496404E-003   0.0000000000000000     
   9.6001668913264816E-003   1.2893151440195046E-002   0.0000000000000000     
   1.1248136582733251E-002   1.6177166441695052E-002   0.0000000000000000     
   1.2900179387740575E-002   1.9747714291449666E-002   0.0000000000000000     
   5.3310064060912796E-003   6.9874616296728516E-003   0.0000000000000000     
   6.7241016598824513E-003   9.6497242819277070E-003   0.0000000000000000     
   8.1182715250724333E-003   1.2604294308608547E-002   0.0000000000000000     
   9.5135160016612281E-003   1.5851171709715374E-002   0.0000000000000000     
   1.0909835089648833E-002   1.9390356485248186E-002   0.0000000000000000     
   4.3854527558114887E-003   6.8286363902270485E-003   0.0000000000000000     
   5.5348533732995303E-003   9.4489355104866585E-003   0.0000000000000000     
   6.6847447858886791E-003   1.2367161249158168E-002   0.0000000000000000     
   7.8351269935789340E-003   1.5583313606241586E-002   0.0000000000000000     
   8.9859999963702898E-003   1.9097392581736910E-002   0.0000000000000000     
   3.4797858984752616E-003   6.7082442636214297E-003   0.0000000000000000     
   4.3885254537715203E-003   9.2933029726264878E-003   0.0000000000000000     
   5.2995866737752190E-003   1.2181752261843908E-002   0.0000000000000000     
   6.2129695584863609E-003   1.5373592131273688E-002   0.0000000000000000     
   7.1286741079049452E-003   1.8868822580915826E-002   0.0000000000000000     
   1.4957032890645516E-002   2.0169466000341345E-002   0.0000000000000000     
   1.6859225755482751E-002   2.4029504869078983E-002   0.0000000000000000     
   1.8720229740587079E-002   2.8112682039072696E-002   0.0000000000000000     
   2.0540044845958474E-002   3.2418997510322484E-002   0.0000000000000000     
   2.2318671071596963E-002   3.6948451282828358E-002   0.0000000000000000     
   1.2900179387740575E-002   1.9747714291449666E-002   0.0000000000000000     
   1.4539832488823547E-002   2.3578636828005300E-002   0.0000000000000000     
   1.6150633068457248E-002   2.7643775889908358E-002   0.0000000000000000     
   1.7732581126641667E-002   3.1943131477158854E-002   0.0000000000000000     
   1.9285676663376813E-002   3.6476703589756770E-002   0.0000000000000000     
   1.0909835089648833E-002   1.9390356485248186E-002   0.0000000000000000     
   1.2296843546108134E-002   2.3197034990226781E-002   0.0000000000000000     
   1.3664156128112014E-002   2.7246393579670951E-002   0.0000000000000000     
   1.5011772835660474E-002   3.1538432253580689E-002   0.0000000000000000     
   1.6339693668753513E-002   3.6073151011956003E-002   0.0000000000000000     
   8.9859999963702898E-003   1.9097392581736910E-002   0.0000000000000000     
   1.0130258927336520E-002   2.2884699355743436E-002   0.0000000000000000     
   1.1260798919551392E-002   2.6920535108360462E-002   0.0000000000000000     
   1.2377619973014897E-002   3.1204899839588001E-002   0.0000000000000000     
   1.3480722087727045E-002   3.5737793549426043E-002   0.0000000000000000     
   7.1286741079049452E-003   1.8868822580915826E-002   0.0000000000000000     
   8.0400786325087042E-003   2.2641629924555262E-002   0.0000000000000000     
   8.9405614427753698E-003   2.6666200475976912E-002   0.0000000000000000     
   9.8301225387049419E-003   3.0942534235180792E-002   0.0000000000000000     
   1.0708761920297422E-002   3.5470631202166883E-002   0.0000000000000000     
   2.2318671071596963E-002   3.6948451282828358E-002   0.0000000000000000     
   2.4052831026433196E-002   4.1692607256621522E-002   0.0000000000000000     
   2.5739247319397848E-002   4.6643029331733213E-002   0.0000000000000000     
   2.7377919950490919E-002   5.1799717508163423E-002   0.0000000000000000     
   2.8968848919712409E-002   5.7162671785912153E-002   0.0000000000000000     
   1.9285676663376813E-002   3.6476703589756770E-002   0.0000000000000000     
   2.0803521016974826E-002   4.1230496114653306E-002   0.0000000000000000     
   2.2279715525747829E-002   4.6190512938799659E-002   0.0000000000000000     
   2.3714260189695826E-002   5.1356754062195809E-002   0.0000000000000000     
   2.5107155008818820E-002   5.6729219484841761E-002   0.0000000000000000     
   1.6339693668753513E-002   3.6073151011956003E-002   0.0000000000000000     
   1.7640091936284599E-002   4.0832725790030805E-002   0.0000000000000000     
   1.8905140947147205E-002   4.5799332523039013E-002   0.0000000000000000     
   2.0134840701341337E-002   5.0972971210980648E-002   0.0000000000000000     
   2.1329191198866983E-002   5.6353641853855677E-002   0.0000000000000000     
   1.3480722087727045E-002   3.5737793549426043E-002   0.0000000000000000     
   1.4562543784362513E-002   4.0499296282753998E-002   0.0000000000000000     
   1.5615523583595978E-002   4.5469488084451289E-002   0.0000000000000000     
   1.6639661485427441E-002   5.0648368954517922E-002   0.0000000000000000     
   1.7634957489856908E-002   5.6035938892953885E-002   0.0000000000000000     
   1.0708761920297422E-002   3.5470631202166883E-002   0.0000000000000000     
   1.1570876561208570E-002   4.0230207592822892E-002   0.0000000000000000     
   1.2410863435094149E-002   4.5200979623036479E-002   0.0000000000000000     
   1.3228722541954157E-002   5.0382947292807644E-002   0.0000000000000000     
   1.4024453881788593E-002   5.5776110602136400E-002   0.0000000000000000     
   2.8968848919712409E-002   5.7162671785912153E-002   0.0000000000000000     
   3.0511634492491804E-002   6.2719709204321197E-002   0.0000000000000000     
   3.2005876934258590E-002   6.8458646802732365E-002   0.0000000000000000     
   3.3451576245012778E-002   7.4379484581145600E-002   0.0000000000000000     
   3.4848732424754350E-002   8.0482222539560999E-002   0.0000000000000000     
   2.5107155008818820E-002   5.6729219484841761E-002   0.0000000000000000     
   2.6458148544311721E-002   6.2296498579471268E-002   0.0000000000000000     
   2.7766989357369470E-002   6.8047180718818101E-002   0.0000000000000000     
   2.9033677447992047E-002   7.3981265902882232E-002   0.0000000000000000     
   3.0258212816179457E-002   8.0098754131663674E-002   0.0000000000000000     
   2.1329191198866983E-002   5.6353641853855677E-002   0.0000000000000000     
   2.2487890802092961E-002   6.1930071439902437E-002   0.0000000000000000     
   2.3610637873388067E-002   6.7690986957359242E-002   0.0000000000000000     
   2.4697432412752303E-002   7.3636388406226119E-002   0.0000000000000000     
   2.5748274420185662E-002   7.9766275786503027E-002   0.0000000000000000     
   1.7634957489856908E-002   5.6035938892953885E-002   0.0000000000000000     
   1.8600861265835513E-002   6.1620427785614676E-002   0.0000000000000000     
   1.9536822482314396E-002   6.7390065518355802E-002   0.0000000000000000     
   2.0442841139293552E-002   7.3344852091177248E-002   0.0000000000000000     
   2.1318917236772983E-002   7.9484787504079030E-002   0.0000000000000000     
   1.4024453881788593E-002   5.5776110602136400E-002   0.0000000000000000     
   1.4797059935539385E-002   6.1367567616608013E-002   0.0000000000000000     
   1.5545543184148448E-002   6.7144416401807766E-002   0.0000000000000000     
   1.6269903627615795E-002   7.3106656957735675E-002   0.0000000000000000     
   1.6970141265941412E-002   7.9254289284391696E-002   0.0000000000000000     
   3.4848732424754350E-002   8.0482222539560999E-002   0.0000000000000000     
   3.6195761778664209E-002   8.6755261192597077E-002   0.0000000000000000     
   3.7491080611923217E-002   9.3187001054872501E-002   0.0000000000000000     
   3.8734688924531385E-002   9.9777442126387228E-002   0.0000000000000000     
   3.9926586716488709E-002  0.10652658440714127        0.0000000000000000     
   3.0258212816179457E-002   8.0098754131663674E-002   0.0000000000000000     
   3.1438742197906398E-002   8.6387039638368121E-002   0.0000000000000000     
   3.2573412329147552E-002   9.2833516656201168E-002   0.0000000000000000     
   3.3662223209902926E-002   9.9438185185162883E-002   0.0000000000000000     
   3.4705174840172513E-002  0.10620104522525324        0.0000000000000000     
   2.5748274420185662E-002   7.9766275786503027E-002   0.0000000000000000     
   2.6761284919070365E-002   8.6067424429015965E-002   0.0000000000000000     
   2.7734584932788603E-002   9.2526609664590920E-002   0.0000000000000000     
   2.8668174461340366E-002   9.9143831493227835E-002   0.0000000000000000     
   2.9562053504725665E-002  0.10591908991492678        0.0000000000000000     
   2.1318917236772983E-002   7.9484787504079030E-002   0.0000000000000000     
   2.2163389942156112E-002   8.5796415564540679E-002   0.0000000000000000     
   2.2974598422846357E-002   9.2266280080041702E-002   0.0000000000000000     
   2.3752542678843708E-002   9.8894381050582111E-002   0.0000000000000000     
   2.4497222710148179E-002  0.10568071847616192        0.0000000000000000     
   1.6970141265941412E-002   7.9254289284391696E-002   0.0000000000000000     
   1.7645057267163641E-002   8.5574013044942207E-002   0.0000000000000000     
   1.8293452799320823E-002   9.2052527902553541E-002   0.0000000000000000     
   1.8915327862412953E-002   9.8689833857225684E-002   0.0000000000000000     
   1.9510682456440033E-002  0.10548593090895865        0.0000000000000000     
   3.9926586716488709E-002  0.10652658440714127        0.0000000000000000     
   4.1068286356842461E-002  0.11342200817991185        0.0000000000000000     
   4.2161300214639902E-002  0.12045129372747612        0.0000000000000000     
   4.3205628289881046E-002  0.12761444104983413        0.0000000000000000     
   4.4201270582565878E-002  0.13491145014698583        0.0000000000000000     
   3.4705174840172513E-002  0.10620104522525324        0.0000000000000000     
   3.5704261349344311E-002  0.11311056128010434        0.0000000000000000     
   3.6661476866806292E-002  0.12015519785334833        0.0000000000000000     
   3.7576821392558475E-002  0.12733495494498517        0.0000000000000000     
   3.8450294926600848E-002  0.13464983255501495        0.0000000000000000     
   2.9562053504725665E-002  0.10591908991492678        0.0000000000000000     
   3.0418301048770739E-002  0.11284133641123278        0.0000000000000000     
   3.1238996079301827E-002  0.11989952246369097        0.0000000000000000     
   3.2024138596318912E-002  0.12709364807230131        0.0000000000000000     
   3.2773728599822007E-002  0.13442371323706376        0.0000000000000000     
   2.4497222710148179E-002  0.10568071847616192        0.0000000000000000     
   2.5210405455121768E-002  0.11261433357329720        0.0000000000000000     
   2.5893857852126494E-002  0.11968426755850400        0.0000000000000000     
   2.6547579901162365E-002  0.12689052043178234        0.0000000000000000     
   2.7171571602229369E-002  0.13423309219313226        0.0000000000000000     
   1.9510682456440033E-002  0.10548593090895865        0.0000000000000000     
   2.0080574568397375E-002  0.11242955276629754        0.0000000000000000     
   2.0626062185280306E-002  0.11950943313778747        0.0000000000000000     
   2.1147145307088826E-002  0.12672557202342843        0.0000000000000000     
   2.1643823933822928E-002  0.13407796942322045        0.0000000000000000     
   4.4201270582565878E-002  0.13491145014698583        0.0000000000000000     
   4.5140881274495795E-002  0.14233141509921257        0.0000000000000000     
   4.6017114547472170E-002  0.14986342998679555        0.0000000000000000     
   4.6829970401494975E-002  0.15750749480973492        0.0000000000000000     
   4.7579448836564245E-002  0.16526360956803049        0.0000000000000000     
   3.8450294926600848E-002  0.13464983255501495        0.0000000000000000     
   3.9277091815749003E-002  0.14208770964716094        0.0000000000000000     
   4.0052406406818550E-002  0.14963646518514659        0.0000000000000000     
   4.0776238699809474E-002  0.15729609916897186        0.0000000000000000     
   4.1448588694721789E-002  0.16506661159863678        0.0000000000000000     
   3.2773728599822007E-002  0.13442371323706376        0.0000000000000000     
   3.3484607229918840E-002  0.14187691891988141        0.0000000000000000     
   3.4153615626717135E-002  0.14944046608265729        0.0000000000000000     
   3.4780753790216910E-002  0.15711435472539143        0.0000000000000000     
   3.5366021720418146E-002  0.16489858484808376        0.0000000000000000     
   2.7171571602229369E-002  0.13423309219313226        0.0000000000000000     
   2.7763427517005296E-002  0.14169904291737395        0.0000000000000000     
   2.8320742207167928E-002  0.14927543267932772        0.0000000000000000     
   2.8843515672717271E-002  0.15696226147899353        0.0000000000000000     
   2.9331747913653321E-002  0.16475952931637142        0.0000000000000000     
   2.1643823933822928E-002  0.13407796942322045        0.0000000000000000     
   2.2113552677008375E-002  0.14155408163963856        0.0000000000000000     
   2.2553786148170919E-002  0.14914136497515781        0.0000000000000000     
   2.2964524347310562E-002  0.15683981942977820        0.0000000000000000     
   2.3345767274427307E-002  0.16464944500349976        0.0000000000000000     
   0.0000000000000000        0.0000000000000000        0.0000000000000000     
   8.4172228837602449E-004   1.1098343011602162E-003   0.0000000000000000     
   1.7022607009139095E-003   2.5978197788171934E-003   0.0000000000000000     
   2.5816152376136555E-003   4.4639564329709306E-003   0.0000000000000000     
   3.4797858984752616E-003   6.7082442636214297E-003   0.0000000000000000     
   0.0000000000000000        0.0000000000000000        0.0000000000000000     
   6.3385978680061627E-004   1.0937909105850699E-003   0.0000000000000000     
   1.2781474964295477E-003   2.5616738207284162E-003   0.0000000000000000     
   1.9328631288867946E-003   4.4036487304300381E-003   0.0000000000000000     
   2.5980066841723567E-003   6.6197156396899364E-003   0.0000000000000000     
   0.0000000000000000        0.0000000000000000        0.0000000000000000     
   4.2428523820784239E-004   1.0823313459148774E-003   0.0000000000000000     
   8.5306631144254459E-004   2.5358552792642554E-003   0.0000000000000000     
   1.2863432197041068E-003   4.3605718000481342E-003   0.0000000000000000     
   1.7241159629925286E-003   6.5564809082665132E-003   0.0000000000000000     
   0.0000000000000000        0.0000000000000000        0.0000000000000000     
   2.1299864259770291E-004   1.0754556071496386E-003   0.0000000000000000     
   4.2701714595290018E-004   2.5203641544247106E-003   0.0000000000000000     
   6.4205551006559208E-004   4.3347256418252173E-003   0.0000000000000000     
   8.5811373493577823E-004   6.5185400693511591E-003   0.0000000000000000     
   0.0000000000000000        0.0000000000000000        0.0000000000000000     
  -2.9802142741466864E-014   1.0731636942893526E-003   0.0000000000000000     
  -3.9385378639011925E-014   2.5152004462097831E-003   0.0000000000000000     
  -2.8749572167363624E-014   4.3261102557612899E-003   0.0000000000000000     
   2.1051411482064797E-015   6.5058931229438743E-003   0.0000000000000000     
   3.4797858984752616E-003   6.7082442636214297E-003   0.0000000000000000     
   4.3885254537715203E-003   9.2933029726264878E-003   0.0000000000000000     
   5.2995866737752190E-003   1.2181752261843908E-002   0.0000000000000000     
   6.2129695584863609E-003   1.5373592131273688E-002   0.0000000000000000     
   7.1286741079049452E-003   1.8868822580915826E-002   0.0000000000000000     
   2.5980066841723567E-003   6.6197156396899364E-003   0.0000000000000000     
   3.2705918109133428E-003   9.1768803541546120E-003   0.0000000000000000     
   3.9476321577368622E-003   1.2042148679470562E-002   0.0000000000000000     
   4.6291277246429136E-003   1.5215520615637790E-002   0.0000000000000000     
   5.3150785116315002E-003   1.8696996162656292E-002   0.0000000000000000     
   1.7241159629925286E-003   6.5564809082665132E-003   0.0000000000000000     
   2.1665263543399257E-003   9.0937213408784339E-003   0.0000000000000000     
   2.6137162067784124E-003   1.1942431834842929E-002   0.0000000000000000     
   3.0656855203079897E-003   1.5102612390160008E-002   0.0000000000000000     
   3.5224342949286567E-003   1.8574263006829662E-002   0.0000000000000000     
   8.5811373493577823E-004   6.5185400693511591E-003   0.0000000000000000     
   1.0763290840512679E-003   9.0438259327979501E-003   0.0000000000000000     
   1.2978388208998708E-003   1.1882601727961010E-002   0.0000000000000000     
   1.5226429454815863E-003   1.5034867454840338E-002   0.0000000000000000     
   1.7507414577964146E-003   1.8500623113435932E-002   0.0000000000000000     
   2.1051411482064797E-015   6.5058931229438743E-003   0.0000000000000000     
   4.7370188826188764E-014   9.0271941299131693E-003   0.0000000000000000     
   1.0123676799211195E-013   1.1862658358824805E-002   0.0000000000000000     
   1.6370488881037142E-013   1.5012285809678784E-002   0.0000000000000000     
   2.3477498157370436E-013   1.8476076482475106E-002   0.0000000000000000     
   7.1286741079049452E-003   1.8868822580915826E-002   0.0000000000000000     
   8.0400786325087042E-003   2.2641629924555262E-002   0.0000000000000000     
   8.9405614427753698E-003   2.6666200475976912E-002   0.0000000000000000     
   9.8301225387049419E-003   3.0942534235180792E-002   0.0000000000000000     
   1.0708761920297422E-002   3.5470631202166883E-002   0.0000000000000000     
   5.3150785116315002E-003   1.8696996162656292E-002   0.0000000000000000     
   5.9985901183485686E-003   2.2459248136276137E-002   0.0000000000000000     
   6.6727681444400692E-003   2.6474949352247378E-002   0.0000000000000000     
   7.3376125899060037E-003   3.0744099810570014E-002   0.0000000000000000     
   7.9931234547463703E-003   3.5266699511244060E-002   0.0000000000000000     
   3.5224342949286567E-003   1.8574263006829662E-002   0.0000000000000000     
   3.9780808415800012E-003   2.2328975430519961E-002   0.0000000000000000     
   4.4267434712016111E-003   2.6338341406898967E-002   0.0000000000000000     
   4.8684221837934838E-003   3.0602360935966664E-002   0.0000000000000000     
   5.3031169793556236E-003   3.5121034017723075E-002   0.0000000000000000     
   1.7507414577964146E-003   1.8500623113435932E-002   0.0000000000000000     
   1.9785508022030014E-003   2.2250811807286726E-002   0.0000000000000000     
   2.2024874230599906E-003   2.6256376639931658E-002   0.0000000000000000     
   2.4225513203673834E-003   3.0517317611370724E-002   0.0000000000000000     
   2.6387424941251786E-003   3.5033634721603923E-002   0.0000000000000000     
   2.3477498157370436E-013   1.8476076482475106E-002   0.0000000000000000     
   2.1756945203788014E-013   2.2224757266576443E-002   0.0000000000000000     
   1.5211166744591442E-014   2.6229055051345474E-002   0.0000000000000000     
  -3.7229946095408348E-013   3.0488969836782204E-002   0.0000000000000000     
  -9.4496220744144654E-013   3.5004501622886618E-002   0.0000000000000000     
   1.0708761920297422E-002   3.5470631202166883E-002   0.0000000000000000     
   1.1570876561208570E-002   4.0230207592822892E-002   0.0000000000000000     
   1.2410863435094149E-002   4.5200979623036479E-002   0.0000000000000000     
   1.3228722541954157E-002   5.0382947292807644E-002   0.0000000000000000     
   1.4024453881788593E-002   5.5776110602136400E-002   0.0000000000000000     
   7.9931234547463703E-003   3.5266699511244060E-002   0.0000000000000000     
   8.6361517069728430E-003   4.0022904096648770E-002   0.0000000000000000     
   9.2635483145970914E-003   4.4992869209163414E-002   0.0000000000000000     
   9.8753132776191153E-003   5.0176594848787982E-002   0.0000000000000000     
   1.0471446596038917E-002   5.5574081015522497E-002   0.0000000000000000     
   5.3031169793556236E-003   3.5121034017723075E-002   0.0000000000000000     
   5.7294306618053967E-003   3.9874830170642923E-002   0.0000000000000000     
   6.1459660350601797E-003   4.4844218913200930E-002   0.0000000000000000     
   6.5527230991199656E-003   5.0029200245397115E-002   0.0000000000000000     
   6.9497018539847596E-003   5.5429774167231473E-002   0.0000000000000000     
   2.6387424941251786E-003   3.5033634721603923E-002   0.0000000000000000     
   2.8507134257062350E-003   3.9785985814805344E-002   0.0000000000000000     
   3.0581165964834118E-003   4.4755028735149034E-002   0.0000000000000000     
   3.2609520064567077E-003   4.9940763482635028E-002   0.0000000000000000     
   3.4592196556261241E-003   5.5343190057263299E-002   0.0000000000000000     
  -9.4496220744144654E-013   3.5004501622886618E-002   0.0000000000000000     
  -1.3246434114530525E-012   3.9756371029136026E-002   0.0000000000000000     
  -1.1332081106818492E-012   4.4725298675007734E-002   0.0000000000000000     
  -3.7065738933000913E-013   4.9911284560501729E-002   0.0000000000000000     
   9.6301027048550925E-013   5.5314328685618017E-002   0.0000000000000000     
   1.4024453881788593E-002   5.5776110602136400E-002   0.0000000000000000     
   1.4797059935539385E-002   6.1367567616608013E-002   0.0000000000000000     
   1.5545543184148448E-002   6.7144416401807766E-002   0.0000000000000000     
   1.6269903627615795E-002   7.3106656957735675E-002   0.0000000000000000     
   1.6970141265941412E-002   7.9254289284391696E-002   0.0000000000000000     
   1.0471446596038917E-002   5.5574081015522497E-002   0.0000000000000000     
   1.1050603269282217E-002   6.1171157743234790E-002   0.0000000000000000     
   1.1611438296774749E-002   6.6953655065792692E-002   0.0000000000000000     
   1.2153951678516505E-002   7.2921572983196209E-002   0.0000000000000000     
   1.2678143414507487E-002   7.9074911495445349E-002   0.0000000000000000     
   6.9497018539847596E-003   5.5429774167231473E-002   0.0000000000000000     
   7.3356077251416699E-003   6.1030864975847345E-002   0.0000000000000000     
   7.7091461380778045E-003   6.6817396968388121E-002   0.0000000000000000     
   8.0703170927931642E-003   7.2789370144853774E-002   0.0000000000000000     
   8.4191205892877510E-003   7.8946784505244325E-002   0.0000000000000000     
   3.4592196556261241E-003   5.5343190057263299E-002   0.0000000000000000     
   3.6520733031177358E-003   6.0946689314445697E-002   0.0000000000000000     
   3.8386667080576205E-003   6.6735642109594054E-002   0.0000000000000000     
   4.0189998704457776E-003   7.2710048442708355E-002   0.0000000000000000     
   4.1930727902822077E-003   7.8869908313788595E-002   0.0000000000000000     
   9.6301027048550925E-013   5.5314328685618017E-002   0.0000000000000000     
   3.2104195604037988E-012   6.0918630759029847E-002   0.0000000000000000     
   6.7141960936357992E-012   6.6708390489410505E-002   0.0000000000000000     
   1.1474340263204798E-011   7.2683607876759954E-002   0.0000000000000000     
   1.7490852082663322E-011   7.8844282921078215E-002   0.0000000000000000     
   1.6970141265941412E-002   7.9254289284391696E-002   0.0000000000000000     
   1.7645057267163641E-002   8.5574013044942207E-002   0.0000000000000000     
   1.8293452799320823E-002   9.2052527902553541E-002   0.0000000000000000     
   1.8915327862412953E-002   9.8689833857225684E-002   0.0000000000000000     
   1.9510682456440033E-002  0.10548593090895865        0.0000000000000000     
   1.2678143414507487E-002   7.9074911495445349E-002   0.0000000000000000     
   1.3183327546430949E-002   8.5400676117608015E-002   0.0000000000000000     
   1.3668818115970141E-002   9.1885872364752111E-002   0.0000000000000000     
   1.4134615123125064E-002   9.8530500236877622E-002   0.0000000000000000     
   1.4580718567895719E-002  0.10533455973398458        0.0000000000000000     
   8.4191205892877510E-003   7.8946784505244325E-002   0.0000000000000000     
   8.7552414322960240E-003   8.5276864029925487E-002   0.0000000000000000     
   9.0783644265524446E-003   9.1766832699263071E-002   0.0000000000000000     
   9.3884895720570093E-003   9.8416690513257007E-002   0.0000000000000000     
   9.6856168688097231E-003  0.10522643747190732        0.0000000000000000     
   4.1930727902822077E-003   7.8869908313788595E-002   0.0000000000000000     
   4.3607989247588710E-003   8.5202576781894676E-002   0.0000000000000000     
   4.5220917310677322E-003   9.1695408906086420E-002   0.0000000000000000     
   4.6769512092087887E-003   9.8348404686363786E-002   0.0000000000000000     
   4.8253773591820422E-003  0.10516156412272686        0.0000000000000000     
   1.7490852082663322E-011   7.8844282921078215E-002   0.0000000000000000     
   2.3819487831797104E-011   8.5177814373515515E-002   0.0000000000000000     
   2.9516003248290790E-011   9.1671600985222146E-002   0.0000000000000000     
   3.4580401015544757E-011   9.8325642756198040E-002   0.0000000000000000     
   3.9012678504368736E-011  0.10513993968644324        0.0000000000000000     
   1.9510682456440033E-002  0.10548593090895865        0.0000000000000000     
   2.0080574568397375E-002  0.11242955276629754        0.0000000000000000     
   2.0626062185280306E-002  0.11950943313778747        0.0000000000000000     
   2.1147145307088826E-002  0.12672557202342843        0.0000000000000000     
   2.1643823933822928E-002  0.13407796942322045        0.0000000000000000     
   1.4580718567895719E-002  0.10533455973398458        0.0000000000000000     
   1.5007439760569263E-002  0.11228634170148299        0.0000000000000000     
   1.5415090011432857E-002  0.11937413698478287        0.0000000000000000     
   1.5803669320486501E-002  0.12659794558388429        0.0000000000000000     
   1.6173177687730196E-002  0.13395776749878716        0.0000000000000000     
   9.6856168688097231E-003  0.10522643747190732        0.0000000000000000     
   9.9696324036091227E-003  0.11218404809010270        0.0000000000000000     
   1.0240422263253748E-002  0.11927749688273179        0.0000000000000000     
   1.0497986447743603E-002  0.12650678384979461        0.0000000000000000     
   1.0742324957078685E-002  0.13387190899129120        0.0000000000000000     
   4.8253773591820422E-003  0.10516156412272686        0.0000000000000000     
   4.9671524975169537E-003  0.11212267193215665        0.0000000000000000     
   5.1020589407429831E-003  0.11921951283163419        0.0000000000000000     
   5.2300966888601287E-003  0.12645208682115949        0.0000000000000000     
   5.3512657418683923E-003  0.13382039390073253        0.0000000000000000     
   3.9012678504368736E-011  0.10513993968644324        0.0000000000000000     
   4.2292757837514294E-011  0.11210221322764485        0.0000000000000000     
   4.3900557668286044E-011  0.11920018483149006        0.0000000000000000     
   4.3836078972465942E-011  0.12643385449797884        0.0000000000000000     
   4.2099321424793335E-011  0.13380322222711119        0.0000000000000000     
   2.1643823933822928E-002  0.13407796942322045        0.0000000000000000     
   2.2113552677008375E-002  0.14155408163963856        0.0000000000000000     
   2.2553786148170919E-002  0.14914136497515781        0.0000000000000000     
   2.2964524347310562E-002  0.15683981942977820        0.0000000000000000     
   2.3345767274427307E-002  0.16464944500349976        0.0000000000000000     
   1.6173177687730196E-002  0.13395776749878716        0.0000000000000000     
   1.6520788833884366E-002  0.14144164071826285        0.0000000000000000     
   1.6843676479669445E-002  0.14903760323108264        0.0000000000000000     
   1.7141840625085426E-002  0.15674565503724655        0.0000000000000000     
   1.7415281270132314E-002  0.16456579613675459        0.0000000000000000     
   1.0742324957078685E-002  0.13387190899129120        0.0000000000000000     
   1.0970942111589570E-002  0.14136132578483443        0.0000000000000000     
   1.1181342231606842E-002  0.14896348770803722        0.0000000000000000     
   1.1373525317130493E-002  0.15667839476089965        0.0000000000000000     
   1.1547491368160533E-002  0.16450604694342169        0.0000000000000000     
   5.3512657418683923E-003  0.13382039390073253        0.0000000000000000     
   5.4640125101239828E-003  0.14131313683935326        0.0000000000000000     
   5.5667834039831079E-003  0.14891901840602162        0.0000000000000000     
   5.6595784234457682E-003  0.15663803860073758        0.0000000000000000     
   5.7423975685119630E-003  0.16447019742350108        0.0000000000000000     
   4.2099321424793335E-011  0.13380322222711119        0.0000000000000000     
   2.9487604632366660E-011  0.14129707388181939        0.0000000000000000     
  -3.2017528819178187E-012  0.14890419532503571        0.0000000000000000     
  -5.5968751280690426E-011  0.15662458655676018        0.0000000000000000     
  -1.2881339050974105E-010  0.16445824757699273        0.0000000000000000     
   0.0000000000000000        0.0000000000000000        0.0000000000000000     
  -2.9802142741466864E-014   1.0731636942893526E-003   0.0000000000000000     
  -3.9385378639011925E-014   2.5152004462097831E-003   0.0000000000000000     
  -2.8749572167363624E-014   4.3261102557612899E-003   0.0000000000000000     
   2.1051411482064797E-015   6.5058931229438743E-003   0.0000000000000000     
   0.0000000000000000        0.0000000000000000        0.0000000000000000     
  -2.1299864265663548E-004   1.0754556072938254E-003   0.0000000000000000     
  -4.2701714602701369E-004   2.5203641545731934E-003   0.0000000000000000     
  -6.4205551011113496E-004   4.3347256418381028E-003   0.0000000000000000     
  -8.5811373490899876E-004   6.5185400690885541E-003   0.0000000000000000     
   0.0000000000000000        0.0000000000000000        0.0000000000000000     
  -4.2428523826475959E-004   1.0823313461228617E-003   0.0000000000000000     
  -8.5306631150268669E-004   2.5358552794686640E-003   0.0000000000000000     
  -1.2863432197137811E-003   4.3605718000374076E-003   0.0000000000000000     
  -1.7241159628980428E-003   6.5564809078290940E-003   0.0000000000000000     
   0.0000000000000000        0.0000000000000000        0.0000000000000000     
  -6.3385978685417466E-004   1.0937909107764611E-003   0.0000000000000000     
  -1.2781474964664039E-003   2.5616738208961965E-003   0.0000000000000000     
  -1.9328631288366876E-003   4.4036487303592067E-003   0.0000000000000000     
  -2.5980066839650256E-003   6.6197156391654913E-003   0.0000000000000000     
   0.0000000000000000        0.0000000000000000        0.0000000000000000     
  -8.4172228842488059E-004   1.1098343012546238E-003   0.0000000000000000     
  -1.7022607009181654E-003   2.5978197788557901E-003   0.0000000000000000     
  -2.5816152374798550E-003   4.4639564328034977E-003   0.0000000000000000     
  -3.4797858981099484E-003   6.7082442630977479E-003   0.0000000000000000     
   2.1051411482064797E-015   6.5058931229438743E-003   0.0000000000000000     
   4.7370188826188764E-014   9.0271941299131693E-003   0.0000000000000000     
   1.0123676799211195E-013   1.1862658358824805E-002   0.0000000000000000     
   1.6370488881037142E-013   1.5012285809678784E-002   0.0000000000000000     
   2.3477498157370436E-013   1.8476076482475106E-002   0.0000000000000000     
  -8.5811373490899876E-004   6.5185400690885541E-003   0.0000000000000000     
  -1.0763290839308124E-003   9.0438259323181586E-003   0.0000000000000000     
  -1.2978388206867821E-003   1.1882601727520524E-002   0.0000000000000000     
  -1.5226429451769077E-003   1.5034867454695653E-002   0.0000000000000000     
  -1.7507414574011895E-003   1.8500623113843543E-002   0.0000000000000000     
  -1.7241159628980428E-003   6.5564809078290940E-003   0.0000000000000000     
  -2.1665263541423246E-003   9.0937213401069920E-003   0.0000000000000000     
  -2.6137162065334786E-003   1.1942431834134383E-002   0.0000000000000000     
  -3.0656855200715052E-003   1.5102612389911257E-002   0.0000000000000000     
  -3.5224342947564042E-003   1.8574263007437624E-002   0.0000000000000000     
  -2.5980066839650256E-003   6.6197156391654913E-003   0.0000000000000000     
  -3.2705918105871653E-003   9.1768803532796730E-003   0.0000000000000000     
  -3.9476321574388523E-003   1.2042148678666376E-002   0.0000000000000000     
  -4.6291277245200874E-003   1.5215520615325596E-002   0.0000000000000000     
  -5.3150785118308702E-003   1.8696996163257339E-002   0.0000000000000000     
  -3.4797858981099484E-003   6.7082442630977479E-003   0.0000000000000000     
  -4.3885254532653349E-003   9.2933029718361964E-003   0.0000000000000000     
  -5.2995866734029048E-003   1.2181752261116504E-002   0.0000000000000000     
  -6.2129695585226548E-003   1.5373592130938666E-002   0.0000000000000000     
  -7.1286741086245865E-003   1.8868822581302690E-002   0.0000000000000000     
   2.3477498157370436E-013   1.8476076482475106E-002   0.0000000000000000     
   2.1756945203788014E-013   2.2224757266576443E-002   0.0000000000000000     
   1.5211166744591442E-014   2.6229055051345474E-002   0.0000000000000000     
  -3.7229946095408348E-013   3.0488969836782204E-002   0.0000000000000000     
  -9.4496220744144654E-013   3.5004501622886618E-002   0.0000000000000000     
  -1.7507414574011895E-003   1.8500623113843543E-002   0.0000000000000000     
  -1.9785508018524212E-003   2.2250811808163764E-002   0.0000000000000000     
  -2.2024874230233992E-003   2.6256376640855880E-002   0.0000000000000000     
  -2.4225513209141228E-003   3.0517317611919895E-002   0.0000000000000000     
  -2.6387424955245913E-003   3.5033634721355802E-002   0.0000000000000000     
  -3.5224342947564042E-003   1.8574263007437624E-002   0.0000000000000000     
  -3.9780808414830995E-003   2.2328975431823363E-002   0.0000000000000000     
  -4.4267434711465136E-003   2.6338341408178357E-002   0.0000000000000000     
  -4.8684221837466471E-003   3.0602360936502614E-002   0.0000000000000000     
  -5.3031169792834999E-003   3.5121034016796129E-002   0.0000000000000000     
  -5.3150785118308702E-003   1.8696996163257339E-002   0.0000000000000000     
  -5.9985901186744633E-003   2.2459248137555229E-002   0.0000000000000000     
  -6.6727681443541310E-003   2.6474949353312904E-002   0.0000000000000000     
  -7.3376125888698750E-003   3.0744099810530359E-002   0.0000000000000000     
  -7.9931234522216902E-003   3.5266699509207591E-002   0.0000000000000000     
  -7.1286741086245865E-003   1.8868822581302690E-002   0.0000000000000000     
  -8.0400786334265135E-003   2.2641629925359372E-002   0.0000000000000000     
  -8.9405614426462526E-003   2.6666200476259515E-002   0.0000000000000000     
  -9.8301225362838023E-003   3.0942534234003130E-002   0.0000000000000000     
  -1.0708761914339161E-002   3.5470631198590202E-002   0.0000000000000000     
  -9.4496220744144654E-013   3.5004501622886618E-002   0.0000000000000000     
  -1.3246434114530525E-012   3.9756371029136026E-002   0.0000000000000000     
  -1.1332081106818492E-012   4.4725298675007734E-002   0.0000000000000000     
  -3.7065738933000913E-013   4.9911284560501729E-002   0.0000000000000000     
   9.6301027048550925E-013   5.5314328685618017E-002   0.0000000000000000     
  -2.6387424955245913E-003   3.5033634721355802E-002   0.0000000000000000     
  -2.8507134276664924E-003   3.9785985813603437E-002   0.0000000000000000     
  -3.0581165981515140E-003   4.4755028733102629E-002   0.0000000000000000     
  -3.2609520069796557E-003   4.9940763479853385E-002   0.0000000000000000     
  -3.4592196541509178E-003   5.5343190053855698E-002   0.0000000000000000     
  -5.3031169792834999E-003   3.5121034016796129E-002   0.0000000000000000     
  -5.7294306616985664E-003   3.9874830168176001E-002   0.0000000000000000     
  -6.1459660349333376E-003   4.4844218909759363E-002   0.0000000000000000     
  -6.5527230989878135E-003   5.0029200241546161E-002   0.0000000000000000     
  -6.9497018538619958E-003   5.5429774163536449E-002   0.0000000000000000     
  -7.9931234522216902E-003   3.5266699509207591E-002   0.0000000000000000     
  -8.6361517034208614E-003   4.0022904092853737E-002   0.0000000000000000     
  -9.2635483114786761E-003   4.4992869204977894E-002   0.0000000000000000     
  -9.8753132763951292E-003   5.0176594845580076E-002   0.0000000000000000     
  -1.0471446598170222E-002   5.5574081014660270E-002   0.0000000000000000     
  -1.0708761914339161E-002   3.5470631198590202E-002   0.0000000000000000     
  -1.1570876552833384E-002   4.0230207587636617E-002   0.0000000000000000     
  -1.2410863427787534E-002   4.5200979618758248E-002   0.0000000000000000     
  -1.3228722539201605E-002   5.0382947291955089E-002   0.0000000000000000     
  -1.4024453887075601E-002   5.5776110607227161E-002   0.0000000000000000     
   9.6301027048550925E-013   5.5314328685618017E-002   0.0000000000000000     
   3.2104195604037988E-012   6.0918630759029847E-002   0.0000000000000000     
   6.7141960936357992E-012   6.6708390489410505E-002   0.0000000000000000     
   1.1474340263204798E-011   7.2683607876759954E-002   0.0000000000000000     
   1.7490852082663322E-011   7.8844282921078215E-002   0.0000000000000000     
  -3.4592196541509178E-003   5.5343190053855698E-002   0.0000000000000000     
  -3.6520732981446449E-003   6.0946689311548986E-002   0.0000000000000000     
  -3.8386666974401787E-003   6.6735642109372648E-002   0.0000000000000000     
  -4.0189998520375218E-003   7.2710048447326731E-002   0.0000000000000000     
  -4.1930727619366708E-003   7.8869908325411187E-002   0.0000000000000000     
  -6.9497018538619958E-003   5.5429774163536449E-002   0.0000000000000000     
  -7.3356077245118178E-003   6.1030864973952277E-002   0.0000000000000000     
  -7.7091461358932134E-003   6.6817396971015741E-002   0.0000000000000000     
  -8.0703170880061827E-003   7.2789370154726835E-002   0.0000000000000000     
  -8.4191205808507221E-003   7.8946784525085550E-002   0.0000000000000000     
  -1.0471446598170222E-002   5.5574081014660270E-002   0.0000000000000000     
  -1.1050603275891104E-002   6.1171157746239734E-002   0.0000000000000000     
  -1.1611438308644905E-002   6.6953655074339744E-002   0.0000000000000000     
  -1.2153951696431641E-002   7.2921572998960266E-002   0.0000000000000000     
  -1.2678143439251301E-002   7.9074911520101307E-002   0.0000000000000000     
  -1.4024453887075601E-002   5.5776110607227161E-002   0.0000000000000000     
  -1.4797059952282495E-002   6.1367567628411369E-002   0.0000000000000000     
  -1.5545543215695259E-002   6.7144416419344641E-002   0.0000000000000000     
  -1.6269903677313898E-002   7.3106656980027010E-002   0.0000000000000000     
  -1.6970141337138409E-002   7.9254289310458456E-002   0.0000000000000000     
   1.7490852082663322E-011   7.8844282921078215E-002   0.0000000000000000     
   2.3819487831797104E-011   8.5177814373515515E-002   0.0000000000000000     
   2.9516003248290790E-011   9.1671600985222146E-002   0.0000000000000000     
   3.4580401015544757E-011   9.8325642756198040E-002   0.0000000000000000     
   3.9012678504368736E-011  0.10513993968644324        0.0000000000000000     
  -4.1930727619366708E-003   7.8869908325411187E-002   0.0000000000000000     
  -4.3607988855006432E-003   8.5202576800832180E-002   0.0000000000000000     
  -4.5220916810924487E-003   9.1695408930795863E-002   0.0000000000000000     
  -4.6769511487120864E-003   9.8348404715302234E-002   0.0000000000000000     
  -4.8253772883595589E-003  0.10516156415435132        0.0000000000000000     
  -8.4191205808507221E-003   7.8946784525085550E-002   0.0000000000000000     
  -8.7552414181800414E-003   8.5276864059888713E-002   0.0000000000000000     
  -9.0783644037473344E-003   9.1766832736933188E-002   0.0000000000000000     
  -9.3884895375526099E-003   9.8416690556218947E-002   0.0000000000000000     
  -9.6856168195958610E-003  0.10522643751774599        0.0000000000000000     
  -1.2678143439251301E-002   7.9074911520101307E-002   0.0000000000000000     
  -1.3183327574218702E-002   8.5400676150685167E-002   0.0000000000000000     
  -1.3668818138448660E-002   9.1885872403634106E-002   0.0000000000000000     
  -1.4134615131941166E-002   9.8530500278948149E-002   0.0000000000000000     
  -1.4580718554696224E-002  0.10533455977662727        0.0000000000000000     
  -1.6970141337138409E-002   7.9254289310458456E-002   0.0000000000000000     
  -1.7645057353616628E-002   8.5574013073221489E-002   0.0000000000000000     
  -1.8293452885196411E-002   9.2052527930898617E-002   0.0000000000000000     
  -1.8915327931877755E-002   9.8689833883489841E-002   0.0000000000000000     
  -1.9510682493660655E-002  0.10548593093099518        0.0000000000000000     
   3.9012678504368736E-011  0.10513993968644324        0.0000000000000000     
   4.2292757837514294E-011  0.11210221322764485        0.0000000000000000     
   4.3900557668286044E-011  0.11920018483149006        0.0000000000000000     
   4.3836078972465942E-011  0.12643385449797884        0.0000000000000000     
   4.2099321424793335E-011  0.13380322222711119        0.0000000000000000     
  -4.8253772883595589E-003  0.10516156415435132        0.0000000000000000     
  -4.9671524183683225E-003  0.11212267196678456        0.0000000000000000     
  -5.1020588570718306E-003  0.11921951287144353        0.0000000000000000     
  -5.2300966044700877E-003  0.12645208686832821        0.0000000000000000     
  -5.3512656605630886E-003  0.13382039395743853        0.0000000000000000     
  -9.6856168195958610E-003  0.10522643751774599        0.0000000000000000     
  -9.9696323407711396E-003  0.11218404813979302        0.0000000000000000     
  -1.0240422191972484E-002  0.11927749694063867        0.0000000000000000     
  -1.0497986373199906E-002  0.12650678392028300        0.0000000000000000     
  -1.0742324884453399E-002  0.13387190907872598        0.0000000000000000     
  -1.4580718554696224E-002  0.10533455977662727        0.0000000000000000     
  -1.5007439724915689E-002  0.11228634174667017        0.0000000000000000     
  -1.5415089960801405E-002  0.11937413703907553        0.0000000000000000     
  -1.5803669262353381E-002  0.12659794565384327        0.0000000000000000     
  -1.6173177629571607E-002  0.13395776759097347        0.0000000000000000     
  -1.9510682493660655E-002  0.10548593093099518        0.0000000000000000     
  -2.0080574570801979E-002  0.11242955278741609        0.0000000000000000     
  -2.0626062163558598E-002  0.11950943316675403        0.0000000000000000     
  -2.1147145271930508E-002  0.12672557206900903        0.0000000000000000     
  -2.1643823895917711E-002  0.13407796949418108        0.0000000000000000     
   4.2099321424793335E-011  0.13380322222711119        0.0000000000000000     
   2.9487604632366660E-011  0.14129707388181939        0.0000000000000000     
  -3.2017528819178187E-012  0.14890419532503571        0.0000000000000000     
  -5.5968751280690426E-011  0.15662458655676018        0.0000000000000000     
  -1.2881339050974105E-010  0.16445824757699273        0.0000000000000000     
  -5.3512656605630886E-003  0.13382039395743853        0.0000000000000000     
  -5.4640124531340675E-003  0.14131313689887237        0.0000000000000000     
  -5.5667834099662602E-003  0.14891901845272743        0.0000000000000000     
  -5.6595785310596582E-003  0.15663803861900374        0.0000000000000000     
  -5.7423978164142693E-003  0.16447019739770130        0.0000000000000000     
  -1.0742324884453399E-002  0.13387190907872598        0.0000000000000000     
  -1.0970942060555546E-002  0.14136132587715178        0.0000000000000000     
  -1.1181342236328927E-002  0.14896348777674462        0.0000000000000000     
  -1.1373525411773548E-002  0.15667839477750448        0.0000000000000000     
  -1.1547491586889409E-002  0.16450604687943138        0.0000000000000000     
  -1.6173177629571607E-002  0.13395776759097347        0.0000000000000000     
  -1.6520788792776821E-002  0.14144164081665764        0.0000000000000000     
  -1.6843676482289759E-002  0.14903760329708726        0.0000000000000000     
  -1.7141840698110419E-002  0.15674565503226237        0.0000000000000000     
  -1.7415281440238808E-002  0.16456579602218296        0.0000000000000000     
  -2.1643823895917711E-002  0.13407796949418108        0.0000000000000000     
  -2.2113552649797898E-002  0.14155408171738995        0.0000000000000000     
  -2.2553786147848750E-002  0.14914136501375538        0.0000000000000000     
  -2.2964524390070275E-002  0.15683981938327740        0.0000000000000000     
  -2.3345767376462469E-002  0.16464944482595603        0.0000000000000000     
   0.0000000000000000        0.0000000000000000        0.0000000000000000     
  -8.4172228842488059E-004   1.1098343012546238E-003   0.0000000000000000     
  -1.7022607009181654E-003   2.5978197788557901E-003   0.0000000000000000     
  -2.5816152374798550E-003   4.4639564328034977E-003   0.0000000000000000     
  -3.4797858981099484E-003   6.7082442630977479E-003   0.0000000000000000     
   0.0000000000000000        0.0000000000000000        0.0000000000000000     
  -1.0567691657539756E-003   1.1340265624011222E-003   0.0000000000000000     
  -2.1399343468958922E-003   2.6501414814938257E-003   0.0000000000000000     
  -3.2494955434257504E-003   4.5483447572781102E-003   0.0000000000000000     
  -4.3854527553435487E-003   6.8286363897539738E-003   0.0000000000000000     
   0.0000000000000000        0.0000000000000000        0.0000000000000000     
  -1.2878968416185574E-003   1.1699327390597288E-003   0.0000000000000000     
  -2.6056968564375045E-003   2.7244872569566849E-003   0.0000000000000000     
  -3.9534000444568394E-003   4.6636635536908702E-003   0.0000000000000000     
  -5.3310064056765645E-003   6.9874616292622824E-003   0.0000000000000000     
   0.0000000000000000        0.0000000000000000        0.0000000000000000     
  -1.5351053160186266E-003   1.2175528312304432E-003   0.0000000000000000     
  -3.0995482295430015E-003   2.8208571052443692E-003   0.0000000000000000     
  -4.6933287405731246E-003   4.8099128220417788E-003   0.0000000000000000     
  -6.3164468491089965E-003   7.1847199816226729E-003   0.0000000000000000     
   0.0000000000000000        0.0000000000000000        0.0000000000000000     
  -1.7983945889541828E-003   1.2768868389132653E-003   0.0000000000000000     
  -3.6214884662123838E-003   2.9392510263568775E-003   0.0000000000000000     
  -5.4692816317746043E-003   4.9870925623308375E-003   0.0000000000000000     
  -7.3417740856408439E-003   7.4204114468351436E-003   0.0000000000000000     
  -3.4797858981099484E-003   6.7082442630977479E-003   0.0000000000000000     
  -4.3885254532653349E-003   9.2933029718361964E-003   0.0000000000000000     
  -5.2995866734029048E-003   1.2181752261116504E-002   0.0000000000000000     
  -6.2129695585226548E-003   1.5373592130938666E-002   0.0000000000000000     
  -7.1286741086245865E-003   1.8868822581302690E-002   0.0000000000000000     
  -4.3854527553435487E-003   6.8286363897539738E-003   0.0000000000000000     
  -5.5348533726857982E-003   9.4489355098732290E-003   0.0000000000000000     
  -6.6847447854890092E-003   1.2367161248587685E-002   0.0000000000000000     
  -7.8351269937531783E-003   1.5583313605897341E-002   0.0000000000000000     
  -8.9859999974783080E-003   1.9097392581802201E-002   0.0000000000000000     
  -5.3310064056765645E-003   6.9874616292622824E-003   0.0000000000000000     
  -6.7241016593575188E-003   9.6497242814874342E-003   0.0000000000000000     
  -8.1182715247605404E-003   1.2604294308182835E-002   0.0000000000000000     
  -9.5135160018856302E-003   1.5851171709348487E-002   0.0000000000000000     
  -1.0909835090732789E-002   1.9390356484984387E-002   0.0000000000000000     
  -6.3164468491089965E-003   7.1847199816226729E-003   0.0000000000000000     
  -7.9562703132804950E-003   9.8956692866788102E-003   0.0000000000000000     
  -9.6001668912175011E-003   1.2893151439901952E-002   0.0000000000000000     
  -1.1248136582920013E-002   1.6177166441292103E-002   0.0000000000000000     
  -1.2900179388388031E-002   1.9747714290849254E-002   0.0000000000000000     
  -7.3417740856408439E-003   7.4204114468351436E-003   0.0000000000000000     
  -9.2313593344547293E-003   1.0186770525447357E-002   0.0000000000000000     
  -1.1130430884859890E-002   1.3233732643745036E-002   0.0000000000000000     
  -1.3038988736856324E-002   1.6561297801728183E-002   0.0000000000000000     
  -1.4957032890444033E-002   2.0169465999396799E-002   0.0000000000000000     
  -7.1286741086245865E-003   1.8868822581302690E-002   0.0000000000000000     
  -8.0400786334265135E-003   2.2641629925359372E-002   0.0000000000000000     
  -8.9405614426462526E-003   2.6666200476259515E-002   0.0000000000000000     
  -9.8301225362838023E-003   3.0942534234003130E-002   0.0000000000000000     
  -1.0708761914339161E-002   3.5470631198590202E-002   0.0000000000000000     
  -8.9859999974783080E-003   1.9097392581802201E-002   0.0000000000000000     
  -1.0130258928680941E-002   2.2884699355867618E-002   0.0000000000000000     
  -1.1260798919377620E-002   2.6920535107658940E-002   0.0000000000000000     
  -1.2377619969568343E-002   3.1204899837176184E-002   0.0000000000000000     
  -1.3480722079253115E-002   3.5737793544419333E-002   0.0000000000000000     
  -1.0909835090732789E-002   1.9390356484984387E-002   0.0000000000000000     
  -1.2296843547379432E-002   2.3197034989711776E-002   0.0000000000000000     
  -1.3664156127902975E-002   2.7246393578151902E-002   0.0000000000000000     
  -1.5011772832303415E-002   3.1538432250304754E-002   0.0000000000000000     
  -1.6339693660580756E-002   3.6073151006170354E-002   0.0000000000000000     
  -1.2900179388388031E-002   1.9747714290849254E-002   0.0000000000000000     
  -1.4539832489521990E-002   2.3578636826891871E-002   0.0000000000000000     
  -1.6150633068222321E-002   2.7643775887738413E-002   0.0000000000000000     
  -1.7732581124489021E-002   3.1943131473388876E-002   0.0000000000000000     
  -1.9285676658322089E-002   3.6476703583843265E-002   0.0000000000000000     
  -1.4957032890444033E-002   2.0169465999396799E-002   0.0000000000000000     
  -1.6859225755108610E-002   2.4029504867407889E-002   0.0000000000000000     
  -1.8720229740335652E-002   2.8112682036418462E-002   0.0000000000000000     
  -2.0540044846125149E-002   3.2418997506428522E-002   0.0000000000000000     
  -2.2318671072477113E-002   3.6948451277438073E-002   0.0000000000000000     
  -1.0708761914339161E-002   3.5470631198590202E-002   0.0000000000000000     
  -1.1570876552833384E-002   4.0230207587636617E-002   0.0000000000000000     
  -1.2410863427787534E-002   4.5200979618758248E-002   0.0000000000000000     
  -1.3228722539201605E-002   5.0382947291955089E-002   0.0000000000000000     
  -1.4024453887075601E-002   5.5776110607227161E-002   0.0000000000000000     
  -1.3480722079253115E-002   3.5737793544419333E-002   0.0000000000000000     
  -1.4562543772462383E-002   4.0499296276479010E-002   0.0000000000000000     
  -1.5615523573226601E-002   4.5469488080445819E-002   0.0000000000000000     
  -1.6639661481545765E-002   5.0648368956319759E-002   0.0000000000000000     
  -1.7634957497419879E-002   5.6035938904100829E-002   0.0000000000000000     
  -1.6339693660580756E-002   3.6073151006170354E-002   0.0000000000000000     
  -1.7640091924834109E-002   4.0832725783335237E-002   0.0000000000000000     
  -1.8905140937162564E-002   4.5799332519385970E-002   0.0000000000000000     
  -2.0134840697566134E-002   5.0972971214322552E-002   0.0000000000000000     
  -2.1329191206044814E-002   5.6353641868144989E-002   0.0000000000000000     
  -1.9285676658322089E-002   3.6476703583843265E-002   0.0000000000000000     
  -2.0803521009948551E-002   4.1230496108205304E-002   0.0000000000000000     
  -2.2279715519595428E-002   4.6190512935578715E-002   0.0000000000000000     
  -2.3714260187262706E-002   5.1356754065963496E-002   0.0000000000000000     
  -2.5107155012950397E-002   5.6729219499359648E-002   0.0000000000000000     
  -2.2318671072477113E-002   3.6948451277438073E-002   0.0000000000000000     
  -2.4052831027805730E-002   4.1692607251089218E-002   0.0000000000000000     
  -2.5739247320525190E-002   4.6643029329024054E-002   0.0000000000000000     
  -2.7377919950635491E-002   5.1799717511242578E-002   0.0000000000000000     
  -2.8968848918136635E-002   5.7162671797744806E-002   0.0000000000000000     
  -1.4024453887075601E-002   5.5776110607227161E-002   0.0000000000000000     
  -1.4797059952282495E-002   6.1367567628411369E-002   0.0000000000000000     
  -1.5545543215695259E-002   6.7144416419344641E-002   0.0000000000000000     
  -1.6269903677313898E-002   7.3106656980027010E-002   0.0000000000000000     
  -1.6970141337138409E-002   7.9254289310458456E-002   0.0000000000000000     
  -1.7634957497419879E-002   5.6035938904100829E-002   0.0000000000000000     
  -1.8600861290090653E-002   6.1620427805848851E-002   0.0000000000000000     
  -1.9536822528799788E-002   6.7390065543623701E-002   0.0000000000000000     
  -2.0442841213547273E-002   7.3344852117425322E-002   0.0000000000000000     
  -2.1318917344333135E-002   7.9484787527253742E-002   0.0000000000000000     
  -2.1329191206044814E-002   5.6353641868144989E-002   0.0000000000000000     
  -2.2487890825720225E-002   6.1930071463933950E-002   0.0000000000000000     
  -2.3610637919713989E-002   6.7690986984770080E-002   0.0000000000000000     
  -2.4697432488026104E-002   7.3636388430653385E-002   0.0000000000000000     
  -2.5748274530656569E-002   7.9766275801583880E-002   0.0000000000000000     
  -2.5107155012950397E-002   5.6729219499359648E-002   0.0000000000000000     
  -2.6458148559171210E-002   6.2296498602666610E-002   0.0000000000000000     
  -2.7766989388437878E-002   6.8047180742783819E-002   0.0000000000000000     
  -2.9033677500750379E-002   7.3981265919711256E-002   0.0000000000000000     
  -3.0258212896108725E-002   8.0098754133448927E-002   0.0000000000000000     
  -2.8968848918136635E-002   5.7162671797744806E-002   0.0000000000000000     
  -3.0511634490443619E-002   6.2719709222046865E-002   0.0000000000000000     
  -3.2005876934971443E-002   6.8458646817664878E-002   0.0000000000000000     
  -3.3451576251720100E-002   7.4379484584598865E-002   0.0000000000000000     
  -3.4848732440689589E-002   8.0482222522848812E-002   0.0000000000000000     
  -1.6970141337138409E-002   7.9254289310458456E-002   0.0000000000000000     
  -1.7645057353616628E-002   8.5574013073221489E-002   0.0000000000000000     
  -1.8293452885196411E-002   9.2052527930898617E-002   0.0000000000000000     
  -1.8915327931877755E-002   9.8689833883489841E-002   0.0000000000000000     
  -1.9510682493660655E-002  0.10548593093099518        0.0000000000000000     
  -2.1318917344333135E-002   7.9484787527253742E-002   0.0000000000000000     
  -2.2163390074901073E-002   8.5796415581972083E-002   0.0000000000000000     
  -2.2974598558994822E-002   9.2266280090443437E-002   0.0000000000000000     
  -2.3752542796614380E-002   9.8894381052667832E-002   0.0000000000000000     
  -2.4497222787759752E-002  0.10568071846864527        0.0000000000000000     
  -2.5748274530656569E-002   7.9766275801583880E-002   0.0000000000000000     
  -2.6761285056599273E-002   8.6067424431411299E-002   0.0000000000000000     
  -2.7734585074848106E-002   9.2526609653985292E-002   0.0000000000000000     
  -2.8668174585403057E-002   9.9143831469305901E-002   0.0000000000000000     
  -2.9562053588264130E-002  0.10591908987737313        0.0000000000000000     
  -3.0258212896108725E-002   8.0098754133448927E-002   0.0000000000000000     
  -3.1438742298711242E-002   8.6387039621539138E-002   0.0000000000000000     
  -3.2573412432756264E-002   9.2833516621524170E-002   0.0000000000000000     
  -3.3662223298243768E-002   9.9438185133404064E-002   0.0000000000000000     
  -3.4705174895173781E-002  0.10620104515717881        0.0000000000000000     
  -3.4848732440689589E-002   8.0482222522848812E-002   0.0000000000000000     
  -3.6195761801236966E-002   8.6755261152355587E-002   0.0000000000000000     
  -3.7491080632719283E-002   9.3187000993060085E-002   0.0000000000000000     
  -3.8734688935136534E-002   9.9777442044962306E-002   0.0000000000000000     
  -3.9926586708488712E-002  0.10652658430806224        0.0000000000000000     
  -1.9510682493660655E-002  0.10548593093099518        0.0000000000000000     
  -2.0080574570801979E-002  0.11242955278741609        0.0000000000000000     
  -2.0626062163558598E-002  0.11950943316675403        0.0000000000000000     
  -2.1147145271930508E-002  0.12672557206900903        0.0000000000000000     
  -2.1643823895917711E-002  0.13407796949418108        0.0000000000000000     
  -2.4497222787759752E-002  0.10568071846864527        0.0000000000000000     
  -2.5210405487884363E-002  0.11261433356135260        0.0000000000000000     
  -2.5893857852441644E-002  0.11968426755376681        0.0000000000000000     
  -2.6547579881431596E-002  0.12689052044588786        0.0000000000000000     
  -2.7171571574854215E-002  0.13423309223771573        0.0000000000000000     
  -2.9562053588264130E-002  0.10591908987737313        0.0000000000000000     
  -3.0418301085617203E-002  0.11284133636780172        0.0000000000000000     
  -3.1238996079648137E-002  0.11989952243020648        0.0000000000000000     
  -3.2024138570356943E-002  0.12709364806458737        0.0000000000000000     
  -3.2773728557743603E-002  0.13442371327094441        0.0000000000000000     
  -3.4705174895173781E-002  0.10620104515717881        0.0000000000000000     
  -3.5704261364000484E-002  0.11311056120676342        0.0000000000000000     
  -3.6661476845178079E-002  0.12015519779607302        0.0000000000000000     
  -3.7576821338706545E-002  0.12733495492510755        0.0000000000000000     
  -3.8450294844585897E-002  0.13464983259386712        0.0000000000000000     
  -3.9926586708488712E-002  0.10652658430806224        0.0000000000000000     
  -4.1068286323034227E-002  0.11342200807823767        0.0000000000000000     
  -4.2161300149031460E-002  0.12045129365136641        0.0000000000000000     
  -4.3205628186480417E-002  0.12761444102744848        0.0000000000000000     
  -4.4201270435381093E-002  0.13491145020648382        0.0000000000000000     
  -2.1643823895917711E-002  0.13407796949418108        0.0000000000000000     
  -2.2113552649797898E-002  0.14155408171738995        0.0000000000000000     
  -2.2553786147848750E-002  0.14914136501375538        0.0000000000000000     
  -2.2964524390070275E-002  0.15683981938327740        0.0000000000000000     
  -2.3345767376462469E-002  0.16464944482595603        0.0000000000000000     
  -2.7171571574854215E-002  0.13423309223771573        0.0000000000000000     
  -2.7763427494521827E-002  0.14169904297186781        0.0000000000000000     
  -2.8320742202246747E-002  0.14927543269096141        0.0000000000000000     
  -2.8843515698028968E-002  0.15696226139499656        0.0000000000000000     
  -2.9331747981868508E-002  0.16475952908397329        0.0000000000000000     
  -3.2773728557743603E-002  0.13442371327094441        0.0000000000000000     
  -3.3484607189851655E-002  0.14187691897261029        0.0000000000000000     
  -3.4153615614724575E-002  0.14944046609291772        0.0000000000000000     
  -3.4780753832362371E-002  0.15711435463186676        0.0000000000000000     
  -3.5366021842765029E-002  0.16489858458945733        0.0000000000000000     
  -3.8450294844585897E-002  0.13464983259386712        0.0000000000000000     
  -3.9277091735787382E-002  0.14208770971961743        0.0000000000000000     
  -4.0052406385282242E-002  0.14963646521962437        0.0000000000000000     
  -4.0776238793070456E-002  0.15729609909388798        0.0000000000000000     
  -4.1448588959152058E-002  0.16506661134240824        0.0000000000000000     
  -4.4201270435381093E-002  0.13491145020648382        0.0000000000000000     
  -4.5140881132329030E-002  0.14233141521288920        0.0000000000000000     
  -4.6017114513919745E-002  0.14986343007108135        0.0000000000000000     
  -4.6829970580153264E-002  0.15750749478106027        0.0000000000000000     
  -4.7579449331029568E-002  0.16526360934282591        0.0000000000000000     
   0.0000000000000000        0.0000000000000000        0.0000000000000000     
  -1.7983945889541828E-003   1.2768868389132653E-003   0.0000000000000000     
  -3.6214884662123838E-003   2.9392510263568775E-003   0.0000000000000000     
  -5.4692816317746043E-003   4.9870925623308375E-003   0.0000000000000000     
  -7.3417740856408439E-003   7.4204114468351436E-003   0.0000000000000000     
   0.0000000000000000        0.0000000000000000        0.0000000000000000     
  -2.0694923765320217E-003   1.3550410972497664E-003   0.0000000000000000     
  -4.1641675057733484E-003   3.0941683427809568E-003   0.0000000000000000     
  -6.2840253877239800E-003   5.2173817365935710E-003   0.0000000000000000     
  -8.4290660223839166E-003   7.7246812786876109E-003   0.0000000000000000     
   0.0000000000000000        0.0000000000000000        0.0000000000000000     
  -2.3401263948589403E-003   1.4591219413815166E-003   0.0000000000000000     
  -4.7202352875535918E-003   3.3001083770033534E-003   0.0000000000000000     
  -7.1403266780839525E-003   5.5229593068655105E-003   0.0000000000000000     
  -9.6004005664500260E-003   8.1276747309679855E-003   0.0000000000000000     
   0.0000000000000000        0.0000000000000000        0.0000000000000000     
  -2.6102966439349382E-003   1.5891293713085168E-003   0.0000000000000000     
  -5.2896918115531129E-003   3.5570711290240672E-003   0.0000000000000000     
  -8.0381855028545234E-003   5.9038252731466526E-003   0.0000000000000000     
  -1.0855777717839172E-002   8.6293918036762715E-003   0.0000000000000000     
   0.0000000000000000        0.0000000000000000        0.0000000000000000     
  -2.8800031237600152E-003   1.7450633870307662E-003   0.0000000000000000     
  -5.8725370777719128E-003   3.8650565988430992E-003   0.0000000000000000     
  -8.9776018620356928E-003   6.3599796354369999E-003   0.0000000000000000     
  -1.2195197476551354E-002   9.2298324968124665E-003   0.0000000000000000     
  -7.3417740856408439E-003   7.4204114468351436E-003   0.0000000000000000     
  -9.2313593344547293E-003   1.0186770525447357E-002   0.0000000000000000     
  -1.1130430884859890E-002   1.3233732643745036E-002   0.0000000000000000     
  -1.3038988736856324E-002   1.6561297801728183E-002   0.0000000000000000     
  -1.4957032890444033E-002   2.0169465999396799E-002   0.0000000000000000     
  -8.4290660223839166E-003   7.7246812786876109E-003   0.0000000000000000     
  -1.0591034114403259E-002   1.0558646060045203E-002   0.0000000000000000     
  -1.2761674368432098E-002   1.3661855171648486E-002   0.0000000000000000     
  -1.4940986784470442E-002   1.7034308613497449E-002   0.0000000000000000     
  -1.7128971362518283E-002   2.0676006385592100E-002   0.0000000000000000     
  -9.6004005664500260E-003   8.1276747309679855E-003   0.0000000000000000     
  -1.2076960044649112E-002   1.1046913952724481E-002   0.0000000000000000     
  -1.4546508204678517E-002   1.4213336275548685E-002   0.0000000000000000     
  -1.7009045046538239E-002   1.7626941699440599E-002   0.0000000000000000     
  -1.9464570570228278E-002   2.1287730224400232E-002   0.0000000000000000     
  -1.0855777717839172E-002   8.6293918036762715E-003   0.0000000000000000     
  -1.3689137125192300E-002   1.1651574203485183E-002   0.0000000000000000     
  -1.6484932393599147E-002   1.4888175955445641E-002   0.0000000000000000     
  -1.9243163523059721E-002   1.8339197059557649E-002   0.0000000000000000     
  -2.1963830513574010E-002   2.2004637515821206E-002   0.0000000000000000     
  -1.2195197476551354E-002   9.2298324968124665E-003   0.0000000000000000     
  -1.5427565356032813E-002   1.2372626812327314E-002   0.0000000000000000     
  -1.8576946935193992E-002   1.5686374211339352E-002   0.0000000000000000     
  -2.1643342214034876E-002   1.9171074693848583E-002   0.0000000000000000     
  -2.4626751192555481E-002   2.2826728259855010E-002   0.0000000000000000     
  -1.4957032890444033E-002   2.0169465999396799E-002   0.0000000000000000     
  -1.6859225755108610E-002   2.4029504867407889E-002   0.0000000000000000     
  -1.8720229740335652E-002   2.8112682036418462E-002   0.0000000000000000     
  -2.0540044846125149E-002   3.2418997506428522E-002   0.0000000000000000     
  -2.2318671072477113E-002   3.6948451277438073E-002   0.0000000000000000     
  -1.7128971362518283E-002   2.0676006385592100E-002   0.0000000000000000     
  -1.9294444642960821E-002   2.4559025737903768E-002   0.0000000000000000     
  -2.1406223166183236E-002   2.8655443920403804E-002   0.0000000000000000     
  -2.3464306932185524E-002   3.2965260933092197E-002   0.0000000000000000     
  -2.5468695940967689E-002   3.7488476775968956E-002   0.0000000000000000     
  -1.9464570570228278E-002   2.1287730224400232E-002   0.0000000000000000     
  -2.1884910451900139E-002   2.5176586065023463E-002   0.0000000000000000     
  -2.4241890367705327E-002   2.9274393435906182E-002   0.0000000000000000     
  -2.6535510317643844E-002   3.3581152337048399E-002   0.0000000000000000     
  -2.8765770301715683E-002   3.8096862768450097E-002   0.0000000000000000     
  -2.1963830513574010E-002   2.2004637515821206E-002   0.0000000000000000     
  -2.4630623181926565E-002   2.5882185848766965E-002   0.0000000000000000     
  -2.7227231344901934E-002   2.9969530582925598E-002   0.0000000000000000     
  -2.9753655002500105E-002   3.4266671718297101E-002   0.0000000000000000     
  -3.2209894154721093E-002   3.8773609254881478E-002   0.0000000000000000     
  -2.4626751192555481E-002   2.2826728259855010E-002   0.0000000000000000     
  -2.7531582833040105E-002   2.6675825089134280E-002   0.0000000000000000     
  -3.0362246097773049E-002   3.0740855361462056E-002   0.0000000000000000     
  -3.3118740986754325E-002   3.5021819076838344E-002   0.0000000000000000     
  -3.5801067499983914E-002   3.9518716235263124E-002   0.0000000000000000     
  -2.2318671072477113E-002   3.6948451277438073E-002   0.0000000000000000     
  -2.4052831027805730E-002   4.1692607251089218E-002   0.0000000000000000     
  -2.5739247320525190E-002   4.6643029329024054E-002   0.0000000000000000     
  -2.7377919950635491E-002   5.1799717511242578E-002   0.0000000000000000     
  -2.8968848918136635E-002   5.7162671797744806E-002   0.0000000000000000     
  -2.5468695940967689E-002   3.7488476775968956E-002   0.0000000000000000     
  -2.7419333315115736E-002   4.2221388951775803E-002   0.0000000000000000     
  -2.9316162177215666E-002   4.7160294963254482E-002   0.0000000000000000     
  -3.1159182527267473E-002   5.2305194810404985E-002   0.0000000000000000     
  -3.2948394365271166E-002   5.7656088493227314E-002   0.0000000000000000     
  -2.8765770301715683E-002   3.8096862768450097E-002   0.0000000000000000     
  -3.0934339208588679E-002   4.2819170950053914E-002   0.0000000000000000     
  -3.3042885926930679E-002   4.7745723101802515E-002   0.0000000000000000     
  -3.5091410456741655E-002   5.2876519223695892E-002   0.0000000000000000     
  -3.7079912798021634E-002   5.8211559315734039E-002   0.0000000000000000     
  -3.2209894154721093E-002   3.8773609254881478E-002   0.0000000000000000     
  -3.4597848708224570E-002   4.3485953245923553E-002   0.0000000000000000     
  -3.6919418569670209E-002   4.8399313744668167E-002   0.0000000000000000     
  -3.9174603739058046E-002   5.3513690751115305E-002   0.0000000000000000     
  -4.1363404216388039E-002   5.8829084265264973E-002   0.0000000000000000     
  -3.5801067499983914E-002   3.9518716235263124E-002   0.0000000000000000     
  -3.8409861814023380E-002   4.4221735839384713E-002   0.0000000000000000     
  -4.0945760105434284E-002   4.9121066891851417E-002   0.0000000000000000     
  -4.3408762374216613E-002   5.4216709392663223E-002   0.0000000000000000     
  -4.5798868620370373E-002   5.9508663341820138E-002   0.0000000000000000     
  -2.8968848918136635E-002   5.7162671797744806E-002   0.0000000000000000     
  -3.0511634490443619E-002   6.2719709222046865E-002   0.0000000000000000     
  -3.2005876934971443E-002   6.8458646817664878E-002   0.0000000000000000     
  -3.3451576251720100E-002   7.4379484584598865E-002   0.0000000000000000     
  -3.4848732440689589E-002   8.0482222522848812E-002   0.0000000000000000     
  -3.2948394365271166E-002   5.7656088493227314E-002   0.0000000000000000     
  -3.4683203601959818E-002   6.3200339053299900E-002   0.0000000000000000     
  -3.6363016148066488E-002   6.8925309532201134E-002   0.0000000000000000     
  -3.7987832003591196E-002   7.4830999929931044E-002   0.0000000000000000     
  -3.9557651168533936E-002   8.0917410246489616E-002   0.0000000000000000     
  -3.7079912798021634E-002   5.8211559315734039E-002   0.0000000000000000     
  -3.9007710876142167E-002   6.3739023827650898E-002   0.0000000000000000     
  -4.0874122616474828E-002   6.9447093209180397E-002   0.0000000000000000     
  -4.2679148019019619E-002   7.5335767460322556E-002   0.0000000000000000     
  -4.4422787083776526E-002   8.1405046581077375E-002   0.0000000000000000     
  -4.1363404216388039E-002   5.8829084265264973E-002   0.0000000000000000     
  -4.3485156312990672E-002   6.4335763545099872E-002   0.0000000000000000     
  -4.5539196340196451E-002   7.0023997848602679E-002   0.0000000000000000     
  -4.7525524298005335E-002   7.5893787175773428E-002   0.0000000000000000     
  -4.9444140186417365E-002   8.1945131526612078E-002   0.0000000000000000     
  -4.5798868620370373E-002   5.9508663341820138E-002   0.0000000000000000     
  -4.8115539912505355E-002   6.4990558205646837E-002   0.0000000000000000     
  -5.0358237319231364E-002   7.0656023450468008E-002   0.0000000000000000     
  -5.2526960840548385E-002   7.6505059076283660E-002   0.0000000000000000     
  -5.4621710476456448E-002   8.2537665083093764E-002   0.0000000000000000     
  -3.4848732440689589E-002   8.0482222522848812E-002   0.0000000000000000     
  -3.6195761801236966E-002   8.6755261152355587E-002   0.0000000000000000     
  -3.7491080632719283E-002   9.3187000993060085E-002   0.0000000000000000     
  -3.8734688935136534E-002   9.9777442044962306E-002   0.0000000000000000     
  -3.9926586708488712E-002  0.10652658430806224        0.0000000000000000     
  -3.9557651168533936E-002   8.0917410246489616E-002   0.0000000000000000     
  -4.1071249391270770E-002   8.7173702159307073E-002   0.0000000000000000     
  -4.2527402420177760E-002   9.3589037345813628E-002   0.0000000000000000     
  -4.3926110255254912E-002  0.10016341580600925        0.0000000000000000     
  -4.5267372896502227E-002  0.10689683753989400        0.0000000000000000     
  -4.4422787083776526E-002   8.1405046581077375E-002   0.0000000000000000     
  -4.6104110895906950E-002   8.7643975777839930E-002   0.0000000000000000     
  -4.7722190540572272E-002   9.4041600257005337E-002   0.0000000000000000     
  -4.9277026017772493E-002  0.10059792001857359        0.0000000000000000     
  -5.0768617327507613E-002  0.10731293506254469        0.0000000000000000     
  -4.9444140186417365E-002   8.1945131526612078E-002   0.0000000000000000     
  -5.1294346315145525E-002   8.8166082007954172E-002   0.0000000000000000     
  -5.3075444993902821E-002   9.4544689726635225E-002   0.0000000000000000     
  -5.4787436222689279E-002  0.10108095468265527        0.0000000000000000     
  -5.6430320001504886E-002  0.10777487687601424        0.0000000000000000     
  -5.4621710476456448E-002   8.2537665083093764E-002   0.0000000000000000     
  -5.6641955648986470E-002   8.8740020849649826E-002   0.0000000000000000     
  -5.8587165780169405E-002   9.5098305754703349E-002   0.0000000000000000     
  -6.0457340870005261E-002  0.10161251979825431        0.0000000000000000     
  -6.2252480918494044E-002  0.10828266298030273        0.0000000000000000     
  -3.9926586708488712E-002  0.10652658430806224        0.0000000000000000     
  -4.1068286323034227E-002  0.11342200807823767        0.0000000000000000     
  -4.2161300149031460E-002  0.12045129365136641        0.0000000000000000     
  -4.3205628186480417E-002  0.12761444102744848        0.0000000000000000     
  -4.4201270435381093E-002  0.13491145020648382        0.0000000000000000     
  -4.5267372896502227E-002  0.10689683753989400        0.0000000000000000     
  -4.6552374697124338E-002  0.11377618432524182        0.0000000000000000     
  -4.7782300010325914E-002  0.12078833793982666        0.0000000000000000     
  -4.8957148836106905E-002  0.12793329838364853        0.0000000000000000     
  -5.0076921174467354E-002  0.13521106565670740        0.0000000000000000     
  -5.0768617327507613E-002  0.10731293506254469        0.0000000000000000     
  -5.2198525220676750E-002  0.11417359729079320        0.0000000000000000     
  -5.3568310448179002E-002  0.12116685860519370        0.0000000000000000     
  -5.4877973010014375E-002  0.12829271900574624        0.0000000000000000     
  -5.6127512906182869E-002  0.13555117849245074        0.0000000000000000     
  -5.6430320001504886E-002  0.10777487687601424        0.0000000000000000     
  -5.8006737893691443E-002  0.11461424697489181        0.0000000000000000     
  -5.9519331462590773E-002  0.12158685564746760        0.0000000000000000     
  -6.0968100708202827E-002  0.12869270289374160        0.0000000000000000     
  -6.2353045630527647E-002  0.13593178871371378        0.0000000000000000     
  -6.2252480918494044E-002  0.10828266298030273        0.0000000000000000     
  -6.3977012716168444E-002  0.11509813337753769        0.0000000000000000     
  -6.5635363053561185E-002  0.12204832906664831        0.0000000000000000     
  -6.7227531930672255E-002  0.12913325004763462        0.0000000000000000     
  -6.8753519347501679E-002  0.13635289632049657        0.0000000000000000     
  -4.4201270435381093E-002  0.13491145020648382        0.0000000000000000     
  -4.5140881132329030E-002  0.14233141521288920        0.0000000000000000     
  -4.6017114513919745E-002  0.14986343007108135        0.0000000000000000     
  -4.6829970580153264E-002  0.15750749478106027        0.0000000000000000     
  -4.7579449331029568E-002  0.16526360934282591        0.0000000000000000     
  -5.0076921174467354E-002  0.13521106565670740        0.0000000000000000     
  -5.1132556085129115E-002  0.14261167887490353        0.0000000000000000     
  -5.2114992627814036E-002  0.15012517715413709        0.0000000000000000     
  -5.3024230802522131E-002  0.15775156049440808        0.0000000000000000     
  -5.3860270609253393E-002  0.16549082889571648        0.0000000000000000     
  -5.6127512906182869E-002  0.13555117849245074        0.0000000000000000     
  -5.7308697299840200E-002  0.14293214412813832        0.0000000000000000     
  -5.8413293354142047E-002  0.15042552297564005        0.0000000000000000     
  -5.9441301069088445E-002  0.15803131503495590        0.0000000000000000     
  -6.0392720444679353E-002  0.16574952030608589        0.0000000000000000     
  -6.2353045630527647E-002  0.13593178871371378        0.0000000000000000     
  -6.3669304776462293E-002  0.14329281097259355        0.0000000000000000     
  -6.4912016692903807E-002  0.15076446753559020        0.0000000000000000     
  -6.6081181379852194E-002  0.15834675840270379        0.0000000000000000     
  -6.7176798837307455E-002  0.16603968357393420        0.0000000000000000     
  -6.8753519347501679E-002  0.13635289632049657        0.0000000000000000     
  -7.0214378514995360E-002  0.14369367940826924        0.0000000000000000     
  -7.1611162644099252E-002  0.15114201083398757        0.0000000000000000     
  -7.2943871734813384E-002  0.15869789059765163        0.0000000000000000     
  -7.4212505787137686E-002  0.16636131869926135        0.0000000000000000     
   0.0000000000000000        0.0000000000000000        0.0000000000000000     
  -2.8800031237600152E-003   1.7450633870307662E-003   0.0000000000000000     
  -5.8725370777719128E-003   3.8650565988430992E-003   0.0000000000000000     
  -8.9776018620356928E-003   6.3599796354369999E-003   0.0000000000000000     
  -1.2195197476551354E-002   9.2298324968124665E-003   0.0000000000000000     
   0.0000000000000000        0.0000000000000000        0.0000000000000000     
  -3.2831130548106420E-003   1.9995761263916566E-003   0.0000000000000000     
  -6.6767925289715809E-003   4.3313696385940672E-003   0.0000000000000000     
  -1.0181038422482818E-002   6.9953805366072324E-003   0.0000000000000000     
  -1.3795850735344348E-002   9.9916088204311491E-003   0.0000000000000000     
   0.0000000000000000        0.0000000000000000        0.0000000000000000     
  -3.9534936575632892E-003   2.4253197272345794E-003   0.0000000000000000     
  -7.9104796079137070E-003   5.0633151004105901E-003   0.0000000000000000     
  -1.1870957851051252E-002   7.9139861195280294E-003   0.0000000000000000     
  -1.5834928386975929E-002   1.0977332784586898E-002   0.0000000000000000     
   0.0000000000000000        0.0000000000000000        0.0000000000000000     
  -4.8911449320179576E-003   3.0222941895595356E-003   0.0000000000000000     
  -9.5735983145982910E-003   6.0608929842926674E-003   0.0000000000000000     
  -1.4047360147741002E-002   9.1157963841993934E-003   0.0000000000000000     
  -1.8312430431446088E-002   1.2187004389279716E-002   0.0000000000000000     
   0.0000000000000000        0.0000000000000000        0.0000000000000000     
  -6.0960668781746457E-003   3.7904995133665243E-003   0.0000000000000000     
  -1.1666148649025333E-002   7.3241032902402990E-003   0.0000000000000000     
  -1.6710245312552063E-002   1.0600811330621324E-002   0.0000000000000000     
  -2.1228356868754832E-002   1.3620623634509599E-002   0.0000000000000000     
  -1.2195197476551354E-002   9.2298324968124665E-003   0.0000000000000000     
  -1.5427565356032813E-002   1.2372626812327314E-002   0.0000000000000000     
  -1.8576946935193992E-002   1.5686374211339352E-002   0.0000000000000000     
  -2.1643342214034876E-002   1.9171074693848583E-002   0.0000000000000000     
  -2.4626751192555481E-002   2.2826728259855010E-002   0.0000000000000000     
  -1.3795850735344348E-002   9.9916088204311491E-003   0.0000000000000000     
  -1.7404092881156918E-002   1.3222152089871025E-002   0.0000000000000000     
  -2.0888628273521274E-002   1.6589107944732062E-002   0.0000000000000000     
  -2.4249456912437413E-002   2.0092476385014251E-002   0.0000000000000000     
  -2.7486578797905337E-002   2.3732257410717605E-002   0.0000000000000000     
  -1.5834928386975929E-002   1.0977332784586898E-002   0.0000000000000000     
  -1.9730567844550871E-002   1.4212230346736467E-002   0.0000000000000000     
  -2.3486052852639234E-002   1.7577554057126001E-002   0.0000000000000000     
  -2.7101383411241020E-002   2.1073303915755494E-002   0.0000000000000000     
  -3.0576559520356220E-002   2.4699479922624949E-002   0.0000000000000000     
  -1.8312430431446088E-002   1.2187004389279716E-002   0.0000000000000000     
  -2.2406990246214672E-002   1.5342861582923641E-002   0.0000000000000000     
  -2.6369220672547874E-002   1.8651712548521170E-002   0.0000000000000000     
  -3.0199121710445691E-002   2.2113557286072304E-002   0.0000000000000000     
  -3.3896693359908137E-002   2.5728395795577043E-002   0.0000000000000000     
  -2.1228356868754832E-002   1.3620623634509599E-002   0.0000000000000000     
  -2.5433360086148313E-002   1.6614045798432543E-002   0.0000000000000000     
  -2.9538131733247184E-002   1.9811583418917571E-002   0.0000000000000000     
  -3.3542671810051432E-002   2.3213236495964684E-002   0.0000000000000000     
  -3.7446980316561067E-002   2.6819005029573885E-002   0.0000000000000000     
  -2.4626751192555481E-002   2.2826728259855010E-002   0.0000000000000000     
  -2.7531582833040105E-002   2.6675825089134280E-002   0.0000000000000000     
  -3.0362246097773049E-002   3.0740855361462056E-002   0.0000000000000000     
  -3.3118740986754325E-002   3.5021819076838344E-002   0.0000000000000000     
  -3.5801067499983914E-002   3.9518716235263124E-002   0.0000000000000000     
  -2.7486578797905337E-002   2.3732257410717605E-002   0.0000000000000000     
  -3.0623229044189185E-002   2.7550872643241152E-002   0.0000000000000000     
  -3.3682642765553099E-002   3.1590743703983924E-002   0.0000000000000000     
  -3.6664819961997080E-002   3.5851870592945929E-002   0.0000000000000000     
  -3.9569760633521120E-002   4.0334253310127161E-002   0.0000000000000000     
  -3.0576559520356220E-002   2.4699479922624949E-002   0.0000000000000000     
  -3.3941001454322245E-002   2.8500697368203331E-002   0.0000000000000000     
  -3.7224129487476505E-002   3.2521571542959572E-002   0.0000000000000000     
  -4.0425943619818987E-002   3.6762102446893694E-002   0.0000000000000000     
  -4.3546443851349703E-002   4.1222290080005677E-002   0.0000000000000000     
  -3.3896693359908137E-002   2.5728395795577043E-002   0.0000000000000000     
  -3.7484900063439276E-002   2.9525299264020807E-002   0.0000000000000000     
  -4.0986706263543254E-002   3.3533338878389003E-002   0.0000000000000000     
  -4.4402111960220036E-002   3.7752514638681629E-002   0.0000000000000000     
  -4.7731117153469643E-002   4.2182826544898702E-002   0.0000000000000000     
  -3.7446980316561067E-002   2.6819005029573885E-002   0.0000000000000000     
  -4.1254924871540311E-002   3.0624678330693586E-002   0.0000000000000000     
  -4.4970373093753360E-002   3.4626045710272210E-002   0.0000000000000000     
  -4.8593324983200251E-002   3.8823107168309764E-002   0.0000000000000000     
  -5.2123780539880940E-002   4.3215862704806235E-002   0.0000000000000000     
  -3.5801067499983914E-002   3.9518716235263124E-002   0.0000000000000000     
  -3.8409861814023380E-002   4.4221735839384713E-002   0.0000000000000000     
  -4.0945760105434284E-002   4.9121066891851417E-002   0.0000000000000000     
  -4.3408762374216613E-002   5.4216709392663223E-002   0.0000000000000000     
  -4.5798868620370373E-002   5.9508663341820138E-002   0.0000000000000000     
  -3.9569760633521120E-002   4.0334253310127161E-002   0.0000000000000000     
  -4.2396196670656465E-002   4.5023452161338511E-002   0.0000000000000000     
  -4.5142859963934343E-002   4.9905027452390865E-002   0.0000000000000000     
  -4.7809750513354725E-002   5.4978979183284246E-002   0.0000000000000000     
  -5.0396868318917633E-002   6.0245307354018625E-002   0.0000000000000000     
  -4.3546443851349703E-002   4.1222290080005677E-002   0.0000000000000000     
  -4.6582671422795145E-002   4.5888035642685981E-002   0.0000000000000000     
  -4.9531667574881817E-002   5.0745240335325070E-002   0.0000000000000000     
  -5.2393432307609698E-002   5.5793904157922930E-002   0.0000000000000000     
  -5.5167965620978796E-002   6.1034027110479575E-002   0.0000000000000000     
  -4.7731117153469643E-002   4.2182826544898702E-002   0.0000000000000000     
  -5.0969286070439414E-002   4.6815486283427181E-002   0.0000000000000000     
  -5.4112182938276708E-002   5.1641705540654059E-002   0.0000000000000000     
  -5.7159807756981519E-002   5.6661484316579323E-002   0.0000000000000000     
  -6.0112160526553861E-002   6.1874822611202966E-002   0.0000000000000000     
  -5.2123780539880940E-002   4.3215862704806235E-002   0.0000000000000000     
  -5.5556040613589278E-002   4.7805804083562088E-002   0.0000000000000000     
  -5.8884406054119029E-002   5.2594423068377812E-002   0.0000000000000000     
  -6.2108876861470222E-002   5.7581719659253384E-002   0.0000000000000000     
  -6.5229453035642829E-002   6.2767693856188814E-002   0.0000000000000000     
  -4.5798868620370373E-002   5.9508663341820138E-002   0.0000000000000000     
  -4.8115539912505355E-002   6.4990558205646837E-002   0.0000000000000000     
  -5.0358237319231364E-002   7.0656023450468008E-002   0.0000000000000000     
  -5.2526960840548385E-002   7.6505059076283660E-002   0.0000000000000000     
  -5.4621710476456448E-002   8.2537665083093764E-002   0.0000000000000000     
  -5.0396868318917633E-002   6.0245307354018625E-002   0.0000000000000000     
  -5.2904433455238709E-002   6.5700646246248579E-002   0.0000000000000000     
  -5.5332665996933574E-002   7.1341630141628629E-002   0.0000000000000000     
  -5.7681565944002262E-002   7.7168259040158740E-002   0.0000000000000000     
  -5.9951133296444747E-002   8.3180532941838969E-002   0.0000000000000000     
  -5.5167965620978796E-002   6.1034027110479575E-002   0.0000000000000000     
  -5.7857408721743227E-002   6.6463266103861898E-002   0.0000000000000000     
  -6.0463902816657117E-002   7.2079278048936796E-002   0.0000000000000000     
  -6.2987447905720473E-002   7.7882062945704239E-002   0.0000000000000000     
  -6.5428043988933274E-002   8.3871620794164284E-002   0.0000000000000000     
  -6.0112160526553861E-002   6.1874822611202966E-002   0.0000000000000000     
  -6.2974465712018951E-002   6.7278417778486768E-002   0.0000000000000000     
  -6.5751947778401987E-002   7.2868967172392510E-002   0.0000000000000000     
  -6.8444606725703031E-002   7.8646470792920142E-002   0.0000000000000000     
  -7.1052442553922027E-002   8.4610928640069735E-002   0.0000000000000000     
  -6.5229453035642829E-002   6.2767693856188814E-002   0.0000000000000000     
  -6.8255604426065847E-002   6.8146101270123244E-002   0.0000000000000000     
  -7.1196800882168204E-002   7.3710697511995799E-002   0.0000000000000000     
  -7.4053042403949929E-002   7.9461482581806478E-002   0.0000000000000000     
  -7.6824328991410978E-002   8.5398456479555296E-002   0.0000000000000000     
  -5.4621710476456448E-002   8.2537665083093764E-002   0.0000000000000000     
  -5.6641955648986470E-002   8.8740020849649826E-002   0.0000000000000000     
  -5.8587165780169405E-002   9.5098305754703349E-002   0.0000000000000000     
  -6.0457340870005261E-002  0.10161251979825431        0.0000000000000000     
  -6.2252480918494044E-002  0.10828266298030273        0.0000000000000000     
  -5.9951133296444747E-002   8.3180532941838969E-002   0.0000000000000000     
  -6.2140368008103637E-002   8.9362728149690443E-002   0.0000000000000000     
  -6.4248270032821492E-002   9.5699120966734261E-002   0.0000000000000000     
  -6.6274839370598346E-002  0.10218971139297046        0.0000000000000000     
  -6.8220076021434164E-002  0.10883449942839904        0.0000000000000000     
  -6.5428043988933274E-002   8.3871620794164284E-002   0.0000000000000000     
  -6.7783012503170870E-002   9.0031139754839534E-002   0.0000000000000000     
  -7.0049674885308597E-002   9.6343807988252594E-002   0.0000000000000000     
  -7.2228031135346427E-002  0.10280962549440349        0.0000000000000000     
  -7.4318081253284388E-002  0.10942859227329220        0.0000000000000000     
  -7.1052442553922027E-002   8.4610928640069735E-002   0.0000000000000000     
  -7.3569889134188174E-002   9.0745255665097169E-002   0.0000000000000000     
  -7.5991380337630671E-002   9.7032366819258406E-002   0.0000000000000000     
  -7.8316916164249503E-002  0.10347226210255339        0.0000000000000000     
  -8.0546496614044685E-002  0.11006494151498217        0.0000000000000000     
  -7.6824328991410978E-002   8.5398456479555296E-002   0.0000000000000000     
  -7.9500997901155543E-002   9.1505075880463305E-002   0.0000000000000000     
  -8.2073386389787742E-002   9.7764797459751585E-002   0.0000000000000000     
  -8.4541494457307576E-002  0.10417762121742014        0.0000000000000000     
  -8.6905322103715058E-002  0.11074354715346896        0.0000000000000000     
  -6.2252480918494044E-002  0.10828266298030273        0.0000000000000000     
  -6.3977012716168444E-002  0.11509813337753769        0.0000000000000000     
  -6.5635363053561185E-002  0.12204832906664831        0.0000000000000000     
  -6.7227531930672255E-002  0.12913325004763462        0.0000000000000000     
  -6.8753519347501679E-002  0.13635289632049657        0.0000000000000000     
  -6.8220076021434164E-002  0.10883449942839904        0.0000000000000000     
  -7.0089863605133723E-002  0.11562450557016093        0.0000000000000000     
  -7.1890085741501769E-002  0.12255075031539701        0.0000000000000000     
  -7.3620742430538275E-002  0.12961323366410732        0.0000000000000000     
  -7.5281833672243295E-002  0.13681195561629184        0.0000000000000000     
  -7.4318081253284388E-002  0.10942859227329220        0.0000000000000000     
  -7.6325804477613307E-002  0.11619261262419167        0.0000000000000000     
  -7.8257180046824013E-002  0.12309359084637483        0.0000000000000000     
  -8.0112207960916518E-002  0.13013152693984173        0.0000000000000000     
  -8.1890888219890823E-002  0.13730642090459230        0.0000000000000000     
  -8.0546496614044685E-002  0.11006494151498217        0.0000000000000000     
  -8.2684835333607168E-002  0.11680245453962991        0.0000000000000000     
  -8.4736645969527943E-002  0.12367685065958181        0.0000000000000000     
  -8.6701928521806970E-002  0.13068812987483780        0.0000000000000000     
  -8.8580682990444304E-002  0.13783629218539803        0.0000000000000000     
  -8.6905322103715058E-002  0.11074354715346896        0.0000000000000000     
  -8.9166956173115319E-002  0.11745403131647567        0.0000000000000000     
  -9.1328483509613506E-002  0.12430052975501789        0.0000000000000000     
  -9.3389904113209632E-002  0.13128304246909561        0.0000000000000000     
  -9.5351217983903683E-002  0.13840156945870885        0.0000000000000000     
  -6.8753519347501679E-002  0.13635289632049657        0.0000000000000000     
  -7.0214378514995360E-002  0.14369367940826924        0.0000000000000000     
  -7.1611162644099252E-002  0.15114201083398757        0.0000000000000000     
  -7.2943871734813384E-002  0.15869789059765163        0.0000000000000000     
  -7.4212505787137686E-002  0.16636131869926135        0.0000000000000000     
  -7.5281833672243295E-002  0.13681195561629184        0.0000000000000000     
  -7.6877074747297602E-002  0.14413110684222685        0.0000000000000000     
  -7.8410180936382010E-002  0.15155487801218870        0.0000000000000000     
  -7.9881152239496545E-002  0.15908326912617735        0.0000000000000000     
  -8.1289988656641193E-002  0.16671628018419282        0.0000000000000000     
  -8.1890888219890823E-002  0.13730642090459230        0.0000000000000000     
  -8.3590549705227141E-002  0.14460145068152797        0.0000000000000000     
  -8.5208521298405601E-002  0.15199979421155019        0.0000000000000000     
  -8.6744802999426274E-002  0.15950145149465886        0.0000000000000000     
  -8.8199394808289089E-002  0.16710642253085406        0.0000000000000000     
  -8.8580682990444304E-002  0.13783629218539803        0.0000000000000000     
  -9.0354803388783975E-002  0.14510471092617261        0.0000000000000000     
  -9.2006183730170041E-002  0.15247675943207195        0.0000000000000000     
  -9.3534824014602488E-002  0.15995243770309617        0.0000000000000000     
  -9.4940724242081373E-002  0.16753174573924506        0.0000000000000000     
  -9.5351217983903683E-002  0.13840156945870885        0.0000000000000000     
  -9.7169835797968090E-002  0.14564088757616067        0.0000000000000000     
  -9.8803168231675287E-002  0.15298577367375410        0.0000000000000000     
 -0.10025121528502527       0.16043622775148914        0.0000000000000000     
 -0.10151397695801806       0.16799224980936581        0.0000000000000000     
 </DataArray>
 <DataArray  type="Float64" Name="stress" NumberOfComponents="3" format="ascii">
   13416916603.053972        4025074980.9161916        2893991912.5913386     
   11766705437.783987        1890675782.0744498        1715811222.0612919     
   10313736289.636265        413749973.64025259        810749361.50569391     
   9058009158.6108074       -405702444.38639832        178806330.92454699     
   7999524044.7076120       -567681472.00550461       -180017869.68215135     
   10539936436.019382        3161980930.8058147        2225827854.7939944     
   9667563300.6418209        1589696395.2208815        1446764220.4069304     
   8943801767.6895447        512783867.72022438        863199933.67263269     
   8368651837.1625490       -68756651.696156025        475134994.59110337     
   7942113509.0608377       -154925163.02825928        282569403.16234004     
   8337752990.6069508        2501325897.1820850        1712478944.3990221     
   8021447935.6312943        1424625040.0068045        1275796882.3417971     
   7805124068.3839369        681194808.59253049        956994685.61565602     
   7688781388.8648844        271035202.93926477        756072354.22059882     
   7672419897.0741329        194146223.04700661        673029888.15662777     
   6810366266.8166780        2043109880.0450034        1353945181.4064231     
   6828359342.7524014        1395461716.4322181        1202909207.8658919     
   6897703191.7194462        918982796.25717139        1092133617.3347631     
   7018397813.7178116        613673119.51986313        1021618409.8130366     
   7190443208.7474995        479532686.22029376        991363585.30071187     
   5957776264.6485634        1787332879.3945692        1150226565.8161964     
   6088297522.0051460        1502206424.4971228        1228101196.9792161     
   6221539137.6960688        1226147830.7141464        1268616728.8299556     
   6357501111.7213335        959157098.04564011        1271773161.3684137     
   6496183444.0809383        701234226.49160337        1237570494.5945919     
   7999524044.7076120       -567681472.00550461       -180017869.68215135     
   7917255498.7087870       -200427903.35402775       -78176246.702126458     
   7793591721.8949127        28841562.580613613       -8999876.3105765060     
   7628532714.2659864        120126925.79842329        27511241.492496260     
   7422078475.8220110        73428186.299394608        31357106.707091045     
   7942113509.0608377       -154925163.02825928        282569403.16234004     
   7739336023.5654545        16057973.952246666        281322800.13530666     
   7513237086.5441599        109302939.17971659        265335442.00808215     
   7263816697.9969540        124809732.65414286        234607328.78066558     
   6991074857.9238367        62578354.375533104        189138460.45306075     
   7672419897.0741329        194146223.04700661        673029888.15662777     
   7400346322.0487251        184222783.34650278        589781134.95986223     
   7123025074.7865438        156807102.85675621        509716124.15119201     
   6840456155.2875881        111899181.57776499        432834855.73061728     
   6552639563.5518608        49499019.509529352        359137329.69813979     
   7190443208.7474995        479532686.22029376        991363585.30071187     
   6900286394.1585960        304066524.82874012        847198757.77154303     
   6622955686.6220608        171354053.61173773        724142170.11875486     
   6358451086.1378908        81395272.569287777        622193822.34235001     
   6106772592.7060833        34190181.701385736        541353714.44232810     
   6496183444.0809383        701234226.49160337        1237570494.5945919     
   6239156239.8950748        375589198.39895749        1053575668.5703475     
   6013028922.0507135        152943791.44465876        908613579.91077268     
   5817801490.5478611        33298005.628708601        802684228.61586607     
   5653473945.3865070        16651840.951104641        735787614.68562639     
   7422078475.8220110        73428186.299394608        31357106.707091045     
   7217229558.9648333       -17425026.040878773        15088566.937911429     
   7024345497.5486670       -68395386.911114693        3694199.0708517097     
   6843426291.5735159       -79482896.311298370       -2825996.8940869877     
   6674471941.0393829       -50687554.241422176       -4472020.9569022618     
   6991074857.9238367        62578354.375533104        189138460.45306075     
   6807369088.4246731        3189001.6488790512        181299569.48523593     
   6631247103.0095148       -30921070.797768593        177589575.44138867     
   6462708901.6783581       -39751862.964402676        178008478.32151911     
   6301754484.4312057       -23303374.851029634        182556278.12562996     
   6552639563.5518608        49499019.509529352        359137329.69813979     
   6387947584.3303041        20934719.272377491        354616837.61515832     
   6226458317.8357372        3046128.1251926422        353479967.47801334     
   6068171764.0681620       -4166753.9320185184        355726719.28669912     
   5913087923.0275774       -703926.89926171303        361357093.04121858     
   6106772592.7060833        34190181.701385736        541353714.44232810     
   5958965046.6817188        35812126.829611063        535040371.32767749     
   5809979142.0273323        33506209.857763290        531365375.18071812     
   5659814878.7429247        27272430.785849571        530328726.00144643     
   5508472256.8285027        17110789.613868713        531930423.78986359     
   5653473945.3865070        16651840.951104641        735787614.68562639     
   5520421475.4789200        47821224.320580244        722570170.62279344     
   5381809575.5843039        60459174.399945974        711245798.54950845     
   5237638245.7026548        54565691.189209700        701814498.46576130     
   5087907485.8339720        30140774.688360214        694276270.37156200     
   6674471941.0393829       -50687554.241422176       -4472020.9569022618     
   6485353520.2615747       -16156594.302214384        1813430.0805776434     
   6292040467.5212746        4392259.0953669548        14681205.591631902     
   6094532782.8185015        10959005.951362133        34131305.576237775     
   5892830466.1532335        3543646.2657148838        60163730.034421206     
   6301754484.4312057       -23303374.851029634        182556278.12562996     
   6124731697.3615036       -3638193.7443261147        179265156.58579788     
   5945424381.5529108        8411891.5660853386        182126608.53998151     
   5763832537.0054321        12846881.080207586        191140633.98818344     
   5579956163.7190733        9666774.7980551720        206307232.93039849     
   5913087923.0275774       -703926.89926171303        361357093.04121858     
   5746932909.7244148        3727117.3924727440        350717852.68493396     
   5580403470.9059601        6910076.6332345009        345801434.84311771     
   5413499606.5722151        8844950.8230423927        346607839.51576936     
   5246221316.7231855        9531739.9618754387        353137066.70288581     
   5508472256.8285027        17110789.613868713        531930423.78986359     
   5351957157.3503046        5939339.1081554890        516171518.37798887     
   5196977735.5804167       -113185.70319724083        505705684.50103551     
   5043533991.5188417       -1046784.8201868534        500532922.15900153     
   4891625925.1655617        3138541.7571690083        500653231.35188204     
   5087907485.8339720        30140774.688360214        694276270.37156200     
   4939804440.2391787        2998471.4027380943        675626153.66496503     
   4795147175.5762882       -12657895.443204880        661839357.51373518     
   4653935691.8453035       -16828325.849467278        652915881.91787481     
   4516169989.0462217       -9512819.8160471916        648855726.87738657     
   5892830466.1532335        3543646.2657148838        60163730.034421206     
   5729383569.2242231        2432238.3878254890        79991826.796131328     
   5566720749.8973789        3934422.5171675682        99273956.731365427     
   5404842008.1727037        8050198.6537280083        118010119.84011200     
   5243747344.0502005        14779566.797541142        136200316.12237871     
   5579956163.7190733        9666774.7980551720        206307232.93039849     
   5417076066.8782959        9601063.2649788857        220042665.90307221     
   5254380836.2371254        10151572.397252083        234518751.22899485     
   5091870471.7955484        11318302.194836378        249735488.90816253     
   4929544973.5535755        13101252.657755375        265692878.94057274     
   5246221316.7231855        9531739.9618754387        353137066.70288581     
   5087584074.7698774        11614541.213392258        360080755.91685754     
   4928532487.6136055        12316191.788356543        369051716.66379750     
   4769066555.2543545        11636691.686726570        380049948.94371814     
   4609186277.6921339        9576040.9085354805        393075452.75662065     
   4891625925.1655617        3138541.7571690083        500653231.35188204     
   4740907592.8989592        8472672.2330620289        500106096.83747739     
   4589175704.0268116        10428280.690478802        502872853.03577799     
   4436430258.5491180        9005367.1294074059        508953499.94678295     
   4282671256.4658856        4203931.5498714447        518348037.57049870     
   4516169989.0462217       -9512819.8160471916        648855726.87738657     
   4377046621.2655411        175456.32397174835        640118688.66494167     
   4236310485.4767509        4487839.1036264896        635982160.34493244     
   4093961581.6798406        3424328.5228743553        636446141.91736042     
   3949999909.8748169       -3015075.4182455540        641510633.38222551     
   5243747344.0502005        14779566.797541142        136200316.12237871     
   5042061321.5796194        9887455.0437154770        132882951.65341203     
   4839957767.1816664        3603570.1986398697        135962821.79454923     
   4637436680.8563538       -4072087.7376441956        145439926.54578838     
   4434498062.6036587       -13139518.765177965        161314265.90713266     
   4929544973.5535755        13101252.657755375        265692878.94057274     
   4743831496.5637684        8170796.4439878464        259736411.60196292     
   4558132924.9881954        3290024.9443237782        259678131.82151774     
   4372449258.8268604       -1541061.8412032127        265518039.59924328     
   4186780498.0797610       -6322463.9126267433        277256134.93513411     
   4609186277.6921339        9576040.9085354805        393075452.75662065     
   4438019497.4632931        4179485.6188826561        384984392.78023201     
   4267300059.9902835        274072.84868168831        382292473.31007743     
   4097027965.2731233       -2140197.4020287991        384999694.34616876     
   3927203213.3118000       -3063325.1332776546        393106055.88847941     
   4282671256.4658856        4203931.5498714447        518348037.57049870     
   4124625324.2781839       -2086477.4316244125        508626895.18821019     
   3967459172.1879373       -5444286.0882868767        503805846.26022565     
   3811172800.1951303       -5869494.4201345444        503884890.78654021     
   3655766208.2997737       -3362102.4271597862        508864028.76715696     
   3949999909.8748169       -3015075.4182455540        641510633.38222551     
   3803648977.0084534       -10627092.707510948        630663918.82590687     
   3658610261.5811458       -13865051.866595030        624218250.67196083     
   3514883763.5928869       -12728952.895517111        622173628.92037940     
   3372469483.0436802       -7218795.7942588329        624530053.57116079     
   4434498062.6036587       -13139518.765177965        161314265.90713266     
   4240557249.5994925       -18925666.087290764        173409552.27580673     
   4047417666.6309438       -22041046.624013662        196786886.57641023     
   3855079313.6980147       -22485660.375331163        231446268.80895340     
   3663542190.8007107       -20259507.341242313        277387698.97344398     
   4186780498.0797610       -6322463.9126267433        277256134.93513411     
   4021159053.5974641       -4614152.5533568859        284587371.98304075     
   3855836232.4160380       -1910430.1911864281        300691200.26626676     
   3690812034.5354748        1788703.1738595963        325567619.78484213     
   3526086459.9557734        6483247.5417802334        359216630.53873813     
   3927203213.3118000       -3063325.1332776546        393106055.88847941     
   3782731261.0753679        3988482.0245764256        395086869.09172195     
   3638055325.4050484        10360344.402802944        403330816.83370048     
   3493175406.3008423        16052262.001409769        417837899.11441147     
   3348091503.7627521        21064234.820397377        438608115.93385756     
   3655766208.2997737       -3362102.4271597862        508864028.76715696     
   3525273872.0331960        6882237.6464636326        504908043.60186827     
   3394074945.5979843        14771277.157976389        504705736.27871442     
   3262169428.9941339        20305016.107350349        508257106.79768860     
   3129557322.2216411        23483454.494590998        515562155.15879452     
   3372469483.0436802       -7218795.7942588329        624530053.57116079     
   3248786886.4709558        4067114.3123488426        614050895.51346397     
   3123895092.9948468        11322368.074336886        604815958.60130024     
   2997794102.6153383        14546965.491665244        596825242.83466446     
   2870483915.3324385        13740906.564350486        590078748.21355164     
   3663542190.8007107       -20259507.341242313        277387698.97344398     
   3291818216.9776378       -73513562.780707121        333548520.31827283     
   2918354011.0118132       -132568392.02937555        443833427.43780851     
   2543149572.9032488       -197423995.08716774        608242420.33204722     
   2166204902.6519241       -268080371.95414579        826775499.00100553     
   3526086459.9557734        6483247.5417802334        359216630.53873813     
   3284750617.4710727       -12434388.781138659        391820730.00415927     
   3042701360.2661381       -33730074.171498775        462675517.23595577     
   2799938688.3409863       -57403808.629257441        571780992.23412192     
   2556462601.6956100       -83455592.154429436        719137154.99865711     
   3348091503.7627521        21064234.820397377        438608115.93385756     
   3191791226.8783064        22877247.892589331        448853447.17948842     
   3035804352.6961489        25734936.639063835        481476068.18315816     
   2880130881.2163110        29637301.059935689        536475978.94485140     
   2724770812.4387536        34584341.155097842        613853179.46458602     
   3129557322.2216411        23483454.494590998        515562155.15879452     
   3012940045.1993318        32421347.240431547        504646671.84425336     
   2897662988.3018522        45826640.402364373        500235080.27939749     
   2783726151.5291977        63699333.980380654        502327380.46424168     
   2671129534.8813691        86039427.974486470        510923572.39877570     
   2870483915.3324385        13740906.564350486        590078748.21355164     
   2748197072.4341621        16197909.262428522        559200403.99844182     
   2628277267.0832415        26545037.118347287        518952553.52468878     
   2510724499.2796659        44782290.132095933        469335196.79229122     
   2395538769.0234523        70909668.303702235        410348333.80124533     
   5957776264.6485634        1787332879.3945692        1150226565.8161964     
   6088297522.0051460        1502206424.4971228        1228101196.9792161     
   6221539137.6960688        1226147830.7141464        1268616728.8299556     
   6357501111.7213335        959157098.04564011        1271773161.3684137     
   6496183444.0809383        701234226.49160337        1237570494.5945919     
   5434543927.4017897        1630363178.2205369        1033641731.6523930     
   5489838464.6414299        1372447751.8752418        1114041009.3693316     
   5547327710.3798065        1121848020.5257406        1167653210.4888687     
   5607011664.6169252        878563984.17203355        1194478335.0110033     
   5668890327.3527794        642595642.81412077        1194516382.9357364     
   4895230198.3755379        1468569059.5126612        936509312.93906319     
   4905503794.6836052        1246926395.4751282        1018819979.0683838     
   4917446449.6548080        1030847260.3147132        1084915591.3151815     
   4931058163.2891445        820331654.03141630        1134796149.6794569     
   4946338935.5866175        615379576.62523782        1168461654.1612086     
   4339835077.5698090        1301950523.2709427        858829309.67620695     
   4335293512.1316710        1125642355.2967820        942438106.07637310     
   4331895355.5210657        953145550.08106351        1020403871.3088957     
   4329640607.7379923        784460107.62378740        1092726605.3737741     
   4328529268.7824507        619586027.92495346        1159406308.2710080     
   3768358564.9846044        1130507569.4953814        800601721.86382401     
   3779207616.9856286        1008595631.3402030        884895390.39329970     
   3790674427.9785838        888742889.82479143        974118050.47001028     
   3802758997.9634690        770949344.94914651        1068269702.0939554     
   3815461326.9402828        655214996.71326792        1167350345.2651353     
   6496183444.0809383        701234226.49160337        1237570494.5945919     
   6239156239.8950748        375589198.39895749        1053575668.5703475     
   6013028922.0507135        152943791.44465876        908613579.91077268     
   5817801490.5478611        33298005.628708601        802684228.61586607     
   5653473945.3865070        16651840.951104641        735787614.68562639     
   5668890327.3527794        642595642.81412077        1194516382.9357364     
   5518882620.9576244        382980440.52135038        1073789110.3027740     
   5393000458.6820450        203783718.62717390        981114138.80571699     
   5291243840.5260448        105005477.13158870        916491468.44456387     
   5213612766.4896221        86645716.034598589        879921099.21931684     
   4946338935.5866175        615379576.62523782        1168461654.1612086     
   4871978052.0428467        412382397.65054560        1103098535.6606138     
   4814968370.3967247        267222558.33469296        1054807282.0671602     
   4775309890.6482534        179900058.67767692        1023587893.3808478     
   4753002612.7974386        150414898.67950296        1009440369.6016765     
   4328529268.7824507        619586027.92495346        1159406308.2710080     
   4298442533.1507378        463795069.78654253        1141503944.6438673     
   4278932657.1947494        343260310.56721473        1129693009.6951032     
   4269999640.9144874        257981750.26697373        1123973503.4247172     
   4271643484.3099508        207959388.88581610        1124345425.8327093     
   3815461326.9402828        655214996.71326792        1167350345.2651353     
   3798276064.2813034        537218456.92933857        1189005337.2525337     
   3784893319.0761242        431896975.32474387        1205771321.6895454     
   3775313091.3247437        339250551.89947510        1217648298.5761731     
   3769535381.0271616        259279186.65353918        1224636267.9124131     
   5653473945.3865070        16651840.951104641        735787614.68562639     
   5520421475.4789200        47821224.320580244        722570170.62279344     
   5381809575.5843039        60459174.399945974        711245798.54950845     
   5237638245.7026548        54565691.189209700        701814498.46576130     
   5087907485.8339720        30140774.688360214        694276270.37156200     
   5213612766.4896221        86645716.034598589        879921099.21931684     
   5078114239.7860651        84164809.687287092        855958407.35032439     
   4940406052.8419313        74318369.204727650        835986512.81414425     
   4800488205.6572237        57106394.586917162        820005415.61077547     
   4658360698.2319422        32528885.833857059        808015115.74021900     
   4753002612.7974386        150414898.67950296        1009440369.6016765     
   4621051530.2786713        116081752.90963507        978640494.63072574     
   4490240557.2657852        85548972.159374714        953929142.33585429     
   4360569693.7587852        58816556.428723812        935306312.71706152     
   4232038939.7576637        35884505.717677116        922772005.77434945     
   4271643484.3099508        207959388.88581610        1124345425.8327093     
   4149233346.9567394        143572053.98761964        1090616432.4639988     
   4031313088.8558683        94150983.263891220        1065073687.1146353     
   3917882710.0073376        59696176.714625597        1047717189.7846185     
   3808942210.4111447        40207634.339824200        1038546940.4739484     
   3769535381.0271616        259279186.65353918        1224636267.9124131     
   3662659689.8202705        166635712.92124534        1191886220.8501427     
   3563623647.6121769        100124402.51827586        1169420147.1504886     
   3472427254.4028807        59745255.444627762        1157238046.8134475     
   3389070510.1923790        45498271.700299025        1155339919.8390203     
   5087907485.8339720        30140774.688360214        694276270.37156200     
   4939804440.2391787        2998471.4027380943        675626153.66496503     
   4795147175.5762882       -12657895.443204880        661839357.51373518     
   4653935691.8453035       -16828325.849467278        652915881.91787481     
   4516169989.0462217       -9512819.8160471916        648855726.87738657     
   4658360698.2319422        32528885.833857059        808015115.74021900     
   4524400822.8036108        10857957.031613350        793913310.70557046     
   4392951458.3972206       -2444601.6975028515        784564921.90128434     
   4264012605.0127640       -7378790.3535044193        779969949.32735765     
   4137584262.6502442       -3944608.9363789558        780128392.98379207     
   4232038939.7576637        35884505.717677116        922772005.77434945     
   4111908222.1386328        19590747.691664934        912127364.18335593     
   3993352745.6315713        8547793.3722186089        906126234.49771571     
   3876372510.2364779        2755642.7593309879        904768616.71742654     
   3760967515.9533544        2214295.8530108929        908054510.84249330     
   3808942210.4111447        40207634.339824200        1038546940.4739484     
   3702326638.2442412        29196843.382892609        1030268314.0983149     
   3596351037.2793436        20319289.765966654        1026523295.3030242     
   3491015407.5164447        13574973.489045620        1027311884.0880812     
   3386319748.9555459        8963894.5521261692        1032634080.4534792     
   3389070510.1923790        45498271.700299025        1155339919.8390203     
   3295656071.1204414        39676244.105297685        1148336160.4504509     
   3201946333.3405366        32869887.483744740        1145756104.3172164     
   3107941296.8526649        25079201.835632563        1147599751.4393184     
   3013640961.6568284        16304187.160970092        1153867101.8167541     
   4516169989.0462217       -9512819.8160471916        648855726.87738657     
   4377046621.2655411        175456.32397174835        640118688.66494167     
   4236310485.4767509        4487839.1036264896        635982160.34493244     
   4093961581.6798406        3424328.5228743553        636446141.91736042     
   3949999909.8748169       -3015075.4182455540        641510633.38222551     
   4137584262.6502442       -3944608.9363789558        780128392.98379207     
   4009141284.3516164        1269351.3682956696        770615839.32697403     
   3879759775.0321860        3354874.9369587898        765750994.41822505     
   3749439734.6919527        2311961.7696132660        765533858.25754547     
   3618181163.3309135       -1859388.1337492466        769964430.84493423     
   3760967515.9533544        2214295.8530108929        908054510.84249330     
   3643339781.0100136        2994396.4843115807        898553051.55983198     
   3525447752.0331812        2893517.0039708614        893746499.88087010     
   3407291429.0228519        1911657.4119808674        893634855.80561113     
   3288870811.9790339        48817.708351135254        898218119.33404911     
   3386319748.9555459        8963894.5521261692        1032634080.4534792     
   3279642111.2407274        5350591.6720256805        1023930325.3635039     
   3173374416.4797277        3103765.3046457767        1019968676.7328596     
   3067516664.6725435        2223415.4499882460        1020749134.5615487     
   2962068855.8191757        2709542.1080573797        1026271698.8495672     
   3013640961.6568284        16304187.160970092        1153867101.8167541     
   2918048275.0437679        8337936.9314361811        1146747660.7379916     
   2823539768.3718305        3985619.8389873505        1144417524.9741952     
   2730115441.6410227        3247235.8836327791        1146876694.5253630     
   2637775294.8513412        6122785.0653711557        1154125169.3914921     
   3949999909.8748169       -3015075.4182455540        641510633.38222551     
   3803648977.0084534       -10627092.707510948        630663918.82590687     
   3658610261.5811458       -13865051.866595030        624218250.67196083     
   3514883763.5928869       -12728952.895517111        622173628.92037940     
   3372469483.0436802       -7218795.7942588329        624530053.57116079     
   3618181163.3309135       -1859388.1337492466        769964430.84493423     
   3483946896.2973366       -7019139.2686853409        761248042.28838027     
   3350588066.3088684       -9260766.9199304581        756885211.93445218     
   3218104673.3655038       -8584271.0874977112        756875939.78314579     
   3086496717.4672384       -4989651.7713943720        761220225.83446252     
   3288870811.9790339        48817.708351135254        898218119.33404911     
   3166617530.2075500       -2699371.4434608221        891122479.65098393     
   3044802905.0872240       -3985371.7580761909        888332909.97080278     
   2923426936.6180539       -3809183.2355084419        889849410.29350042     
   2802489624.8000407       -2170805.8757517338        895671980.61907709     
   2962068855.8191757        2709542.1080573797        1026271698.8495672     
   2851660878.7390952        2332210.7681701183        1020287230.9137210     
   2741254777.9162216        1961133.6189739704        1018561344.7810113     
   2630850553.3505578        1596310.6604717970        1021094040.4514377     
   2520448205.0421028        1237741.8926697969        1027885317.9250077     
   2637775294.8513412        6122785.0653711557        1154125169.3914921     
   2539076941.8919659        8075607.3661853075        1148742296.0765903     
   2439943684.7958527        8578749.2112109661        1147570516.3650796     
   2340375523.5630021        7632210.6004419327        1150609830.2569675     
   2240372458.1934061        5235991.5338603258        1157860237.7522519     
   3372469483.0436802       -7218795.7942588329        624530053.57116079     
   3248786886.4709558        4067114.3123488426        614050895.51346397     
   3123895092.9948468        11322368.074336886        604815958.60130024     
   2997794102.6153383        14546965.491665244        596825242.83466446     
   2870483915.3324385        13740906.564350486        590078748.21355164     
   3086496717.4672384       -4989651.7713943720        761220225.83446252     
   2966136922.9726267        2286563.8378649950        750827587.33312023     
   2845104206.5133862        7319706.2316837311        742672043.39957392     
   2723398568.0895133        10109775.410061359        736753594.03382230     
   2601020007.7010074        10656771.373006225        733072239.23585927     
   2802489624.8000407       -2170805.8757517338        895671980.61907709     
   2688289413.5900164        1946749.5980874300        885991515.76931477     
   2573952555.3541169        5608814.9856952429        879541018.90960956     
   2459479050.0923481        8815390.2870655060        876320490.03996301     
   2344868897.8047137        11566475.502213240        876329929.16037321     
   2520448205.0421028        1237741.8926697969        1027885317.9250077     
   2415244358.3231201        3047671.5930187702        1019542680.8220470     
   2310440139.5170388        6189694.3363602161        1015422885.1314050     
   2206035548.6238484        10663810.122674227        1015525930.8530875     
   2102030585.6435452        16470018.951952696        1019851817.9870942     
   2240372458.1934061        5235991.5338603258        1157860237.7522519     
   2147001757.1719551        5589329.8226927519        1151481082.4913120     
   2054566959.0021493        9062344.2836844921        1150317642.0649569     
   1963068063.6840024        15655034.916864514        1154369916.4731905     
   1872505071.2175114        25367401.722232580        1163637905.7160110     
   2870483915.3324385        13740906.564350486        590078748.21355164     
   2748197072.4341621        16197909.262428522        559200403.99844182     
   2628277267.0832415        26545037.118347287        518952553.52468878     
   2510724499.2796659        44782290.132095933        469335196.79229122     
   2395538769.0234523        70909668.303702235        410348333.80124533     
   2601020007.7010074        10656771.373006225        733072239.23585927     
   2458560421.4286547        6494066.1476674080        711506873.11732996     
   2317640530.6880922        7463679.3616266251        685321143.25970948     
   2178260335.4793148        13565611.014887333        654515049.66300118     
   2040419835.8023386        24799861.107450604        619088592.32719934     
   2344868897.8047137        11566475.502213240        876329929.16037321     
   2195805546.7855830        4854755.9416270256        863112308.78693271     
   2047454549.2826784        517548.10181629658        850023467.19396162     
   1899815905.2960191       -1445148.0172165632        837063404.38145113     
   1752889614.8255727       -1033332.4154834747        824232120.34942102     
   2102030585.6435452        16470018.951952696        1019851817.9870942     
   1959932448.5049453        11279978.644315004        1014016711.0072515     
   1817719322.8670239        5706643.3389358521        1013059525.3274381     
   1675391208.7297652       -249986.96421194077        1016980260.9476471     
   1532948106.0931940       -6589912.2651114464        1025778917.8678948     
   1872505071.2175114        25367401.722232580        1163637905.7160110     
   1750941126.5867519        25769734.255746484        1164220079.7782857     
   1628434851.4411099        23030965.072982252        1174429317.6601477     
   1504986245.7805760        17151094.173925042        1194265619.3615971     
   1380595309.6051595        8130121.5585706234        1223728984.8826311     
   3768358564.9846044        1130507569.4953814        800601721.86382401     
   3779207616.9856286        1008595631.3402030        884895390.39329970     
   3790674427.9785838        888742889.82479143        974118050.47001028     
   3802758997.9634690        770949344.94914651        1068269702.0939554     
   3815461326.9402828        655214996.71326792        1167350345.2651353     
   3207953970.4656625        962386191.13969874        756684635.16252184     
   3236003867.6861839        868125224.29598188        853055763.03222156     
   3263782991.2431779        772961678.57384467        951348325.37473059     
   3291291341.1366472        676895553.97328794        1051562322.1900492     
   3318528917.3665895        579926850.49431098        1153697753.4781768     
   2685774603.8587241        805732381.15761733        721936135.23290706     
   2722432326.0860968        736544479.56156838        829348101.01146531     
   2757930741.9944878        663492223.56891310        935673944.18840814     
   2792269851.5838962        586575613.17965066        1040913664.7637347     
   2825449654.8543224        505794648.39378166        1145067262.7374454     
   2201820465.1637897        660546139.54913688        696356222.07497978     
   2238492992.1853704        613853397.13696313        813772404.33103180     
   2273117680.2325134        560334524.80999577        927094906.91104245     
   2305694529.3052177        499989522.56823510        1036323729.8150116     
   2336223539.4034843        432818390.41168100        1141458873.0429394     
   1756091554.3808582        526827466.31425744        679944895.68874002     
   1784185865.9840026        500051977.02216512        806328672.99092019     
   1809343805.9572535        463488582.29709297        925611213.54263330     
   1831565374.3006103        417137282.13904095        1037792517.3438802     
   1850850571.0140731        360998076.54800856        1142872584.3946595     
   3815461326.9402828        655214996.71326792        1167350345.2651353     
   3798276064.2813034        537218456.92933857        1189005337.2525337     
   3784893319.0761242        431896975.32474387        1205771321.6895454     
   3775313091.3247437        339250551.89947510        1217648298.5761731     
   3769535381.0271616        259279186.65353918        1224636267.9124131     
   3318528917.3665895        579926850.49431098        1153697753.4781768     
   3294177936.4477434        472688987.05456531        1181971858.6728542     
   3273531184.4784913        377798553.44679999        1207140108.9847465     
   3256588661.4588323        295255549.67101073        1229202504.4138544     
   3243350367.3887663        225059975.72720003        1248159044.9601767     
   2825449654.8543224        505794648.39378166        1145067262.7374454     
   2799027677.5830421        410843877.87044907        1179845811.2178280     
   2776211640.7571487        327912908.83174288        1213301657.4830272     
   2757001544.3766432        257001741.27766323        1245434801.5330429     
   2741397388.4415269        198110375.20820904        1276245243.3678739     
   2336223539.4034843        432818390.41168100        1141458873.0429394     
   2312825287.6872001        351683129.37699044        1182627194.8874552     
   2292934687.9120965        282240041.47957325        1224255967.1843882     
   2276551740.0781770        224489126.71943164        1266345189.9337375     
   2263676444.1854391        178430385.09656358        1308894863.1355052     
   1850850571.0140731        360998076.54800856        1142872584.3946595     
   1835570766.7602162        295206741.57418978        1190316009.6817343     
   1823700325.9433353        240779951.39029020        1240003038.0888276     
   1815239248.5634317        197717705.99631715        1291933669.6159403     
   1810187534.6205041        166020005.39226246        1346107904.2630696     
   3769535381.0271616        259279186.65353918        1224636267.9124131     
   3662659689.8202705        166635712.92124534        1191886220.8501427     
   3563623647.6121769        100124402.51827586        1169420147.1504886     
   3472427254.4028807        59745255.444627762        1157238046.8134475     
   3389070510.1923790        45498271.700299025        1155339919.8390203     
   3243350367.3887663        225059975.72720003        1248159044.9601767     
   3165587042.1742501        150505028.95416391        1230897005.2002721     
   3094008369.2282333        96565589.742793322        1221570844.3120584     
   3028614348.5507174        63241658.093090415        1220180562.2955365     
   2969404980.1416988        50533234.005048990        1226726159.1507061     
   2741397388.4415269        198110375.20820904        1276245243.3678739     
   2686037587.8167443        139631302.97363520        1272540381.3916562     
   2635207442.7301674        96251082.533073902        1274423303.7962039     
   2588906953.1817927        67969713.886521816        1281894010.5815206     
   2547136119.1716204        54787197.033980489        1294952501.7476058     
   2263676444.1854391        178430385.09656358        1308894863.1355052     
   2224011326.7477551        134014534.97966230        1316816349.4242918     
   2187220868.1179776        99180880.889118433        1327977525.6029246     
   2153305068.2961073        73929422.824927807        1342378391.6714013     
   2122263927.2821443        58260160.787093759        1360018947.6297209     
   1810187534.6205041        166020005.39226246        1346107904.2630696     
   1779508258.9672799        133654724.97224349        1363724909.2981832     
   1750048645.3916669        105354984.81092638        1382233509.7322185     
   1721808693.8936625        81120784.908304691        1401633705.5651739     
   1694788404.4732680        60952125.264384687        1421925496.7970519     
   3389070510.1923790        45498271.700299025        1155339919.8390203     
   3295656071.1204414        39676244.105297685        1148336160.4504509     
   3201946333.3405366        32869887.483744740        1145756104.3172164     
   3107941296.8526649        25079201.835632563        1147599751.4393184     
   3013640961.6568284        16304187.160970092        1153867101.8167541     
   2969404980.1416988        50533234.005048990        1226726159.1507061     
   2886408181.8659825        40436246.632704973        1218856710.9763515     
   2803653763.6354218        31147192.744203448        1215563658.5692995     
   2721141725.4500093        22666072.339533806        1216847001.9295449     
   2638872067.3097506        14992885.418706059        1222706741.0570903     
   2547136119.1716204        54787197.033980489        1294952501.7476058     
   2474993226.0120254        40546129.180263400        1286844656.6661074     
   2403630391.6507010        28905257.320777059        1283465899.8638725     
   2333047616.0876441        19864581.455520511        1284816231.3409009     
   2263244899.3228579        13424101.584495187        1290895651.0971920     
   2122263927.2821443        58260160.787093759        1360018947.6297209     
   2061411203.5585663        40005891.747971773        1352299997.5197141     
   2001876217.3863761        26144081.213470578        1349462828.2009346     
   1943658968.7655740        16674729.183596611        1351507439.6733849     
   1886759457.6961594        11597835.658343434        1358433831.9370599     
   1694788404.4732680        60952125.264384687        1421925496.7970519     
   1645662114.5056055        38815534.335827947        1415222733.5371752     
   1598391240.8424463        22863664.422282517        1413554443.5804894     
   1552975783.4837937        13096515.523757517        1416920626.9269962     
   1509415742.4296453        9514087.6402474046        1425321283.5766935     
   3013640961.6568284        16304187.160970092        1153867101.8167541     
   2918048275.0437679        8337936.9314361811        1146747660.7379916     
   2823539768.3718305        3985619.8389873505        1144417524.9741952     
   2730115441.6410227        3247235.8836327791        1146876694.5253630     
   2637775294.8513412        6122785.0653711557        1154125169.3914921     
   2638872067.3097506        14992885.418706059        1222706741.0570903     
   2556071756.5450768        8769273.1215132475        1216326477.6286125     
   2474089793.4787378        5273486.4854390621        1214595050.7841604     
   2392926178.1107388        4505525.5104928017        1217512460.5237353     
   2312580910.4410768        6465390.1966763735        1225078706.8473320     
   2263244899.3228579        13424101.584495187        1290895651.0971920     
   2192835625.1753182        8822725.4502683878        1284944427.7024121     
   2122978866.4833250        6063067.5011966228        1283501572.1607151     
   2053674623.2468827        5145127.7372862101        1286567084.4721072     
   1984922895.4659820        6068906.1585308313        1294140964.6365848     
   1886759457.6961594        11597835.658343434        1358433831.9370599     
   1828339880.9344976        8498293.9177083969        1352601510.9593868     
   1770206987.3855917        6354362.8862553835        1351137089.1038604     
   1712360777.0494473        5166042.5640032291        1354040566.3704822     
   1654801249.9260566        4933332.9509353638        1361311942.7592485     
   1509415742.4296453        9514087.6402474046        1425321283.5766935     
   1462584523.8226099        7795978.5238256454        1419297727.3995390     
   1415774156.1855388        6147372.6406208277        1417501601.6135938     
   1368984639.5184360        4568269.9906448722        1419932906.2188566     
   1322215973.8213015        3058670.5738942623        1426591641.2153242     
   2637775294.8513412        6122785.0653711557        1154125169.3914921     
   2539076941.8919659        8075607.3661853075        1148742296.0765903     
   2439943684.7958527        8578749.2112109661        1147570516.3650796     
   2340375523.5630021        7632210.6004419327        1150609830.2569675     
   2240372458.1934061        5235991.5338603258        1157860237.7522519     
   2312580910.4410768        6465390.1966763735        1225078706.8473320     
   2224719279.7120991        7092490.8757611513        1218567014.7484226     
   2136647308.9182065        7018458.0051332712        1216486104.9822114     
   2048364998.0594094        6243291.5848230124        1218835977.5486903     
   1959872347.1356969        4766991.6147972345        1225616632.4478641     
   1984922895.4659820        6068906.1585308313        1294140964.6365848     
   1908525669.0511105        5558589.8409919739        1286762445.1708050     
   1832142666.6431556        5095686.8798476458        1284034396.7670212     
   1755773888.2421212        4680197.2750990391        1285956819.4252288     
   1679419333.8480015        4312121.0267399549        1292529713.1454296     
   1654801249.9260566        4933332.9509353638        1361311942.7592485     
   1590496109.9090016        3473904.2618927956        1353328587.3437328     
   1526429757.9706900        2810435.8353307843        1350215391.7195101     
   1462602194.1111276        2942927.6712648273        1351972355.8865774     
   1399013418.3303089        3871379.7696775794        1358599479.8449361     
   1322215973.8213015        3058670.5738942623        1426591641.2153242     
   1270630602.2857716        838434.13845205307        1418265441.2672079     
   1219508582.9008155        162704.87159305811        1415029089.8396778     
   1168849915.6664343        1031482.7733162045        1416882586.9327378     
   1118654600.5826306        3444767.8436295986        1423825932.5463853     
   2240372458.1934061        5235991.5338603258        1157860237.7522519     
   2147001757.1719551        5589329.8226927519        1151481082.4913120     
   2054566959.0021493        9062344.2836844921        1150317642.0649569     
   1963068063.6840024        15655034.916864514        1154369916.4731905     
   1872505071.2175114        25367401.722232580        1163637905.7160110     
   1959872347.1356969        4766991.6147972345        1225616632.4478641     
   1880018105.7020483        6560533.7787309885        1220000241.2394035     
   1800821447.8192017        10546021.112003684        1219233057.0619485     
   1722282373.4871528        16723453.614610076        1223315079.9154973     
   1644400882.7059104        25092831.286565125        1232246309.8000553     
   1679419333.8480015        4312121.0267399549        1292529713.1454296     
   1612034386.8490663        7231717.5198581815        1287351380.1384482     
   1545028704.1000822        11415528.179468334        1286655746.3588989     
   1478402285.6010520        16863553.005590200        1290442811.8067706     
   1412155131.3519685        23575791.998215497        1298712576.4820735     
   1399013418.3303089        3871379.7696775794        1358599479.8449361     
   1343050600.6130078        7602881.0460631847        1353534499.1884484     
   1287188727.8447995        11670865.486088753        1352585709.9558091     
   1231427800.0256910        16075333.089787304        1355753112.1470122     
   1175767817.1556833        20816283.857142806        1363036705.7620604     
   1118654600.5826306        3444767.8436295986        1423825932.5463853     
   1073066746.9938653        7674024.3573314548        1418549598.3893998     
   1027301519.0533459        11312033.031851232        1417022947.8526745     
   981358916.76107490        14358793.867202938        1419245980.9362164     
   935238940.11705542        16814306.863387346        1425218697.6400149     
   1872505071.2175114        25367401.722232580        1163637905.7160110     
   1750941126.5867519        25769734.255746484        1164220079.7782857     
   1628434851.4411099        23030965.072982252        1174429317.6601477     
   1504986245.7805760        17151094.173925042        1194265619.3615971     
   1380595309.6051595        8130121.5585706234        1223728984.8826311     
   1644400882.7059104        25092831.286565125        1232246309.8000553     
   1546299034.4633291        27573378.181105375        1229670862.3586521     
   1447656488.2486074        28251598.501848400        1235036529.6206372     
   1348473244.0617466        27127492.248799145        1248343311.5860162     
   1248749301.9027522        24201059.421962202        1269591208.2547851     
   1412155131.3519685        23575791.998215497        1298712576.4820735     
   1332698382.0227149        26689454.011301875        1293448078.8368607     
   1253102567.2640791        29339564.593107581        1294438746.7788455     
   1173367687.0760534        31526123.743624270        1301684580.3080361     
   1093493741.4586401        33249131.462842584        1315185579.4244070     
   1175767817.1556833        20816283.857142806        1363036705.7620604     
   1110139169.2649219        23117961.746343851        1355551729.2129185     
   1044773088.4875234        26294863.346754849        1352635969.1347806     
   979669574.82348573        30346988.658378661        1354289425.5276396     
   914828628.27281761        35274337.681213051        1360512098.3915091     
   935238940.11705542        16814306.863387346        1425218697.6400149     
   878621396.18994141        16858901.386236250        1415981813.4868193     
   822668051.91894257        19117494.762799412        1409628196.6884291     
   767378907.30406213        23590086.993090808        1406157847.2448485     
   712753962.34528720        30276678.077064484        1405570765.1560783     
   1756091554.3808582        526827466.31425744        679944895.68874002     
   1784185865.9840026        500051977.02216512        806328672.99092019     
   1809343805.9572535        463488582.29709297        925611213.54263330     
   1831565374.3006103        417137282.13904095        1037792517.3438802     
   1850850571.0140731        360998076.54800856        1142872584.3946595     
   1326373609.6065938        397912082.88197815        669596241.82591891     
   1339671148.8590202        375498507.62218100        791718192.20685565     
   1350766409.3752587        345744003.24175751        908552651.21486890     
   1359659391.1553087        308648569.74070776        1020099618.8499589     
   1366350094.1991708        264212207.11903104        1126359095.1121252     
   890452368.93766129        267135710.68129838        662204346.23824775     
   894135265.48949277        250638688.34883344        780920911.40726483     
   896349976.19884253        229247713.20809591        896163730.58090174     
   897096501.06571054        202962785.25908571        1007932803.7591588     
   896374840.09009659        171783904.50180262        1116228130.9420359     
   448327832.37406033        134498349.71221811        657769208.92572653     
   447578215.87542093        125472519.20212258        773936830.59214747     
   446094506.42800599        113999712.19610801        888444451.64073205     
   443876704.03181511        100079928.69417426        1001292072.0714799     
   440924808.68684870        83713168.696321934        1112479691.8843913     
  -8.4209139203830316E-002  -2.5262741761149093E-002   656290829.88835502     
   1.6804512223137218E-002  0.18204825238862890        770765949.76150405     
   6.2748701610173638E-002  0.20579411286344843        885394814.39435983     
   5.3623180186494743E-002   4.5974400740144278E-002   1000177423.7869225     
  -1.0572032031859357E-002 -0.29741077389306297        1115113777.9391921     
   1850850571.0140731        360998076.54800856        1142872584.3946595     
   1835570766.7602162        295206741.57418978        1190316009.6817343     
   1823700325.9433353        240779951.39029020        1240003038.0888276     
   1815239248.5634317        197717705.99631715        1291933669.6159403     
   1810187534.6205041        166020005.39226246        1346107904.2630696     
   1366350094.1991708        264212207.11903104        1126359095.1121252     
   1360616422.7236099        216586560.33894801        1181698685.6673343     
   1357439773.8506672        177484322.23426145        1237945770.2718911     
   1356820147.5803432        146905492.80496973        1295100348.9257944     
   1358757543.9126382        124850072.05107343        1353162421.6290450     
   896374840.09009659        171783904.50180262        1116228130.9420359     
   896369846.90519845        141178709.56916645        1178469489.1252952     
   898069535.48856115        116255787.19739872        1240282232.2872310     
   901473905.84018469        97015137.386501729        1301666360.4278414     
   906582957.96006906        83456760.136473328        1362621873.5471289     
   440924808.68684870        83713168.696321934        1112479691.8843913     
   442831039.30498135        68983189.264842182        1180628420.0556171     
   445589610.85701746        57094346.279706195        1247012424.1348467     
   449200523.34295642        48046639.740913868        1311631704.1220818     
   453663776.76279807        41840069.648463607        1374486260.0173199     
  -1.0572032031859357E-002 -0.29741077389306297        1115113777.9391921     
  -7.7040463065779385E-002 -0.57402296629353000        1188175478.4582994     
  -4.3964044001006244E-002 -0.51881838454513651        1258136345.8147402     
   8.8657493591855041E-002 -0.13179695787688367        1324996380.0085135     
  0.32082399923507443       0.58704085548688179        1388755581.0396202     
   1810187534.6205041        166020005.39226246        1346107904.2630696     
   1779508258.9672799        133654724.97224349        1363724909.2981832     
   1750048645.3916669        105354984.81092638        1382233509.7322185     
   1721808693.8936625        81120784.908304691        1401633705.5651739     
   1694788404.4732680        60952125.264384687        1421925496.7970519     
   1358757543.9126382        124850072.05107343        1353162421.6290450     
   1333337970.5649028        99853076.895585001        1372045070.2753406     
   1308833143.7370207        77905236.806274295        1392381674.8505077     
   1285243063.4289913        59006551.783141255        1414172235.3545454     
   1262567729.6408153        43157021.826181769        1437416751.7874517     
   906582957.96006906        83456760.136473328        1362621873.5471289     
   888029831.28910553        66310073.556899816        1382414430.9872239     
   870086535.58023870        51196156.850982338        1404223304.8861384     
   852753070.83346748        38115010.018717796        1428048495.2438743     
   836029437.04879355        27066633.060109526        1453890002.0604284     
   453663776.76279807        41840069.648463607        1374486260.0173199     
   443583841.13988954        33025714.956188932        1394832991.4338317     
   433808820.92132115        25227744.945048437        1417758399.8391130     
   424338716.10709333        18446159.615042910        1443262485.2331631     
   415173526.69720381        12680958.966165274        1471345247.6159825     
  0.32082399923507443       0.58704085548688179        1388755581.0396202     
  0.11725523253812353        1.0934542019546756        1409300751.6151655     
 -0.23973123166086086        1.0884752234156909        1432986959.7094295     
 -0.75013390931547641       0.57210912689978999        1459814205.3224118     
  -1.4139541643758853      -0.45564941471913017        1489782488.4541123     
   1694788404.4732680        60952125.264384687        1421925496.7970519     
   1645662114.5056055        38815534.335827947        1415222733.5371752     
   1598391240.8424463        22863664.422282517        1413554443.5804894     
   1552975783.4837937        13096515.523757517        1416920626.9269962     
   1509415742.4296453        9514087.6402474046        1425321283.5766935     
   1262567729.6408153        43157021.826181769        1437416751.7874517     
   1227757327.3284168        27164872.905752778        1434359556.3752034     
   1194338487.2393236        15811264.729673922        1435862160.7773218     
   1162311209.3735359        9096197.2979466319        1441924564.9938087     
   1131675493.7310569        7019670.6105819941        1452546769.0246594     
   836029437.04879355        27066633.060109526        1453890002.0604284     
   814178712.42358899        16812063.157385856        1453937211.4010775     
   793255695.94048989        9649853.7283486426        1458069547.0672679     
   773260387.59950137        5580004.7730118334        1466287009.0590000     
   754192787.40061879        4602516.2913632989        1478589597.3762751     
   415173526.69720381        12680958.966165274        1471345247.6159825     
   404926269.79112130        7757105.0907245129        1473955698.6147952     
   395142866.94594884        4379431.4183162451        1480176602.4503274     
   385823318.16168332        2547937.9489324987        1490007959.1225755     
   376967623.43832886        2262624.6825848818        1503449768.6315429     
  -1.4139541643758853      -0.45564941471913017        1489782488.4541123     
 -0.56898286448692581       -1.2942219640310735        1494415018.0163593     
  0.25569683732988435       -2.2004331735835150        1502183326.9264991     
   1.0600893217278944       -3.1742680942539279        1513087415.1845326     
   1.8441905054349224       -4.2157413777836714        1527127282.7904582     
   1509415742.4296453        9514087.6402474046        1425321283.5766935     
   1462584523.8226099        7795978.5238256454        1419297727.3995390     
   1415774156.1855388        6147372.6406208277        1417501601.6135938     
   1368984639.5184360        4568269.9906448722        1419932906.2188566     
   1322215973.8213015        3058670.5738942623        1426591641.2153242     
   1131675493.7310569        7019670.6105819941        1452546769.0246594     
   1096067771.6124473        5585796.3534963131        1446691140.8759909     
   1060475687.9561040        4204050.3039668202        1445175948.5135200     
   1024899242.7620280        2874432.4619933963        1448001191.9372432     
   989338436.03022099        1596942.8275844455        1455166871.1471663     
   754192787.40061879        4602516.2913632989        1478589597.3762751     
   730131434.32754791        3549738.6607496738        1472895815.9971075     
   706080507.20904338        2531714.2120237350        1471655475.7991259     
   682040006.04510665        1548442.9451912642        1474868576.7823305     
   658009930.83573806        599924.86025056243        1482535118.9467206     
   376967623.43832886        2262624.6825848818        1503449768.6315429     
   364775511.96791065        1687805.4455798119        1497911752.7628911     
   352588613.94435930        1130364.3647976220        1496940183.4704158     
   340406929.36767262        590301.44023197889        1500535060.7541168     
   328230458.23785627        67616.671900376678        1508696384.6139905     
   1.8441905054349224       -4.2157413777836714        1527127282.7904582     
   4.5335350857993273       -3.2920115351668766        1521738951.1733410     
   8.1620475259455301       0.76227818700060257        1521030071.5273886     
   12.729726373280906        7.9471227732710048        1525000643.8526013     
   18.236573149024501        18.262526427012752        1533650668.1489780     
   1322215973.8213015        3058670.5738942623        1426591641.2153242     
   1270630602.2857716        838434.13845205307        1418265441.2672079     
   1219508582.9008155        162704.87159305811        1415029089.8396778     
   1168849915.6664343        1031482.7733162045        1416882586.9327378     
   1118654600.5826306        3444767.8436295986        1423825932.5463853     
   989338436.03022099        1596942.8275844455        1455166871.1471663     
   951064612.17509162        56329.236476600170        1447807397.3313737     
   913138302.28427768       -325904.47357857227        1445440891.0158403     
   875559506.35777140        450241.69739025831        1448067352.2005649     
   838328224.39557552        2384767.7493938208        1455686780.8855505     
   658009930.83573806        599924.86025056243        1482535118.9467206     
   632770851.74578285       -344106.76107171178        1476007226.7126145     
   607763448.43387401       -515885.78890660405        1474375420.9584329     
   582987720.90000761        84587.776733994484        1477639701.6841767     
   558443669.14418674        1457313.9358579218        1485800068.8898473     
   328230458.23785627        67616.671900376678        1508696384.6139905     
   315749320.99783999       -362873.85421141982        1502864929.4109259     
   303384021.34959978       -407239.07440412045        1501832679.6674559     
   291134559.29314363       -65478.988650649786        1505599635.3835788     
   279000934.82846284        662406.40302318335        1514165796.5592966     
   18.236573149024501        18.262526427012752        1533650668.1489780     
   19.931259298677663        27.957044143082051        1528380505.4263117     
   21.031461965743240        35.669950944415476        1527812667.1429069     
   21.537175316975265        41.401226346025695        1531947153.2987640     
   21.448403492834608        45.150884496393616        1540783963.8938863     
   1118654600.5826306        3444767.8436295986        1423825932.5463853     
   1073066746.9938653        7674024.3573314548        1418549598.3893998     
   1027301519.0533459        11312033.031851232        1417022947.8526745     
   981358916.76107490        14358793.867202938        1419245980.9362164     
   935238940.11705542        16814306.863387346        1425218697.6400149     
   838328224.39557552        2384767.7493938208        1455686780.8855505     
   802517845.11157942        5070864.3864205182        1450572954.8344843     
   766574435.23572767        7313525.7172638476        1449586693.0614400     
   730497994.76802588        9112751.7419400215        1452727995.5664208     
   694288523.70847213        10468542.460441381        1459996862.3494215     
   558443669.14418674        1457313.9358579218        1485800068.8898473     
   533490423.18712074        2924148.4028502107        1480900485.3312628     
   508448490.39810348        4095360.0966746807        1480506346.7084534     
   483317870.77713710        4970949.0173318982        1484617653.0214276     
   458098564.32421750        5550915.1648139954        1493234404.2701764     
   279000934.82846284        662406.40302318335        1514165796.5592966     
   265984481.22049248        1233876.4066361487        1509532189.8797376     
   252923684.54047453        1657536.1700890511        1509781908.7937126     
   239818544.78840381        1933385.6933670640        1514914953.3012259     
   226669061.96428466        2061424.9764831513        1524931323.4022725     
   21.448403492834608        45.150884496393616        1540783963.8938863     
   19.211692539020689        48.397763887201748        1536468068.4799049     
   17.662834656411846        53.937486848693467        1537413379.3172188     
   16.801826596690717        61.770043247033612        1543619896.4058266     
   16.628669320627221        71.895434203120431        1555087619.7457285     
   935238940.11705542        16814306.863387346        1425218697.6400149     
   878621396.18994141        16858901.386236250        1415981813.4868193     
   822668051.91894257        19117494.762799412        1409628196.6884291     
   767378907.30406213        23590086.993090808        1406157847.2448485     
   712753962.34528720        30276678.077064484        1405570765.1560783     
   694288523.70847213        10468542.460441381        1459996862.3494215     
   646335334.15174532        8854979.6335575283        1453744677.0006189     
   598880292.99152982        8901911.4617131054        1451656763.9703248     
   551923400.22784305        10609337.944958180        1453733123.2585316     
   505464655.86067122        13977259.083260417        1459973754.8652506     
   458098564.32421750        5550915.1648139954        1493234404.2701764     
   422469743.31985688        3377199.2427544892        1489773191.2562482     
   387173019.45242399        2310473.7771229595        1491757255.5245242     
   352208392.72191739        2350738.7679120898        1499186597.0750048     
   317575863.12834209        3497994.2151357532        1512061215.9076781     
   226669061.96428466        2061424.9764831513        1524931323.4022725     
   207024623.69427869        425560.21383947134        1524067356.2537010     
   187546231.30161658       -656818.29099305719        1529929671.3510220     
   168233884.78628886       -1185710.5380440876        1542518268.6942415     
   149087584.14829940       -1161116.5272996426        1561833148.2833643     
   16.628669320627221        71.895434203120431        1555087619.7457285     
  -24.724975638308013        62.546851626559580        1556627171.9929760     
  -71.460877782968410        35.257413152027013        1566174011.4498208     
  -123.57904397599626       -9.9729061776198478        1583728138.1162593     
  -181.07945728954053       -73.144049242321415        1609289551.9922912     
  -8.4209139203830316E-002  -2.5262741761149093E-002   656290829.88835502     
   1.6804512223137218E-002  0.18204825238862890        770765949.76150405     
   6.2748701610173638E-002  0.20579411286344843        885394814.39435983     
   5.3623180186494743E-002   4.5974400740144278E-002   1000177423.7869225     
  -1.0572032031859357E-002 -0.29741077389306297        1115113777.9391921     
  -448327832.54455698       -134498349.76336709        657769209.08385563     
  -447578215.88778305       -125472519.00616643        773936830.64796388     
  -446094506.34918845       -113999711.97623014        888444451.59912944     
  -443876703.92877328       -100079928.67355850        1001292071.9373525     
  -440924808.62653768       -83713169.098151267        1112479691.6626332     
  -890452369.11439312       -267135710.73431793        662204346.46995032     
  -894135265.53800011       -250638688.31806996        780920911.48472321     
  -896349976.14289618       -229247713.17278546        896163730.51390398     
  -897096500.92908120       -202962785.29846478        1007932803.5574926     
  -896374839.89655566       -171783904.69510770        1116228130.6154895     
  -1326373609.7937176       -397912082.93811524        669596242.04663920     
  -1339671148.9338462       -375498507.75366223        791718192.27178192     
  -1350766409.3183737       -345744003.38387191        908552651.13868296     
  -1359659390.9473007       -308648569.82874453        1020099618.6473429     
  -1366350093.8206258       -264212207.08828014        1126359094.7977612     
  -1756091554.5825300       -526827466.37475902        679944895.81392217     
  -1784185866.0753219       -500051977.31294316        806328673.00913990     
  -1809343805.8756220       -463488582.60948926        925611213.47346687     
  -1831565373.9834311       -417137282.26439762        1037792517.2069030     
  -1850850570.3987484       -360998076.27766752        1142872584.2094486     
  -1.0572032031859357E-002 -0.29741077389306297        1115113777.9391921     
  -7.7040463065779385E-002 -0.57402296629353000        1188175478.4582994     
  -4.3964044001006244E-002 -0.51881838454513651        1258136345.8147402     
   8.8657493591855041E-002 -0.13179695787688367        1324996380.0085135     
  0.32082399923507443       0.58704085548688179        1388755581.0396202     
  -440924808.62653768       -83713169.098151267        1112479691.6626332     
  -442831039.35258305       -68983190.019704089        1180628420.0279174     
  -445589610.88691616       -57094346.968882546        1247012424.2742569     
  -449200523.22953713       -48046639.945687085        1311631704.4016528     
  -453663776.38044566       -41840068.950116411        1374486260.4101040     
  -896374839.89655566       -171783904.69510770        1116228130.6154895     
  -896369846.87154090       -141178709.93840876        1178469489.1011450     
  -898069535.56264722       -116255787.56877872        1240282232.5115793     
  -901473905.96987391       -97015137.586217582        1301666360.8467920     
  -906582958.09322155       -83456759.990725309        1362621874.1067832     
  -1366350093.8206258       -264212207.08828014        1126359094.7977612     
  -1360616422.6339152       -216586560.33013868        1181698685.6779840     
  -1357439774.0711579       -177484322.31850925        1237945770.5267069     
  -1356820148.1323550       -146905493.05339205        1295100349.3439317     
  -1358757544.8175049       -124850072.53478700        1353162422.1296573     
  -1850850570.3987484       -360998076.27766752        1142872584.2094486     
  -1835570766.6397049       -295206741.19489342        1190316009.7584321     
  -1823700326.4124484       -240779951.21807408        1240003038.3196394     
  -1815239249.7169774       -197717706.34720939        1291933669.8930709     
  -1810187536.5532939       -166020006.58230042        1346107904.4787261     
  0.32082399923507443       0.58704085548688179        1388755581.0396202     
  0.11725523253812353        1.0934542019546756        1409300751.6151655     
 -0.23973123166086086        1.0884752234156909        1432986959.7094295     
 -0.75013390931547641       0.57210912689978999        1459814205.3224118     
  -1.4139541643758853      -0.45564941471913017        1489782488.4541123     
  -453663776.38044566       -41840068.950116411        1374486260.4101040     
  -443583841.10572398       -33025713.694674626        1394832991.4996929     
  -433808821.46303517       -25227743.879340559        1417758399.7271647     
  -424338717.45237875       -18446159.504115760        1443262485.0925193     
  -415173529.07375473       -12680960.568998531        1471345247.5957563     
  -906582958.09322155       -83456759.990725309        1362621874.1067832     
  -888029831.28545415       -66310073.169829577        1382414430.9853637     
  -870086535.58833408       -51196156.717759788        1404223304.6209919     
  -852753071.00186038       -38115010.634510815        1428048495.0136688     
  -836029437.52603543       -27066634.920089185        1453890002.1633925     
  -1358757544.8175049       -124850072.53478700        1353162422.1296573     
  -1333337970.4219337       -99853077.332008541        1372045070.0721793     
  -1308833142.6156263       -77905237.426774502        1392381674.3909132     
  -1285243061.3985796       -59006552.819077671        1414172235.0858603     
  -1262567726.7707965       -43157023.508924365        1437416752.1570199     
  -1810187536.5532939       -166020006.58230042        1346107904.4787261     
  -1779508258.5151637       -133654726.18121403        1363724908.7601385     
  -1750048642.5449119       -105354986.00638819        1382233509.0369282     
  -1721808688.6425362       -81120786.057814538        1401633705.3090947     
  -1694788396.8080387       -60952126.335504770        1421925497.5766385     
  -1.4139541643758853      -0.45564941471913017        1489782488.4541123     
 -0.56898286448692581       -1.2942219640310735        1494415018.0163593     
  0.25569683732988435       -2.2004331735835150        1502183326.9264991     
   1.0600893217278944       -3.1742680942539279        1513087415.1845326     
   1.8441905054349224       -4.2157413777836714        1527127282.7904582     
  -415173529.07375473       -12680960.568998531        1471345247.5957563     
  -404926270.85531110       -7757107.7782174647        1473955698.9684582     
  -395142866.51886976       -4379434.5941104740        1480176602.7507024     
  -385823316.06442833       -2547941.0166698247        1490007958.9424882     
  -376967619.49198842       -2262627.0459011048        1503449767.5438175     
  -836029437.52603543       -27066634.920089185        1453890002.1633925     
  -814178713.18654704       -16812065.875679851        1453937212.5078833     
  -793255696.59077275       -9649855.9769834578        1458069548.3235672     
  -773260387.73871100       -5580005.2239960134        1466287009.6104441     
  -754192786.63036263       -4602513.6167194247        1478589596.3685138     
  -1262567726.7707965       -43157023.508924365        1437416752.1570199     
  -1227757327.5626917       -27164875.586615145        1434359558.6346378     
  -1194338489.9600143       -15811266.349060595        1435862163.6450975     
  -1162311213.9627604       -9096195.7962529659        1441924567.1884005     
  -1131675499.5709317       -7019663.9281952977        1452546769.2645459     
  -1694788396.8080387       -60952126.335504770        1421925497.5766385     
  -1645662113.9837477       -38815536.911025763        1415222737.3487179     
  -1598391246.6265926       -22863665.710335732        1413554448.7152901     
  -1552975794.7365758       -13096512.733439922        1416920631.6763551     
  -1509415758.3136957       -9514077.9803296924        1425321286.2319126     
   1.8441905054349224       -4.2157413777836714        1527127282.7904582     
   4.5335350857993273       -3.2920115351668766        1521738951.1733410     
   8.1620475259455301       0.76227818700060257        1521030071.5273886     
   12.729726373280906        7.9471227732710048        1525000643.8526013     
   18.236573149024501        18.262526427012752        1533650668.1489780     
  -376967619.49198842       -2262627.0459011048        1503449767.5438175     
  -364775502.92311162       -1687804.5514058918        1497911751.8011289     
  -352588598.93939805       -1130357.3407876641        1496940182.0936613     
  -340406907.54085201       -590285.41406036913        1500535058.4214168     
  -328230428.72746748       -67588.771206870675        1508696380.7843912     
  -754192786.63036263       -4602513.6167194247        1478589596.3685138     
  -730131430.28464866       -3549731.7822689712        1472895814.0552003     
  -706080500.04842937       -2531703.6461359262        1471655471.8411663     
  -682039995.92170691       -1548429.2083248198        1474868569.7264082     
  -658009917.90447855       -599908.46882796288        1482535107.7109320     
  -1131675499.5709317       -7019663.9281952977        1452546769.2645459     
  -1096067777.5510762       -5585784.9846033454        1446691137.9355531     
  -1060475695.1650442       -4204038.1537575722        1445175940.7698958     
  -1024899252.4128411       -2874423.4356722236        1448001177.7675765     
  -989338449.29446423       -1596940.8303447962        1455166848.9285898     
  -1509415758.3136957       -9514077.9803296924        1425321286.2319126     
  -1462584544.7223887       -7795964.1583942175        1419297723.4421892     
  -1415774184.2892411       -6147360.8636500239        1417501588.8798590     
  -1368984677.0142529       -4568268.0961077213        1419932882.5449207     
  -1322216022.8974199       -3058685.8557493091        1426591604.4373755     
   18.236573149024501        18.262526427012752        1533650668.1489780     
   19.931259298677663        27.957044143082051        1528380505.4263117     
   21.031461965743240        35.669950944415476        1527812667.1429069     
   21.537175316975265        41.401226346025695        1531947153.2987640     
   21.448403492834608        45.150884496393616        1540783963.8938863     
  -328230428.72746748       -67588.771206870675        1508696380.7843912     
  -315749288.69677633        362912.30923074484        1502864921.8652875     
  -303383987.02220279        407285.53594471514        1501832669.9840219     
  -291134523.70374149        65530.908950939775        1505599625.1405921     
  -279000898.74139661       -662351.57176546752        1514165787.3349943     
  -658009917.90447855       -599908.46882796288        1482535107.7109320     
  -632770832.11328578        344126.22487518191        1476007208.5401568     
  -607763422.43984056        515907.19275325537        1474375399.0057909     
  -582987688.88413584       -84565.565171033144        1477639679.1078377     
  -558443631.44617915       -1457292.0489234626        1485800048.8462958     
  -989338449.29446423       -1596940.8303447962        1455166848.9285898     
  -951064610.31826830       -56330.296019017696        1447807365.4509082     
  -913138285.22145307        325900.64037102461        1445440854.2082121     
  -875559474.00400543       -450248.02113056183        1448067315.2005053     
  -838328176.66593921       -2384776.2805697322        1455686748.4277811     
  -1322216022.8974199       -3058685.8557493091        1426591604.4373755     
  -1270630623.3117275       -838457.25346612930        1418265392.5975530     
  -1219508575.3670428       -162734.12121099234        1415029035.5912914     
  -1168849879.0633547       -1031516.4589449763        1416882533.4185874     
  -1118654534.4006751       -3444804.2667054534        1423825886.0794473     
   21.448403492834608        45.150884496393616        1540783963.8938863     
   19.211692539020689        48.397763887201748        1536468068.4799049     
   17.662834656411846        53.937486848693467        1537413379.3172188     
   16.801826596690717        61.770043247033612        1543619896.4058266     
   16.628669320627221        71.895434203120431        1555087619.7457285     
  -279000898.74139661       -662351.57176546752        1514165787.3349943     
  -265984451.93968600       -1233819.9196853340        1509532184.8719964     
  -252923660.68449622       -1657473.4226742983        1509781907.3245182     
  -239818524.97583401       -1933312.0807562172        1514914954.6925626     
  -226669044.81369567       -2061335.8939160705        1524931326.9761298     
  -558443631.44617915       -1457292.0489234626        1485800048.8462958     
  -533490396.56539065       -2924130.2794357240        1480900473.7275035     
  -508448473.46550310       -4095341.1129515469        1480506342.1884601     
  -483317862.14651489       -4970924.5494651198        1484617654.2291694     
  -458098562.60842645       -5550880.5889793932        1493234409.8496299     
  -838328176.66593921       -2384776.2805697322        1455686748.4277811     
  -802517814.66541910       -5070882.6814815700        1450572935.0464191     
  -766574420.68017793       -7313549.1333208978        1449586683.9090433     
  -730497994.71021473       -9112775.6360879838        1452727995.0156443     
  -694288536.75552046       -10468562.189750016        1459996868.3662279     
  -1118654534.4006751       -3444804.2667054534        1423825886.0794473     
  -1073066706.2397726       -7674077.1258249283        1418549568.8287523     
  -1027301502.3285258       -11312097.483797133        1417022932.4862664     
  -981358922.66692579       -14358865.340591371        1419245977.0519915     
  -935238967.25498116       -16814380.696237385        1425218702.5259218     
   16.628669320627221        71.895434203120431        1555087619.7457285     
  -24.724975638308013        62.546851626559580        1556627171.9929760     
  -71.460877782968410        35.257413152027013        1566174011.4498208     
  -123.57904397599626       -9.9729061776198478        1583728138.1162593     
  -181.07945728954053       -73.144049242321415        1609289551.9922912     
  -226669044.81369567       -2061335.8939160705        1524931326.9761298     
  -207024686.56188229       -425490.44946129620        1524067349.6291983     
  -187546383.20483655        656838.67909819633        1529929656.7400184     
  -168234134.74255377        1185651.4917845950        1542518248.3085816     
  -149087941.17504206        1160947.9885663316        1561833124.3348958     
  -458098562.60842645       -5550880.5889793932        1493234409.8496299     
  -422469812.61357099       -3377182.7102071345        1489773178.4772537     
  -387173167.02599120       -2310499.5223530382        1491757228.8107798     
  -352208625.84569001       -2350831.0254294425        1499186560.8502123     
  -317576189.07266569       -3498177.2194231004        1512061174.5955398     
  -694288536.75552046       -10468562.189750016        1459996868.3662279     
  -646335402.88004148       -8855014.2353816926        1453744658.5371456     
  -598880422.92434728       -8901979.3469659686        1451656727.6621196     
  -551923596.88844275       -10609457.524516642        1453733075.7411559     
  -505464924.77232856       -13977448.768027604        1459973702.7742376     
  -935238967.25498116       -16814380.696237385        1425218702.5259218     
  -878621457.36129868       -16858985.025005639        1415981789.8088713     
  -822668150.89990866       -19117600.794747114        1409628153.2940309     
  -767379047.87082112       -23590228.005499899        1406157792.9813976     
  -712754148.27403235       -30276866.657244414        1405570708.8709733     
  -1756091554.5825300       -526827466.37475902        679944895.81392217     
  -1784185866.0753219       -500051977.31294316        806328673.00913990     
  -1809343805.8756220       -463488582.60948926        925611213.47346687     
  -1831565373.9834311       -417137282.26439762        1037792517.2069030     
  -1850850570.3987484       -360998076.27766752        1142872584.2094486     
  -2201820465.3573728       -660546139.60721183        696356222.07162964     
  -2238492992.2331719       -613853397.37705088        813772404.29543948     
  -2273117680.0789509       -560334525.04682553        927094906.83974719     
  -2305694528.8947115       -499989522.61653614        1036323729.7045528     
  -2336223538.6804514       -432818390.08618200        1141458872.8898563     
  -2685774603.9947877       -805732381.19843626        721936135.11959243     
  -2722432326.1067691       -736544479.75588274        829348100.93244338     
  -2757930741.8512025       -663492223.75483847        935673944.11718106     
  -2792269851.2280898       -586575613.19530404        1040913664.6738052     
  -2825449654.2374296       -505794648.07727879        1145067262.6023157     
  -3207953970.4947739       -962386191.14843214        756684634.95781028     
  -3236003867.6961131       -868125224.44943869        853055762.92015159     
  -3263782991.1923771       -772961678.73352838        951348325.30576849     
  -3291291340.9835653       -676895554.00070095        1051562322.1146605     
  -3318528917.0696793       -579926850.25095713        1153697753.3468277     
  -3768358564.8573322       -1130507569.4571998        800601721.58628309     
  -3779207617.0012040       -1008595631.4577186        884895390.25856435     
  -3790674428.1024737       -888742889.98289466        974118050.40550935     
  -3802758998.1611395       -770949345.03272772        1068269702.0271183     
  -3815461327.1772022       -655214996.60721755        1167350345.1233909     
  -1850850570.3987484       -360998076.27766752        1142872584.2094486     
  -1835570766.6397049       -295206741.19489342        1190316009.7584321     
  -1823700326.4124484       -240779951.21807408        1240003038.3196394     
  -1815239249.7169774       -197717706.34720939        1291933669.8930709     
  -1810187536.5532939       -166020006.58230042        1346107904.4787261     
  -2336223538.6804514       -432818390.08618200        1141458872.8898563     
  -2312825287.6484447       -351683129.02934617        1182627194.8584104     
  -2292934688.6478910       -282240041.41068923        1224255967.2614682     
  -2276551741.6787920       -224489127.23021322        1266345190.0990288     
  -2263676446.7411447       -178430386.48791301        1308894863.3710935     
  -2825449654.2374296       -505794648.07727879        1145067262.6023157     
  -2799027677.5830874       -410843877.54156941        1179845811.0741622     
  -2776211641.4598665       -327912908.77626395        1213301657.4027913     
  -2757001545.8677688       -257001741.78136313        1245434801.5882030     
  -2741397390.8067884       -198110376.55686486        1276245243.6303980     
  -3318528917.0696793       -579926850.25095713        1153697753.3468277     
  -3294177936.4436336       -472688986.73156369        1181971858.4056873     
  -3273531184.8483763       -377798553.31479836        1207140108.7436092     
  -3256588662.2839088       -295255550.00066221        1229202504.3605933     
  -3243350368.7502279       -225059976.78915513        1248159045.2566400     
  -3815461327.1772022       -655214996.60721755        1167350345.1233909     
  -3798276064.2300830       -537218456.59932911        1189005336.8529854     
  -3784893318.8134198       -431896975.02629411        1205771321.2839220     
  -3775313090.9272127       -339250551.88811219        1217648298.4161997     
  -3769535380.5714607       -259279187.18478251        1224636268.2498198     
  -1810187536.5532939       -166020006.58230042        1346107904.4787261     
  -1779508258.5151637       -133654726.18121403        1363724908.7601385     
  -1750048642.5449119       -105354986.00638819        1382233509.0369282     
  -1721808688.6425362       -81120786.057814538        1401633705.3090947     
  -1694788396.8080387       -60952126.335504770        1421925497.5766385     
  -2263676446.7411447       -178430386.48791301        1308894863.3710935     
  -2224011325.8130174       -134014535.96559370        1316816349.0106421     
  -2187220863.6339560       -99180881.273496747        1327977524.6960657     
  -2153305060.2039628       -73929422.411621213        1342378390.4273643     
  -2122263915.5230336       -58260159.379967332        1360018946.2045369     
  -2741397390.8067884       -198110376.55686486        1276245243.6303980     
  -2686037586.8443866       -139631303.87002921        1272540381.1666961     
  -2635207438.3122396       -96251082.617379665        1274423302.7993667     
  -2588906945.2103467       -67969712.798914552        1281894008.5284092     
  -2547136107.5387120       -54787194.414636970        1294952498.3538241     
  -3243350368.7502279       -225059976.78915513        1248159045.2566400     
  -3165587041.6092706       -150505029.89451754        1230897005.2283006     
  -3094008366.5797586       -96565590.038031936        1221570843.3468299     
  -3028614343.6616907       -63241657.219693661        1220180559.6122291     
  -2969404972.8550682       -50533231.439508319        1226726154.0244975     
  -3769535380.5714607       -259279187.18478251        1224636268.2498198     
  -3662659690.1076698       -166635714.03906298        1191886221.1954546     
  -3563623648.4365153       -100124403.53545618        1169420146.3384557     
  -3472427255.5579944       -59745255.673964500        1157238043.6788249     
  -3389070511.4721069       -45498270.454586864        1155339913.2165604     
  -1694788396.8080387       -60952126.335504770        1421925497.5766385     
  -1645662113.9837477       -38815536.911025763        1415222737.3487179     
  -1598391246.6265926       -22863665.710335732        1413554448.7152901     
  -1552975794.7365758       -13096512.733439922        1416920631.6763551     
  -1509415758.3136957       -9514077.9803296924        1425321286.2319126     
  -2122263915.5230336       -58260159.379967332        1360018946.2045369     
  -2061411202.0366423       -40005892.740322232        1352299999.0248971     
  -2001876225.6475430       -26144083.091650248        1349462832.1719575     
  -1943658986.3557377       -16674730.433957219        1351507445.6457176     
  -1886759484.1612244       -11597834.767243862        1358433839.4461775     
  -2547136107.5387120       -54787194.414636970        1294952498.3538241     
  -2474993224.1553402       -40546128.789358616        1286844655.6539497     
  -2403630399.4994192       -28905258.922242522        1283465902.0129828     
  -2333047633.5709467       -19864584.813291073        1284816237.4309223     
  -2263244926.3699236       -13424106.462505102        1290895661.9077687     
  -2969404972.8550682       -50533231.439508319        1226726154.0244975     
  -2886408180.3398409       -40436245.058133721        1218856707.2358739     
  -2803653768.1822200       -31147193.202110648        1215563658.2383642     
  -2721141736.3822055       -22666075.871439576        1216847007.0319672     
  -2638872084.9397950       -14992893.066120148        1222706753.6166890     
  -3389070511.4721069       -45498270.454586864        1155339913.2165604     
  -3295656070.5901470       -39676241.546656132        1148336153.7706709     
  -3201946331.6959486       -32869885.931260943        1145756100.8481033     
  -3107941294.7895098       -25079203.608399272        1147599754.4488554     
  -3013640959.8708353       -16304194.578083873        1153867114.5729315     
  -1509415758.3136957       -9514077.9803296924        1425321286.2319126     
  -1462584544.7223887       -7795964.1583942175        1419297723.4421892     
  -1415774184.2892411       -6147360.8636500239        1417501588.8798590     
  -1368984677.0142529       -4568268.0961077213        1419932882.5449207     
  -1322216022.8974199       -3058685.8557493091        1426591604.4373755     
  -1886759484.1612244       -11597834.767243862        1358433839.4461775     
  -1828339918.1254957       -8498293.3359655142        1352601513.6314347     
  -1770207037.0064125       -6354368.2935070992        1351137085.8674698     
  -1712360840.8039737       -5166059.6398632526        1354040556.1542790     
  -1654801329.5181777       -4933367.3750295639        1361311924.4918675     
  -2263244926.3699236       -13424106.462505102        1290895661.9077687     
  -2192835665.5372477       -8822734.7161350250        1284944436.0164402     
  -2122978921.3797040       -6063085.2202004194        1283501577.9992707     
  -2053674693.8972895       -5145157.9746973515        1286567087.8562629     
  -1984922983.0900049       -6068952.9796307087        1294140965.5874155     
  -2638872084.9397950       -14992893.066120148        1222706753.6166890     
  -2556071786.9576468       -8769288.2989004850        1216326490.5972047     
  -2474089837.4091139       -5273511.6437257528        1214595065.2752671     
  -2392926236.2942014       -4505563.1006150246        1217512477.6508739     
  -2312580983.6129003       -6465442.6695522070        1225078727.7240238     
  -3013640959.8708353       -16304194.578083873        1153867114.5729315     
  -2918048282.3866887       -8337954.0842504501        1146747677.3737285     
  -2823539785.0946474       -3985647.5640951395        1144417547.6954529     
  -2730115467.9947047       -3247275.0176028013        1146876725.5381074     
  -2637775331.0868669       -6122836.4447952509        1154125210.9016900     
  -1322216022.8974199       -3058685.8557493091        1426591604.4373755     
  -1270630623.3117275       -838457.25346612930        1418265392.5975530     
  -1219508575.3670428       -162734.12121099234        1415029035.5912914     
  -1168849879.0633547       -1031516.4589449763        1416882533.4185874     
  -1118654534.4006751       -3444804.2667054534        1423825886.0794473     
  -1654801329.5181777       -4933367.3750295639        1361311924.4918675     
  -1590496148.2599547       -3473940.6157752275        1353328563.7687593     
  -1526429754.5008941       -2810472.1870526671        1350215365.3085816     
  -1462602148.2409959       -2942962.0888760090        1351972329.1113319     
  -1399013329.4802597       -3871410.3212381005        1358599455.1770136     
  -1984922983.0900049       -6068952.9796307087        1294140965.5874155     
  -1908525713.2181985       -5558635.9810875654        1286762447.4798384     
  -1832142666.7037106       -5095730.1736072302        1284034399.0645604     
  -1755773843.5465412       -4680235.5571849346        1285956820.3415821     
  -1679419243.7466874       -4312152.1318204403        1292529711.3109043     
  -2312580983.6129003       -6465442.6695522070        1225078727.7240238     
  -2224719318.1864514       -7092543.3494036198        1218567043.7307942     
  -2136647311.9754810       -7018508.0808411837        1216486136.8592346     
  -2048364964.9799829       -6243336.8638545275        1218836007.1093414     
  -1959872277.1999614       -4767029.6984634399        1225616654.4811211     
  -2637775331.0868669       -6122836.4447952509        1154125210.9016900     
  -2539076963.1647215       -8075662.7207245827        1148742352.5216234     
  -2439943690.3162065       -8578805.9087542295        1147570578.6925991     
  -2340375512.5413275       -7632266.0089073181        1150609889.4146104     
  -2240372429.8400769       -5236043.0211485624        1157860284.6876652     
  -1118654534.4006751       -3444804.2667054534        1423825886.0794473     
  -1073066706.2397726       -7674077.1258249283        1418549568.8287523     
  -1027301502.3285258       -11312097.483797133        1417022932.4862664     
  -981358922.66692579       -14358865.340591371        1419245977.0519915     
  -935238967.25498116       -16814380.696237385        1425218702.5259218     
  -1399013329.4802597       -3871410.3212381005        1358599455.1770136     
  -1343050539.4983993       -7602924.6792858839        1353534487.4977252     
  -1287188692.2319081       -11670914.755224884        1352585711.4261017     
  -1231427787.6807771       -16075380.549035370        1355753126.9621415     
  -1175767825.8450093       -20816322.060719490        1363036734.1058488     
  -1679419243.7466874       -4312152.1318204403        1292529711.3109043     
  -1612034318.5168538       -7231755.9606951475        1287351388.3263583     
  -1545028654.4680967       -11415563.726487160        1286655767.6489344     
  -1478402251.6004143       -16863575.429198384        1290442849.2786305     
  -1412155109.9138091       -23575791.068829834        1298712633.2154479     
  -1959872277.1999614       -4767029.6984634399        1225616654.4811211     
  -1880018043.2951357       -6560570.9700527191        1220000271.3146560     
  -1800821389.0370975       -10546044.397598505        1219233101.1547656     
  -1722282314.4258473       -16723449.981105089        1223315144.0014534     
  -1644400819.4613860       -25092787.720574915        1232246399.8547192     
  -2240372429.8400769       -5236043.0211485624        1157860284.6876652     
  -2147001713.8332450       -5589369.7073619366        1151481136.4626150     
  -2054566895.9389067       -9062356.7685512304        1150317711.9435956     
  -1963067976.1570745       -15655004.204762459        1154370011.1306098     
  -1872504954.4877346       -25367312.015948296        1163638034.0236614     
  -935238967.25498116       -16814380.696237385        1425218702.5259218     
  -878621457.36129868       -16858985.025005639        1415981789.8088713     
  -822668150.89990866       -19117600.794747114        1409628153.2940309     
  -767379047.87082112       -23590228.005499899        1406157792.9813976     
  -712754148.27403235       -30276866.657244414        1405570708.8709733     
  -1175767825.8450093       -20816322.060719490        1363036734.1058488     
  -1110139200.8718350       -23117995.250028312        1355551721.7939396     
  -1044773147.8770416       -26294908.367261648        1352635922.3087835     
  -979669666.86062312       -30347061.412429869        1354289335.6503832     
  -914828757.82258534       -35274454.385515004        1360511961.8187351     
  -1412155109.9138091       -23575791.068829834        1298712633.2154479     
  -1332698408.0767369       -26689444.583384037        1293448091.3382535     
  -1253102646.7641125       -29339566.512767553        1294438698.9123597     
  -1173367825.9759529       -31526156.857023120        1301684455.9377651     
  -1093493945.7122433       -33249215.616123557        1315185362.4144766     
  -1644400819.4613860       -25092787.720574915        1232246399.8547192     
  -1546299078.9759934       -27573333.025034428        1229670898.4418144     
  -1447656647.5611346       -28251575.231267095        1235036483.1047583     
  -1348473525.2167993       -27127514.339262128        1248343153.8435524     
  -1248749711.9430132       -24201150.349065900        1269590910.6581900     
  -1872504954.4877346       -25367312.015948296        1163638034.0236614     
  -1750941213.5696065       -25769660.574991822        1164220143.1046247     
  -1628435150.2680840       -23030934.522720814        1174429274.8859832     
  -1504986764.5831788       -17151133.859176755        1194265429.3677330     
  -1380596056.5148849       -8130258.5843320489        1223728606.5498762     
  -3768358564.8573322       -1130507569.4571998        800601721.58628309     
  -3779207617.0012040       -1008595631.4577186        884895390.25856435     
  -3790674428.1024737       -888742889.98289466        974118050.40550935     
  -3802758998.1611395       -770949345.03272772        1068269702.0271183     
  -3815461327.1772022       -655214996.60721755        1167350345.1233909     
  -4339835077.2973070       -1301950523.1891921        858829309.37284005     
  -4335293512.1225910       -1125642355.2672558        942438105.92351973     
  -4331895355.7781267       -953145550.11282110        1020403871.2624977     
  -4329640608.2639112       -784460107.72588742        1092726605.3897741     
  -4328529269.5799475       -619586028.10645449        1159406308.3053489     
  -4895230198.0295420       -1468569059.4088624        936509312.68530965     
  -4905503794.6401405       -1246926395.2956419        1018819978.9293921     
  -4917446449.9538422       -1030847260.1927664        1084915591.2754076     
  -4931058163.9706488       -820331654.10023654        1134796149.7233560     
  -4946338936.6905594       -615379577.01805210        1168461654.2732375     
  -5434543927.0540371       -1630363178.1162112        1033641731.5236920     
  -5489838464.5538511       -1372447751.5428762        1114041009.2761817     
  -5547327710.6296225       -1121848020.2227311        1167653210.4442394     
  -5607011665.2813492       -878563984.15577471        1194478335.0278640     
  -5668890328.5090332       -642595643.34200931        1194516383.0270565     
  -5957776264.3707933       -1787332879.3112381        1150226565.8879871     
  -6088297521.8637238       -1502206424.0089588        1228101196.9638889     
  -6221539137.8054638       -1226147830.2027140        1268616728.7689927     
  -6357501112.1960154       -959157097.89250302        1271773161.3032982     
  -6496183445.0353756       -701234227.07832527        1237570494.5668063     
  -3815461327.1772022       -655214996.60721755        1167350345.1233909     
  -3798276064.2300830       -537218456.59932911        1189005336.8529854     
  -3784893318.8134198       -431896975.02629411        1205771321.2839220     
  -3775313090.9272127       -339250551.88811219        1217648298.4161997     
  -3769535380.5714607       -259279187.18478251        1224636268.2498198     
  -4328529269.5799475       -619586028.10645449        1159406308.3053489     
  -4298442533.1323547       -463795069.75366867        1141503944.4060886     
  -4278932656.3791723       -343260310.38225007        1129693009.3416426     
  -4269999639.3204021       -257981749.99219990        1123973503.1120121     
  -4271643481.9560370       -207959388.58351207        1124345425.7171967     
  -4946338936.6905594       -615379577.01805210        1168461654.2732375     
  -4871978052.0754251       -412382397.92024803        1103098535.5538421     
  -4814968369.3186579       -267222558.35032582        1054807281.8027345     
  -4775309888.4202566       -179900058.30828381        1023587893.0199153     
  -4753002609.3802185       -150414897.79412317        1009440369.2053843     
  -5668890328.5090332       -642595643.34200931        1194516383.0270565     
  -5518882621.0592957       -382980441.09906745        1073789110.2962465     
  -5393000457.6318789       -203783718.93052077        981114138.66719782     
  -5291243838.2267780       -105005476.83636999        916491468.13991046     
  -5213612762.8439980       -86645714.816615582        879921098.71438336     
  -6496183445.0353756       -701234227.07832527        1237570494.5668063     
  -6239156240.0839672       -375589199.29012680        1053575668.6333010     
  -6013028921.3188314       -152943792.12283802        908613579.93503046     
  -5817801488.7399683       -33298005.576456785        802684228.47199476     
  -5653473942.3473787       -16651839.650984287        735787614.24419403     
  -3769535380.5714607       -259279187.18478251        1224636268.2498198     
  -3662659690.1076698       -166635714.03906298        1191886221.1954546     
  -3563623648.4365153       -100124403.53545618        1169420146.3384557     
  -3472427255.5579944       -59745255.673964500        1157238043.6788249     
  -3389070511.4721069       -45498270.454586864        1155339913.2165604     
  -4271643481.9560370       -207959388.58351207        1124345425.7171967     
  -4149233347.9176526       -143572054.66434264        1090616432.4997580     
  -4031313092.9706035       -94150984.382969141        1065073686.5792320     
  -3917882717.1148968       -59696177.739395142        1047717187.9556161     
  -3808942220.3505297       -40207634.733623505        1038546936.6289130     
  -4753002609.3802185       -150414897.79412317        1009440369.2053843     
  -4621051531.4828196       -116081753.01617765        978640494.47638333     
  -4490240562.9754667       -85548972.871714830        953929142.14383888     
  -4360569703.8581619       -58816557.360736847        935306312.20774972     
  -4232038954.1308990       -35884506.483243942        922772004.66811681     
  -5213612762.8439980       -86645714.816615582        879921098.71438336     
  -5078114240.8031759       -84164809.094567776        855958407.12533009     
  -4940406058.4511080       -74318369.001692295        835986513.03227615     
  -4800488215.7877884       -57106394.537986755        820005416.43522608     
  -4658360712.8132210       -32528885.703450203        808015117.33417404     
  -5653473942.3473787       -16651839.650984287        735787614.24419403     
  -5520421475.8787193       -47821222.899517059        722570170.44659758     
  -5381809579.3975201       -60459172.772904158        711245799.24454713     
  -5237638252.9037762       -54565689.271144152        701814500.63804126     
  -5087907496.3974876       -30140772.394239902        694276274.62708104     
  -3389070511.4721069       -45498270.454586864        1155339913.2165604     
  -3295656070.5901470       -39676241.546656132        1148336153.7706709     
  -3201946331.6959486       -32869885.931260943        1145756100.8481033     
  -3107941294.7895098       -25079203.608399272        1147599754.4488554     
  -3013640959.8708353       -16304194.578083873        1153867114.5729315     
  -3808942220.3505297       -40207634.733623505        1038546936.6289130     
  -3702326639.0068359       -29196840.695932388        1030268310.0932580     
  -3596351029.7862296       -20319287.068537712        1026523293.1287489     
  -3491015392.6887121       -13574973.851436138        1027311885.7353845     
  -3386319727.7142806       -8963901.0446219444        1032634087.9131655     
  -4232038954.1308990       -35884506.483243942        922772004.66811681     
  -4111908223.6174049       -19590744.703379393        912127362.55148315     
  -3993352735.3623252       -8547790.4515619278        906126233.05381799     
  -3876372489.3656573       -2755643.7277872562        904768616.17512214     
  -3760967485.6274061       -2214304.5320630074        908054511.91539395     
  -4658360712.8132210       -32528885.703450203        808015117.33417404     
  -4524400824.4218569       -10857953.568986177        793913311.14534616     
  -4392951448.4242325        2444603.9196720123        784564920.62331092     
  -4264012584.8203473        7378786.7625329494        779969945.76806891     
  -4137584233.6102047        3944594.9595921040        780128386.57962036     
  -5087907496.3974876       -30140772.394239902        694276274.62708104     
  -4939804441.4201841       -2998467.2927594185        675626155.87484574     
  -4795147168.9719534        12657896.045161247        661839355.83722818     
  -4653935679.0527830        16828317.619533062        652915874.51422632     
  -4516169971.6626806        9512797.4303460121        648855711.90584147     
  -3013640959.8708353       -16304194.578083873        1153867114.5729315     
  -2918048282.3866887       -8337954.0842504501        1146747677.3737285     
  -2823539785.0946474       -3985647.5640951395        1144417547.6954529     
  -2730115467.9947047       -3247275.0176028013        1146876725.5381074     
  -2637775331.0868669       -6122836.4447952509        1154125210.9016900     
  -3386319727.7142806       -8963901.0446219444        1032634087.9131655     
  -3279642093.4830222       -5350606.6650328636        1023930333.5170239     
  -3173374400.8897367       -3103784.4120212793        1019968687.4317896     
  -3067516649.9344201       -2223434.2855749130        1020749149.6574637     
  -2962068840.6170750       -2709556.2857013941        1026271720.1940455     
  -3760967485.6274061       -2214304.5320630074        908054511.91539395     
  -3643339749.5348039       -2994412.7324516773        898553051.96879888     
  -3525447716.5260425       -2893531.2123138905        893746501.12309086     
  -3407291386.6011209       -1911659.9716393948        893634859.37827229     
  -3288870759.7600431       -48799.010438919067        898218126.73434174     
  -4137584233.6102047        3944594.9595921040        780128386.57962036     
  -4009141250.5420327       -1269372.2865052223        770615832.72905719     
  -3879759732.0035667       -3354887.9649667740        765750988.76936162     
  -3749439677.9948134       -2311952.0758028030        765533854.70053518     
  -3618181088.5157743        1859435.3809976578        769964430.52257729     
  -4516169971.6626806        9512797.4303460121        648855711.90584147     
  -4377046596.5047064       -175485.32718920708        640118675.79779661     
  -4236310447.3223119       -4487854.6699979305        635982150.37059796     
  -4093961524.1154943       -3424310.5980627537        636446135.62425029     
  -3949999826.8842587        3015146.8886048794        641510631.55875087     
  -2637775331.0868669       -6122836.4447952509        1154125210.9016900     
  -2539076963.1647215       -8075662.7207245827        1148742352.5216234     
  -2439943690.3162065       -8578805.9087542295        1147570578.6925991     
  -2340375512.5413275       -7632266.0089073181        1150609889.4146104     
  -2240372429.8400769       -5236043.0211485624        1157860284.6876652     
  -2962068840.6170750       -2709556.2857013941        1026271720.1940455     
  -2851660867.5149302       -2332219.7895199060        1020287263.2568691     
  -2741254770.7786274       -1961137.8461595774        1018561380.4981683     
  -2630850550.4081736       -1596310.4556248188        1021094071.9179409     
  -2520448206.4035697       -1237737.6179151535        1027885337.5161886     
  -3288870759.7600431       -48799.010438919067        898218126.73434174     
  -3166617496.8280725        2699405.6528095007        891122493.06580162     
  -3044802891.5541668        3985418.1225157976        888332923.20317316     
  -2923426943.9383292        3809238.3986645937        889849417.14645588     
  -2802489653.9805551        2170866.4812703133        895671974.89564955     
  -3618181088.5157743        1859435.3809976578        769964430.52257729     
  -3483946851.1041670        7019213.6062510014        761248041.94842184     
  -3350588052.6428394        9260861.9972398281        756885206.80761337     
  -3218104693.1317954        8584380.5539543629        756875925.10015154     
  -3086496772.5710282        4989769.2764129639        761220196.82603741     
  -3949999826.8842587        3015146.8886048794        641510631.55875087     
  -3803648930.3432016        10627204.070810318        630663909.90472841     
  -3658610254.0446339        13865193.778034687        624218231.31148672     
  -3514883797.9885674        12729116.010264397        622173595.77903390     
  -3372469562.1750007        7218970.7674994469        624530003.30735493     
  -2240372429.8400769       -5236043.0211485624        1157860284.6876652     
  -2147001713.8332450       -5589369.7073619366        1151481136.4626150     
  -2054566895.9389067       -9062356.7685512304        1150317711.9435956     
  -1963067976.1570745       -15655004.204762459        1154370011.1306098     
  -1872504954.4877346       -25367312.015948296        1163638034.0236614     
  -2520448206.4035697       -1237737.6179151535        1027885337.5161886     
  -2415244325.3348732       -3047653.5471490622        1019542708.5378911     
  -2310440073.3197775       -6189666.3217183352        1015422926.4956915     
  -2206035450.3582845       -10663775.941626430        1015525991.3895881     
  -2102030456.4503922       -16469982.406868339        1019851903.2195818     
  -2802489653.9805551        2170866.4812703133        895671974.89564955     
  -2688289398.6212358       -1946675.9223582745        885991512.39948118     
  -2573952503.2566247       -5608751.6416653395        879541020.06947696     
  -2459478967.8867178       -8815360.6766641140        876320497.90563679     
  -2344868792.5115099       -11566503.027321458        876329945.90795636     
  -3086496772.5710282        4989769.2764129639        761220196.82603741     
  -2966136933.6923370       -2286436.8329914808        750827548.04738152     
  -2845104185.7494464       -7319612.7284045219        742671992.66495574     
  -2723398528.7423677       -10109758.409853458        736753530.67876053     
  -2601019962.6710920       -10656873.877313137        733072162.08878887     
  -3372469562.1750007        7218970.7674994469        624530003.30735493     
  -3248786930.5481701       -4066936.2790359259        614050815.48159564     
  -3123895120.7982526       -11322249.581954837        604815844.28212750     
  -2997794132.9252429       -14546969.141230941        596825089.70895374     
  -2870483966.9291391       -13741094.956847548        590078551.76207483     
  -1872504954.4877346       -25367312.015948296        1163638034.0236614     
  -1750941213.5696065       -25769660.574991822        1164220143.1046247     
  -1628435150.2680840       -23030934.522720814        1174429274.8859832     
  -1504986764.5831788       -17151133.859176755        1194265429.3677330     
  -1380596056.5148849       -8130258.5843320489        1223728606.5498762     
  -2102030456.4503922       -16469982.406868339        1019851903.2195818     
  -1959932601.7813973       -11280021.895274282        1014016737.2006794     
  -1817719749.6531813       -5706736.5196100473        1013059487.7349783     
  -1675391900.0657566        249873.72008419037        1016980154.8224721     
  -1532949053.0191133        6589808.8238380551        1025778738.4631857     
  -2344868792.5115099       -11566503.027321458        876329945.90795636     
  -2195805698.7978983       -4854895.8569535017        863112292.37764633     
  -2047454932.5492487       -517713.56978750229        850023449.25334620     
  -1899816493.7655487        1445043.8341873884        837063416.53506577     
  -1752890382.4468164        1033376.3549591303        824232194.22280014     
  -2601019962.6710920       -10656873.877313137        733072162.08878887     
  -2458560504.6191254       -6494282.4600684643        711506808.63553369     
  -2317640698.9562836       -7463865.6732534170        685321159.44110465     
  -2178260545.6825728       -13565623.516878963        654515214.50549769     
  -2040420044.7980120       -24799555.990960956        619088973.82872427     
  -2870483966.9291391       -13741094.956847548        590078551.76207483     
  -2748197019.2450604       -16198181.704579473        559200285.97433472     
  -2628277048.8742909       -26545192.830011725        518952618.29823750     
  -2510724055.8168249       -44782128.333118677        469335548.73377389     
  -2395538040.0726719       -70908988.213926792        410349077.28094876     
  -5957776264.3707933       -1787332879.3112381        1150226565.8879871     
  -6088297521.8637238       -1502206424.0089588        1228101196.9638889     
  -6221539137.8054638       -1226147830.2027140        1268616728.7689927     
  -6357501112.1960154       -959157097.89250302        1271773161.3032982     
  -6496183445.0353756       -701234227.07832527        1237570494.5668063     
  -6810366266.6595039       -2043109879.9978511        1353945181.6514063     
  -6828359342.6747465       -1395461716.2067626        1202909207.9227543     
  -6897703191.7734613       -918982796.02724767        1092133617.2580116     
  -7018397813.9556484       -613673119.45930576        1021618409.6571779     
  -7190443209.2213058       -479532686.50293612        991363585.12025380     
  -8337752990.5998611       -2501325897.1799583        1712478944.6871612     
  -8021447935.6096802       -1424625040.0417397        1275796882.4135168     
  -7805124068.3376360       -681194808.63063478        956994685.53848875     
  -7688781388.7837229       -271035202.94664049        756072354.06207705     
  -7672419896.9479446       -194146222.98976088        673029887.98428226     
  -10539936436.191866       -3161980930.8575597        2225827854.9952521     
  -9667563300.6685276       -1589696395.5138915        1446764220.4361763     
  -8943801767.4979839       -512783868.01287460        863199933.61042392     
  -8368651836.6802378        68756651.645493031        475134994.51799637     
  -7942113508.2152843        154925163.46120691        282569403.15889204     
  -13416916603.435516       -4025074981.0306549        2893991912.5756793     
  -11766705437.851286       -1890675782.6232157        1715811221.9907331     
  -10313736289.254509       -413749974.17396736        810749361.47381830     
  -9058009157.6451931        405702444.31709146        178806331.02493486     
  -7999524043.0233335        567681472.84995985       -180017869.35591710     
  -6496183445.0353756       -701234227.07832527        1237570494.5668063     
  -6239156240.0839672       -375589199.29012680        1053575668.6333010     
  -6013028921.3188314       -152943792.12283802        908613579.93503046     
  -5817801488.7399683       -33298005.576456785        802684228.47199476     
  -5653473942.3473787       -16651839.650984287        735787614.24419403     
  -7190443209.2213058       -479532686.50293612        991363585.12025380     
  -6900286394.2197943       -304066525.23315144        847198757.82751513     
  -6622955686.2007914       -171354053.90505934        724142170.22694743     
  -6358451085.1642981       -81395272.518659115        622193822.31854975     
  -6106772591.1103058       -34190181.073946953        541353714.10232389     
  -7672419896.9479446       -194146222.98976088        673029887.98428226     
  -7400346322.0193672       -184222783.27530050        589781135.07003629     
  -7123025074.8695345       -156807102.82331467        509716124.30489635     
  -6840456155.4984446       -111899181.63380504        432834855.68886495     
  -6552639563.9060974       -49499019.706768990        359137329.22193992     
  -7942113508.2152843        154925163.46120691        282569403.15889204     
  -7739336023.4826841       -16057973.416572571        281322800.36086404     
  -7513237087.3250628       -109302938.87760878        265335442.16888019     
  -7263816699.7424183       -124809732.92190266        234607328.58293873     
  -6991074860.7347469       -62578355.549448490        189138459.60304081     
  -7999524043.0233335        567681472.84995985       -180017869.35591710     
  -7917255498.6097460        200427904.34303284       -78176246.299998686     
  -7793591723.5673733       -28841562.067936420       -8999876.1811041124     
  -7628532717.8962135       -120126926.38294220        27511241.000771672     
  -7422078481.5962620       -73428188.601985455        31357105.245627403     
  -5653473942.3473787       -16651839.650984287        735787614.24419403     
  -5520421475.8787193       -47821222.899517059        722570170.44659758     
  -5381809579.3975201       -60459172.772904158        711245799.24454713     
  -5237638252.9037762       -54565689.271144152        701814500.63804126     
  -5087907496.3974876       -30140772.394239902        694276274.62708104     
  -6106772591.1103058       -34190181.073946953        541353714.10232389     
  -5958965046.7801838       -35812126.127771616        535040371.19415683     
  -5809979143.7629633       -33506208.891274929        531365376.00048894     
  -5659814882.0586481       -27272429.364457130        530328728.52131385     
  -5508472261.6672373       -17110787.547322273        531930428.75663716     
  -6552639563.9060974       -49499019.706768990        359137329.22193992     
  -6387947584.2317924       -20934719.321071863        354616837.32351434     
  -6226458317.1958370       -3046127.7298772335        353479968.25853801     
  -6068171762.7982340        4166755.0668129921        355726722.02700710     
  -5913087921.0389853        703929.06899619102        361357098.62892377     
  -6991074860.7347469       -62578355.549448490        189138459.60304081     
  -6807369088.2335434       -3189002.4794144630        181299568.83466670     
  -6631247099.6961403        30921070.711290359        177589576.01869589     
  -6462708895.1225338        39751864.022669554        178008481.15511727     
  -6301754474.5127306        23303377.454708576        182556284.24394000     
  -7422078481.5962620       -73428188.601985455        31357105.245627403     
  -7217229558.7854404        17425024.397201538        15088565.727621226     
  -7024345491.2638712        68395386.432229519        3694199.2809612034     
  -6843426279.0315447        79482897.503111839       -2825994.0943501028     
  -6674471922.0884619        50687557.609838009       -4472014.3983114120     
  -5087907496.3974876       -30140772.394239902        694276274.62708104     
  -4939804441.4201841       -2998467.2927594185        675626155.87484574     
  -4795147168.9719534        12657896.045161247        661839355.83722818     
  -4653935679.0527830        16828317.619533062        652915874.51422632     
  -4516169971.6626806        9512797.4303460121        648855711.90584147     
  -5508472261.6672373       -17110787.547322273        531930428.75663716     
  -5351957158.0724344       -5939336.2525129318        516171520.05856454     
  -5196977733.2636347        113185.75562119484        505705680.92241722     
  -5043533987.2408400        1046778.4770700932        500532911.34819311     
  -4891625920.0040483       -3138558.0881557465        500653211.33589071     
  -5913087921.0389853        703929.06899619102        361357098.62892377     
  -5746932909.2629490       -3727115.5737478733        350717854.35192335     
  -5580403472.5298491       -6910077.0262875557        345801430.48415148     
  -5413499610.8396912       -8844955.2886292934        346607827.02561224     
  -5246221324.1924791       -9531750.3607809544        353137043.97630233     
  -6301754474.5127306        23303377.454708576        182556284.24394000     
  -6124731694.9917192        3638194.7435414791        179265158.75491557     
  -5945424386.7705898       -8411892.3005490303        182126604.52242845     
  -5763832549.8493376       -12846883.677575827        191140621.54648337     
  -5579956184.2279606       -9666779.3875145912        206307209.82707050     
  -6674471922.0884619        50687557.609838009       -4472014.3983114120     
  -6485353515.2587557        16156594.699352980        1813433.2675507646     
  -6292040475.9858570       -4392260.0671682358        14681203.037256921     
  -6094532804.2697773       -10959006.689746618        34131294.910803452     
  -5892830500.1105118       -3543645.1683752537        60163708.888199255     
  -4516169971.6626806        9512797.4303460121        648855711.90584147     
  -4377046596.5047064       -175485.32718920708        640118675.79779661     
  -4236310447.3223119       -4487854.6699979305        635982150.37059796     
  -4093961524.1154943       -3424310.5980627537        636446135.62425029     
  -3949999826.8842587        3015146.8886048794        641510631.55875087     
  -4891625920.0040483       -3138558.0881557465        500653211.33589071     
  -4740907578.2520609       -8472691.1891708374        500106084.32200700     
  -4589175675.6637497       -10428288.169102192        502872847.93270379     
  -4436430212.2391109       -9005349.0279560089        508953502.16797942     
  -4282671187.9781528       -4203873.7657301426        518348047.02782917     
  -5246221324.1924791       -9531750.3607809544        353137043.97630233     
  -5087584073.1501026       -11614550.996355534        360080744.00380111     
  -4928532474.4595070       -12316192.804512739        369051714.59960943     
  -4769066528.1206808       -11636675.785251617        380049955.76372224     
  -4609186234.1336250       -9575999.9385490417        393075467.49614722     
  -5579956184.2279606       -9666779.3875145912        206307209.82707050     
  -5417076081.1988373       -9601064.7487514019        220042654.84317368     
  -5254380843.7095833       -10151568.576223850        234518750.37131584     
  -5091870471.7601995       -11318290.869918585        249735496.41149074     
  -4929544965.3506775       -13101231.629843473        265692892.96371165     
  -5892830500.1105118       -3543645.1683752537        60163708.888199255     
  -5729383602.3982601       -2432232.4463548660        79991816.840124801     
  -5566720783.4139738       -3934415.4842107296        99273955.247817859     
  -5404842043.1576576       -8050194.2819724083        118010124.11128123     
  -5243747381.6293030       -14779568.839602709        136200323.43050972     
  -3949999826.8842587        3015146.8886048794        641510631.55875087     
  -3803648930.3432016        10627204.070810318        630663909.90472841     
  -3658610254.0446339        13865193.778034687        624218231.31148672     
  -3514883797.9885674        12729116.010264397        622173595.77903390     
  -3372469562.1750007        7218970.7674994469        624530003.30735493     
  -4282671187.9781528       -4203873.7657301426        518348047.02782917     
  -4124625299.1505966        2086559.2369377613        508626893.80094123     
  -3967459192.0139914        5444386.6030902863        503805835.62123930     
  -3811172866.5683503        5869608.3327069283        503884872.48872548     
  -3655766322.8136644        3362224.4257948399        508864004.40339482     
  -4609186234.1336250       -9575999.9385490417        393075467.49614722     
  -4438019490.2012711       -4179432.2699112892        384984394.33985591     
  -4267300089.4083338       -274008.39934682846        382292468.21715361     
  -4097028031.7548146        2140271.6731517315        384999689.12803668     
  -3927203317.2407241        3063407.9475789070        393106057.07251626     
  -4929544965.3506775       -13101231.629843473        265692892.96371165     
  -4743831503.4952240       -8170770.4497475624        259736411.52147162     
  -4558132946.2276583       -3289991.2292733192        259678129.09922320     
  -4372449293.5479736        1541106.0315921307        265518045.69697344     
  -4186780545.4561768        6322521.3328347206        277256161.31471217     
  -5243747381.6293030       -14779568.839602709        136200323.43050972     
  -5042061339.0324631       -9887455.3025763035        132882945.34578581     
  -4839957762.4719687       -3603561.8867022991        135962818.26745650     
  -4637436651.9478216        4072111.4080169201        145439942.19552276     
  -4434498007.4600210        13139564.581579924        161314317.12999192     
  -3372469562.1750007        7218970.7674994469        624530003.30735493     
  -3248786930.5481701       -4066936.2790359259        614050815.48159564     
  -3123895120.7982526       -11322249.581954837        604815844.28212750     
  -2997794132.9252429       -14546969.141230941        596825089.70895374     
  -2870483966.9291391       -13741094.956847548        590078551.76207483     
  -3655766322.8136644        3362224.4257948399        508864004.40339482     
  -3525273965.0863166       -6882112.7380816936        504907984.81960827     
  -3394075032.7770796       -14771201.295668125        504705637.17547011     
  -3262169525.8859591       -20305041.246966362        508256961.47097510     
  -3129557444.4129553       -23483632.591998219        515561957.70612621     
  -3927203317.2407241        3063407.9475789070        393106057.07251626     
  -3782731361.0889864       -3988397.6364653111        395086834.93262970     
  -3638055433.8965707       -10360299.751580954        403330740.04574007     
  -3493175535.6634779       -16052298.397769213        417837772.41185522     
  -3348091666.3897004       -21064393.575016022        438607932.03096688     
  -4186780545.4561768        6322521.3328347206        277256161.31471217     
  -4021159118.5561833        4614209.0257914066        284587365.82065380     
  -3855836324.1567192        1910455.0503156185        300691152.89295065     
  -3690812162.2577891       -1788740.5935997963        325567522.53159553     
  -3526086632.8593812       -6483377.9059269428        359216474.73658884     
  -4434498007.4600210        13139564.581579924        161314317.12999192     
  -4240557237.4879141        18925707.248665094        173409577.48368865     
  -4047417703.5575418        22041063.109995365        196786875.71708781     
  -3855079405.6689091        22485632.165523529        231446211.83018875     
  -3663542343.8219995        20259414.415287495        277387585.82300109     
  -2870483966.9291391       -13741094.956847548        590078551.76207483     
  -2748197019.2450604       -16198181.704579473        559200285.97433472     
  -2628277048.8742909       -26545192.830011725        518952618.29823750     
  -2510724055.8168249       -44782128.333118677        469335548.73377389     
  -2395538040.0726719       -70908988.213926792        410349077.28094876     
  -3129557444.4129553       -23483632.591998219        515561957.70612621     
  -3012939831.7303791       -32421527.190696478        504646599.01481086     
  -2897662395.3548980       -45826676.146352410        500235186.33015060     
  -2783725135.2865000       -63699079.458986640        502327719.65215248     
  -2671128051.5251918       -86038737.128544211        510924198.98080170     
  -3348091666.3897004       -21064393.575016022        438607932.03096688     
  -3191790966.1514387       -22877369.257534266        448853414.94332820     
  -3035803641.2140489       -25734929.276289225        481476191.75736976     
  -2880129691.5775232       -29637073.631253958        536476262.47308183     
  -2724769117.2418513       -34583802.322416663        613853627.09047496     
  -3526086632.8593812       -6483377.9059269428        359216474.73658884     
  -3284750422.5082283        12434292.094908476        391820733.75988567     
  -3042700786.4517241        33730047.780242920        462675634.57988518     
  -2799937724.6898661        57403889.150093794        571781177.19657755     
  -2556461237.2226458        83455816.204486847        719137361.60996437     
  -3663542343.8219995        20259414.415287495        277387585.82300109     
  -3291818200.8007550        73513456.866616488        333548555.46449208     
  -2918353831.0679350        132568255.02321970        443833514.79770416     
  -2543149234.6235547        197423808.88502383        608242463.82262802     
  -2166204411.4675775        268080118.45212936        826775402.53926957     
 </DataArray>
 <DataArray  type="Float64" Name="VM" NumberOfComponents="1" format="ascii">
   12935855285.436037     
   11340855841.413847     
   10210239015.636387     
   9272696261.5906525     
   8303797208.5529232     
   10130362006.218750     
   9322006457.8203259     
   8826304009.5296516     
   8443442503.9545345     
   8035616866.7960234     
   7982297357.3781586     
   7734895019.1599789     
   7669073906.2292070     
   7669538781.2664948     
   7666358730.1502647     
   6491576289.8108730     
   6586809725.0516024     
   6757383787.2606487     
   6961222092.0360937     
   7171664929.6486492     
   5657754934.0369711     
   5890909000.8685198     
   6116422666.9893742     
   6331838700.4929142     
   6536935428.3387413     
   8303797208.5529232     
   8020491223.9118528     
   7779226657.7897730     
   7569334202.7443905     
   7385837843.0057163     
   8035616866.7960234     
   7746659243.9282618     
   7473330478.7878504     
   7213677097.5343542     
   6967702191.6320276     
   7666358730.1502647     
   7381007836.6339502     
   7101025654.0622368     
   6826489466.1063089     
   6557600554.6167955     
   7171664929.6486492     
   6910969532.1456718     
   6658166382.9081326     
   6409395681.6234264     
   6161512828.4714947     
   6536935428.3387413     
   6328889571.5724049     
   6143043959.8093233     
   5965493078.2313995     
   5787232017.7944860     
   7385837843.0057163     
   7226005088.9750233     
   7058794611.4974527     
   6883513655.1130753     
   6699963998.0626478     
   6967702191.6320276     
   6813015776.1603909     
   6653875088.0112991     
   6490004031.7509203     
   6321351529.5660763     
   6557600554.6167955     
   6407015063.0210238     
   6254971633.4340687     
   6101445320.1740627     
   5946470256.2686701     
   6161512828.4714947     
   6012981649.7997828     
   5865948977.1317081     
   5720457762.3164444     
   5576571975.7526550     
   5787232017.7944860     
   5637345986.9980402     
   5491790383.2689629     
   5350482896.6362076     
   5213484074.6224194     
   6699963998.0626478     
   6493447652.0279989     
   6289896889.3207054     
   6089347646.3151789     
   5891981023.1204653     
   6321351529.5660763     
   6134414605.3851509     
   5949591572.2078247     
   5766930510.3938122     
   5586568900.4094429     
   5946470256.2686701     
   5777096269.1695004     
   5609021797.8403959     
   5442295937.2817335     
   5277029534.1576929     
   5576571975.7526550     
   5423190270.5479813     
   5270330211.5255594     
   5118018692.0997019     
   4966349005.4726181     
   5213484074.6224194     
   5075064249.3309021     
   4936434658.2123528     
   4797563549.2684355     
   4658528162.1958437     
   5891981023.1204653     
   5729843178.4375191     
   5567410485.2263861     
   5404687877.4174318     
   5241684453.3053436     
   5586568900.4094429     
   5425684466.4231386     
   5265005026.8931665     
   5104580797.6788692     
   4944469657.3729143     
   5277029534.1576929     
   5119915147.0362892     
   4963716443.0905809     
   4808528772.3978987     
   4654468500.4148626     
   4966349005.4726181     
   4815228629.9553785     
   4665986337.1049051     
   4518754678.8589134     
   4373710183.7394686     
   4658528162.1958437     
   4515199329.1261644     
   4375014824.5508013     
   4238125194.4185314     
   4104756461.0520520     
   5241684453.3053436     
   5042380451.1571770     
   4843884878.1715317     
   4646307987.7031059     
   4449862892.4779444     
   4944469657.3729143     
   4761053681.5622616     
   4578633902.3273916     
   4397334715.3304596     
   4217375318.1733360     
   4654468500.4148626     
   4485769146.6850471     
   4318231458.7657280     
   4151997768.6918612     
   3987300073.5388370     
   4373710183.7394686     
   4218678503.0675654     
   4064950540.6811705     
   3912689889.4348555     
   3762147888.2734942     
   4104756461.0520520     
   3962510711.8125138     
   3821687242.6014261     
   3682473456.9637523     
   3545146126.3303213     
   4449862892.4779444     
   4260651588.3088946     
   4072770572.1750317     
   3887097664.0714097     
   3704997327.6575251     
   4217375318.1733360     
   4053549750.8879657     
   3891797605.3051891     
   3732757389.8778558     
   3577370127.2268882     
   3987300073.5388370     
   3842169341.4337168     
   3699444502.1840439     
   3559525847.2541862     
   3422976288.5551229     
   3762147888.2734942     
   3628792893.3683085     
   3497715217.9596305     
   3369109546.1818204     
   3243239228.9557400     
   3545146126.3303213     
   3416517978.0477371     
   3289511497.0651827     
   3164170254.5805626     
   3040559563.0903563     
   3704997327.6575251     
   3378938967.9179668     
   3084187144.8892145     
   2849305399.2956071     
   2719503807.5680671     
   3577370127.2268882     
   3360231473.0700698     
   3162910958.4338913     
   2997412135.4251032     
   2882237275.6374483     
   3422976288.5551229     
   3274056116.8777337     
   3135937138.2167101     
   3012323419.6357212     
   2908914717.1137185     
   3243239228.9557400     
   3121727098.0201125     
   3002743099.5007286     
   2886670362.4614162     
   2774102018.4111772     
   3040559563.0903563     
   2906277645.0094500     
   2765269168.1786637     
   2618040021.2121043     
   2465547521.4632549     
   5657754934.0369711     
   5890909000.8685198     
   6116422666.9893742     
   6331838700.4929142     
   6536935428.3387413     
   5151438359.3651991     
   5311373160.6994562     
   5467940302.9205523     
   5618244516.9733906     
   5760820310.2574902     
   4643505060.7040529     
   4755625426.7909040     
   4868872043.8913116     
   4980608641.2317410     
   5088908806.4865961     
   4134217757.3122530     
   4224502254.6833558     
   4320711655.6233110     
   4421186426.4904671     
   4524469602.4263620     
   3625093806.7649078     
   3719825617.3158636     
   3825814883.9682169     
   3942994395.1045580     
   4071268209.5725384     
   6536935428.3387413     
   6328889571.5724049     
   6143043959.8093233     
   5965493078.2313995     
   5787232017.7944860     
   5760820310.2574902     
   5652449421.6741571     
   5560101700.8133440     
   5474718968.2424288     
   5390761705.9451904     
   5088908806.4865961     
   5054462437.2139454     
   5030558154.3474398     
   5011992276.5035334     
   4995562596.1368361     
   4524469602.4263620     
   4539516647.1590424     
   4559267864.6111040     
   4581246429.2025042     
   4603728348.3836288     
   4071268209.5725384     
   4112931047.4110794     
   4151978070.5433397     
   4187517756.5884075     
   4218822416.7239113     
   5787232017.7944860     
   5637345986.9980402     
   5491790383.2689629     
   5350482896.6362076     
   5213484074.6224194     
   5390761705.9451904     
   5250230834.3811808     
   5112982751.2640324     
   4979059773.1065378     
   4848558189.9894638     
   4995562596.1368361     
   4868714831.4644737     
   4745038024.0965939     
   4624494290.6017876     
   4507116726.2194414     
   4603728348.3836288     
   4495483172.7378368     
   4391348701.0053892     
   4290992877.3648114     
   4194311397.9766221     
   4218822416.7239113     
   4134524379.6610136     
   4056508739.1706185     
   3983899995.0197916     
   3916389045.5392761     
   5213484074.6224194     
   5075064249.3309021     
   4936434658.2123528     
   4797563549.2684355     
   4658528162.1958437     
   4848558189.9894638     
   4723567506.2007456     
   4599499305.2002821     
   4476424975.6801548     
   4354508143.4011030     
   4507116726.2194414     
   4395855622.4757252     
   4286723588.0352411     
   4179881371.9092631     
   4075566543.2394533     
   4194311397.9766221     
   4096869187.3200264     
   4002790100.0988708     
   3912300031.3602433     
   3825687730.6916308     
   3916389045.5392761     
   3832517671.3080783     
   3753207200.1330676     
   3678714306.9937668     
   3609347665.7126064     
   4658528162.1958437     
   4515199329.1261644     
   4375014824.5508013     
   4238125194.4185314     
   4104756461.0520520     
   4354508143.4011030     
   4224887306.8562775     
   4098616207.2912445     
   3975897555.5647883     
   3857006827.2465916     
   4075566543.2394533     
   3960456650.6744461     
   3849017757.8035750     
   3741507013.1357131     
   3638254806.1996264     
   3825687730.6916308     
   3726101570.6075673     
   3630629933.7254333     
   3539580406.6017699     
   3453336675.9583807     
   3609347665.7126064     
   3526447978.6921782     
   3448218897.7833099     
   3375004295.9580584     
   3307228474.6162820     
   4104756461.0520520     
   3962510711.8125138     
   3821687242.6014261     
   3682473456.9637523     
   3545146126.3303213     
   3857006827.2465916     
   3728389102.3697362     
   3602246637.7466874     
   3478861886.5972495     
   3358609254.4434161     
   3638254806.1996264     
   3523963616.0686040     
   3413265498.3657627     
   3306519522.3221064     
   3204172492.3999605     
   3453336675.9583807     
   3353845946.5256147     
   3259065399.1346579     
   3169396889.9184217     
   3085317763.6008010     
   3307228474.6162820     
   3222622989.4625411     
   3143759116.8922429     
   3071036070.6939597     
   3004910412.3614430     
   3545146126.3303213     
   3416517978.0477371     
   3289511497.0651827     
   3164170254.5805626     
   3040559563.0903563     
   3358609254.4434161     
   3237656160.0131202     
   3119059391.7351389     
   3002979619.5313497     
   2889616738.5127726     
   3204172492.3999605     
   3094610352.3326368     
   2988578860.2926736     
   2886389863.6551666     
   2788419713.1729922     
   3085317763.6008010     
   2990728266.0158477     
   2901227660.7166114     
   2817278928.8831787     
   2739429968.6023793     
   3004910412.3614430     
   2928373872.1281281     
   2858741043.6953788     
   2796579896.2068143     
   2742549486.3893294     
   3040559563.0903563     
   2906277645.0094500     
   2765269168.1786637     
   2618040021.2121043     
   2465547521.4632549     
   2889616738.5127726     
   2747238896.8171992     
   2600617314.8692241     
   2449616813.5507393     
   2294153017.2084918     
   2788419713.1729922     
   2654395230.6812186     
   2521632492.5254612     
   2390412831.8182058     
   2261086055.8249650     
   2739429968.6023793     
   2627554778.6988688     
   2524407223.9253354     
   2431069958.7251773     
   2348774676.6071844     
   2742549486.3893294     
   2662247697.5149722     
   2598591682.2563901     
   2553091598.0347528     
   2527335154.9439712     
   3625093806.7649078     
   3719825617.3158636     
   3825814883.9682169     
   3942994395.1045580     
   4071268209.5725384     
   3138085429.9728651     
   3255644061.9036679     
   3382626331.6600289     
   3518561603.8280306     
   3662990693.8377004     
   2694837597.3374987     
   2830617928.5955343     
   2973717454.2008829     
   3123054313.6745424     
   3277717768.8611174     
   2298840255.2397466     
   2449538103.3312082     
   2604965902.2625585     
   2763203629.3374410     
   2922823420.8929520     
   1955306279.3179128     
   2119359172.2741220     
   2284776758.1258554     
   2448603879.2251377     
   2608886196.0352740     
   4071268209.5725384     
   4112931047.4110794     
   4151978070.5433397     
   4187517756.5884075     
   4218822416.7239113     
   3662990693.8377004     
   3702579364.1174641     
   3740797314.0414605     
   3776749404.5586648     
   3809688733.7292471     
   3277717768.8611174     
   3321068150.6526446     
   3364643376.5785575     
   3407620393.7225595     
   3449320782.4958205     
   2922823420.8929520     
   2975782493.0998926     
   3030917181.6759391     
   3087541497.9253993     
   3145119564.4749746     
   2608886196.0352740     
   2676779931.8930492     
   2749103488.6694994     
   2825342227.1985154     
   2905139183.9610271     
   4218822416.7239113     
   4134524379.6610136     
   4056508739.1706185     
   3983899995.0197916     
   3916389045.5392761     
   3809688733.7292471     
   3756657906.7191687     
   3709466800.2494493     
   3667627516.5630345     
   3631038021.7984505     
   3449320782.4958205     
   3423056669.4883628     
   3401823810.8143926     
   3385387509.9383502     
   3373730804.8303480     
   3145119564.4749746     
   3141361540.4276342     
   3141244085.7381806     
   3144667695.5002255     
   3151620154.6946330     
   2905139183.9610271     
   2919916167.8074031     
   2936171318.5521102     
   2953855517.9849987     
   2972934290.8496714     
   3916389045.5392761     
   3832517671.3080783     
   3753207200.1330676     
   3678714306.9937668     
   3609347665.7126064     
   3631038021.7984505     
   3559930731.7609854     
   3493837954.7285943     
   3433015922.4710779     
   3377771690.2686553     
   3373730804.8303480     
   3315839497.5488620     
   3263533540.0349603     
   3217051291.3334727     
   3176682294.0672102     
   3151620154.6946330     
   3107200327.9397941     
   3069039664.5206809     
   3037333588.0347900     
   3012331466.1793594     
   2972934290.8496714     
   2941836049.6593580     
   2917745828.5301299     
   2900785914.2623968     
   2891139562.8625674     
   3609347665.7126064     
   3526447978.6921782     
   3448218897.7833099     
   3375004295.9580584     
   3307228474.6162820     
   3377771690.2686553     
   3309005157.7397799     
   3245585378.4693189     
   3187843217.3335109     
   3136171877.3963394     
   3176682294.0672102     
   3121298716.8315611     
   3071861507.5176039     
   3028663748.3849878     
   2992041432.0049191     
   3012331466.1793594     
   2969167175.1308117     
   2932428842.9885197     
   2902350350.3617001     
   2879190588.6019793     
   2891139562.8625674     
   2858501374.1599011     
   2832610691.9115329     
   2813630092.1356287     
   2801733632.2639112     
   3307228474.6162820     
   3222622989.4625411     
   3143759116.8922429     
   3071036070.6939597     
   3004910412.3614430     
   3136171877.3963394     
   3064043747.0858188     
   2998304578.0732708     
   2939342277.5360684     
   2887592082.5888653     
   2992041432.0049191     
   2932433321.8094826     
   2879873206.9056778     
   2834713619.9254241     
   2797342526.7491708     
   2879190588.6019793     
   2831723769.7906027     
   2791943871.8901458     
   2760144427.3474832     
   2736643027.4899096     
   2801733632.2639112     
   2765477910.9660583     
   2737503381.8301969     
   2718027655.5283909     
   2707284125.2828856     
   3004910412.3614430     
   2928373872.1281281     
   2858741043.6953788     
   2796579896.2068143     
   2742549486.3893294     
   2887592082.5888653     
   2826195138.6902680     
   2771942522.2715502     
   2725295046.9237356     
   2686766484.7091379     
   2797342526.7491708     
   2749339941.2654018     
   2708515409.0353961     
   2675211119.4847522     
   2649794015.8178692     
   2736643027.4899096     
   2699962701.0630774     
   2670287013.0426059     
   2647843789.6215768     
   2632868273.3218393     
   2707284125.2828856     
   2679579310.8382783     
   2658517934.6106873     
   2644231047.2579899     
   2636849295.9979630     
   2742549486.3893294     
   2662247697.5149722     
   2598591682.2563901     
   2553091598.0347528     
   2527335154.9439712     
   2686766484.7091379     
   2624011355.9795847     
   2575180486.7627754     
   2541184441.1720185     
   2522959564.1735539     
   2649794015.8178692     
   2600048482.2717729     
   2561459813.8380914     
   2534549689.8834124     
   2519844375.1879668     
   2632868273.3218393     
   2592265559.7295065     
   2560008253.0467744     
   2536383831.0412102     
   2521679050.4862509     
   2636849295.9979630     
   2602395180.8479767     
   2573436575.6274719     
   2550130196.3829913     
   2532635503.4612737     
   1955306279.3179128     
   2119359172.2741220     
   2284776758.1258554     
   2448603879.2251377     
   2608886196.0352740     
   1653752784.8769403     
   1820199573.3502831     
   1988339302.7199786     
   2155479150.9728632     
   2319863946.3659391     
   1393534739.9309292     
   1570893104.1162305     
   1749239808.4857113     
   1926573235.2037351     
   2101644716.5930846     
   1206966981.4889283     
   1398872938.9606216     
   1590327711.0880599     
   1780555197.7966487     
   1969097398.0995171     
   1136729061.9081740     
   1335005785.7310059     
   1533548803.2890470     
   1732358114.5822983     
   1931433719.6107595     
   2608886196.0352740     
   2676779931.8930492     
   2749103488.6694994     
   2825342227.1985154     
   2905139183.9610271     
   2319863946.3659391     
   2406809279.5421023     
   2496146697.6997142     
   2587483825.1922188     
   2680543647.1544676     
   2101644716.5930846     
   2205273906.4776917     
   2308795912.3762960     
   2411973562.5781302     
   2514639601.3777165     
   1969097398.0995171     
   2086135305.0810065     
   2200338423.0567589     
   2311631500.8712091     
   2419962298.6086650     
   1931433719.6107595     
   2057980296.9972346     
   2179156073.8001771     
   2294961050.0195847     
   2405395225.6554594     
   2905139183.9610271     
   2919916167.8074031     
   2936171318.5521102     
   2953855517.9849987     
   2972934290.8496714     
   2680543647.1544676     
   2702248305.8397169     
   2726413147.9733877     
   2753024351.0751123     
   2782076902.6674466     
   2514639601.3777165     
   2543092145.5358567     
   2575005982.3388538     
   2610384143.4300828     
   2649233423.9381590     
   2419962298.6086650     
   2453545367.5138927     
   2491585670.7884097     
   2534086815.9848084     
   2581053191.7380199     
   2405395225.6554594     
   2440980504.9424729     
   2482006220.8003874     
   2528472373.2292023     
   2580378962.2289166     
   2972934290.8496714     
   2941836049.6593580     
   2917745828.5301299     
   2900785914.2623968     
   2891139562.8625674     
   2782076902.6674466     
   2765309408.4147673     
   2755523698.0384049     
   2752801632.8018136     
   2757257887.5206404     
   2649233423.9381590     
   2644103220.6377463     
   2645674456.4739718     
   2653985822.4255409     
   2669089423.6687713     
   2581053191.7380199     
   2584283383.3491759     
   2593683652.0585485     
   2609263157.6169209     
   2631034091.8993406     
   2580378962.2289166     
   2588402738.7982936     
   2601857844.5195456     
   2620744279.3926749     
   2645062043.4176784     
   2891139562.8625674     
   2858501374.1599011     
   2832610691.9115329     
   2813630092.1356287     
   2801733632.2639112     
   2757257887.5206404     
   2733865234.6071758     
   2717677065.4609580     
   2708801039.5888290     
   2707350188.4622068     
   2669089423.6687713     
   2653069729.6911092     
   2644631924.5844312     
   2643829953.6516485     
   2650719488.9696631     
   2631034091.8993406     
   2619860150.8322444     
   2616564769.5915141     
   2621162469.0151753     
   2633668048.0420885     
   2645062043.4176784     
   2635729179.2888017     
   2634501363.7255607     
   2641378596.7279558     
   2656360878.2959857     
   2801733632.2639112     
   2765477910.9660583     
   2737503381.8301969     
   2718027655.5283909     
   2707284125.2828856     
   2707350188.4622068     
   2681959937.4829659     
   2664961044.6368718     
   2656484068.8436670     
   2656665709.6739364     
   2650719488.9696631     
   2633706287.7018828     
   2625078828.8536239     
   2624896691.3423491     
   2633221062.0775685     
   2633668048.0420885     
   2622140600.8681202     
   2618906216.9603086     
   2623979646.5102987     
   2637375841.0249128     
   2656360878.2959857     
   2647232688.6961722     
   2646249163.9388323     
   2653410304.0239668     
   2668716108.9515820     
   2707284125.2828856     
   2679579310.8382783     
   2658517934.6106873     
   2644231047.2579899     
   2636849295.9979630     
   2656665709.6739364     
   2636754982.5722632     
   2624116657.5957522     
   2618837414.3954420     
   2621001806.5340519     
   2633221062.0775685     
   2619591441.3263888     
   2613838458.5960312     
   2616005935.2074175     
   2626135792.2460361     
   2637375841.0249128     
   2628018906.2437434     
   2627142581.5578880     
   2634758994.2664843     
   2650879566.3211846     
   2668716108.9515820     
   2661240758.8144126     
   2662878085.2135859     
   2673628088.1490993     
   2693490767.6209531     
   2636849295.9979630     
   2602395180.8479767     
   2573436575.6274719     
   2550130196.3829913     
   2532635503.4612737     
   2621001806.5340519     
   2598504424.9221315     
   2583665564.8824410     
   2576605603.6721959     
   2577439614.4874954     
   2626135792.2460361     
   2614447897.5790896     
   2612476384.6592965     
   2620288092.2717934     
   2637942976.6827350     
   2650879566.3211846     
   2647851052.0171938     
   2656567635.4878621     
   2677049000.3651886     
   2709311704.7004600     
   2693490767.6209531     
   2696157350.3340926     
   2712692961.3250518     
   2743097600.5938239     
   2787371268.1404095     
   1136729061.9081740     
   1335005785.7310059     
   1533548803.2890470     
   1732358114.5822983     
   1931433719.6107595     
   1206966981.7974899     
   1398872939.0704372     
   1590327711.0141284     
   1780555197.5489893     
   1969097397.6835284     
   1393534740.3504570     
   1570893104.2593355     
   1749239808.3621566     
   1926573234.8257720     
   2101644715.9727168     
   1653752785.2636094     
   1820199573.4610972     
   1988339302.5582819     
   2155479150.5537167     
   2319863945.7121968     
   1955306279.5915952     
   2119359172.3072333     
   2284776757.9251051     
   2448603878.8152094     
   2608886195.4563918     
   1931433719.6107595     
   2057980296.9972346     
   2179156073.8001771     
   2294961050.0195847     
   2405395225.6554594     
   1969097397.6835284     
   2086135304.9881380     
   2200338423.2475529     
   2311631501.3105984     
   2419962299.2629547     
   2101644715.9727168     
   2205273906.3749681     
   2308795912.7112784     
   2411973563.2729878     
   2514639602.3547359     
   2319863945.7121968     
   2406809279.5128160     
   2496146698.1739864     
   2587483826.0428462     
   2680543648.2501426     
   2608886195.4563918     
   2676779932.0075922     
   2749103489.3145227     
   2825342228.1912899     
   2905139185.1071463     
   2405395225.6554594     
   2440980504.9424729     
   2482006220.8003874     
   2528472373.2292023     
   2580378962.2289166     
   2419962299.2629547     
   2453545367.7173276     
   2491585670.7708678     
   2534086815.9733567     
   2581053191.9588337     
   2514639602.3547359     
   2543092145.5890841     
   2575005981.9275923     
   2610384143.0144601     
   2649233423.9813676     
   2680543648.2501426     
   2702248305.3708115     
   2726413146.6157227     
   2753024349.5153160     
   2782076901.6043348     
   2905139185.1071463     
   2919916166.4752870     
   2936171315.6111135     
   2953855514.3282175     
   2972934287.3937697     
   2580378962.2289166     
   2588402738.7982936     
   2601857844.5195456     
   2620744279.3926749     
   2645062043.4176784     
   2581053191.9588337     
   2584283383.9169812     
   2593683652.2715521     
   2609263156.7755036     
   2631034089.3036695     
   2649233423.9813676     
   2644103222.2948527     
   2645674458.4159517     
   2653985823.3151975     
   2669089422.1502547     
   2782076901.6043348     
   2765309411.4647245     
   2755523703.3512483     
   2752801638.4925981     
   2757257891.6435494     
   2972934287.3937697     
   2941836054.1854010     
   2917745838.7963457     
   2900785927.9552755     
   2891139577.5461226     
   2645062043.4176784     
   2635729179.2888017     
   2634501363.7255607     
   2641378596.7279558     
   2656360878.2959857     
   2631034089.3036695     
   2619860147.9878116     
   2616564765.6800871     
   2621162463.2138548     
   2633668039.5211678     
   2669089422.1502547     
   2653069726.2842364     
   2644631917.4689870     
   2643829940.9983668     
   2650719468.9394989     
   2757257891.6435494     
   2733865234.5698195     
   2717677058.2667537     
   2708801022.2098289     
   2707350157.8425293     
   2891139577.5461226     
   2858501382.5662603     
   2832610689.7284636     
   2813630074.9647484     
   2801733595.6282439     
   2656360878.2959857     
   2647232688.6961722     
   2646249163.9388323     
   2653410304.0239668     
   2668716108.9515820     
   2633668039.5211678     
   2622140586.3227153     
   2618906199.0202618     
   2623979627.8109598     
   2637375824.2108226     
   2650719468.9394989     
   2633706254.7712841     
   2625078788.3257151     
   2624896648.5711670     
   2633221022.4730473     
   2707350157.8425293     
   2681959885.0064120     
   2664960978.2401695     
   2656483996.6348186     
   2656665639.9410973     
   2801733595.6282439     
   2765477840.4400926     
   2737503287.8371286     
   2718027548.8751688     
   2707284017.1855488     
   2668716108.9515820     
   2661240758.8144126     
   2662878085.2135859     
   2673628088.1490993     
   2693490767.6209531     
   2637375824.2108226     
   2628018897.4897780     
   2627142579.7166057     
   2634758998.1664677     
   2650879574.7683158     
   2633221022.4730473     
   2619591418.0654278     
   2613838449.4516473     
   2616005937.8910780     
   2626135804.4086590     
   2656665639.9410973     
   2636754937.9277005     
   2624116634.8413963     
   2618837410.2134624     
   2621001817.4845595     
   2707284017.1855488     
   2679579237.2139111     
   2658517891.4335465     
   2644231030.3045158     
   2636849300.8365107     
   2693490767.6209531     
   2696157350.3340926     
   2712692961.3250518     
   2743097600.5938239     
   2787371268.1404095     
   2650879574.7683158     
   2647851048.2046642     
   2656567621.7116652     
   2677048979.0083756     
   2709311678.2973824     
   2626135804.4086590     
   2614447888.2006269     
   2612476358.8180370     
   2620288055.2075224     
   2637942933.8932753     
   2621001817.4845595     
   2598504406.7262473     
   2583665525.9422112     
   2576605552.6496091     
   2577439560.4040985     
   2636849300.8365107     
   2602395149.0752645     
   2573436519.4321742     
   2550130128.3561020     
   2532635436.6820903     
   1955306279.5915952     
   2119359172.3072333     
   2284776757.9251051     
   2448603878.8152094     
   2608886195.4563918     
   2298840255.3831787     
   2449538103.2838936     
   2604965902.0165658     
   2763203628.8963499     
   2922823420.2710967     
   2694837597.3535581     
   2830617928.5003867     
   2973717453.9720120     
   3123054313.2958579     
   3277717768.3228951     
   3138085429.8482890     
   3255644061.7887726     
   3382626331.5180840     
   3518561603.6244216     
   3662990693.5398116     
   3625093806.4765043     
   3719825617.2055883     
   3825814883.9857121     
   3942994395.1975875     
   4071268209.6862068     
   2608886195.4563918     
   2676779932.0075922     
   2749103489.3145227     
   2825342228.1912899     
   2905139185.1071463     
   2922823420.2710967     
   2975782493.1314449     
   3030917182.3113647     
   3087541499.0996103     
   3145119566.1142888     
   3277717768.3228951     
   3321068150.5974698     
   3364643377.0548172     
   3407620394.7674589     
   3449320784.1406507     
   3662990693.5398116     
   3702579363.9606586     
   3740797314.1574473     
   3776749405.0694971     
   3809688734.7501831     
   4071268209.6862068     
   4112931047.1298833     
   4151978070.0691209     
   4187517756.1107607     
   4218822416.4198847     
   2905139185.1071463     
   2919916166.4752870     
   2936171315.6111135     
   2953855514.3282175     
   2972934287.3937697     
   3145119566.1142888     
   3141361538.9586639     
   3141244081.4149623     
   3144667688.5929127     
   3151620145.4876046     
   3449320784.1406507     
   3423056668.1791749     
   3401823806.3039637     
   3385387501.9841337     
   3373730793.1803713     
   3809688734.7501831     
   3756657905.9234257     
   3709466797.0058465     
   3667627510.2354064     
   3631038011.7080045     
   4218822416.4198847     
   4134524379.7583871     
   4056508738.7606506     
   3983899993.1898136     
   3916389041.3028798     
   2972934287.3937697     
   2941836054.1854010     
   2917745838.7963457     
   2900785927.9552755     
   2891139577.5461226     
   3151620145.4876046     
   3107200328.5887341     
   3069039674.5157447     
   3037333606.8220882     
   3012331493.1391988     
   3373730793.1803713     
   3315839495.1370392     
   3263533547.7408829     
   3217051310.0584421     
   3176682324.7419772     
   3631038011.7080045     
   3559930727.3106818     
   3493837957.8318796     
   3433015935.1495538     
   3377771714.6888285     
   3916389041.3028798     
   3832517665.9240556     
   3753207196.2087779     
   3678714307.3375196     
   3609347673.3964572     
   2891139577.5461226     
   2858501382.5662603     
   2832610689.7284636     
   2813630074.9647484     
   2801733595.6282439     
   3012331493.1391988     
   2969167201.8080807     
   2932428866.7952118     
   2902350368.6140828     
   2879190598.5343938     
   3176682324.7419772     
   3121298752.1696415     
   3071861546.6332068     
   3028663790.3439870     
   2992041475.8440790     
   3377771714.6888285     
   3309005189.6712317     
   3245585418.6423755     
   3187843266.5358491     
   3136171936.5038671     
   3609347673.3964572     
   3526447993.9324460     
   3448218922.7704306     
   3375004333.0887189     
   3307228526.5464816     
   2801733595.6282439     
   2765477840.4400926     
   2737503287.8371286     
   2718027548.8751688     
   2707284017.1855488     
   2879190598.5343938     
   2831723747.3421936     
   2791943821.7763658     
   2760144354.6379614     
   2736642937.6262903     
   2992041475.8440790     
   2932433338.6253796     
   2879873196.3224301     
   2834713581.7332973     
   2797342460.8930006     
   3136171936.5038671     
   3064043790.6268702     
   2998304601.3230267     
   2939342275.6111412     
   2887592050.3739767     
   3307228526.5464816     
   3222623044.8900509     
   3143759167.5762596     
   3071036107.8260164     
   3004910426.3986001     
   2707284017.1855488     
   2679579237.2139111     
   2658517891.4335465     
   2644231030.3045158     
   2636849300.8365107     
   2736642937.6262903     
   2699962642.4370260     
   2670286986.5282545     
   2647843795.9270592     
   2632868312.9603786     
   2797342460.8930006     
   2749339901.6229334     
   2708515401.1803527     
   2675211148.9734640     
   2649794088.1457758     
   2887592050.3739767     
   2826195123.9134583     
   2771942534.9020872     
   2725295097.2059102     
   2686766583.1283770     
   3004910426.3986001     
   2928373889.5167351     
   2858741078.3797522     
   2796579962.8371367     
   2742549600.3440819     
   2636849300.8365107     
   2602395149.0752645     
   2573436519.4321742     
   2550130128.3561020     
   2532635436.6820903     
   2632868312.9603786     
   2592265554.6104174     
   2560008194.0305080     
   2536383708.8910913     
   2521678855.9883337     
   2649794088.1457758     
   2600048516.4691491     
   2561459779.2594924     
   2534549554.4492698     
   2519844105.5351820     
   2686766583.1283770     
   2624011445.5351186     
   2575180514.8072014     
   2541184350.7698560     
   2522959294.2627053     
   2742549600.3440819     
   2662247860.8976216     
   2598591819.5016613     
   2553091624.0621352     
   2527334975.2050338     
   3625093806.4765043     
   3719825617.2055883     
   3825814883.9857121     
   3942994395.1975875     
   4071268209.6862068     
   4134217756.8972087     
   4224502254.5802307     
   4320711655.8108959     
   4421186426.9388256     
   4524469603.0991507     
   4643505060.2623672     
   4755625426.7079468     
   4868872044.1708479     
   4980608641.8576155     
   5088908807.4266281     
   5151438358.9979048     
   5311373160.6475210     
   5467940303.2113132     
   5618244517.6008596     
   5760820311.1867638     
   5657754933.8496819     
   5890909000.8585806     
   6116422667.2093353     
   6331838700.9480124     
   6536935428.9916620     
   4071268209.6862068     
   4112931047.1298833     
   4151978070.0691209     
   4187517756.1107607     
   4218822416.4198847     
   4524469603.0991507     
   4539516646.9754047     
   4559267863.6865053     
   4581246427.6440239     
   4603728346.2946377     
   5088908807.4266281     
   5054462437.0661335     
   5030558153.1712227     
   5011992274.3623142     
   4995562593.0912895     
   5760820311.1867638     
   5652449421.5233717     
   5560101699.6046591     
   5474718966.0262671     
   5390761702.7708092     
   6536935428.9916620     
   6328889571.3980742     
   6143043958.7977791     
   5965493076.4404230     
   5787232015.2928963     
   4218822416.4198847     
   4134524379.7583871     
   4056508738.7606506     
   3983899993.1898136     
   3916389041.3028798     
   4603728346.2946377     
   4495483173.3447323     
   4391348703.8594179     
   4290992882.0115952     
   4194311403.9239221     
   4995562593.0912895     
   4868714832.4519215     
   4745038029.0081997     
   4624494299.3239756     
   4507116738.6254473     
   5390761702.7708092     
   5250230835.5238953     
   5112982756.8452559     
   4979059783.2460442     
   4848558204.8085117     
   5787232015.2928963     
   5637345988.0038395     
   5491790388.0341854     
   5350482905.4227829     
   5213484087.7072392     
   3916389041.3028798     
   3832517665.9240556     
   3753207196.2087779     
   3678714307.3375196     
   3609347673.3964572     
   4194311403.9239221     
   4096869186.1798739     
   4002790092.9109015     
   3912300019.2921624     
   3825687715.0971093     
   4507116738.6254473     
   4395855624.2241659     
   4286723578.9179630     
   4179881351.7602034     
   4075566511.9799533     
   4848558204.8085117     
   4723567509.6209993     
   4599499296.0808916     
   4476424952.8525391     
   4354508105.6996422     
   5213484087.7072392     
   5075064253.3604555     
   4936434651.4081631     
   4797563529.7930546     
   4658528128.1733828     
   3609347673.3964572     
   3526447993.9324460     
   3448218922.7704306     
   3375004333.0887189     
   3307228526.5464816     
   3825687715.0971093     
   3726101555.1353297     
   3630629920.7885356     
   3539580398.7440629     
   3453336675.8852530     
   4075566511.9799533     
   3960456614.5484557     
   3849017719.6637735     
   3741506975.9099255     
   3638254772.9275174     
   4354508105.6996422     
   4224887261.2491932     
   4098616157.2561965     
   3975897504.6240306     
   3857006779.0365424     
   4658528128.1733828     
   4515199285.5941362     
   4375014775.7552958     
   4238125144.6434622     
   4104756414.7453589     
   3307228526.5464816     
   3222623044.8900509     
   3143759167.5762596     
   3071036107.8260164     
   3004910426.3986001     
   3453336675.8852530     
   3353845962.6747184     
   3259065424.8462548     
   3169396917.9746394     
   3085317786.0377069     
   3638254772.9275174     
   3523963611.6343794     
   3413265517.3510594     
   3306519558.7808003     
   3204172539.6775503     
   3857006779.0365424     
   3728389094.7606225     
   3602246666.2481074     
   3478861946.2236962     
   3358609339.5665922     
   4104756414.7453589     
   3962510716.4439039     
   3821687294.3288546     
   3682473551.4648261     
   3545146258.7053666     
   3004910426.3986001     
   2928373889.5167351     
   2858741078.3797522     
   2796579962.8371367     
   2742549600.3440819     
   3085317786.0377069     
   2990728275.0055127     
   2901227662.5973568     
   2817278930.8402400     
   2739429978.8516035     
   3204172539.6775503     
   3094610368.3943162     
   2988578843.6550207     
   2886389813.4228392     
   2788419629.1778855     
   3358609339.5665922     
   3237656200.5856657     
   3119059379.0042973     
   3002979544.9344506     
   2889616593.5930672     
   3545146258.7053666     
   3416518061.2169213     
   3289511516.2195897     
   3164170194.8673811     
   3040559409.2329559     
   2742549600.3440819     
   2662247860.8976216     
   2598591819.5016613     
   2553091624.0621352     
   2527334975.2050338     
   2739429978.8516035     
   2627554907.0813980     
   2524407452.1583748     
   2431070262.9824805     
   2348775026.8550596     
   2788419629.1778855     
   2654395282.6693931     
   2521632718.3963861     
   2390413270.9951601     
   2261086748.9318690     
   2889616593.5930672     
   2747238824.7874846     
   2600617394.8942556     
   2449617126.5305672     
   2294153643.1969266     
   3040559409.2329559     
   2906277399.4410081     
   2765268925.7908463     
   2618039863.8130765     
   2465547505.7421207     
   5657754933.8496819     
   5890909000.8585806     
   6116422667.2093353     
   6331838700.9480124     
   6536935428.9916620     
   6491576289.8338957     
   6586809725.0795765     
   6757383787.3609800     
   6961222092.2219677     
   7171664929.9102278     
   7982297357.5577555     
   7734895019.1633625     
   7669073906.1392469     
   7669538781.1362448     
   7666358730.0073795     
   10130362006.493181     
   9322006457.7573948     
   8826304009.1915836     
   8443442503.4366703     
   8035616866.1740961     
   12935855285.738155     
   11340855841.252836     
   10210239015.002970     
   9272696260.5951939     
   8303797207.3160582     
   6536935428.9916620     
   6328889571.3980742     
   6143043958.7977791     
   5965493076.4404230     
   5787232015.2928963     
   7171664929.9102278     
   6910969532.0419140     
   6658166382.3914766     
   6409395680.6812925     
   6161512827.1121540     
   7666358730.0073795     
   7381007836.6652088     
   7101025654.1937017     
   6826489466.2807674     
   6557600554.7941313     
   8035616866.1740961     
   7746659244.1367035     
   7473330479.7317820     
   7213677099.1273813     
   6967702193.7921400     
   8303797207.3160582     
   8020491224.3139429     
   7779226659.7166834     
   7569334206.0835724     
   7385837847.6269302     
   5787232015.2928963     
   5637345988.0038395     
   5491790388.0341854     
   5350482905.4227829     
   5213484087.7072392     
   6161512827.1121540     
   6012981650.2050142     
   5865948979.5417109     
   5720457766.9863310     
   5576571982.9604836     
   6557600554.7941313     
   6407015062.8504248     
   6254971633.1261320     
   6101445319.9550009     
   5946470256.3888245     
   6967702193.7921400     
   6813015775.5029917     
   6653875084.7042236     
   6490004025.9691410     
   6321351521.4975471     
   7385837847.6269302     
   7226005087.9632463     
   7058794604.9702959     
   6883513643.1744833     
   6699963980.8022957     
   5213484087.7072392     
   5075064253.3604555     
   4936434651.4081631     
   4797563529.7930546     
   4658528128.1733828     
   5576571982.9604836     
   5423190273.1460342     
   5270330208.2367048     
   5118018681.5849915     
   4966348986.3046961     
   5946470256.3888245     
   5777096269.9176350     
   5609021798.4537573     
   5442295936.9230280     
   5277029531.8637533     
   6321351521.4975471     
   6134414603.7079792     
   5949591576.6832733     
   5766930520.6871986     
   5586568916.0326805     
   6699963980.8022957     
   6493447647.2271709     
   6289896897.2819433     
   6089347667.2178984     
   5891981056.9727364     
   4658528128.1733828     
   4515199285.5941362     
   4375014775.7552958     
   4238125144.6434622     
   4104756414.7453589     
   4966348986.3046961     
   4815228602.3494816     
   4665986303.9294662     
   4518754643.0390358     
   4373710148.3078575     
   5277029531.8637533     
   5119915138.0766640     
   4963716429.0836697     
   4808528754.9838324     
   4654468481.2606525     
   5586568916.0326805     
   5425684478.6245775     
   5265005036.1280231     
   5104580804.3681707     
   4944469661.8927612     
   5891981056.9727364     
   5729843214.1528549     
   5567410522.1586981     
   5404687914.8365364     
   5241684490.4002666     
   4104756414.7453589     
   3962510716.4439039     
   3821687294.3288546     
   3682473551.4648261     
   3545146258.7053666     
   4373710148.3078575     
   4218678518.0234141     
   4064950605.2759299     
   3912690002.7158718     
   3762148049.0976920     
   4654468481.2606525     
   4485769166.2461052     
   4318231518.3237495     
   4151997869.5411310     
   3987300217.1381445     
   4944469661.8927612     
   4761053701.3550177     
   4578633939.7587557     
   4397334772.9513741     
   4217375399.0321727     
   5241684490.4002666     
   5042380467.9642115     
   4843884877.3168144     
   4646307972.1400518     
   4449862865.9784050     
   3545146258.7053666     
   3416518061.2169213     
   3289511516.2195897     
   3164170194.8673811     
   3040559409.2329559     
   3762148049.0976920     
   3628793019.5775270     
   3497715295.9577475     
   3369109561.9158006     
   3243239167.6195321     
   3987300217.1381445     
   3842169470.7642894     
   3699444605.4380655     
   3559525911.5997071     
   3422976299.7660713     
   4217375399.0321727     
   4053549842.1415367     
   3891797697.5670061     
   3732757472.2056384     
   3577370186.5498013     
   4449862865.9784050     
   4260651599.9719000     
   4072770615.6784873     
   3887097731.2209196     
   3704997407.5195818     
   3040559409.2329559     
   2906277399.4410081     
   2765268925.7908463     
   2618039863.8130765     
   2465547505.7421207     
   3243239167.6195321     
   3121726772.8079805     
   3002742568.1292424     
   2886669687.8510308     
   2774101270.4986291     
   3422976299.7660713     
   3274055792.0450034     
   3135936512.7944674     
   3012322546.0256209     
   2908913668.6415243     
   3577370186.5498013     
   3360231235.8247957     
   3162910441.8884349     
   2997411371.0325441     
   2882236306.1376262     
   3704997407.5195818     
   3378938908.4945378     
   3084186937.7595854     
   2849305017.4971647     
   2719503178.1780596     
 </DataArray>
 <DataArray  type="Float64" Name="strain" NumberOfComponents="3" format="ascii">
  0.20348990181298524        0.0000000000000000       0.12540631621229134     
  0.18665837838602753       -2.7322264154345771E-002   7.4351819622655982E-002
  0.16982685495906982       -4.4672848554177122E-002   3.5132472331913404E-002
  0.15299533153211212       -5.2051753199494011E-002   7.7482743400637023E-003
  0.13616380810515438       -4.9458978090296465E-002  -7.8007743528932250E-003
  0.15985570261296064        0.0000000000000000        9.6452540374406426E-002
  0.15317757303459262       -2.1842876582861086E-002   6.2693116217633654E-002
  0.14649944345622462       -3.6172611043110647E-002   3.7405330459147415E-002
  0.13982131387785660       -4.2989203380748679E-002   2.0589183098947812E-002
  0.13314318429948860       -4.2292653595775179E-002   1.2244674137034735E-002
  0.12645592035753875        0.0000000000000000        7.4207420923957629E-002
  0.12656767372715422       -1.6363489011376395E-002   5.5284531568144543E-002
  0.12667942709676963       -2.7672373532044180E-002   4.1469769710011761E-002
  0.12679118046638507       -3.3926653562003341E-002   3.2763135349559283E-002
  0.12690293383600051       -3.5126329101253885E-002   2.9164628486787202E-002
  0.10329055504671962        0.0000000000000000        5.8670957860945006E-002
  0.10682868046371227       -1.0884101439891707E-002   5.2126065674188655E-002
  0.11036680588070491       -1.9172136020977708E-002   4.7325790084506401E-002
  0.11390493129769755       -2.4864103743258009E-002   4.4270131091898250E-002
  0.11744305671469020       -2.7960004606732602E-002   4.2959088696364181E-002
   9.0359606680503218E-002   0.0000000000000000        4.9843151185368514E-002
   9.3960593244266810E-002  -5.4047138684070167E-003   5.3217718535766033E-002
   9.7561579808030416E-002  -1.0671898509911237E-002   5.4973391582631412E-002
  0.10116256637179404       -1.5801553924512667E-002   5.5110170325964589E-002
  0.10476355293555761       -2.0793680112211298E-002   5.3628054765765647E-002
  0.13616380810515438       -4.9458978090296465E-002  -7.8007743528932250E-003
  0.13295639782858326       -4.2926742549444404E-002  -3.3876373570921464E-003
  0.12974898755201214       -3.8487265899797674E-002  -3.8999464012498194E-004
  0.12654157727544099       -3.6140548141356213E-002   1.1921537980081713E-003
  0.12333416699886987       -3.5886589274120140E-002   1.3588079573072787E-003
  0.13314318429948860       -4.2292653595775179E-002   1.2244674137034735E-002
  0.12890864385632966       -3.8429047218623155E-002   1.2190654672529954E-002
  0.12467410341317074       -3.5744469779725521E-002   1.1497869153683560E-002
  0.12043956297001185       -3.4238921279082388E-002   1.0166317580495509E-002
  0.11620502252685294       -3.3912401716693630E-002   8.1959999529659655E-003
  0.12690293383600051       -3.5126329101253885E-002   2.9164628486787202E-002
  0.12241799145074624       -3.3931351887801914E-002   2.5557182514927366E-002
  0.11793304906549194       -3.3001673659653452E-002   2.2087698713218321E-002
  0.11344810668023765       -3.2337294416808528E-002   1.8756177081660084E-002
  0.10896316429498337       -3.1938214159267148E-002   1.5562617620252725E-002
  0.11744305671469020       -2.7960004606732602E-002   4.2959088696364181E-002
  0.11348444061183291       -2.9433656556980645E-002   3.6711946170100200E-002
  0.10952582450897566       -3.0258877539581341E-002   3.1379494038479380E-002
  0.10556720840611841       -3.0435667554534657E-002   2.6961732301501836E-002
  0.10160859230326112       -2.9964026601840651E-002   2.3458660959167550E-002
  0.10476355293555761       -2.0793680112211298E-002   5.3628054765765647E-002
  0.10210799133958980       -2.4935961226159417E-002   4.5654945638048394E-002
   9.9452429743621937E-002  -2.7516081419509258E-002   3.9373255129466815E-002
   9.6796868147654147E-002  -2.8534040692260832E-002   3.4782983240020861E-002
   9.4141306551686274E-002  -2.7989839044414128E-002   3.1884129969710476E-002
  0.12333416699886987       -3.5886589274120140E-002   1.3588079573072787E-003
  0.12037428444628495       -3.6376564895505475E-002   6.5383790064282854E-004
  0.11741440189370002       -3.6261650602928575E-002   1.6008195973690742E-004
  0.11445451934111509       -3.5541846396389215E-002  -1.2245986541043613E-004
  0.11149463678853017       -3.4217152275887286E-002  -1.9378757479909803E-004
  0.11620502252685294       -3.3912401716693630E-002   8.1959999529659655E-003
  0.11344020646550017       -3.3983695414642051E-002   7.8563146776935572E-003
  0.11067539040414742       -3.3671586695010386E-002   7.6955482691268423E-003
  0.10791057434279465       -3.2976075557798502E-002   7.7137007272658278E-003
  0.10514575828144190       -3.1897162003006518E-002   7.9107720521106317E-003
  0.10896316429498337       -3.1938214159267148E-002   1.5562617620252725E-002
  0.10636111947580984       -3.1590825933778557E-002   1.5366729629990195E-002
  0.10375907465663632       -3.1081522787092142E-002   1.5317465257380578E-002
  0.10115702983746280       -3.0410304719207790E-002   1.5414824502423628E-002
   9.8554985018289271E-002  -2.9577171730125584E-002   1.5658807365119473E-002
  0.10160859230326112       -2.9964026601840651E-002   2.3458660959167550E-002
   9.9137023477213912E-002  -2.9197956452915071E-002   2.3185082757532692E-002
   9.6665454651166716E-002  -2.8491458879173939E-002   2.3025832924497787E-002
   9.4193885825119505E-002  -2.7844533880617132E-002   2.2980911460062679E-002
   9.1722316999072379E-002  -2.7257181457244706E-002   2.3050318364227423E-002
   9.4141306551686274E-002  -2.7989839044414128E-002   3.1884129969710476E-002
   9.1767918469712439E-002  -2.6805086972051598E-002   3.1311374060321050E-002
   8.9394530387738674E-002  -2.5901394971255758E-002   3.0820651270478699E-002
   8.7021142305764868E-002  -2.5278763042026448E-002   3.0411961600182988E-002
   8.4647754223791061E-002  -2.4937191184363855E-002   3.0085305049434352E-002
  0.11149463678853017       -3.4217152275887286E-002  -1.9378757479909803E-004
  0.10817000830920398       -3.2696044173011446E-002   7.8581970158364545E-005
  0.10484537982987774       -3.1386998019350257E-002   6.3618557563738243E-004
  0.10152075135055155       -3.0290013814903139E-002   1.4790232416369703E-003
   9.8196122871225311E-002  -2.9405091559670915E-002   2.6070949681582523E-003
  0.10514575828144190       -3.1897162003006518E-002   7.9107720521106317E-003
  0.10209705259141336       -3.0684295049212953E-002   7.7681567853845751E-003
   9.9048346901384754E-002  -2.9586923714996466E-002   7.8921530367325327E-003
   9.5999641211356165E-002  -2.8605048000357035E-002   8.2827608061546154E-003
   9.2950935521327605E-002  -2.7738667905294445E-002   8.9399800936506013E-003
   9.8554985018289271E-002  -2.9577171730125584E-002   1.5658807365119473E-002
   9.5763579575111224E-002  -2.8672545925414197E-002   1.5197773616347138E-002
   9.2972174131933163E-002  -2.7786849410642557E-002   1.4984728843201768E-002
   9.0180768688755047E-002  -2.6920082185810372E-002   1.5019673045683340E-002
   8.7389363245577042E-002  -2.6072244250918003E-002   1.5302606223791718E-002
   9.1722316999072379E-002  -2.7257181457244706E-002   2.3050318364227423E-002
   8.9169589260297638E-002  -2.6660796801615601E-002   2.2367432463046184E-002
   8.6616861521522939E-002  -2.5986775106288707E-002   2.1913912995044874E-002
   8.4064133782748296E-002  -2.5235116371263990E-002   2.1689759960223400E-002
   8.1511406043973514E-002  -2.4405820596541658E-002   2.1694973358581556E-002
   8.4647754223791061E-002  -2.4937191184363855E-002   3.0085305049434352E-002
   8.2315081646972613E-002  -2.4649047677816921E-002   2.9277133325481819E-002
   7.9982409070154165E-002  -2.4186700801934857E-002   2.8679705492261856E-002
   7.7649736493335716E-002  -2.3550150556717636E-002   2.8293021549774575E-002
   7.5317063916517268E-002  -2.2739396942165230E-002   2.8117081498020086E-002
   9.8196122871225311E-002  -2.9405091559670915E-002   2.6070949681582523E-003
   9.5477564961797934E-002  -2.8606380539657361E-002   3.4663124944990242E-003
   9.2759007052370474E-002  -2.7768030040867434E-002   4.3018714583591688E-003
   9.0040449142943083E-002  -2.6890040063301385E-002   5.1137718597381865E-003
   8.7321891233515636E-002  -2.5972410606958651E-002   5.9020136986364102E-003
   9.2950935521327605E-002  -2.7738667905294445E-002   8.9399800936506013E-003
   9.0236595798313363E-002  -2.6925362613308496E-002   9.5351821891331290E-003
   8.7522256075299176E-002  -2.6102711307898097E-002   1.0162479219923110E-002
   8.4807916352284962E-002  -2.5270713989063803E-002   1.0821871186020376E-002
   8.2093576629270804E-002  -2.4429370656805283E-002   1.1513358087424819E-002
   8.7389363245577042E-002  -2.6072244250918003E-002   1.5302606223791718E-002
   8.4734995206764335E-002  -2.5244344686959519E-002   1.5603499423063827E-002
   8.2080627167951642E-002  -2.4437392574928753E-002   1.5992241055431226E-002
   7.9426259129138949E-002  -2.3651387914826329E-002   1.6468831120894454E-002
   7.6771891090326227E-002  -2.2886330706651747E-002   1.7033269619453562E-002
   8.1511406043973514E-002  -2.4405820596541658E-002   2.1694973358581556E-002
   7.8972763187150685E-002  -2.3563326760610431E-002   2.1671264196290688E-002
   7.6434120330327801E-002  -2.2772073841959412E-002   2.1791156964883714E-002
   7.3895477473504931E-002  -2.2032061840588802E-002   2.2054651664360596E-002
   7.1356834616682074E-002  -2.1343290756498240E-002   2.2461748294721612E-002
   7.5317063916517268E-002  -2.2739396942165230E-002   2.8117081498020086E-002
   7.2949899739472496E-002  -2.1882308834261510E-002   2.7738476508814142E-002
   7.0582735562427723E-002  -2.1106755108989982E-002   2.7559226948280405E-002
   6.8215571385382964E-002  -2.0412735766351296E-002   2.7579332816418951E-002
   6.5848407208338178E-002  -1.9800250806344843E-002   2.7798794113229774E-002
   8.7321891233515636E-002  -2.5972410606958651E-002   5.9020136986364102E-003
   8.3984918084441751E-002  -2.5045515690502840E-002   5.7582612383145215E-003
   8.0647944935367921E-002  -2.4139729332597670E-002   5.8917222777638001E-003
   7.7310971786294119E-002  -2.3255051533242505E-002   6.3023968169841627E-003
   7.3973998637220206E-002  -2.2391482292437925E-002   6.9902848559757480E-003
   8.2093576629270804E-002  -2.4429370656805283E-002   1.1513358087424819E-002
   7.9023004293842875E-002  -2.3582977542085715E-002   1.1255244502751727E-002
   7.5952431958414973E-002  -2.2735830875868918E-002   1.1252719045599102E-002
   7.2881859622987030E-002  -2.1887930658154357E-002   1.1505781715967209E-002
   6.9811287287559143E-002  -2.1039276888942582E-002   1.2014432513855811E-002
   7.6771891090326227E-002  -2.2886330706651747E-002   1.7033269619453562E-002
   7.3946094196293805E-002  -2.2120439393668423E-002   1.6682657020476721E-002
   7.1120297302261312E-002  -2.1331932419140054E-002   1.6566007176770023E-002
   6.8294500408228875E-002  -2.0520809783066099E-002   1.6683320088333981E-002
   6.5468703514196397E-002  -1.9687071485446961E-002   1.7034595755167442E-002
   7.1356834616682074E-002  -2.1343290756498240E-002   2.2461748294721612E-002
   6.8754187791794527E-002  -2.0657901245251326E-002   2.2040498791489109E-002
   6.6151540966907049E-002  -1.9928033962411135E-002   2.1831586671276444E-002
   6.3548894142019516E-002  -1.9153688907977896E-002   2.1835011934083409E-002
   6.0946247317132031E-002  -1.8334866081951534E-002   2.2050774579910136E-002
   6.5848407208338178E-002  -1.9800250806344843E-002   2.7798794113229774E-002
   6.3447285080345112E-002  -1.9195363096834117E-002   2.7328769815789300E-002
   6.1046162952352073E-002  -1.8524135505682313E-002   2.7049457529118304E-002
   5.8645040824359035E-002  -1.7786568032889718E-002   2.6960857253216439E-002
   5.6243918696365969E-002  -1.6982660678456052E-002   2.7062968988083635E-002
   7.3973998637220206E-002  -2.2391482292437925E-002   6.9902848559757480E-003
   7.0770582490428002E-002  -2.1518214016118975E-002   7.5144139319516245E-003
   6.7567166343635798E-002  -2.0604439110221612E-002   8.5274317516444431E-003
   6.4363750196843567E-002  -1.9650157574745593E-002   1.0029338315054648E-002
   6.1160334050051390E-002  -1.8655369409690925E-002   1.2020133622182572E-002
   6.9811287287559143E-002  -2.1039276888942582E-002   1.2014432513855811E-002
   6.7042388322724522E-002  -2.0182697810543271E-002   1.2332119452598433E-002
   6.4273489357889901E-002  -1.9311021665266631E-002   1.3029952011538226E-002
   6.1504590393055281E-002  -1.8424248453113044E-002   1.4107930190676493E-002
   5.8735691428220660E-002  -1.7522378174082531E-002   1.5566053990011985E-002
   6.5468703514196397E-002  -1.9687071485446961E-002   1.7034595755167442E-002
   6.3025578607799920E-002  -1.8847181604967234E-002   1.7120430993974617E-002
   6.0582453701403458E-002  -1.8017604220311859E-002   1.7477668729460355E-002
   5.8139328795006988E-002  -1.7198339331480714E-002   1.8106308961624497E-002
   5.5696203888610546E-002  -1.6389386938473804E-002   1.9006351690467160E-002
   6.0946247317132031E-002  -1.8334866081951534E-002   2.2050774579910136E-002
   5.8720153345654280E-002  -1.7511665399391585E-002   2.1879348556080959E-002
   5.6494059374176522E-002  -1.6724186775356982E-002   2.1870581905410958E-002
   5.4267965402698813E-002  -1.5972430209848162E-002   2.2024474627899839E-002
   5.2041871431221062E-002  -1.5256395702865022E-002   2.2341026723547763E-002
   5.6243918696365969E-002  -1.6982660678456052E-002   2.7062968988083635E-002
   5.4126112536287518E-002  -1.6176149193815631E-002   2.6608872138916773E-002
   5.2008306376209096E-002  -1.5430769330401953E-002   2.6208691539389678E-002
   4.9890500216130645E-002  -1.4746521088215604E-002   2.5862427189502130E-002
   4.7772694056052223E-002  -1.4123404467256351E-002   2.5570079089253905E-002
   6.1160334050051390E-002  -1.8655369409690925E-002   1.2020133622182572E-002
   5.5231204763530828E-002  -1.7684317131233307E-002   1.4453769213791823E-002
   4.9302075477010432E-002  -1.6801243255548659E-002   1.9232781855638370E-002
   4.3372946190489980E-002  -1.6006147782635705E-002   2.6357171547722047E-002
   3.7443816903969473E-002  -1.5299030712495387E-002   3.5826938290043575E-002
   5.8735691428220660E-002  -1.7522378174082531E-002   1.5566053990011985E-002
   5.4808015568423574E-002  -1.6630992900374342E-002   1.6978898300180234E-002
   5.0880339708626460E-002  -1.5775674704189002E-002   2.0049272413558084E-002
   4.6952663848829387E-002  -1.4956423585525888E-002   2.4777176330145284E-002
   4.3024987989032315E-002  -1.4173239544385208E-002   3.1162610049941808E-002
   5.5696203888610546E-002  -1.6389386938473804E-002   1.9006351690467160E-002
   5.3082134208508824E-002  -1.5577668669515043E-002   1.9450316044444499E-002
   5.0468064528407158E-002  -1.4750106152829678E-002   2.0863962954603521E-002
   4.7853994848305506E-002  -1.3906699388415961E-002   2.3247292420943561E-002
   4.5239925168203743E-002  -1.3047448376275472E-002   2.6600304443465395E-002
   5.2041871431221062E-002  -1.5256395702865022E-002   2.2341026723547763E-002
   5.0053560683786705E-002  -1.4524344438656134E-002   2.1868022446584312E-002
   4.8065249936352382E-002  -1.3724537601469855E-002   2.1676853478773891E-002
   4.6076939188918059E-002  -1.2856975191306311E-002   2.1767519820117140E-002
   4.4088628441483715E-002  -1.1921657208165404E-002   2.2140021470613613E-002
   4.7772694056052223E-002  -1.4123404467256351E-002   2.5570079089253905E-002
   4.5722294994257229E-002  -1.3471020207797002E-002   2.4232017506599146E-002
   4.3671895932462290E-002  -1.2698969050110420E-002   2.2487943986069847E-002
   4.1621496870667282E-002  -1.1807250994196730E-002   2.0337858527665953E-002
   3.9571097808872358E-002  -1.0795866040055557E-002   1.7781761131387297E-002
   9.0359606680503218E-002   0.0000000000000000        4.9843151185368514E-002
   9.3960593244266810E-002  -5.4047138684070167E-003   5.3217718535766033E-002
   9.7561579808030416E-002  -1.0671898509911237E-002   5.4973391582631412E-002
  0.10116256637179404       -1.5801553924512667E-002   5.5110170325964589E-002
  0.10476355293555761       -2.0793680112211298E-002   5.3628054765765647E-002
   8.2423916232260475E-002   0.0000000000000000        4.4791141704937032E-002
   8.4635068984647621E-002  -4.5750631252864521E-003   4.8275110406004372E-002
   8.6846221737034754E-002  -9.0391715431366940E-003   5.0598305787850975E-002
   8.9057374489421914E-002  -1.3392325253550731E-002   5.1760727850476813E-002
   9.1268527241809061E-002  -1.7634524256528551E-002   5.1762376593881915E-002
   7.4244324675362322E-002   0.0000000000000000        4.0582070227359407E-002
   7.5523764600684440E-002  -3.7454123821658884E-003   4.4148865759629966E-002
   7.6803204526006558E-002  -7.4064445763621506E-003   4.7013008956991197E-002
   7.8082644451328662E-002  -1.0983096582588786E-002   4.9174499819443135E-002
   7.9362084376650779E-002  -1.4475368400845793E-002   5.0633338346985704E-002
   6.5820832009808775E-002   0.0000000000000000        3.7215936752635632E-002
   6.6626680092377280E-002  -2.9157616390453251E-003   4.0838984596642834E-002
   6.7432528174945786E-002  -5.7737176095876072E-003   4.4217501090052146E-002
   6.8238376257514277E-002  -8.5738679116268424E-003   4.7351486232863539E-002
   6.9044224340082755E-002  -1.1316212545163034E-002   5.0240940025077015E-002
   5.7153438235599832E-002   0.0000000000000000        3.4692741280765708E-002
   5.7943815459726128E-002  -2.0861108959247601E-003   3.8345466917042985E-002
   5.8734192683852438E-002  -4.1409906428130621E-003   4.2211782187033781E-002
   5.9524569907978747E-002  -6.1646392406649007E-003   4.6291687090738068E-002
   6.0314947132105043E-002  -8.1570566894802812E-003   5.0585181628155867E-002
  0.10476355293555761       -2.0793680112211298E-002   5.3628054765765647E-002
  0.10210799133958980       -2.4935961226159417E-002   4.5654945638048394E-002
   9.9452429743621937E-002  -2.7516081419509258E-002   3.9373255129466815E-002
   9.6796868147654147E-002  -2.8534040692260832E-002   3.4782983240020861E-002
   9.4141306551686274E-002  -2.7989839044414128E-002   3.1884129969710476E-002
   9.1268527241809061E-002  -1.7634524256528551E-002   5.1762376593881915E-002
   9.0066474813353642E-002  -2.1211405762765610E-002   4.6530861446453541E-002
   8.8864422384898223E-002  -2.3568606982957329E-002   4.2514946014914401E-002
   8.7662369956442804E-002  -2.4706127917103745E-002   3.9714630299264433E-002
   8.6460317527987385E-002  -2.4623968565204803E-002   3.8129914299503728E-002
   7.9362084376650779E-002  -1.4475368400845793E-002   5.0633338346985704E-002
   7.9137722212461376E-002  -1.7486850299371803E-002   4.7800936545293264E-002
   7.8913360048271944E-002  -1.9621132546405406E-002   4.5708315556243613E-002
   7.8688997884082498E-002  -2.0878215141946647E-002   4.4355475379836737E-002
   7.8464635719893122E-002  -2.1258098085995478E-002   4.3742416016072649E-002
   6.9044224340082755E-002  -1.1316212545163034E-002   5.0240940025077015E-002
   6.9321733536912927E-002  -1.3762294835977981E-002   4.9465170934567586E-002
   6.9599242733743086E-002  -1.5673658109853501E-002   4.8953363753454472E-002
   6.9876751930573258E-002  -1.7050302366789543E-002   4.8705518481737743E-002
   7.0154261127403431E-002  -1.7892227606786153E-002   4.8721635119417406E-002
   6.0314947132105043E-002  -8.1570566894802812E-003   5.0585181628155867E-002
   6.0618508786708367E-002  -1.0037739372584207E-002   5.1523564614276457E-002
   6.0922070441311683E-002  -1.1726183673301555E-002   5.2250090606546964E-002
   6.1225632095915028E-002  -1.3222389591632470E-002   5.2764759604967501E-002
   6.1529193750518331E-002  -1.4526357127576821E-002   5.3067571609537907E-002
   9.4141306551686274E-002  -2.7989839044414128E-002   3.1884129969710476E-002
   9.1767918469712439E-002  -2.6805086972051598E-002   3.1311374060321050E-002
   8.9394530387738674E-002  -2.5901394971255758E-002   3.0820651270478699E-002
   8.7021142305764868E-002  -2.5278763042026448E-002   3.0411961600182988E-002
   8.4647754223791061E-002  -2.4937191184363855E-002   3.0085305049434352E-002
   8.6460317527987385E-002  -2.4623968565204803E-002   3.8129914299503728E-002
   8.4214413281331307E-002  -2.3987824370808871E-002   3.7091530985180726E-002
   8.1968509034675230E-002  -2.3463390777464198E-002   3.6226082221946253E-002
   7.9722604788019152E-002  -2.3050667785170835E-002   3.5533568009800273E-002
   7.7476700541363075E-002  -2.2749655393928758E-002   3.5013988348742822E-002
   7.8464635719893122E-002  -2.1258098085995478E-002   4.3742416016072649E-002
   7.6437116740096345E-002  -2.1170561769566103E-002   4.2407754767331447E-002
   7.4409597760299553E-002  -2.1025386583672683E-002   4.1336929501220351E-002
   7.2382078780502804E-002  -2.0822572528315195E-002   4.0529940217739334E-002
   7.0354559800706012E-002  -2.0562119603493703E-002   3.9986786916888478E-002
   7.0154261127403431E-002  -1.7892227606786153E-002   4.8721635119417406E-002
   6.8436028846007552E-002  -1.8353299168323369E-002   4.7260045406773282E-002
   6.6717796564611687E-002  -1.8587382389881155E-002   4.6153193108300863E-002
   6.4999564283215835E-002  -1.8594477271459596E-002   4.5401078224000135E-002
   6.3281332001819957E-002  -1.8374583813058655E-002   4.5003700753871098E-002
   6.1529193750518331E-002  -1.4526357127576821E-002   5.3067571609537907E-002
   6.0211149599064956E-002  -1.5536036567080601E-002   5.1648402903506190E-002
   5.8893105447611574E-002  -1.6149378196089623E-002   5.0674873043187837E-002
   5.7575061296158199E-002  -1.6366382014603938E-002   5.0146982028582726E-002
   5.6257017144704824E-002  -1.6187048022623579E-002   5.0064729859690876E-002
   8.4647754223791061E-002  -2.4937191184363855E-002   3.0085305049434352E-002
   8.2315081646972613E-002  -2.4649047677816921E-002   2.9277133325481819E-002
   7.9982409070154165E-002  -2.4186700801934857E-002   2.8679705492261856E-002
   7.7649736493335716E-002  -2.3550150556717636E-002   2.8293021549774575E-002
   7.5317063916517268E-002  -2.2739396942165230E-002   2.8117081498020086E-002
   7.7476700541363075E-002  -2.2749655393928758E-002   3.5013988348742822E-002
   7.5352390594902119E-002  -2.2441038163491168E-002   3.4402910130574720E-002
   7.3228080648441191E-002  -2.2005500653611149E-002   3.3997813282388989E-002
   7.1103770701980248E-002  -2.1443042864288893E-002   3.3798697804185499E-002
   6.8979460755519306E-002  -2.0753664795524207E-002   3.3805563695964325E-002
   7.0354559800706012E-002  -2.0562119603493703E-002   3.9986786916888478E-002
   6.8433849963852225E-002  -2.0233028649165416E-002   3.9525519114612093E-002
   6.6513140126998438E-002  -1.9824300505287551E-002   3.9265470161567680E-002
   6.4592430290144637E-002  -1.9335935171860205E-002   3.9206640057755149E-002
   6.2671720453290850E-002  -1.8767932648883254E-002   3.9349028803174708E-002
   6.3281332001819957E-002  -1.8374583813058655E-002   4.5003700753871098E-002
   6.1559459753822897E-002  -1.8025019134839664E-002   4.4644960277593647E-002
   5.9837587505825893E-002  -1.7643100356963939E-002   4.4482676129797713E-002
   5.8115715257828847E-002  -1.7228827479431462E-002   4.4516848310483519E-002
   5.6393843009831801E-002  -1.6782200502242293E-002   4.4747476819650765E-002
   5.6257017144704824E-002  -1.6187048022623579E-002   5.0064729859690876E-002
   5.4729219964814196E-002  -1.5817009620513911E-002   4.9761233619519535E-002
   5.3201422784923555E-002  -1.5461900208640272E-002   4.9649431187079374E-002
   5.1673625605032920E-002  -1.5121719787002781E-002   4.9729322562370462E-002
   5.0145828425142286E-002  -1.4796468355601305E-002   5.0000907745392675E-002
   7.5317063916517268E-002  -2.2739396942165230E-002   2.8117081498020086E-002
   7.2949899739472496E-002  -2.1882308834261510E-002   2.7738476508814142E-002
   7.0582735562427723E-002  -2.1106755108989982E-002   2.7559226948280405E-002
   6.8215571385382964E-002  -2.0412735766351296E-002   2.7579332816418951E-002
   6.5848407208338178E-002  -1.9800250806344843E-002   2.7798794113229774E-002
   6.8979460755519306E-002  -2.0753664795524207E-002   3.3805563695964325E-002
   6.6812674649018786E-002  -2.0024550565619817E-002   3.3393353037502210E-002
   6.4645888542518307E-002  -1.9342884292878282E-002   3.3182543091456421E-002
   6.2479102436017821E-002  -1.8708665977299546E-002   3.3173133857826970E-002
   6.0312316329517307E-002  -1.8121895618883721E-002   3.3365125336613816E-002
   6.2671720453290850E-002  -1.8767932648883254E-002   3.9349028803174708E-002
   6.0707357701078671E-002  -1.8166792296978207E-002   3.8937298900926051E-002
   5.8742994948866499E-002  -1.7579013476766391E-002   3.8729014994837704E-002
   5.6778632196654300E-002  -1.7004596188247911E-002   3.8724177084909814E-002
   5.4814269444442149E-002  -1.6443540431422654E-002   3.8922785171142130E-002
   5.6393843009831801E-002  -1.6782200502242293E-002   4.4747476819650765E-002
   5.4633948895651999E-002  -1.6309034028336541E-002   4.4370314099085172E-002
   5.2874054781472231E-002  -1.5815142660654542E-002   4.4198642658423916E-002
   5.1114160667292449E-002  -1.5300526399196246E-002   4.4232462497667109E-002
   4.9354266553112640E-002  -1.4765185243961587E-002   4.4471773616814578E-002
   5.0145828425142286E-002  -1.4796468355601305E-002   5.0000907745392675E-002
   4.8592448232738950E-002  -1.4451275759694904E-002   4.9692398631979634E-002
   4.7039068040335572E-002  -1.4051271844542697E-002   4.9591426082215131E-002
   4.5485687847932214E-002  -1.3596456610144568E-002   4.9697990096099064E-002
   4.3932307655528829E-002  -1.3086830056500520E-002   5.0012090673631326E-002
   6.5848407208338178E-002  -1.9800250806344843E-002   2.7798794113229774E-002
   6.3447285080345112E-002  -1.9195363096834117E-002   2.7328769815789300E-002
   6.1046162952352073E-002  -1.8524135505682313E-002   2.7049457529118304E-002
   5.8645040824359035E-002  -1.7786568032889718E-002   2.6960857253216439E-002
   5.6243918696365969E-002  -1.6982660678456052E-002   2.7062968988083635E-002
   6.0312316329517307E-002  -1.8121895618883721E-002   3.3365125336613816E-002
   5.8100877301299036E-002  -1.7536720135964773E-002   3.2987415165829814E-002
   5.5889438273080794E-002  -1.6907286446876515E-002   3.2798359183826259E-002
   5.3677999244862551E-002  -1.6233594551619147E-002   3.2797957390602983E-002
   5.1466560216644280E-002  -1.5515644450192767E-002   3.2986209786160042E-002
   5.4814269444442149E-002  -1.6443540431422654E-002   3.8922785171142130E-002
   5.2790455694009801E-002  -1.5878077175095429E-002   3.8615307451542638E-002
   5.0766641943577454E-002  -1.5290437388070725E-002   3.8494426098734789E-002
   4.8742828193145106E-002  -1.4680621070348744E-002   3.8560141112718355E-002
   4.6719014442712772E-002  -1.4048628221929399E-002   3.8812452493493341E-002
   4.9354266553112640E-002  -1.4765185243961587E-002   4.4471773616814578E-002
   4.7516020258477398E-002  -1.4219434214225973E-002   4.4212446672927910E-002
   4.5677773963842164E-002  -1.3673588329264876E-002   4.4137658273843826E-002
   4.3839527669206936E-002  -1.3127647589078258E-002   4.4247408419562304E-002
   4.2001281374571695E-002  -1.2581611993666017E-002   4.4541697110083669E-002
   4.3932307655528829E-002  -1.3086830056500520E-002   5.0012090673631326E-002
   4.2277570994701835E-002  -1.2560791253356740E-002   4.9778832829985575E-002
   4.0622834333874827E-002  -1.2056739270459083E-002   4.9728055709153451E-002
   3.8968097673047826E-002  -1.1574674107807645E-002   4.9859759311135260E-002
   3.7313361012220797E-002  -1.1114595765402691E-002   5.0173943635930918E-002
   5.6243918696365969E-002  -1.6982660678456052E-002   2.7062968988083635E-002
   5.4126112536287518E-002  -1.6176149193815631E-002   2.6608872138916773E-002
   5.2008306376209096E-002  -1.5430769330401953E-002   2.6208691539389678E-002
   4.9890500216130645E-002  -1.4746521088215604E-002   2.5862427189502130E-002
   4.7772694056052223E-002  -1.4123404467256351E-002   2.5570079089253905E-002
   5.1466560216644280E-002  -1.5515644450192767E-002   3.2986209786160042E-002
   4.9424182563687788E-002  -1.4792575217565385E-002   3.2535862117768544E-002
   4.7381804910731351E-002  -1.4103525928705535E-002   3.2182455213981540E-002
   4.5339427257774914E-002  -1.3448496583613211E-002   3.1925989074798967E-002
   4.3297049604818422E-002  -1.2827487182288266E-002   3.1766463700220571E-002
   4.6719014442712772E-002  -1.4048628221929399E-002   3.8812452493493341E-002
   4.4795089811843172E-002  -1.3409001241315291E-002   3.8392965683336971E-002
   4.2871165180973475E-002  -1.2776282527008999E-002   3.8113444152749747E-002
   4.0947240550103813E-002  -1.2150472079010649E-002   3.7973887901731729E-002
   3.9023315919234164E-002  -1.1531569897320015E-002   3.7974296930282841E-002
   4.2001281374571695E-002  -1.2581611993666017E-002   4.4541697110083669E-002
   4.0238834280753574E-002  -1.2025427265065287E-002   4.4180182835622035E-002
   3.8476387186935510E-002  -1.1449039125312522E-002   4.4001658355694216E-002
   3.6713940093117431E-002  -1.0852447574408005E-002   4.4006123670300462E-002
   3.4951492999299325E-002  -1.0235652612351848E-002   4.4193578779440745E-002
   3.7313361012220797E-002  -1.1114595765402691E-002   5.0173943635930918E-002
   3.5755415970419119E-002  -1.0641853288814895E-002   4.9897513574623520E-002
   3.4197470928617399E-002  -1.0121795723616003E-002   4.9847097822814795E-002
   3.2639525886815714E-002  -9.5544230698056017E-003   5.0022696380504925E-002
   3.1081580845014029E-002  -8.9397353273836799E-003   5.0424309247693810E-002
   4.7772694056052223E-002  -1.4123404467256351E-002   2.5570079089253905E-002
   4.5722294994257229E-002  -1.3471020207797002E-002   2.4232017506599146E-002
   4.3671895932462290E-002  -1.2698969050110420E-002   2.2487943986069847E-002
   4.1621496870667282E-002  -1.1807250994196730E-002   2.0337858527665953E-002
   3.9571097808872358E-002  -1.0795866040055557E-002   1.7781761131387297E-002
   4.3297049604818422E-002  -1.2827487182288266E-002   3.1766463700220571E-002
   4.0943536693072574E-002  -1.2184567671348817E-002   3.0831964501750964E-002
   3.8590023781326740E-002  -1.1463807997413353E-002   2.9697249541254078E-002
   3.6236510869580817E-002  -1.0665208160481787E-002   2.8362318818730053E-002
   3.3882997957835059E-002  -9.7887681605541843E-003   2.6827172334178639E-002
   3.9023315919234164E-002  -1.1531569897320015E-002   3.7974296930282841E-002
   3.6572485333384919E-002  -1.0898115134900799E-002   3.7401533380767085E-002
   3.4121654747535556E-002  -1.0228646944716452E-002   3.6834350245071673E-002
   3.1670824161686401E-002  -9.5231653267670371E-003   3.6272747523196217E-002
   2.9219993575836961E-002  -8.7816702810525893E-003   3.5716725215141576E-002
   3.4951492999299325E-002  -1.0235652612351848E-002   4.4193578779440745E-002
   3.2609140915194179E-002  -9.6116625984528081E-003   4.3940724143647567E-002
   3.0266788831089055E-002  -8.9934858920195232E-003   4.3899246097522319E-002
   2.7924436746983812E-002  -8.3811224930523572E-003   4.4069144641064706E-002
   2.5582084662878792E-002  -7.7745724015511608E-003   4.4450419774275440E-002
   3.1081580845014029E-002  -8.9397353273836799E-003   5.0424309247693810E-002
   2.9053503438500466E-002  -8.3252100620046510E-003   5.0449536790392380E-002
   2.7025426031986918E-002  -7.7583248393225113E-003   5.0891937098606399E-002
   2.4997348625473308E-002  -7.2390796593374621E-003   5.1751510172335868E-002
   2.2969271218959808E-002  -6.7674745220496213E-003   5.3028256011580677E-002
   5.7153438235599832E-002   0.0000000000000000        3.4692741280765708E-002
   5.7943815459726128E-002  -2.0861108959247601E-003   3.8345466917042985E-002
   5.8734192683852438E-002  -4.1409906428130621E-003   4.2211782187033781E-002
   5.9524569907978747E-002  -6.1646392406649007E-003   4.6291687090738068E-002
   6.0314947132105043E-002  -8.1570566894802812E-003   5.0585181628155867E-002
   4.8653968552062547E-002   0.0000000000000000        3.2789667523709279E-002
   4.9592771673289820E-002  -1.7112656001645526E-003   3.6965749731396269E-002
   5.0531574794517073E-002  -3.4362203133184773E-003   4.1225094099571660E-002
   5.1470377915744346E-002  -5.1748641394617698E-003   4.5567700628235466E-002
   5.2409181036971605E-002  -6.9271970785944326E-003   4.9993569317387659E-002
   4.0734248158523986E-002   0.0000000000000000        3.1283899193425974E-002
   4.1691149703627105E-002  -1.3364203044043442E-003   3.5938417710496828E-002
   4.2648051248730237E-002  -2.7314499838238899E-003   4.0545870914831021E-002
   4.3604952793833349E-002  -4.1850890382586371E-003   4.5106258806428504E-002
   4.4561854338936474E-002  -5.6973374677085874E-003   4.9619581385289303E-002
   3.3394277054984142E-002   0.0000000000000000        3.0175436289915793E-002
   3.4238949550738029E-002  -9.6157500864413586E-004   3.5263470854344711E-002
   3.5083622046491909E-002  -2.0266796543293038E-003   4.0174112632811843E-002
   3.5928294542245789E-002  -3.1953139370555052E-003   4.4907361625317173E-002
   3.6772967037999670E-002  -4.4674778568227387E-003   4.9463217831860709E-002
   2.6634055241443015E-002   0.0000000000000000        2.9464278813178736E-002
   2.7236171214622552E-002  -5.8672971288392748E-004   3.4940909162939876E-002
   2.7838287187802093E-002  -1.3219093248347177E-003   4.0109819253514110E-002
   2.8440403160981634E-002  -2.2055388358523699E-003   4.4971009084901474E-002
   2.9042519134161178E-002  -3.2376182459368909E-003   4.9524478657101918E-002
   6.0314947132105043E-002  -8.1570566894802812E-003   5.0585181628155867E-002
   6.0618508786708367E-002  -1.0037739372584207E-002   5.1523564614276457E-002
   6.0922070441311683E-002  -1.1726183673301555E-002   5.2250090606546964E-002
   6.1225632095915028E-002  -1.3222389591632470E-002   5.2764759604967501E-002
   6.1529193750518331E-002  -1.4526357127576821E-002   5.3067571609537907E-002
   5.2409181036971605E-002  -6.9271970785944326E-003   4.9993569317387659E-002
   5.2539520672189560E-002  -8.5927398979959609E-003   5.1218780542490350E-002
   5.2669860307407522E-002  -1.0071013364945789E-002   5.2309404722672349E-002
   5.2800199942625491E-002  -1.1362017479443983E-002   5.3265441857933693E-002
   5.2930539577843438E-002  -1.2465752241490498E-002   5.4086891948274325E-002
   4.4561854338936474E-002  -5.6973374677085874E-003   4.9619581385289303E-002
   4.4596241903698458E-002  -7.1477404234077269E-003   5.1126651819439220E-002
   4.4630629468460435E-002  -8.4158430565900305E-003   5.2576405157597844E-002
   4.4665017033222405E-002  -9.5016453672554946E-003   5.3968841399765197E-002
   4.4699404597984403E-002  -1.0405147355404151E-002   5.5303960545941208E-002
   3.6772967037999670E-002  -4.4674778568227387E-003   4.9463217831860709E-002
   3.6788672481235046E-002  -5.7027409488194921E-003   5.1247178445123061E-002
   3.6804377924470409E-002  -6.7606727482342616E-003   5.3051091911323484E-002
   3.6820083367705793E-002  -7.6412732550670244E-003   5.4874958230461957E-002
   3.6835788810941163E-002  -8.3445424693178016E-003   5.6718777402538556E-002
   2.9042519134161178E-002  -3.2376182459368909E-003   4.9524478657101918E-002
   2.9116812404799325E-002  -4.2577414742312521E-003   5.1580360419541824E-002
   2.9191105675437468E-002  -5.1055024398785056E-003   5.3733464983849198E-002
   2.9265398946075612E-002  -5.7809011428785403E-003   5.5983792350024077E-002
   2.9339692216713759E-002  -6.2839375832314803E-003   5.8331342518066348E-002
   6.1529193750518331E-002  -1.4526357127576821E-002   5.3067571609537907E-002
   6.0211149599064956E-002  -1.5536036567080601E-002   5.1648402903506190E-002
   5.8893105447611574E-002  -1.6149378196089623E-002   5.0674873043187837E-002
   5.7575061296158199E-002  -1.6366382014603938E-002   5.0146982028582726E-002
   5.6257017144704824E-002  -1.6187048022623579E-002   5.0064729859690876E-002
   5.2930539577843438E-002  -1.2465752241490498E-002   5.4086891948274325E-002
   5.2007258891466686E-002  -1.3319518061635185E-002   5.3338870225345128E-002
   5.1083978205089919E-002  -1.3860615350427945E-002   5.2934736586855866E-002
   5.0160697518713174E-002  -1.4089044107868747E-002   5.2874491032806586E-002
   4.9237416832336400E-002  -1.4004804333957677E-002   5.3158133563197263E-002
   4.4699404597984403E-002  -1.0405147355404151E-002   5.5303960545941208E-002
   4.4069136615410898E-002  -1.1102999556189801E-002   5.5143416526971772E-002
   4.3438868632837420E-002  -1.1571852504766271E-002   5.5225009831168834E-002
   4.2808600650263935E-002  -1.1811706201133599E-002   5.5548740458532558E-002
   4.2178332667690437E-002  -1.1822560645291760E-002   5.6114608409062919E-002
   3.6835788810941163E-002  -8.3445424693178016E-003   5.6718777402538556E-002
   3.6396782770897605E-002  -8.8864810507444016E-003   5.7062041808385984E-002
   3.5957776730854034E-002  -9.2830896591045813E-003   5.7545692776126735E-002
   3.5518770690810483E-002  -9.5343682943984081E-003   5.8169730305760725E-002
   3.5079764650766933E-002  -9.6403169566258232E-003   5.8934154397287906E-002
   2.9339692216713759E-002  -6.2839375832314803E-003   5.8331342518066348E-002
   2.8990197357926784E-002  -6.6699625452990088E-003   5.9094746069587936E-002
   2.8640702499139817E-002  -6.9943268134428950E-003   5.9896785421729472E-002
   2.8291207640352849E-002  -7.2570303876632334E-003   6.0737460574490865E-002
   2.7941712781565875E-002  -7.4580732679599276E-003   6.1616771527872247E-002
   5.6257017144704824E-002  -1.6187048022623579E-002   5.0064729859690876E-002
   5.4729219964814196E-002  -1.5817009620513911E-002   4.9761233619519535E-002
   5.3201422784923555E-002  -1.5461900208640272E-002   4.9649431187079374E-002
   5.1673625605032920E-002  -1.5121719787002781E-002   4.9729322562370462E-002
   5.0145828425142286E-002  -1.4796468355601305E-002   5.0000907745392675E-002
   4.9237416832336400E-002  -1.4004804333957677E-002   5.3158133563197263E-002
   4.7904621797936184E-002  -1.3758103465451497E-002   5.2817124142308568E-002
   4.6571826763536016E-002  -1.3499148939107052E-002   5.2674425204669639E-002
   4.5239031729135820E-002  -1.3227940754924483E-002   5.2730036750280276E-002
   4.3906236694735645E-002  -1.2944478912903651E-002   5.2983958779140583E-002
   4.2178332667690437E-002  -1.1822560645291760E-002   5.6114608409062919E-002
   4.1047156454299107E-002  -1.1699197310389070E-002   5.5763268455531319E-002
   3.9915980240907797E-002  -1.1536397669573886E-002   5.5616855660767808E-002
   3.8784804027516467E-002  -1.1334161722846212E-002   5.5675370024772373E-002
   3.7653627814125158E-002  -1.1092489470206038E-002   5.5938811547544993E-002
   3.5079764650766933E-002  -9.6403169566258232E-003   5.8934154397287906E-002
   3.4156823933902916E-002  -9.6402911553266357E-003   5.8599666559187615E-002
   3.3233883217038920E-002  -9.5736464000407070E-003   5.8476722555373839E-002
   3.2310942500174918E-002  -9.4403826907679279E-003   5.8565322385846684E-002
   3.1388001783310936E-002  -9.2405000275084040E-003   5.8865466050605927E-002
   2.7941712781565875E-002  -7.4580732679599276E-003   6.1616771527872247E-002
   2.7233624236747619E-002  -7.5813850002642291E-003   6.1326318453277587E-002
   2.6525535691929364E-002  -7.6108951305075244E-003   6.1254025888487877E-002
   2.5817447147111108E-002  -7.5466036586896773E-003   6.1399893833503166E-002
   2.5109358602292853E-002  -7.3885105848107702E-003   6.1763922288323392E-002
   5.0145828425142286E-002  -1.4796468355601305E-002   5.0000907745392675E-002
   4.8592448232738950E-002  -1.4451275759694904E-002   4.9692398631979634E-002
   4.7039068040335572E-002  -1.4051271844542697E-002   4.9591426082215131E-002
   4.5485687847932214E-002  -1.3596456610144568E-002   4.9697990096099064E-002
   4.3932307655528829E-002  -1.3086830056500520E-002   5.0012090673631326E-002
   4.3906236694735645E-002  -1.2944478912903651E-002   5.2983958779140583E-002
   4.2557349576810378E-002  -1.2634204230700163E-002   5.2707480697239878E-002
   4.1208462458885105E-002  -1.2282557525969705E-002   5.2632452200646954E-002
   3.9859575340959852E-002  -1.1889538798712148E-002   5.2758873289361866E-002
   3.8510688223034564E-002  -1.1455148048927444E-002   5.3086743963384392E-002
   3.7653627814125158E-002  -1.1092489470206038E-002   5.5938811547544993E-002
   3.6503146792337293E-002  -1.0817132701705451E-002   5.5680925200437860E-002
   3.5352665770549435E-002  -1.0513843207396682E-002   5.5618401460297659E-002
   3.4202184748761612E-002  -1.0182620987279643E-002   5.5751240327124640E-002
   3.3051703726973712E-002  -9.8234660413543951E-003   5.6079441800918672E-002
   3.1388001783310936E-002  -9.2405000275084040E-003   5.8865466050605927E-002
   3.0429839879319753E-002  -9.0000611727106827E-003   5.8612732141573427E-002
   2.9471677975328587E-002  -8.7451288888237017E-003   5.8549273861167282E-002
   2.8513516071337439E-002  -8.4757031758471817E-003   5.8675091209387562E-002
   2.7555354167346266E-002  -8.1917840337813602E-003   5.8990184186234099E-002
   2.5109358602292853E-002  -7.3885105848107702E-003   6.1763922288323392E-002
   2.4337428837757705E-002  -7.1829896437159563E-003   6.1502901520646691E-002
   2.3565499073222543E-002  -6.9764145702506802E-003   6.1425069403255733E-002
   2.2793569308687374E-002  -6.7687853644147651E-003   6.1530425936150449E-002
   2.2021639544152219E-002  -6.5601020262082699E-003   6.1818971119330712E-002
   4.3932307655528829E-002  -1.3086830056500520E-002   5.0012090673631326E-002
   4.2277570994701835E-002  -1.2560791253356740E-002   4.9778832829985575E-002
   4.0622834333874827E-002  -1.2056739270459083E-002   4.9728055709153451E-002
   3.8968097673047826E-002  -1.1574674107807645E-002   4.9859759311135260E-002
   3.7313361012220797E-002  -1.1114595765402691E-002   5.0173943635930918E-002
   3.8510688223034564E-002  -1.1455148048927444E-002   5.3086743963384392E-002
   3.7043192207489514E-002  -1.1005388217297810E-002   5.2804570639098311E-002
   3.5575696191944443E-002  -1.0566262244505478E-002   5.2714397882562491E-002
   3.4108200176399373E-002  -1.0137770130549995E-002   5.2816225693776586E-002
   3.2640704160854295E-002  -9.7199118754318636E-003   5.3110054072740775E-002
   3.3051703726973712E-002  -9.8234660413543951E-003   5.6079441800918672E-002
   3.1780968201646879E-002  -9.4499851812390179E-003   5.5759705957401554E-002
   3.0510232676320023E-002  -9.0757852185516519E-003   5.5641490526570914E-002
   2.9239497150993193E-002  -8.7008661532922901E-003   5.5724795508426586E-002
   2.7968761625666326E-002  -8.3252279854610090E-003   5.6009620902968613E-002
   2.7555354167346266E-002  -8.1917840337813602E-003   5.8990184186234099E-002
   2.6490898977173896E-002  -7.8945821451801290E-003   5.8644238784895095E-002
   2.5426443787001513E-002  -7.5853081925979365E-003   5.8509333641178767E-002
   2.4361988596829136E-002  -7.2639621760345573E-003   5.8585468755085024E-002
   2.3297533406656759E-002  -6.9305440954902514E-003   5.8872644126613902E-002
   2.2021639544152219E-002  -6.5601020262082699E-003   6.1818971119330712E-002
   2.1172984534070599E-002  -6.3391791091213234E-003   6.1458169121579004E-002
   2.0324329523988958E-002  -6.0948311666441934E-003   6.1317927226386043E-002
   1.9475674513907321E-002  -5.8270581987769007E-003   6.1398245433751969E-002
   1.8627019503825698E-002  -5.5358602055193273E-003   6.1699123743676698E-002
   3.7313361012220797E-002  -1.1114595765402691E-002   5.0173943635930918E-002
   3.5755415970419119E-002  -1.0641853288814895E-002   4.9897513574623520E-002
   3.4197470928617399E-002  -1.0121795723616003E-002   4.9847097822814795E-002
   3.2639525886815714E-002  -9.5544230698056017E-003   5.0022696380504925E-002
   3.1081580845014029E-002  -8.9397353273836799E-003   5.0424309247693810E-002
   3.2640704160854295E-002  -9.7199118754318636E-003   5.3110054072740775E-002
   3.1300832426140485E-002  -9.2907482988647261E-003   5.2866677120374156E-002
   2.9960960691426675E-002  -8.8283402205626138E-003   5.2833432472684433E-002
   2.8621088956712830E-002  -8.3326876405255962E-003   5.3010320129671551E-002
   2.7281217221999013E-002  -7.8037905587534651E-003   5.3397340091335732E-002
   2.7968761625666326E-002  -8.3252279854610090E-003   5.6009620902968613E-002
   2.6831081193218483E-002  -7.9396433089143625E-003   5.5785226472666094E-002
   2.5693400760770698E-002  -7.5348847175092729E-003   5.5755082342218952E-002
   2.4555720328322914E-002  -7.1109522112454224E-003   5.5919188511626722E-002
   2.3418039895875063E-002  -6.6678457901229171E-003   5.6277544980889854E-002
   2.3297533406656759E-002  -6.9305440954902514E-003   5.8872644126613902E-002
   2.2346162271653147E-002  -6.5885383189639851E-003   5.8653161631499431E-002
   2.1394791136649549E-002  -6.2414292144558521E-003   5.8612047431418395E-002
   2.0443420001645913E-002  -5.8892167819653328E-003   5.8749301526370527E-002
   1.9492048866642339E-002  -5.5319010214927022E-003   5.9064923916355948E-002
   1.8627019503825698E-002  -5.5358602055193273E-003   6.1699123743676698E-002
   1.7846075661444430E-002  -5.2374333290138020E-003   6.1470482596873988E-002
   1.7065131819063176E-002  -4.9479737114025424E-003   6.1404327740282566E-002
   1.6284187976681901E-002  -4.6674813526853265E-003   6.1500659173902711E-002
   1.5503244134300653E-002  -4.3959562528621543E-003   6.1759476897733978E-002
   3.1081580845014029E-002  -8.9397353273836799E-003   5.0424309247693810E-002
   2.9053503438500466E-002  -8.3252100620046510E-003   5.0449536790392380E-002
   2.7025426031986918E-002  -7.7583248393225113E-003   5.0891937098606399E-002
   2.4997348625473308E-002  -7.2390796593374621E-003   5.1751510172335868E-002
   2.2969271218959808E-002  -6.7674745220496213E-003   5.3028256011580677E-002
   2.7281217221999013E-002  -7.8037905587534651E-003   5.3397340091335732E-002
   2.5633783683483291E-002  -7.2719388692982223E-003   5.3285737368874930E-002
   2.3986350144967548E-002  -6.7674224662122306E-003   5.3518249616894276E-002
   2.2338916606451781E-002  -6.2902413494954137E-003   5.4094876835394032E-002
   2.0691483067936056E-002  -5.8403955191477230E-003   5.5015619024374018E-002
   2.3418039895875063E-002  -6.6678457901229171E-003   5.6277544980889854E-002
   2.2078192430322073E-002  -6.2186676765918769E-003   5.6049416749597292E-002
   2.0738344964769114E-002  -5.7765200931019361E-003   5.6092345693749976E-002
   1.9398497499216100E-002  -5.3414030396531954E-003   5.6406331813348233E-002
   1.8058650033663123E-002  -4.9133165162458248E-003   5.6991375108390974E-002
   1.9492048866642339E-002  -5.5319010214927022E-003   5.9064923916355948E-002
   1.8386729679016979E-002  -5.1653964838855454E-003   5.8740574932559804E-002
   1.7281410491391619E-002  -4.7856177199917041E-003   5.8614225329173833E-002
   1.6176091303766203E-002  -4.3925647298111176E-003   5.8685875106197716E-002
   1.5070772116140895E-002  -3.9862375133438710E-003   5.8955524263632056E-002
   1.5503244134300653E-002  -4.3959562528621543E-003   6.1759476897733978E-002
   1.4559395429567842E-002  -4.1121252911791029E-003   6.1359211917762169E-002
   1.3615546724835045E-002  -3.7947153468813888E-003   6.1083888523165264E-002
   1.2671698020102248E-002  -3.4437264199687970E-003   6.0933506713943431E-002
   1.1727849315369465E-002  -3.0591585104420282E-003   6.0908066490096724E-002
   2.6634055241443015E-002   0.0000000000000000        2.9464278813178736E-002
   2.7236171214622552E-002  -5.8672971288392748E-004   3.4940909162939876E-002
   2.7838287187802093E-002  -1.3219093248347177E-003   4.0109819253514110E-002
   2.8440403160981634E-002  -2.2055388358523699E-003   4.4971009084901474E-002
   2.9042519134161178E-002  -3.2376182459368909E-003   4.9524478657101918E-002
   2.0116666412366674E-002   0.0000000000000000        2.9015837145789820E-002
   2.0450359942872764E-002  -4.4004728392541773E-004   3.4307788328963744E-002
   2.0784053473378854E-002  -9.9143199284700088E-004   3.9370614885977651E-002
   2.1117747003884940E-002  -1.6541541267647486E-003   4.4204316816831554E-002
   2.1451440534391027E-002  -2.4282136856786703E-003   4.8808894121525427E-002
   1.3505194262221196E-002   0.0000000000000000        2.8695521670324069E-002
   1.3649060983080713E-002  -2.9336485496690668E-004   3.3839906160981474E-002
   1.3792927703940229E-002  -6.6095466085928055E-004   3.8833761658505744E-002
   1.3936794424799746E-002  -1.1027694176771238E-003   4.3677088162896886E-002
   1.4080661145659262E-002  -1.6188091254204389E-003   4.8369885674154886E-002
   6.7996387910065816E-003   0.0000000000000000        2.8503332386781481E-002
   6.8322743352464028E-003  -1.4668242600839499E-004   3.3537262658993060E-002
   6.8649098794862258E-003  -3.3047732887156282E-004   3.8499259571098392E-002
   6.8975454237260470E-003  -5.5138470858950416E-004   4.3389323123097463E-002
   6.9301809679658682E-003  -8.0940456516221120E-004   4.8207453314990288E-002
  -1.2771719445914265E-012   0.0000000000000000        2.8439269295162051E-002
  -6.3016605822419081E-013   2.9501149786947956E-012   3.3399857822998508E-002
   1.6841129185651837E-014   3.1161583730066056E-012   3.8367108623755593E-002
   6.6384766607419099E-013   4.9812411140326418E-013   4.3341021697433306E-002
   1.3108533356009922E-012  -4.9039860713917527E-012   4.8321597044031654E-002
   2.9042519134161178E-002  -3.2376182459368909E-003   4.9524478657101918E-002
   2.9116812404799325E-002  -4.2577414742312521E-003   5.1580360419541824E-002
   2.9191105675437468E-002  -5.1055024398785056E-003   5.3733464983849198E-002
   2.9265398946075612E-002  -5.7809011428785403E-003   5.5983792350024077E-002
   2.9339692216713759E-002  -6.2839375832314803E-003   5.8331342518066348E-002
   2.1451440534391027E-002  -2.4282136856786703E-003   4.8808894121525427E-002
   2.1594007577032091E-002  -3.1933061079689154E-003   5.1206943045584492E-002
   2.1736574619673148E-002  -3.8291268320156456E-003   5.3644316711781950E-002
   2.1879141662314205E-002  -4.3356758578188877E-003   5.6121015120117752E-002
   2.2021708704955272E-002  -4.7129531853786349E-003   5.8637038270591947E-002
   1.4080661145659262E-002  -1.6188091254204389E-003   4.8369885674154886E-002
   1.4233603900574142E-002  -2.1288707417065509E-003   5.1067011195429460E-002
   1.4386546655489024E-002  -2.5527512241528267E-003   5.3745563399113343E-002
   1.4539489410403903E-002  -2.8904505727592282E-003   5.6405542285206459E-002
   1.4692432165318785E-002  -3.1419687875257896E-003   5.9046947853708925E-002
   6.9301809679658682E-003  -8.0940456516221120E-004   4.8207453314990288E-002
   7.0356013754254787E-003  -1.0644353754442038E-003   5.1160564869076740E-002
   7.1410217828850927E-003  -1.2763756162899838E-003   5.4037205045843362E-002
   7.2464421903447049E-003  -1.4452252876995513E-003   5.6837373845290209E-002
   7.3518625978043163E-003  -1.5709843896729303E-003   5.9561071267417193E-002
   1.3108533356009922E-012  -4.9039860713917527E-012   4.8321597044031654E-002
   1.5861071137046601E-012  -9.1818471228966025E-012   5.1487604066526305E-002
   1.8613578560422450E-012  -8.4271528557472442E-012   5.4519241651972077E-002
   2.1366096825820025E-012  -2.6399034325740034E-012   5.7416509800368921E-002
   2.4118623764834979E-012   8.1798942619393245E-012   6.0179408511716874E-002
   2.9339692216713759E-002  -6.2839375832314803E-003   5.8331342518066348E-002
   2.8990197357926784E-002  -6.6699625452990088E-003   5.9094746069587936E-002
   2.8640702499139817E-002  -6.9943268134428950E-003   5.9896785421729472E-002
   2.8291207640352849E-002  -7.2570303876632334E-003   6.0737460574490865E-002
   2.7941712781565875E-002  -7.4580732679599276E-003   6.1616771527872247E-002
   2.2021708704955272E-002  -4.7129531853786349E-003   5.8637038270591947E-002
   2.1723034124937122E-002  -5.0024719045647648E-003   5.9455286378598093E-002
   2.1424359544918975E-002  -5.2457451052471994E-003   6.0336539243522003E-002
   2.1125684964900818E-002  -5.4427727874259363E-003   6.1280796865363633E-002
   2.0827010384882678E-002  -5.5935549511010457E-003   6.2288059244122909E-002
   1.4692432165318785E-002  -3.1419687875257896E-003   5.9046947853708925E-002
   1.4468946820367260E-002  -3.3349812638305311E-003   5.9904625342779697E-002
   1.4245461475415734E-002  -3.4971633970514882E-003   6.0849676545065998E-002
   1.4021976130464204E-002  -3.6285151871887082E-003   6.1882101460567884E-002
   1.3798490785512679E-002  -3.7290366342421430E-003   6.3001900089285232E-002
   7.3518625978043163E-003  -1.5709843896729303E-003   5.9561071267417193E-002
   7.2279354442172147E-003  -1.6674906230962992E-003   6.0442762962132711E-002
   7.1040082906301105E-003  -1.7485816888557987E-003   6.1436197326361561E-002
   6.9800811370430071E-003  -1.8142575869514179E-003   6.2541374360103735E-002
   6.8561539834559038E-003  -1.8645183173832645E-003   6.3758294063359242E-002
   2.4118623764834979E-012   8.1798942619393245E-012   6.0179408511716874E-002
  -3.5130171341379857E-012   1.7637960536553976E-011   6.1069699236657171E-002
  -9.4378966447594692E-012   1.9339909881899153E-011   6.2096101587408609E-002
  -1.5362777456423560E-011   1.3285821661573882E-011   6.3258615563971179E-002
  -2.1287655666002436E-011  -5.2438609010607706E-013   6.4557241166344870E-002
   2.7941712781565875E-002  -7.4580732679599276E-003   6.1616771527872247E-002
   2.7233624236747619E-002  -7.5813850002642291E-003   6.1326318453277587E-002
   2.6525535691929364E-002  -7.6108951305075244E-003   6.1254025888487877E-002
   2.5817447147111108E-002  -7.5466036586896773E-003   6.1399893833503166E-002
   2.5109358602292853E-002  -7.3885105848107702E-003   6.1763922288323392E-002
   2.0827010384882678E-002  -5.5935549511010457E-003   6.2288059244122909E-002
   2.0326797757611519E-002  -5.6860387548795382E-003   6.2155580776258809E-002
   1.9826585130340357E-002  -5.7081713573687194E-003   6.2220693633683946E-002
   1.9326372503069199E-002  -5.6599527585685693E-003   6.2483397816398376E-002
   1.8826159875798040E-002  -5.5413829584789187E-003   6.2943693324401903E-002
   1.3798490785512679E-002  -3.7290366342421430E-003   6.3001900089285232E-002
   1.3485584891272887E-002  -3.7906925094948474E-003   6.3003945827380031E-002
   1.3172678997033088E-002  -3.8054475842299717E-003   6.3183013706248278E-002
   1.2859773102793296E-002  -3.7733018584473091E-003   6.3539103725890000E-002
   1.2546867208553497E-002  -3.6942553321470395E-003   6.4072215886305253E-002
   6.8561539834559038E-003  -1.8645183173832645E-003   6.3758294063359242E-002
   6.7099856377317328E-003  -1.8953462641101981E-003   6.3871413606641128E-002
   6.5638172920075653E-003  -1.9027238110911398E-003   6.4140986106180853E-002
   6.4176489462833925E-003  -1.8866509583262082E-003   6.4567011561978277E-002
   6.2714806005592233E-003  -1.8471277058152297E-003   6.5149489974033525E-002
  -2.1287655666002436E-011  -5.2438609010607706E-013   6.4557241166344870E-002
  -3.0119379212933950E-012  -1.8725451744749932E-011   6.4757984114042239E-002
   1.5263779823415646E-011  -3.7952370413041336E-011   6.5094610833481628E-002
   3.3539495833401212E-011  -5.8204914846204936E-011   6.5567121324663080E-002
   5.1815215312833729E-011  -7.9483308823569132E-011   6.6175515587586525E-002
   2.5109358602292853E-002  -7.3885105848107702E-003   6.1763922288323392E-002
   2.4337428837757705E-002  -7.1829896437159563E-003   6.1502901520646691E-002
   2.3565499073222543E-002  -6.9764145702506802E-003   6.1425069403255733E-002
   2.2793569308687374E-002  -6.7687853644147651E-003   6.1530425936150449E-002
   2.2021639544152219E-002  -6.5601020262082699E-003   6.1818971119330712E-002
   1.8826159875798040E-002  -5.5413829584789187E-003   6.2943693324401903E-002
   1.8239867211773307E-002  -5.3872422521706320E-003   6.2689949437959608E-002
   1.7653574547748567E-002  -5.2323109347144070E-003   6.2624291102252538E-002
   1.7067281883723834E-002  -5.0765890061102506E-003   6.2746718317280542E-002
   1.6480989219699094E-002  -4.9200764663580310E-003   6.3057231083043869E-002
   1.2546867208553497E-002  -3.6942553321470395E-003   6.4072215886305253E-002
   1.2151108545488717E-002  -3.5914948606252453E-003   6.3825485359874659E-002
   1.1755349882423938E-002  -3.4882072991781546E-003   6.3771737284628788E-002
   1.1359591219359155E-002  -3.3843926478056788E-003   6.3910971660567653E-002
   1.0963832556294382E-002  -3.2800509065078476E-003   6.4243188487691227E-002
   6.2714806005592233E-003  -1.8471277058152297E-003   6.5149489974033525E-002
   6.0711528389039452E-003  -1.7957474690798898E-003   6.4909509286391942E-002
   5.8708250772486672E-003  -1.7441036636418362E-003   6.4867407950384690E-002
   5.6704973155933839E-003  -1.6921962895011635E-003   6.5023185966011726E-002
   5.4701695539381033E-003  -1.6400253466576087E-003   6.5376843333272927E-002
   5.1815215312833729E-011  -7.9483308823569132E-011   6.6175515587586525E-002
   9.2018975772489853E-011  -7.7534534348444595E-011   6.5942021217511443E-002
   1.3222273449742250E-010  -2.8105601179717610E-011   6.5911303099520174E-002
   1.7242649235499341E-010   6.8803414354778880E-011   6.6083361233612720E-002
   2.1263025368201127E-010   2.1319257470509001E-010   6.6458195619789051E-002
   2.2021639544152219E-002  -6.5601020262082699E-003   6.1818971119330712E-002
   2.1172984534070599E-002  -6.3391791091213234E-003   6.1458169121579004E-002
   2.0324329523988958E-002  -6.0948311666441934E-003   6.1317927226386043E-002
   1.9475674513907321E-002  -5.8270581987769007E-003   6.1398245433751969E-002
   1.8627019503825698E-002  -5.5358602055193273E-003   6.1699123743676698E-002
   1.6480989219699094E-002  -4.9200764663580310E-003   6.3057231083043869E-002
   1.5850795223402478E-002  -4.7543842402675146E-003   6.2738320551026197E-002
   1.5220601227105855E-002  -4.5711232526476978E-003   6.2635771944019744E-002
   1.4590407230809239E-002  -4.3702935034990193E-003   6.2749585262024482E-002
   1.3960213234512624E-002  -4.1518949928213145E-003   6.3079760505040522E-002
   1.0963832556294382E-002  -3.2800509065078476E-003   6.4243188487691227E-002
   1.0547901396235071E-002  -3.1695893714134421E-003   6.3960313157546633E-002
   1.0131970236175765E-002  -3.0474153386511466E-003   6.3889601574865423E-002
   9.7160390761164561E-003  -2.9135288082211379E-003   6.4031053739647653E-002
   9.3001079160571556E-003  -2.7679297801233016E-003   6.4384669651893378E-002
   5.4701695539381033E-003  -1.6400253466576087E-003   6.5376843333272927E-002
   5.2643030525683903E-003  -1.5847945025593904E-003   6.5124146941140118E-002
   5.0584365511986834E-003  -1.5237074246547341E-003   6.5079416118923095E-002
   4.8525700498289800E-003  -1.4567641129432287E-003   6.5242650866621746E-002
   4.6467035484592644E-003  -1.3839645674252610E-003   6.5613851184236183E-002
   2.1263025368201127E-010   2.1319257470509001E-010   6.6458195619789051E-002
   1.9240243426255077E-010   3.6629443922464588E-010   6.6229821901806846E-002
   1.7217461137364332E-010   4.8934187257820838E-010   6.6205215576192633E-002
   1.5194679021945934E-010   5.8233456251555182E-010   6.6384376642946441E-002
   1.3171896906527536E-010   6.4527272414238723E-010   6.6767305102068408E-002
   1.8627019503825698E-002  -5.5358602055193273E-003   6.1699123743676698E-002
   1.7846075661444430E-002  -5.2374333290138020E-003   6.1470482596873988E-002
   1.7065131819063176E-002  -4.9479737114025424E-003   6.1404327740282566E-002
   1.6284187976681901E-002  -4.6674813526853265E-003   6.1500659173902711E-002
   1.5503244134300653E-002  -4.3959562528621543E-003   6.1759476897733978E-002
   1.3960213234512624E-002  -4.1518949928213145E-003   6.3079760505040522E-002
   1.3349943096594222E-002  -3.9280748191175552E-003   6.2858161376160987E-002
   1.2739672958675809E-002  -3.7109800808909077E-003   6.2815423365995729E-002
   1.2129402820757399E-002  -3.5006107781411291E-003   6.2951546474544900E-002
   1.1519132682838995E-002  -3.2969669108683375E-003   6.3266530701808266E-002
   9.3001079160571556E-003  -2.7679297801233016E-003   6.4384669651893378E-002
   8.8768863111044274E-003  -2.6187163092214333E-003   6.4172354364354728E-002
   8.4536647061516854E-003  -2.4739864503792730E-003   6.4155275024032982E-002
   8.0304431011989589E-003  -2.3337402035968208E-003   6.4333431630928528E-002
   7.6072214962462220E-003  -2.1979775688741876E-003   6.4706824185040979E-002
   4.6467035484592644E-003  -1.3839645674252610E-003   6.5613851184236183E-002
   4.4269053049750279E-003  -1.3093577993251934E-003   6.5413061561455293E-002
   4.2071070614907967E-003  -1.2369928198675550E-003   6.5423882714394213E-002
   3.9873088180065620E-003  -1.1668696290525679E-003   6.5646314643053122E-002
   3.7675105745223290E-003  -1.0989882268800377E-003   6.6080357347431812E-002
   1.3171896906527536E-010   6.4527272414238723E-010   6.6767305102068408E-002
   7.8206056214336073E-011   7.1057093542492566E-010   6.6580282967462545E-002
   2.4693143363396786E-011   8.1064394086283187E-010   6.6621246437079479E-002
  -2.8819772956989453E-011   9.4549158780043996E-010   6.6890195510919154E-002
  -8.2332682338481789E-011   1.1151138901155377E-009   6.7387130188981570E-002
   1.5503244134300653E-002  -4.3959562528621543E-003   6.1759476897733978E-002
   1.4559395429567842E-002  -4.1121252911791029E-003   6.1359211917762169E-002
   1.3615546724835045E-002  -3.7947153468813888E-003   6.1083888523165264E-002
   1.2671698020102248E-002  -3.4437264199687970E-003   6.0933506713943431E-002
   1.1727849315369465E-002  -3.0591585104420282E-003   6.0908066490096724E-002
   1.1519132682838995E-002  -3.2969669108683375E-003   6.3266530701808266E-002
   1.0727980671027967E-002  -3.0840936768661009E-003   6.2995602670026823E-002
   9.9368286592169328E-003  -2.8460362739290979E-003   6.2905126438714071E-002
   9.1456766474059259E-003  -2.5827947020565789E-003   6.2995102007869702E-002
   8.3545246355948843E-003  -2.2943689612490159E-003   6.3265529377494190E-002
   7.6072214962462220E-003  -2.1979775688741876E-003   6.4706824185040979E-002
   7.0242763924505090E-003  -2.0560620625533765E-003   6.4556838287770757E-002
   6.4413312886547856E-003  -1.8973572009767375E-003   6.4642814406062718E-002
   5.8583861848590622E-003  -1.7218629841443851E-003   6.4964752539916876E-002
   5.2754410810633562E-003  -1.5295794120561146E-003   6.5522652689332717E-002
   3.7675105745223290E-003  -1.0989882268800377E-003   6.6080357347431812E-002
   3.4482825938354474E-003  -1.0280304482407354E-003   6.6042918770993705E-002
   3.1290546131485754E-003  -9.4867812802463397E-004   6.6296952425210956E-002
   2.8098266324617016E-003  -8.6093126623217921E-004   6.6842458310083799E-002
   2.4905986517748217E-003  -7.6478986286315775E-004   6.7679436425612458E-002
  -8.2332682338481789E-011   1.1151138901155377E-009   6.7387130188981570E-002
  -7.2481718543793150E-010   1.1660724053008664E-009   6.7453844119695627E-002
  -1.3673016954762751E-009   9.4492794144862557E-010   6.7867540496158896E-002
  -2.0097862020451718E-009   4.5168011691965049E-010   6.8628219318371236E-002
  -2.6522707086140684E-009  -3.1367020092432085E-010   6.9735880586332621E-002
  -1.2771719445914265E-012   0.0000000000000000        2.8439269295162051E-002
  -6.3016605822419081E-013   2.9501149786947956E-012   3.3399857822998508E-002
   1.6841129185651837E-014   3.1161583730066056E-012   3.8367108623755593E-002
   6.6384766607419099E-013   4.9812411140326418E-013   4.3341021697433306E-002
   1.3108533356009922E-012  -4.9039860713917527E-012   4.8321597044031654E-002
  -6.7996387935924472E-003   0.0000000000000000        2.8503332393633743E-002
  -6.8322743364322190E-003   1.4668242933614170E-004   3.3537262661411771E-002
  -6.8649098792719901E-003   3.3047733214210638E-004   3.8499259569295612E-002
  -6.8975454221117628E-003   5.5138470841789144E-004   4.3389323117285279E-002
  -6.9301809649515381E-003   8.0940455816350034E-004   4.8207453305380767E-002
  -1.3505194264901628E-002   0.0000000000000000        2.8695521680364516E-002
  -1.3649060984042987E-002   2.9336485572216886E-004   3.3839906164338004E-002
  -1.3792927703184342E-002   6.6095466116805699E-004   3.8833761655602504E-002
  -1.3936794422325696E-002   1.1027694163376596E-003   4.3677088154158016E-002
  -1.4080661141467055E-002   1.6188091212309829E-003   4.8369885660004545E-002
  -2.0116666415204716E-002   0.0000000000000000        2.9015837155354364E-002
  -2.0450359943462462E-002   4.4004728210819536E-004   3.4307788331777216E-002
  -2.0784053471720205E-002   9.9143199019400456E-004   3.9370614882676264E-002
  -2.1117746999977954E-002   1.6541541242574274E-003   4.4204316808051529E-002
  -2.1451440528235697E-002   2.4282136842984602E-003   4.8808894107902991E-002
  -2.6634055244501707E-002   0.0000000000000000        2.9464278818603293E-002
  -2.7236171214690647E-002   5.8672970849422187E-004   3.4940909163729397E-002
  -2.7838287184879587E-002   1.3219093192199556E-003   4.0109819250516897E-002
  -2.8440403155068534E-002   2.2055388321771969E-003   4.4971009078965798E-002
  -2.9042519125257470E-002   3.2376182473659509E-003   4.9524478649076102E-002
   1.3108533356009922E-012  -4.9039860713917527E-012   4.8321597044031654E-002
   1.5861071137046601E-012  -9.1818471228966025E-012   5.1487604066526305E-002
   1.8613578560422450E-012  -8.4271528557472442E-012   5.4519241651972077E-002
   2.1366096825820025E-012  -2.6399034325740034E-012   5.7416509800368921E-002
   2.4118623764834979E-012   8.1798942619393245E-012   6.0179408511716874E-002
  -6.9301809649515381E-003   8.0940455816350034E-004   4.8207453305380767E-002
  -7.0356013724445308E-003   1.0644353631011805E-003   5.1160564867876422E-002
  -7.1410217799375234E-003   1.2763756049532051E-003   5.4037205051884467E-002
  -7.2464421874305169E-003   1.4452252837195674E-003   5.6837373857404956E-002
  -7.3518625949235122E-003   1.5709843994002881E-003   5.9561071284437841E-002
  -1.4080661141467055E-002   1.6188091212309829E-003   4.8369885660004545E-002
  -1.4233603898166972E-002   2.1288707353842250E-003   5.1067011194382957E-002
  -1.4386546654866893E-002   2.5527512183335906E-003   5.3745563408835101E-002
  -1.4539489411566811E-002   2.8904505700790765E-003   5.6405542303360985E-002
  -1.4692432168266732E-002   3.1419687906206854E-003   5.9046947877960602E-002
  -2.1451440528235697E-002   2.4282136842984602E-003   4.8808894107902991E-002
  -2.1594007575581227E-002   3.1933061076672648E-003   5.1206943046045970E-002
  -2.1736574622926753E-002   3.8291268317139694E-003   5.3644316722823972E-002
  -2.1879141670272287E-002   4.3356758564385735E-003   5.6121015138237036E-002
  -2.2021708717617813E-002   4.7129531818410741E-003   5.8637038292285150E-002
  -2.9042519125257470E-002   3.2376182473659509E-003   4.9524478649076102E-002
  -2.9116812404687283E-002   4.2577414799503015E-003   5.1580360422865394E-002
  -2.9191105684117102E-002   5.1055024450943395E-003   5.3733464993851045E-002
  -2.9265398963546910E-002   5.7809011427980639E-003   5.5983792362033075E-002
  -2.9339692242976730E-002   6.2839375730614627E-003   5.8331342527411470E-002
   2.4118623764834979E-012   8.1798942619393245E-012   6.0179408511716874E-002
  -3.5130171341379857E-012   1.7637960536553976E-011   6.1069699236657171E-002
  -9.4378966447594692E-012   1.9339909881899153E-011   6.2096101587408609E-002
  -1.5362777456423560E-011   1.3285821661573882E-011   6.3258615563971179E-002
  -2.1287655666002436E-011  -5.2438609010607706E-013   6.4557241166344870E-002
  -7.3518625949235122E-003   1.5709843994002881E-003   5.9561071284437841E-002
  -7.2279354499553599E-003   1.6674906439507094E-003   6.0442762964986699E-002
  -7.1040083049872162E-003   1.7485817093261663E-003   6.1436197321510476E-002
  -6.9800811600190674E-003   1.8142575955266312E-003   6.2541374354009166E-002
  -6.8561540150509203E-003   1.8645183025521317E-003   6.3758294062482776E-002
  -1.4692432168266732E-002   3.1419687906206854E-003   5.9046947877960602E-002
  -1.4468946822241754E-002   3.3349812702634443E-003   5.9904625342699094E-002
  -1.4245461476216770E-002   3.4971633993123403E-003   6.0849676533576320E-002
  -1.4021976130191786E-002   3.6285151777674550E-003   6.1882101450592315E-002
  -1.3798490784166811E-002   3.7290366056286911E-003   6.3001900093747010E-002
  -2.2021708717617813E-002   4.7129531818410741E-003   5.8637038292285150E-002
  -2.1723034120372187E-002   5.0024718965761931E-003   5.9455286369794441E-002
  -2.1424359523126563E-002   5.2457450892985560E-003   6.0336539223606239E-002
  -2.1125684925880940E-002   5.4427727600082710E-003   6.1280796853720614E-002
  -2.0827010328635320E-002   5.5935549087052436E-003   6.2288059260137529E-002
  -2.9339692242976730E-002   6.2839375730614627E-003   5.8331342527411470E-002
  -2.8990197344346658E-002   6.6699625228889177E-003   5.9094746046272670E-002
  -2.8640702445716593E-002   6.9943267792847569E-003   5.9896785391600219E-002
  -2.8291207547086531E-002   7.2570303422491052E-003   6.0737460563394102E-002
  -2.7941712648456456E-002   7.4580732117817822E-003   6.1616771561654335E-002
  -2.1287655666002436E-011  -5.2438609010607706E-013   6.4557241166344870E-002
  -3.0119379212933950E-012  -1.8725451744749932E-011   6.4757984114042239E-002
   1.5263779823415646E-011  -3.7952370413041336E-011   6.5094610833481628E-002
   3.3539495833401212E-011  -5.8204914846204936E-011   6.5567121324663080E-002
   5.1815215312833729E-011  -7.9483308823569132E-011   6.6175515587586525E-002
  -6.8561540150509203E-003   1.8645183025521317E-003   6.3758294062482776E-002
  -6.7099856420307644E-003   1.8953462246395977E-003   6.3871413621966522E-002
  -6.5638172690106111E-003   1.9027237560258412E-003   6.4140986119197108E-002
  -6.4176488959904569E-003   1.8866508967109782E-003   6.4567011554174492E-002
  -6.2714805229703019E-003   1.8471276466949238E-003   6.5149489926898757E-002
  -1.3798490784166811E-002   3.7290366056286911E-003   6.3001900093747010E-002
  -1.3485584890397384E-002   3.7906924680047374E-003   6.3003945875341610E-002
  -1.3172678996627961E-002   3.8054475500041395E-003   6.3183013760687912E-002
  -1.2859773102858537E-002   3.7733018516269553E-003   6.3539103749785913E-002
  -1.2546867209089114E-002   3.6942553728731564E-003   6.4072215842635602E-002
  -2.0827010328635320E-002   5.5935549087052436E-003   6.2288059260137529E-002
  -2.0326797748111788E-002   5.6860387113698736E-003   6.2155580874167636E-002
  -1.9826585167588267E-002   5.7081713439823944E-003   6.2220693757954221E-002
  -1.9326372587064742E-002   5.6599528065429186E-003   6.2483397911497353E-002
  -1.8826160006541217E-002   5.5413830990514029E-003   6.2943693334796991E-002
  -2.7941712648456456E-002   7.4580732117817822E-003   6.1616771561654335E-002
  -2.7233624215173998E-002   7.5813849547349751E-003   6.1326318618444439E-002
  -2.6525535781891534E-002   7.6108951379607014E-003   6.1254026110995903E-002
  -2.5817447348609066E-002   7.5466037614588801E-003   6.1399894039308719E-002
  -2.5109358915326611E-002   7.3885108252296494E-003   6.1763922403382882E-002
   5.1815215312833729E-011  -7.9483308823569132E-011   6.6175515587586525E-002
   9.2018975772489853E-011  -7.7534534348444595E-011   6.5942021217511443E-002
   1.3222273449742250E-010  -2.8105601179717610E-011   6.5911303099520174E-002
   1.7242649235499341E-010   6.8803414354778880E-011   6.6083361233612720E-002
   2.1263025368201127E-010   2.1319257470509001E-010   6.6458195619789051E-002
  -6.2714805229703019E-003   1.8471276466949238E-003   6.5149489926898757E-002
  -6.0711526926281647E-003   1.7957474387587935E-003   6.4909509244715585E-002
  -5.8708248622860292E-003   1.7441037056838624E-003   6.4867407890725329E-002
  -5.6704970319438981E-003   1.6921964474699205E-003   6.5023185864928057E-002
  -5.4701692016017565E-003   1.6400256641172228E-003   6.5376843167323617E-002
  -1.2546867209089114E-002   3.6942553728731564E-003   6.4072215842635602E-002
  -1.2151108512499465E-002   3.5914949550520936E-003   6.3825485275725347E-002
  -1.1755349815909810E-002   3.4882074394732149E-003   6.3771737113117205E-002
  -1.1359591119320158E-002   3.3843928261364543E-003   6.3910971354811025E-002
  -1.0963832422730501E-002   3.2800511150419265E-003   6.4243188000807055E-002
  -1.8826160006541217E-002   5.5413830990514029E-003   6.2943693334796991E-002
  -1.8239867367594920E-002   5.3872424713453243E-003   6.2689949310540630E-002
  -1.7653574728648615E-002   5.2323111732625951E-003   6.2624290766695484E-002
  -1.7067282089702325E-002   5.0765892048030021E-003   6.2746717703261651E-002
  -1.6480989450756014E-002   4.9200765659665746E-003   6.3057230120238894E-002
  -2.5109358915326611E-002   7.3885108252296494E-003   6.1763922403382882E-002
  -2.4337429257914510E-002   7.1829899876387077E-003   6.1502901349161532E-002
  -2.3565499600502433E-002   6.9764149070520379E-003   6.1425068851460554E-002
  -2.2793569943090342E-002   6.7687855834694683E-003   6.1530424910279900E-002
  -2.2021640285678254E-002   6.5601020168912783E-003   6.1818969525619605E-002
   2.1263025368201127E-010   2.1319257470509001E-010   6.6458195619789051E-002
   1.9240243426255077E-010   3.6629443922464588E-010   6.6229821901806846E-002
   1.7217461137364332E-010   4.8934187257820838E-010   6.6205215576192633E-002
   1.5194679021945934E-010   5.8233456251555182E-010   6.6384376642946441E-002
   1.3171896906527536E-010   6.4527272414238723E-010   6.6767305102068408E-002
  -5.4701692016017565E-003   1.6400256641172228E-003   6.5376843167323617E-002
  -5.2643027064924255E-003   1.5847949819710605E-003   6.5124146614162465E-002
  -5.0584362113831032E-003   1.5237080273767592E-003   6.5079415699307613E-002
  -4.8525697162737800E-003   1.4567648003345566E-003   6.5242650422758994E-002
  -4.6467032211644499E-003   1.3839653008442254E-003   6.5613850784516425E-002
  -1.0963832422730501E-002   3.2800511150419265E-003   6.4243188000807055E-002
  -1.0547901166345805E-002   3.1695895976476818E-003   6.3960312370073463E-002
  -1.0131969909961108E-002   3.0474155654117568E-003   6.3889600623584272E-002
  -9.7160386535764080E-003   2.9135290183344952E-003   6.4031052761339635E-002
  -9.3001073971917016E-003   2.7679299564155047E-003   6.4384668783339483E-002
  -1.6480989450756014E-002   4.9200765659665746E-003   6.3057230120238894E-002
  -1.5850795187157710E-002   4.7543842133243586E-003   6.2738319169539356E-002
  -1.5220600923559407E-002   4.5711231034467822E-003   6.2635770349022526E-002
  -1.4590406659961103E-002   4.3702932363345170E-003   6.2749583658688560E-002
  -1.3960212396362805E-002   4.1518946119868672E-003   6.3079759098537178E-002
  -2.2021640285678254E-002   6.5601020168912783E-003   6.1818969525619605E-002
  -2.1172984768928128E-002   6.3391788290008688E-003   6.1458167012560627E-002
  -2.0324329252177989E-002   6.0948306414816966E-003   6.1317924875622626E-002
  -1.9475673735427856E-002   5.8270574543343584E-003   6.1398243114805462E-002
  -1.8627018218677724E-002   5.5358592675582852E-003   6.1699121730109385E-002
   1.3171896906527536E-010   6.4527272414238723E-010   6.6767305102068408E-002
   7.8206056214336073E-011   7.1057093542492566E-010   6.6580282967462545E-002
   2.4693143363396786E-011   8.1064394086283187E-010   6.6621246437079479E-002
  -2.8819772956989453E-011   9.4549158780043996E-010   6.6890195510919154E-002
  -8.2332682338481789E-011   1.1151138901155377E-009   6.7387130188981570E-002
  -4.6467032211644499E-003   1.3839653008442254E-003   6.5613850784516425E-002
  -4.4269050993963402E-003   1.3093585943703412E-003   6.5413061344453183E-002
  -4.2071069776282322E-003   1.2369937463779096E-003   6.5423882650729126E-002
  -3.9873088558601191E-003   1.1668707568665664E-003   6.5646314703344380E-002
  -3.7675107340920146E-003   1.0989896258365439E-003   6.6080357502298959E-002
  -9.3001073971917016E-003   2.7679299564155047E-003   6.4384668783339483E-002
  -8.8768859580259998E-003   2.6187164781696914E-003   6.4172353861525158E-002
  -8.4536645188602929E-003   2.4739866821116563E-003   6.4155274828166603E-002
  -8.0304430796945894E-003   2.3337405682414894E-003   6.4333431683264011E-002
  -7.6072216405288773E-003   2.1979781365591422E-003   6.4706824426817300E-002
  -1.3960212396362805E-002   4.1518946119868672E-003   6.3079759098537178E-002
  -1.3349942497682911E-002   3.9280743619690695E-003   6.2858160518678166E-002
  -1.2739672599003028E-002   3.7109796178455418E-003   6.2815422969391882E-002
  -1.2129402700323139E-002   3.5006103796162737E-003   6.2951546450677923E-002
  -1.1519132801643257E-002   3.2969666472817682E-003   6.3266530962536538E-002
  -1.8627018218677724E-002   5.5358592675582852E-003   6.1699121730109385E-002
  -1.7846074718367085E-002   5.2374322457684475E-003   6.1470481315912595E-002
  -1.7065131218056445E-002   4.9479725535793440E-003   6.1404327074404880E-002
  -1.6284187717745806E-002   4.6674801909914396E-003   6.1500659005586295E-002
  -1.5503244217435166E-002   4.3959551580042833E-003   6.1759477109456618E-002
  -8.2332682338481789E-011   1.1151138901155377E-009   6.7387130188981570E-002
  -7.2481718543793150E-010   1.1660724053008664E-009   6.7453844119695627E-002
  -1.3673016954762751E-009   9.4492794144862557E-010   6.7867540496158896E-002
  -2.0097862020451718E-009   4.5168011691965049E-010   6.8628219318371236E-002
  -2.6522707086140684E-009  -3.1367020092432085E-010   6.9735880586332621E-002
  -3.7675107340920146E-003   1.0989896258365439E-003   6.6080357502298959E-002
  -3.4482839904507318E-003   1.0280319253183900E-003   6.6042918483931928E-002
  -3.1290572468094333E-003   9.4867922734248600E-004   6.6296951792067460E-002
  -2.8098305031681522E-003   8.6093153190917870E-004   6.6842457426705207E-002
  -2.4906037595268660E-003   7.6478883901798245E-004   6.7679435387845488E-002
  -7.6072216405288773E-003   2.1979781365591422E-003   6.4706824426817300E-002
  -7.0242776300084809E-003   2.0560626845644026E-003   6.4556837734014327E-002
  -6.4413336194880880E-003   1.8973575097574052E-003   6.4642813248467129E-002
  -5.8583896089676865E-003   1.7218626121379595E-003   6.4964750970175872E-002
  -5.2754455984473127E-003   1.5295779917062768E-003   6.5522650899140056E-002
  -1.1519132801643257E-002   3.2969666472817682E-003   6.3266530962536538E-002
  -1.0727981643490449E-002   3.0840934438105122E-003   6.2995601869942977E-002
  -9.9368304853376249E-003   2.8460357921723037E-003   6.2905124865358514E-002
  -9.1456793271847969E-003   2.5827936923669362E-003   6.2995099948783426E-002
  -8.3545281690320036E-003   2.2943671443945157E-003   6.3265527120216963E-002
  -1.5503244217435166E-002   4.3959551580042833E-003   6.1759477109456618E-002
  -1.4559396030896617E-002   4.1121242030563998E-003   6.1359210891717753E-002
  -1.3615547844358075E-002   3.7947140745870911E-003   6.1083886642741336E-002
  -1.2671699657819519E-002   3.4437247725957743E-003   6.0933504362527230E-002
  -1.1727851471280984E-002   3.0591562970827546E-003   6.0908064051075517E-002
  -2.6634055244501707E-002   0.0000000000000000        2.9464278818603293E-002
  -2.7236171214690647E-002   5.8672970849422187E-004   3.4940909163729397E-002
  -2.7838287184879587E-002   1.3219093192199556E-003   4.0109819250516897E-002
  -2.8440403155068534E-002   2.2055388321771969E-003   4.4971009078965798E-002
  -2.9042519125257470E-002   3.2376182473659509E-003   4.9524478649076102E-002
  -3.3394277057920155E-002   0.0000000000000000        3.0175436289770617E-002
  -3.4238949550334276E-002   9.6157500488167676E-004   3.5263470852802375E-002
  -3.5083622042748390E-002   2.0266796496143293E-003   4.0174112629722376E-002
  -3.5928294535162511E-002   3.1953139341979559E-003   4.4907361620530620E-002
  -3.6772967027576618E-002   4.4674778586325592E-003   4.9463217825227106E-002
  -4.0734248160587613E-002   0.0000000000000000        3.1283899188515672E-002
  -4.1691149703000072E-002   1.3364203012691321E-003   3.5938417707072547E-002
  -4.2648051245412516E-002   2.7314499800087048E-003   4.0545870911744511E-002
  -4.3604952787824981E-002   4.1850890362187159E-003   4.5106258802531558E-002
  -4.4561854330237433E-002   5.6973374698991684E-003   4.9619581379433682E-002
  -4.8653968552504069E-002   0.0000000000000000        3.2789667514838444E-002
  -4.9592771672688024E-002   1.7112655976565868E-003   3.6965749726539904E-002
  -5.0531574792871972E-002   3.4362203104030776E-003   4.1225094096583301E-002
  -5.1470377913055920E-002   5.1748641382394784E-003   4.5567700624968621E-002
  -5.2409181033239868E-002   6.9271970811657767E-003   4.9993569311695865E-002
  -5.7153438233669543E-002   0.0000000000000000        3.4692741268738933E-002
  -5.7943815459398140E-002   2.0861108940440415E-003   3.8345466911204454E-002
  -5.8734192685126752E-002   4.1409906407974557E-003   4.2211782184238739E-002
  -5.9524569910855356E-002   6.1646392402602349E-003   4.6291687087841794E-002
  -6.0314947136583953E-002   8.1570566924323868E-003   5.0585181622013607E-002
  -2.9042519125257470E-002   3.2376182473659509E-003   4.9524478649076102E-002
  -2.9116812404687283E-002   4.2577414799503015E-003   5.1580360422865394E-002
  -2.9191105684117102E-002   5.1055024450943395E-003   5.3733464993851045E-002
  -2.9265398963546910E-002   5.7809011427980639E-003   5.5983792362033075E-002
  -2.9339692242976730E-002   6.2839375730614627E-003   5.8331342527411470E-002
  -3.6772967027576618E-002   4.4674778586325592E-003   4.9463217825227106E-002
  -3.6788672482327353E-002   5.7027409544197893E-003   5.1247178443864450E-002
  -3.6804377937078067E-002   6.7606727530612996E-003   5.3051091914663617E-002
  -3.6820083391828795E-002   7.6412732545570712E-003   5.4874958237624588E-002
  -3.6835788846579509E-002   8.3445424589071726E-003   5.6718777412747390E-002
  -4.4561854330237433E-002   5.6973374698991684E-003   4.9619581379433682E-002
  -4.4596241905343607E-002   7.1477404288892796E-003   5.1126651813213693E-002
  -4.4630629480449789E-002   8.4158430610282668E-003   5.2576405154120952E-002
  -4.4665017055555992E-002   9.5016453663161228E-003   5.3968841402155458E-002
  -4.4699404630662153E-002   1.0405147344752862E-002   5.5303960557317247E-002
  -5.2409181033239868E-002   6.9271970811657767E-003   4.9993569311695865E-002
  -5.2539520673736073E-002   8.5927399033587735E-003   5.1218780530913117E-002
  -5.2669860314232278E-002   1.0071013368995243E-002   5.2309404712223062E-002
  -5.2800199954728504E-002   1.1362017478075173E-002   5.3265441855625713E-002
  -5.2930539595224688E-002   1.2465752230598554E-002   5.4086891961121070E-002
  -6.0314947136583953E-002   8.1570566924323868E-003   5.0585181622013607E-002
  -6.0618508787504743E-002   1.0037739377828264E-002   5.1523564596962702E-002
  -6.0922070438425527E-002   1.1726183676962199E-002   5.2250090588969948E-002
  -6.1225632089346317E-002   1.3222389589834195E-002   5.2764759598035324E-002
  -6.1529193740267100E-002   1.4526357116444261E-002   5.3067571624158857E-002
  -2.9339692242976730E-002   6.2839375730614627E-003   5.8331342527411470E-002
  -2.8990197344346658E-002   6.6699625228889177E-003   5.9094746046272670E-002
  -2.8640702445716593E-002   6.9943267792847569E-003   5.9896785391600219E-002
  -2.8291207547086531E-002   7.2570303422491052E-003   6.0737460563394102E-002
  -2.7941712648456456E-002   7.4580732117817822E-003   6.1616771561654335E-002
  -3.6835788846579509E-002   8.3445424589071726E-003   5.6718777412747390E-002
  -3.6396782750388983E-002   8.8864810296385224E-003   5.7062041790461156E-002
  -3.5957776654198449E-002   9.2830896302781678E-003   5.7545692736829517E-002
  -3.5518770558007937E-002   9.5343682608261260E-003   5.8169730251852458E-002
  -3.5079764461817389E-002   9.6403169212823797E-003   5.8934154335529933E-002
  -4.4699404630662153E-002   1.0405147344752862E-002   5.5303960557317247E-002
  -4.4069136594722960E-002   1.1102999536388112E-002   5.5143416517223501E-002
  -4.3438868558783761E-002   1.1571852481271537E-002   5.5225009787972554E-002
  -4.2808600522844541E-002   1.1811706179403159E-002   5.5548740369564406E-002
  -4.2178332486905348E-002   1.1822560630782943E-002   5.6114608261999044E-002
  -5.2930539595224688E-002   1.2465752230598554E-002   5.4086891961121070E-002
  -5.2007258877348590E-002   1.3319518043137728E-002   5.3338870226559691E-002
  -5.1083978159472479E-002   1.3860615332264927E-002   5.2934736545029296E-002
  -5.0160697441596382E-002   1.4089044097980227E-002   5.2874490916529931E-002
  -4.9237416723720263E-002   1.4004804340283537E-002   5.3158133341061564E-002
  -6.1529193740267100E-002   1.4526357116444261E-002   5.3067571624158857E-002
  -6.0211149598265852E-002   1.5536036549887302E-002   5.1648402918469699E-002
  -5.8893105456264638E-002   1.6149378183258307E-002   5.0674873007999742E-002
  -5.7575061314263418E-002   1.6366382016557230E-002   5.0146981892749076E-002
  -5.6257017172262183E-002   1.6187048049784089E-002   5.0064729572717612E-002
  -2.7941712648456456E-002   7.4580732117817822E-003   6.1616771561654335E-002
  -2.7233624215173998E-002   7.5813849547349751E-003   6.1326318618444439E-002
  -2.6525535781891534E-002   7.6108951379607014E-003   6.1254026110995903E-002
  -2.5817447348609066E-002   7.5466037614588801E-003   6.1399894039308719E-002
  -2.5109358915326611E-002   7.3885108252296494E-003   6.1763922403382882E-002
  -3.5079764461817389E-002   9.6403169212823797E-003   5.8934154335529933E-002
  -3.4156823903575766E-002   9.6402911311778416E-003   5.8599666624412211E-002
  -3.3233883345334128E-002   9.5736464100435424E-003   5.8476722727451497E-002
  -3.2310942787092511E-002   9.4403827578794022E-003   5.8565322644647762E-002
  -3.1388002228850853E-002   9.2405001746853899E-003   5.8865466376001027E-002
  -4.2178332486905348E-002   1.1822560630782943E-002   5.6114608261999044E-002
  -4.1047156425308880E-002   1.1699197307620725E-002   5.5763268411671160E-002
  -3.9915980363712439E-002   1.1536397682126385E-002   5.5616855753895925E-002
  -3.8784804302115984E-002   1.1334161754299882E-002   5.5675370288673295E-002
  -3.7653628240519536E-002   1.1092489524141200E-002   5.5938812016003307E-002
  -4.9237416723720263E-002   1.4004804340283537E-002   5.3158133341061564E-002
  -4.7904621780373344E-002   1.3758103484063642E-002   5.2817123980221203E-002
  -4.6571826837026445E-002   1.3499148954209256E-002   5.2674425190329117E-002
  -4.5239031893679560E-002   1.3227940750720368E-002   5.2730036971385244E-002
  -4.3906236950332654E-002   1.2944478873596975E-002   5.2983959323389854E-002
  -5.6257017172262183E-002   1.6187048049784089E-002   5.0064729572717612E-002
  -5.4729219968769172E-002   1.5817009660506469E-002   4.9761233330062410E-002
  -5.3201422765276167E-002   1.5461900226292059E-002   4.9649431036751145E-002
  -5.1673625561783162E-002   1.5121719747140893E-002   4.9729322692783740E-002
  -5.0145828358290165E-002   1.4796468223052778E-002   5.0000908298160368E-002
  -2.5109358915326611E-002   7.3885108252296494E-003   6.1763922403382882E-002
  -2.4337429257914510E-002   7.1829899876387077E-003   6.1502901349161532E-002
  -2.3565499600502433E-002   6.9764149070520379E-003   6.1425068851460554E-002
  -2.2793569943090342E-002   6.7687855834694683E-003   6.1530424910279900E-002
  -2.2021640285678254E-002   6.5601020168912783E-003   6.1818969525619605E-002
  -3.1388002228850853E-002   9.2405001746853899E-003   5.8865466376001027E-002
  -3.0429840502078434E-002   9.0000613683613867E-003   5.8612732257362174E-002
  -2.9471678775306008E-002   8.7451290468069445E-003   5.8549273720923688E-002
  -2.8513517048533579E-002   8.4757032100221483E-003   5.8675090766685423E-002
  -2.7555355321761149E-002   8.1917838580070623E-003   5.8990183394647594E-002
  -3.7653628240519536E-002   1.1092489524141200E-002   5.5938812016003307E-002
  -3.6503147418706791E-002   1.0817132749083989E-002   5.5680925560712406E-002
  -3.5352666596894067E-002   1.0513843186561848E-002   5.5618401713301735E-002
  -3.4202185775081342E-002   1.0182620836574827E-002   5.5751240473771391E-002
  -3.3051704953268597E-002   9.8234656991228464E-003   5.6079441842121339E-002
  -4.3906236950332654E-002   1.2944478873596975E-002   5.2983959323389854E-002
  -4.2557350007799616E-002   1.2634204129806561E-002   5.2707481259212201E-002
  -4.1208463065266605E-002   1.2282557326316808E-002   5.2632452828594911E-002
  -3.9859576122733616E-002   1.1889538463127423E-002   5.2758874031537874E-002
  -3.8510689180200577E-002   1.1455147540238630E-002   5.3086744868041033E-002
  -5.0145828358290165E-002   1.4796468223052778E-002   5.0000908298160368E-002
  -4.8592448269356894E-002   1.4451275510529271E-002   4.9692399352861572E-002
  -4.7039068180423645E-002   1.4051271466071651E-002   4.9591427066802959E-002
  -4.5485688091490395E-002   1.3596456089680143E-002   4.9697991439984650E-002
  -4.3932308002557138E-002   1.3086829381354415E-002   5.0012092472406566E-002
  -2.2021640285678254E-002   6.5601020168912783E-003   6.1818969525619605E-002
  -2.1172984768928128E-002   6.3391788290008688E-003   6.1458167012560627E-002
  -2.0324329252177989E-002   6.0948306414816966E-003   6.1317924875622626E-002
  -1.9475673735427856E-002   5.8270574543343584E-003   6.1398243114805462E-002
  -1.8627018218677724E-002   5.5358592675582852E-003   6.1699121730109385E-002
  -2.7555355321761149E-002   8.1917838580070623E-003   5.8990183394647594E-002
  -2.6490899434587038E-002   7.8945817310368538E-003   5.8644237763312901E-002
  -2.5426443547412973E-002   7.5853075693869260E-003   5.8509332496705202E-002
  -2.4361987660238886E-002   7.2639613730570464E-003   5.8585467594824386E-002
  -2.3297531773064803E-002   6.9305431420473296E-003   5.8872643057670593E-002
  -3.3051704953268597E-002   9.8234656991228464E-003   5.6079441842121339E-002
  -3.1780968707064539E-002   9.4499846330728665E-003   5.5759706057459668E-002
  -3.0510232460860476E-002   9.0757844972917667E-003   5.5641490626130954E-002
  -2.9239496214656428E-002   8.7008652917796234E-003   5.5724795548135225E-002
  -2.7968759968452356E-002   8.3252270165364295E-003   5.6009620823472522E-002
  -3.8510689180200577E-002   1.1455147540238630E-002   5.3086744868041033E-002
  -3.7043192586360511E-002   1.1005387535108865E-002   5.2804571895001082E-002
  -3.5575695992520480E-002   1.0566261425196719E-002   5.2714399263900161E-002
  -3.4108199398680442E-002   1.0137769210502339E-002   5.2816226974738131E-002
  -3.2640702804840376E-002   9.7199108910254184E-003   5.3110055027515250E-002
  -4.3932308002557138E-002   1.3086829381354415E-002   5.0012092472406566E-002
  -4.2277571072475068E-002   1.2560790437144864E-002   4.9778835275937017E-002
  -4.0622834142393004E-002   1.2056738353101795E-002   4.9728058410012627E-002
  -3.8968097212310926E-002   1.1574673129224850E-002   4.9859761874633118E-002
  -3.7313360282228869E-002   1.1114594765514574E-002   5.0173945669798825E-002
  -1.8627018218677724E-002   5.5358592675582852E-003   6.1699121730109385E-002
  -1.7846074718367085E-002   5.2374322457684475E-003   6.1470481315912595E-002
  -1.7065131218056445E-002   4.9479725535793440E-003   6.1404327074404880E-002
  -1.6284187717745806E-002   4.6674801909914396E-003   6.1500659005586295E-002
  -1.5503244217435166E-002   4.3959551580042833E-003   6.1759477109456618E-002
  -2.3297531773064803E-002   6.9305431420473296E-003   5.8872643057670593E-002
  -2.2346161034910224E-002   6.5885372861705649E-003   5.8653161124901432E-002
  -2.1394790296755676E-002   6.2414282152391254E-003   5.8612047495131075E-002
  -2.0443419558601107E-002   5.8892159292532956E-003   5.8749302168359469E-002
  -1.9492048820446556E-002   5.5319004282130546E-003   5.9064925144586777E-002
  -2.7968759968452356E-002   8.3252270165364295E-003   5.6009620823472522E-002
  -2.6831079862144086E-002   7.9396423265726823E-003   5.5785226827475526E-002
  -2.5693399755835844E-002   7.5348838768990317E-003   5.5755083264787161E-002
  -2.4555719649527581E-002   7.1109516675154326E-003   5.5919190135407325E-002
  -2.3418039543219336E-002   6.6678456984218815E-003   5.6277547439336079E-002
  -3.2640702804840376E-002   9.7199108910254184E-003   5.3110055027515250E-002
  -3.1300831200068664E-002   9.2907473669747997E-003   5.2866678423635093E-002
  -2.9960959595296967E-002   8.8283395385588478E-003   5.2833434383373179E-002
  -2.8621087990525262E-002   8.3326874057774846E-003   5.3010322906729648E-002
  -2.7281216385753558E-002   7.8037909686306806E-003   5.3397343993704494E-002
  -3.7313360282228869E-002   1.1114594765514574E-002   5.0173945669798825E-002
  -3.5755415048683944E-002   1.0641852407376862E-002   4.9897515913379986E-002
  -3.4197469815139020E-002   1.0121795200218678E-002   4.9847100850889142E-002
  -3.2639524581594095E-002   9.5544231440393319E-003   5.0022700482326418E-002
  -3.1081579348049171E-002   8.9397362388395352E-003   5.0424314807691994E-002
  -1.5503244217435166E-002   4.3959551580042833E-003   6.1759477109456618E-002
  -1.4559396030896617E-002   4.1121242030563998E-003   6.1359210891717753E-002
  -1.3615547844358075E-002   3.7947140745870911E-003   6.1083886642741336E-002
  -1.2671699657819519E-002   3.4437247725957743E-003   6.0933504362527230E-002
  -1.1727851471280984E-002   3.0591562970827546E-003   6.0908064051075517E-002
  -1.9492048820446556E-002   5.5319004282130546E-003   5.9064925144586777E-002
  -1.8386730038280442E-002   5.1653960835253698E-003   5.8740574611070712E-002
  -1.7281411256114383E-002   4.7856172665975139E-003   5.8614223300047286E-002
  -1.6176092473948238E-002   4.3925639774292854E-003   5.8685871211516610E-002
  -1.5070773691782183E-002   3.9862362160210107E-003   5.8955518345478519E-002
  -2.3418039543219336E-002   6.6678456984218815E-003   5.6277547439336079E-002
  -2.2078192911695362E-002   6.2186679639939513E-003   5.6049417291324316E-002
  -2.0738346280171370E-002   5.7765204586077701E-003   5.6092343619535592E-002
  -1.9398499648647434E-002   5.3414031822627134E-003   5.6406326423969824E-002
  -1.8058653017123436E-002   4.9133161349591559E-003   5.6991365704627317E-002
  -2.7281216385753558E-002   7.8037909686306806E-003   5.3397343993704494E-002
  -2.5633784651141387E-002   7.2719398444627270E-003   5.3285738932478628E-002
  -2.3986352916529240E-002   6.7674236506178875E-003   5.3518247601206187E-002
  -2.2338921181917010E-002   6.2902423870962940E-003   5.4094869999887267E-002
  -2.0691489447304891E-002   5.8403960538973010E-003   5.5015606128521563E-002
  -3.1081579348049171E-002   8.9397362388395352E-003   5.0424314807691994E-002
  -2.9053505256618484E-002   8.3252117249315027E-003   5.0449539534533738E-002
  -2.7025431165187797E-002   7.7583268426284074E-003   5.0891935245059278E-002
  -2.4997357073757095E-002   7.2390815919296143E-003   5.1751501939268432E-002
  -2.2969282982326422E-002   6.7674759728355571E-003   5.3028239617161299E-002
  -5.7153438233669543E-002   0.0000000000000000        3.4692741268738933E-002
  -5.7943815459398140E-002   2.0861108940440415E-003   3.8345466911204454E-002
  -5.8734192685126752E-002   4.1409906407974557E-003   4.2211782184238739E-002
  -5.9524569910855356E-002   6.1646392402602349E-003   4.6291687087841794E-002
  -6.0314947136583953E-002   8.1570566924323868E-003   5.0585181622013607E-002
  -6.5820832005675817E-002   0.0000000000000000        3.7215936739489738E-002
  -6.6626680092373575E-002   2.9157616394920247E-003   4.0838984590019188E-002
  -6.7432528179071333E-002   5.7737176103436144E-003   4.4217501088041566E-002
  -6.8238376265769091E-002   8.5738679125547668E-003   4.7351486233556873E-002
  -6.9044224352466849E-002   1.1316212546125496E-002   5.0240940026565116E-002
  -7.4244324670114714E-002   0.0000000000000000        4.0582070216363418E-002
  -7.5523764600857468E-002   3.7454123849400066E-003   4.4148865753606992E-002
  -7.6803204531600208E-002   7.4064445798897706E-003   4.7013008955267666E-002
  -7.8082644462342962E-002   1.0983096584849300E-002   4.9174499821345433E-002
  -7.9362084393085716E-002   1.4475368399818590E-002   5.0633338351840286E-002
  -8.2423916226986235E-002   0.0000000000000000        4.4791141699359986E-002
  -8.4635068984849807E-002   4.5750631303879876E-003   4.8275110401967879E-002
  -8.6846221742713378E-002   9.0391715494359277E-003   5.0598305785917036E-002
  -8.9057374500576950E-002   1.3392325257143834E-002   5.1760727851207444E-002
  -9.1268527258440521E-002   1.7634524253511683E-002   5.1762376597839110E-002
  -9.0359606676290366E-002   0.0000000000000000        4.9843151188479443E-002
  -9.3960593244350604E-002   5.4047138758359717E-003   5.3217718535101849E-002
  -9.7561579812410829E-002   1.0671898518982086E-002   5.4973391579989685E-002
 -0.10116256638047108        1.5801553929438363E-002   5.5110170323142929E-002
 -0.10476355294853130        2.0793680107204792E-002   5.3628054764561603E-002
  -6.0314947136583953E-002   8.1570566924323868E-003   5.0585181622013607E-002
  -6.0618508787504743E-002   1.0037739377828264E-002   5.1523564596962702E-002
  -6.0922070438425527E-002   1.1726183676962199E-002   5.2250090588969948E-002
  -6.1225632089346317E-002   1.3222389589834195E-002   5.2764759598035324E-002
  -6.1529193740267100E-002   1.4526357116444261E-002   5.3067571624158857E-002
  -6.9044224352466849E-002   1.1316212546125496E-002   5.0240940026565116E-002
  -6.9321733536770902E-002   1.3762294836433962E-002   4.9465170924263835E-002
  -6.9599242721074955E-002   1.5673658108858360E-002   4.8953363738137849E-002
  -6.9876751905379036E-002   1.7050302363398679E-002   4.8705518468187194E-002
  -7.0154261089683062E-002   1.7892227600054988E-002   4.8721635114411854E-002
  -7.9362084393085716E-002   1.4475368399818590E-002   5.0633338351840286E-002
  -7.9137722211655853E-002   1.7486850295039661E-002   4.7800936540666486E-002
  -7.8913360030226004E-002   1.9621132540754527E-002   4.5708315544785161E-002
  -7.8688997848796183E-002   2.0878215136963217E-002   4.4355475364196331E-002
  -7.8464635667366348E-002   2.1258098083665702E-002   4.3742415998899983E-002
  -9.1268527258440521E-002   1.7634524253511683E-002   5.1762376597839110E-002
  -9.0066474812159597E-002   2.1211405753645354E-002   4.6530861446170683E-002
  -8.8864422365878701E-002   2.3568606972650712E-002   4.2514946008911904E-002
  -8.7662369919597791E-002   2.4706127910527727E-002   3.9714630286062785E-002
  -8.6460317473316881E-002   2.4623968567276392E-002   3.8129914277623279E-002
 -0.10476355294853130        2.0793680107204792E-002   5.3628054764561603E-002
 -0.10210799133828216        2.4935961212251057E-002   4.5654945640776379E-002
  -9.9452429728033004E-002   2.7516081404546856E-002   3.9373255130517988E-002
  -9.6796868117783846E-002   2.8534040684092227E-002   3.4782983233786438E-002
  -9.4141306507534717E-002   2.7989839050887151E-002   3.1884129950581742E-002
  -6.1529193740267100E-002   1.4526357116444261E-002   5.3067571624158857E-002
  -6.0211149598265852E-002   1.5536036549887302E-002   5.1648402918469699E-002
  -5.8893105456264638E-002   1.6149378183258307E-002   5.0674873007999742E-002
  -5.7575061314263418E-002   1.6366382016557230E-002   5.0146981892749076E-002
  -5.6257017172262183E-002   1.6187048049784089E-002   5.0064729572717612E-002
  -7.0154261089683062E-002   1.7892227600054988E-002   4.8721635114411854E-002
  -6.8436028858639170E-002   1.8353299161849222E-002   4.7260045408322848E-002
  -6.6717796627595222E-002   1.8587382391803534E-002   4.6153193085100054E-002
  -6.4999564396551301E-002   1.8594477289917900E-002   4.5401078144743368E-002
  -6.3281332165507381E-002   1.8374583856192256E-002   4.5003700587252900E-002
  -7.8464635667366348E-002   2.1258098083665702E-002   4.3742415998899983E-002
  -7.6437116759632787E-002   2.1170561773811145E-002   4.2407754760643276E-002
  -7.4409597851899212E-002   2.1025386600348757E-002   4.1336929492899688E-002
  -7.2382078944165679E-002   2.0822572563278529E-002   4.0529940195669155E-002
  -7.0354560036432104E-002   2.0562119662600430E-002   3.9986786868951726E-002
  -8.6460317473316881E-002   2.4623968567276392E-002   3.8129914277623279E-002
  -8.4214413301246765E-002   2.3987824385773085E-002   3.7091530975430970E-002
  -8.1968509129176664E-002   2.3463390808893998E-002   3.6226082231398636E-002
  -7.9722604957106535E-002   2.3050667836639161E-002   3.5533568045526466E-002
  -7.7476700785036434E-002   2.2749655469008600E-002   3.5013988417814210E-002
  -9.4141306507534717E-002   2.7989839050887151E-002   3.1884129950581742E-002
  -9.1767918483481065E-002   2.6805086997734977E-002   3.1311374052685893E-002
  -8.9394530459427482E-002   2.5901395017439197E-002   3.0820651300597041E-002
  -8.7021142435373885E-002   2.5278763109999814E-002   3.0411961694315121E-002
  -8.4647754411320261E-002   2.4937191275416770E-002   3.0085305233840176E-002
  -5.6257017172262183E-002   1.6187048049784089E-002   5.0064729572717612E-002
  -5.4729219968769172E-002   1.5817009660506469E-002   4.9761233330062410E-002
  -5.3201422765276167E-002   1.5461900226292059E-002   4.9649431036751145E-002
  -5.1673625561783162E-002   1.5121719747140893E-002   4.9729322692783740E-002
  -5.0145828358290165E-002   1.4796468223052778E-002   5.0000908298160368E-002
  -6.3281332165507381E-002   1.8374583856192256E-002   4.5003700587252900E-002
  -6.1559459779967601E-002   1.8025019183435305E-002   4.4644960104041183E-002
  -5.9837587394427807E-002   1.7643100364455523E-002   4.4482676035579122E-002
  -5.8115715008888021E-002   1.7228827399252959E-002   4.4516848381866661E-002
  -5.6393842623348234E-002   1.6782200287827703E-002   4.4747477142903835E-002
  -7.0354560036432104E-002   2.0562119662600430E-002   3.9986786868951726E-002
  -6.8433850003439850E-002   2.0233028706364033E-002   3.9525519043897603E-002
  -6.6513139970447610E-002   1.9824300502618929E-002   3.9265470098998778E-002
  -6.4592429937455356E-002   1.9335935051365168E-002   3.9206640034255294E-002
  -6.2671719904463116E-002   1.8767932352602643E-002   3.9349028849667074E-002
  -7.7476700785036434E-002   2.2749655469008600E-002   3.5013988417814210E-002
  -7.5352390639186015E-002   2.2441038229292845E-002   3.4402910149631670E-002
  -7.3228080493335582E-002   2.2005500640782365E-002   3.3997813227010142E-002
  -7.1103770347485121E-002   2.1443042703477289E-002   3.3798697649949652E-002
  -6.8979460201634715E-002   2.0753664417377561E-002   3.3805563418450216E-002
  -8.4647754411320261E-002   2.4937191275416770E-002   3.0085305233840176E-002
  -8.2315081687205943E-002   2.4649047752221598E-002   2.9277133421243315E-002
  -7.9982408963091695E-002   2.4186700778945788E-002   2.8679705419613219E-002
  -7.7649736238977377E-002   2.3550150355589463E-002   2.8293021228949805E-002
  -7.5317063514863086E-002   2.2739396482152507E-002   2.8117080849253129E-002
  -5.0145828358290165E-002   1.4796468223052778E-002   5.0000908298160368E-002
  -4.8592448269356894E-002   1.4451275510529271E-002   4.9692399352861572E-002
  -4.7039068180423645E-002   1.4051271466071651E-002   4.9591427066802959E-002
  -4.5485688091490395E-002   1.3596456089680143E-002   4.9697991439984650E-002
  -4.3932308002557138E-002   1.3086829381354415E-002   5.0012092472406566E-002
  -5.6393842623348234E-002   1.6782200287827703E-002   4.4747477142903835E-002
  -5.4633948524725202E-002   1.6309033689664562E-002   4.4370314452404372E-002
  -5.2874054426102171E-002   1.5815142264248329E-002   4.4198643122044218E-002
  -5.1114160327479126E-002   1.5300526011579186E-002   4.4232463151823428E-002
  -4.9354266228856074E-002   1.4765184931657016E-002   4.4471774541741976E-002
  -6.2671719904463116E-002   1.8767932352602643E-002   3.9349028849667074E-002
  -6.0707357095251144E-002   1.8166791868799825E-002   3.8937298918647952E-002
  -5.8742994286039144E-002   1.7579013062424983E-002   3.8729015048667270E-002
  -5.6778631476827157E-002   1.7004595933478285E-002   3.8724177239725134E-002
  -5.4814268667615185E-002   1.6443540481959562E-002   3.8922785491821474E-002
  -6.8979460201634715E-002   2.0753664417377561E-002   3.3805563418450216E-002
  -6.6812673980934684E-002   2.0024550047935075E-002   3.3393352751592477E-002
  -6.4645887760234610E-002   1.9342883860601720E-002   3.3182542846672339E-002
  -6.2479101539534544E-002   1.8708665855377355E-002   3.3173133703689857E-002
  -6.0312315318834561E-002   1.8121896032262164E-002   3.3365125322645017E-002
  -7.5317063514863086E-002   2.2739396482152507E-002   2.8117080849253129E-002
  -7.2949899181775829E-002   2.1882308227070379E-002   2.7738475951237851E-002
  -7.0582734848688544E-002   2.1106754658778260E-002   2.7559226516059243E-002
  -6.8215570515601259E-002   2.0412735777276425E-002   2.7579332543717514E-002
  -6.5848406182514002E-002   1.9800251582564710E-002   2.7798794034212537E-002
  -4.3932308002557138E-002   1.3086829381354415E-002   5.0012092472406566E-002
  -4.2277571072475068E-002   1.2560790437144864E-002   4.9778835275937017E-002
  -4.0622834142393004E-002   1.2056738353101795E-002   4.9728058410012627E-002
  -3.8968097212310926E-002   1.1574673129224850E-002   4.9859761874633118E-002
  -3.7313360282228869E-002   1.1114594765514574E-002   5.0173945669798825E-002
  -4.9354266228856074E-002   1.4765184931657016E-002   4.4471774541741976E-002
  -4.7516020026301238E-002   1.4219434007749318E-002   4.4212448074464325E-002
  -4.5677773823746326E-002   1.3673588223123812E-002   4.4137659821587294E-002
  -4.3839527621191435E-002   1.3127647577780455E-002   4.4247409783110772E-002
  -4.2001281418636585E-002   1.2581612071719261E-002   4.4541697959034843E-002
  -5.4814268667615185E-002   1.6443540481959562E-002   3.8922785491821474E-002
  -5.2790455308731922E-002   1.5878077578353855E-002   3.8615308032851403E-002
  -5.0766641949848694E-002   1.5290438093146098E-002   3.8494426672137504E-002
  -4.8742828590965480E-002   1.4680622026336057E-002   3.8560141409679755E-002
  -4.6719015232082273E-002   1.4048629377923949E-002   3.8812452245478149E-002
  -6.0312315318834561E-002   1.8121896032262164E-002   3.3365125322645017E-002
  -5.8100876919767376E-002   1.7536721148958351E-002   3.2987415151098279E-002
  -5.5889438520700191E-002   1.6907287963168195E-002   3.2798358961663249E-002
  -5.3678000121633027E-002   1.6233596474891549E-002   3.2797956754339899E-002
  -5.1466561722565876E-002   1.5515646684128692E-002   3.2986208529128286E-002
  -6.5848406182514002E-002   1.9800251582564710E-002   2.7798794034212537E-002
  -6.3447284859407413E-002   1.9195364719562846E-002   2.7328769429204897E-002
  -6.1046163536300740E-002   1.8524137833190416E-002   2.7049456690164425E-002
  -5.8645042213194110E-002   1.7786570923447240E-002   2.6960855817091470E-002
  -5.6243920890087507E-002   1.6982663990333324E-002   2.7062966809985378E-002
  -3.7313360282228869E-002   1.1114594765514574E-002   5.0173945669798825E-002
  -3.5755415048683944E-002   1.0641852407376862E-002   4.9897515913379986E-002
  -3.4197469815139020E-002   1.0121795200218678E-002   4.9847100850889142E-002
  -3.2639524581594095E-002   9.5544231440393319E-003   5.0022700482326418E-002
  -3.1081579348049171E-002   8.9397362388395352E-003   5.0424314807691994E-002
  -4.2001281418636585E-002   1.2581612071719261E-002   4.4541697959034843E-002
  -4.0238833821178814E-002   1.2025427400888550E-002   4.4180184036641951E-002
  -3.8476386223721029E-002   1.1449039261236915E-002   4.4001660148146632E-002
  -3.6713938626263279E-002   1.0852447652764316E-002   4.4006126293548817E-002
  -3.4951491028805529E-002   1.0235652575470822E-002   4.4193582472848547E-002
  -4.6719015232082273E-002   1.4048629377923949E-002   3.8812452245478149E-002
  -4.4795089930742146E-002   1.3409002394400210E-002   3.8392965537310850E-002
  -4.2871164629402082E-002   1.2776283322255368E-002   3.8113444203010667E-002
  -4.0947239328061977E-002   1.2150472161489187E-002   3.7973888242577594E-002
  -3.9023314026721892E-002   1.1531568912102191E-002   3.7974297656011444E-002
  -5.1466561722565876E-002   1.5515646684128692E-002   3.2986208529128286E-002
  -4.9424183377373997E-002   1.4792577387911829E-002   3.2535860415386531E-002
  -4.7381805032182089E-002   1.4103527383273824E-002   3.2182453015481415E-002
  -4.5339426686990196E-002   1.3448496670214281E-002   3.1925986329412959E-002
  -4.3297048341798303E-002   1.2827485248733575E-002   3.1766460357180851E-002
  -5.6243920890087507E-002   1.6982663990333324E-002   2.7062966809985378E-002
  -5.4126114161074323E-002   1.6176152381423586E-002   2.6608868670869146E-002
  -5.2008307432061099E-002   1.5430771444292016E-002   2.6208686585558860E-002
  -4.9890500703047895E-002   1.4746521178939032E-002   2.5862420554054660E-002
  -4.7772693974034747E-002   1.4123401585364903E-002   2.5570070576356574E-002
  -3.1081579348049171E-002   8.9397362388395352E-003   5.0424314807691994E-002
  -2.9053505256618484E-002   8.3252117249315027E-003   5.0449539534533738E-002
  -2.7025431165187797E-002   7.7583268426284074E-003   5.0891935245059278E-002
  -2.4997357073757095E-002   7.2390815919296143E-003   5.1751501939268432E-002
  -2.2969282982326422E-002   6.7674759728355571E-003   5.3028239617161299E-002
  -3.4951491028805529E-002   1.0235652575470822E-002   4.4193582472848547E-002
  -3.2609143253546913E-002   9.6116626439857467E-003   4.3940725278696108E-002
  -3.0266795478288304E-002   8.9934864729390718E-003   4.3899244468515730E-002
  -2.7924447703029699E-002   8.3811240623301864E-003   4.4069140042307123E-002
  -2.5582099927771079E-002   7.7745754121595345E-003   4.4450412000071382E-002
  -3.9023314026721892E-002   1.1531568912102191E-002   3.7974297656011444E-002
  -3.6572487167346873E-002   1.0898113563040268E-002   3.7401532669698007E-002
  -3.4121660307971875E-002   1.0228646103249785E-002   3.6834349467645001E-002
  -3.1670833448596752E-002   9.5231665327308677E-003   3.6272748049852852E-002
  -2.9220006589221734E-002   8.7816748514834009E-003   3.5716728416321342E-002
  -4.3297048341798303E-002   1.2827485248733575E-002   3.1766460357180851E-002
  -4.0943536998018414E-002   1.2184564482094484E-002   3.0831961707539796E-002
  -3.8590025654238462E-002   1.1463805733560529E-002   2.9697250242447869E-002
  -3.6236514310458490E-002   1.0665209003131549E-002   2.8362325961904900E-002
  -3.3883002966678732E-002   9.7887742908073783E-003   2.6827188865911386E-002
  -4.7772693974034747E-002   1.4123401585364903E-002   2.5570070576356574E-002
  -4.5722292745561444E-002   1.3471015401148978E-002   2.4232012392221169E-002
  -4.3671891517088127E-002   1.2698965363871259E-002   2.2487946792923624E-002
  -4.1621490288614817E-002   1.1807251473532145E-002   2.0337873778463536E-002
  -3.9571089060141562E-002   1.0795873730131245E-002   1.7781793348841113E-002
  -9.0359606676290366E-002   0.0000000000000000        4.9843151188479443E-002
  -9.3960593244350604E-002   5.4047138758359717E-003   5.3217718535101849E-002
  -9.7561579812410829E-002   1.0671898518982086E-002   5.4973391579989685E-002
 -0.10116256638047108        1.5801553929438363E-002   5.5110170323142929E-002
 -0.10476355294853130        2.0793680107204792E-002   5.3628054764561603E-002
 -0.10329055504433581        0.0000000000000000        5.8670957871560944E-002
 -0.10682868046354529        1.0884101443261022E-002   5.2126065676652684E-002
 -0.11036680588275478        1.9172136025079847E-002   4.7325790081180499E-002
 -0.11390493130196429        2.4864103745456480E-002   4.4270131085144375E-002
 -0.11744305672117375        2.7960004604390930E-002   4.2959088688544332E-002
 -0.12645592035743122        0.0000000000000000        7.4207420936443655E-002
 -0.12656767372661931        1.6363489010686072E-002   5.5284531571252397E-002
 -0.12667942709580743        2.7672373531177599E-002   4.1469769706667846E-002
 -0.12679118046499552        3.3926653561474604E-002   3.2763135342690007E-002
 -0.12690293383418361        3.5126329101577043E-002   2.9164628479318899E-002
 -0.15985570261557663        0.0000000000000000        9.6452540383127602E-002
 -0.15317757303357266        2.1842876578111112E-002   6.2693116218900974E-002
 -0.14649944345156871        3.6172611037275350E-002   3.7405330456451703E-002
 -0.13982131386956476        4.2989203377492742E-002   2.0589183095779843E-002
 -0.13314318428756078        4.2292653598763205E-002   1.2244674136885321E-002
 -0.20348990181877200        0.0000000000000000       0.12540631621161277     
 -0.18665837838440533        2.7322264145536158E-002   7.4351819619598442E-002
 -0.16982685495003866        4.4672848543373098E-002   3.5132472330532127E-002
 -0.15299533151567202        5.2051753193510825E-002   7.7482743444138441E-003
 -0.13616380808130535        4.9458978095949332E-002  -7.8007743387564082E-003
 -0.10476355294853130        2.0793680107204792E-002   5.3628054764561603E-002
 -0.10210799133828216        2.4935961212251057E-002   4.5654945640776379E-002
  -9.9452429728033004E-002   2.7516081404546856E-002   3.9373255130517988E-002
  -9.6796868117783846E-002   2.8534040684092227E-002   3.4782983233786438E-002
  -9.4141306507534717E-002   2.7989839050887151E-002   3.1884129950581742E-002
 -0.11744305672117375        2.7960004604390930E-002   4.2959088688544332E-002
 -0.11348444061083082        2.9433656550546451E-002   3.6711946172525656E-002
 -0.10952582450048789        3.0258877532586298E-002   3.1379494043167720E-002
 -0.10556720839014500        3.0435667550510505E-002   2.6961732300470491E-002
 -0.10160859227980203        2.9964026604319079E-002   2.3458660944434037E-002
 -0.12690293383418361        3.5126329101577043E-002   2.9164628479318899E-002
 -0.12241799145061295        3.3931351888841832E-002   2.5557182519701575E-002
 -0.11793304906704234        3.3001673660625758E-002   2.2087698719878843E-002
 -0.11344810668347172        3.2337294416928807E-002   1.8756177079850816E-002
 -0.10896316429990111        3.1938214157750999E-002   1.5562617599617396E-002
 -0.13314318428756078        4.2292653598763205E-002   1.2244674136885321E-002
 -0.12890864385762854        3.8429047227137213E-002   1.2190654682304109E-002
 -0.12467410342769635        3.5744469788665169E-002   1.1497869160651476E-002
 -0.12043956299776412        3.4238921283347046E-002   1.0166317571927345E-002
 -0.11620502256783187        3.3912401711182927E-002   8.1959999161317684E-003
 -0.13616380808130535        4.9458978095949332E-002  -7.8007743387564082E-003
 -0.13295639783187760        4.2926742565432614E-002  -3.3876373396666097E-003
 -0.12974898758244988        3.8487265916704594E-002  -3.8999463451451152E-004
 -0.12654157733302218        3.6140548149765361E-002   1.1921537767001058E-003
 -0.12333416708359443        3.5886589264614882E-002   1.3588078939771875E-003
  -9.4141306507534717E-002   2.7989839050887151E-002   3.1884129950581742E-002
  -9.1767918483481065E-002   2.6805086997734977E-002   3.1311374052685893E-002
  -8.9394530459427482E-002   2.5901395017439197E-002   3.0820651300597041E-002
  -8.7021142435373885E-002   2.5278763109999814E-002   3.0411961694315121E-002
  -8.4647754411320261E-002   2.4937191275416770E-002   3.0085305233840176E-002
 -0.10160859227980203        2.9964026604319079E-002   2.3458660944434037E-002
  -9.9137023482364209E-002   2.9197956465104726E-002   2.3185082751746796E-002
  -9.6665454684926350E-002   2.8491458903960237E-002   2.3025832960021187E-002
  -9.4193885887488518E-002   2.7844533920885622E-002   2.2980911569256933E-002
  -9.1722317090050687E-002   2.7257181515880816E-002   2.3050318579454276E-002
 -0.10896316429990111        3.1938214157750999E-002   1.5562617599617396E-002
 -0.10636111947392451        3.1590825932474434E-002   1.5366729617352288E-002
 -0.10375907464794790        3.1081522790481229E-002   1.5317465291203314E-002
 -0.10115702982197131        3.0410304731771389E-002   1.5414824621170307E-002
  -9.8554984995994729E-002   2.9577171756344861E-002   1.5658807607253362E-002
 -0.11620502256783187        3.3912401711182927E-002   8.1959999161317684E-003
 -0.11344020645816198        3.3983695399844145E-002   7.8563146495022242E-003
 -0.11067539034849214        3.3671586677002208E-002   7.6955482941434891E-003
 -0.10791057423882225        3.2976075542657163E-002   7.7137008500550814E-003
 -0.10514575812915239        3.1897161996808795E-002   7.9107723172373995E-003
 -0.12333416708359443        3.5886589264614882E-002   1.3588078939771875E-003
 -0.12037428443507669        3.6376564867213898E-002   6.5383784819691981E-004
 -0.11741440178655900        3.6261650563523186E-002   1.6008196884165216E-004
 -0.11445451913804131        3.5541846353542926E-002  -1.2245974408850446E-004
 -0.11149463648952357        3.4217152237272952E-002  -1.9378729059349453E-004
  -8.4647754411320261E-002   2.4937191275416770E-002   3.0085305233840176E-002
  -8.2315081687205943E-002   2.4649047752221598E-002   2.9277133421243315E-002
  -7.9982408963091695E-002   2.4186700778945788E-002   2.8679705419613219E-002
  -7.7649736238977377E-002   2.3550150355589463E-002   2.8293021228949805E-002
  -7.5317063514863086E-002   2.2739396482152507E-002   2.8117080849253129E-002
  -9.1722317090050687E-002   2.7257181515880816E-002   2.3050318579454276E-002
  -8.9169589286611339E-002   2.6660796852820287E-002   2.2367432535871132E-002
  -8.6616861483172020E-002   2.5986775095578524E-002   2.1913912839971413E-002
  -8.4064133679732686E-002   2.5235116244155368E-002   2.1689759491755035E-002
  -8.1511405876293366E-002   2.4405820298550984E-002   2.1694972491221931E-002
  -9.8554984995994729E-002   2.9577171756344861E-002   1.5658807607253362E-002
  -9.5763579576513741E-002   2.8672545953418949E-002   1.5197773688583344E-002
  -9.2972174157032711E-002   2.7786849412211122E-002   1.4984728654313231E-002
  -9.0180768737551709E-002   2.6920082132721304E-002   1.5019672504443197E-002
  -8.7389363318070748E-002   2.6072244114949378E-002   1.5302605238973102E-002
 -0.10514575812915239        3.1897161996808795E-002   7.9107723172373995E-003
 -0.10209705255691304        3.0684295054017624E-002   7.7681568793796741E-003
  -9.9048346984673755E-002   2.9586923728843802E-002   7.8921528626385660E-003
  -9.5999641412434430E-002   2.8605048021287098E-002   8.2827602670142789E-003
  -9.2950935840195106E-002   2.7738667931347896E-002   8.9399790925063886E-003
 -0.11149463648952357        3.4217152237272952E-002  -1.9378729059349453E-004
 -0.10817000822780937        3.2696044154616327E-002   7.8582108260533134E-005
 -0.10484537996609511        3.1386998045476483E-002   6.3618546494779993E-004
 -0.10152075170438088        3.0290013909853107E-002   1.4790227794681497E-003
  -9.8196123442666650E-002   2.9405091747746304E-002   2.6070940518219676E-003
  -7.5317063514863086E-002   2.2739396482152507E-002   2.8117080849253129E-002
  -7.2949899181775829E-002   2.1882308227070379E-002   2.7738475951237851E-002
  -7.0582734848688544E-002   2.1106754658778260E-002   2.7559226516059243E-002
  -6.8215570515601259E-002   2.0412735777276425E-002   2.7579332543717514E-002
  -6.5848406182514002E-002   1.9800251582564710E-002   2.7798794034212537E-002
  -8.1511405876293366E-002   2.4405820298550984E-002   2.1694972491221931E-002
  -7.8972762848255162E-002   2.3563326371440790E-002   2.1671263653953637E-002
  -7.6434119820216972E-002   2.2772073575500373E-002   2.1791156743750498E-002
  -7.3895476792178741E-002   2.2032061910729622E-002   2.2054651760612443E-002
  -7.1356833764140565E-002   2.1343291377128593E-002   2.2461748704539264E-002
  -8.7389363318070748E-002   2.6072244114949378E-002   1.5302605238973102E-002
  -8.4734995130853266E-002   2.5244344515811257E-002   1.5603498906831381E-002
  -8.2080626943635882E-002   2.4437392492222321E-002   1.5992240965983076E-002
  -7.9426258756418414E-002   2.3651388044182542E-002   1.6468831416427965E-002
  -7.6771890569201015E-002   2.2886331171692309E-002   1.7033270258166380E-002
  -9.2950935840195106E-002   2.7738667931347896E-002   8.9399790925063886E-003
  -9.0236596029570210E-002   2.6925362660181668E-002   9.5351817098708602E-003
  -8.7522256218945271E-002   2.6102711408944185E-002   1.0162479182757020E-002
  -8.4807916408320388E-002   2.5270714177635684E-002   1.0821871511164599E-002
  -8.2093576597695408E-002   2.4429370966255998E-002   1.1513358695094171E-002
  -9.8196123442666650E-002   2.9405091747746304E-002   2.6070940518219676E-003
  -9.5477565544405896E-002   2.8606380804552051E-002   3.4663120630720745E-003
  -9.2759007646145170E-002   2.7768030325666354E-002   4.3018713940721071E-003
  -9.0040449747884430E-002   2.6890040311088749E-002   5.1137720448221867E-003
  -8.7321891849623690E-002   2.5972410760819797E-002   5.9020140153220879E-003
  -6.5848406182514002E-002   1.9800251582564710E-002   2.7798794034212537E-002
  -6.3447284859407413E-002   1.9195364719562846E-002   2.7328769429204897E-002
  -6.1046163536300740E-002   1.8524137833190416E-002   2.7049456690164425E-002
  -5.8645042213194110E-002   1.7786570923447240E-002   2.6960855817091470E-002
  -5.6243920890087507E-002   1.6982663990333324E-002   2.7062966809985378E-002
  -7.1356833764140565E-002   2.1343291377128593E-002   2.2461748704539264E-002
  -6.8754187782027978E-002   2.0657902483035284E-002   2.2040498731374120E-002
  -6.6151541799915309E-002   1.9928035736788127E-002   2.1831586210253703E-002
  -6.3548895817802709E-002   1.9153691138386868E-002   2.1835011141178105E-002
  -6.0946249835690053E-002   1.8334868687831574E-002   2.2050773524147110E-002
  -7.6771890569201015E-002   2.2886331171692309E-002   1.7033270258166380E-002
  -7.3946094342004956E-002   2.2120440246507833E-002   1.6682657088060424E-002
  -7.1120298114808828E-002   2.1331933640385888E-002   1.6566006956076657E-002
  -6.8294501887612671E-002   2.0520811353326604E-002   1.6683319862214923E-002
  -6.5468705660416626E-002   1.9687073385329934E-002   1.7034595806475705E-002
  -8.2093576597695408E-002   2.4429370966255998E-002   1.1513358695094171E-002
  -7.9023004539338332E-002   2.3582978009980327E-002   1.1255244499263770E-002
  -7.5952432480981269E-002   2.2735831543983735E-002   1.1252718927633005E-002
  -7.2881860422624178E-002   2.1887931568266399E-002   1.1505781980202183E-002
  -6.9811288364267116E-002   2.1039278082828128E-002   1.2014433656970861E-002
  -8.7321891849623690E-002   2.5972410760819797E-002   5.9020140153220879E-003
  -8.3984918374028161E-002   2.5045515773452709E-002   5.7582609649840522E-003
  -8.0647944898432633E-002   2.4139729447581471E-002   5.8917221249231155E-003
  -7.7310971422837105E-002   2.3255051783206054E-002   6.3023974951393197E-003
  -7.3973997947241577E-002   2.2391482780326433E-002   6.9902870756329838E-003
  -5.6243920890087507E-002   1.6982663990333324E-002   2.7062966809985378E-002
  -5.4126114161074323E-002   1.6176152381423586E-002   2.6608868670869146E-002
  -5.2008307432061099E-002   1.5430771444292016E-002   2.6208686585558860E-002
  -4.9890500703047895E-002   1.4746521178939032E-002   2.5862420554054660E-002
  -4.7772693974034747E-002   1.4123401585364903E-002   2.5570070576356574E-002
  -6.0946249835690053E-002   1.8334868687831574E-002   2.2050773524147110E-002
  -5.8720155521081535E-002   1.7511667946463555E-002   2.1879346008849693E-002
  -5.6494061206472990E-002   1.6724188475624263E-002   2.1870577610937039E-002
  -5.4267966891864493E-002   1.5972430275313691E-002   2.2024468330408921E-002
  -5.2041872577255927E-002   1.5256393345531472E-002   2.2341018167265470E-002
  -6.5468705660416626E-002   1.9687073385329934E-002   1.7034595806475705E-002
  -6.3025580696634109E-002   1.8847183511503843E-002   1.7120429513747287E-002
  -6.0582455732851606E-002   1.8017605506956504E-002   1.7477665401982069E-002
  -5.8139330769069124E-002   1.7198339371687903E-002   1.8106303471180394E-002
  -5.5696205805286593E-002   1.6389385105698234E-002   1.9006343721341898E-002
  -6.9811288364267116E-002   2.1039278082828128E-002   1.2014433656970861E-002
  -6.7042389687732018E-002   2.0182699076544110E-002   1.2332119185561666E-002
  -6.4273491011196907E-002   1.9311022538288859E-002   1.3029949958694527E-002
  -6.1504592334661823E-002   1.8424248468062284E-002   1.4107925976369139E-002
  -5.8735693658126718E-002   1.7522376865864789E-002   1.5566047238585515E-002
  -7.3973997947241577E-002   2.2391482780326433E-002   6.9902870756329838E-003
  -7.0770582494375234E-002   2.1518214641583988E-002   7.5144150242931751E-003
  -6.7567167041509002E-002   2.0604439569620964E-002   8.5274312810738051E-003
  -6.4363751588642770E-002   1.9650157564436603E-002   1.0029335845974846E-002
  -6.1160336135776427E-002   1.8655368626031454E-002   1.2020128718996714E-002
  -4.7772693974034747E-002   1.4123401585364903E-002   2.5570070576356574E-002
  -4.5722292745561444E-002   1.3471015401148978E-002   2.4232012392221169E-002
  -4.3671891517088127E-002   1.2698965363871259E-002   2.2487946792923624E-002
  -4.1621490288614817E-002   1.1807251473532145E-002   2.0337873778463536E-002
  -3.9571089060141562E-002   1.0795873730131245E-002   1.7781793348841113E-002
  -5.2041872577255927E-002   1.5256393345531472E-002   2.2341018167265470E-002
  -5.0053556226219501E-002   1.4524340372140288E-002   2.1868019290641805E-002
  -4.8065239875183199E-002   1.3724534041001948E-002   2.1676858074306526E-002
  -4.6076923524146732E-002   1.2856974352116055E-002   2.1767534518259940E-002
  -4.4088607173110472E-002   1.1921661305483555E-002   2.2140048622501407E-002
  -5.5696205805286593E-002   1.6389385105698234E-002   1.9006343721341898E-002
  -5.3082129256236316E-002   1.5577665343131625E-002   1.9450314647544223E-002
  -5.0468052707186031E-002   1.4750102718132090E-002   2.0863968309486024E-002
  -4.7853976158135782E-002   1.3906697230700050E-002   2.3247304707166880E-002
  -4.5239899609085435E-002   1.3047448880835644E-002   2.6600323840587248E-002
  -5.8735693658126718E-002   1.7522376865864789E-002   1.5566047238585515E-002
  -5.4808011835611681E-002   1.6630990314122948E-002   1.6978898462928379E-002
  -5.0880330013096622E-002   1.5775671395262671E-002   2.0049277498461693E-002
  -4.6952648190581564E-002   1.4956420109284226E-002   2.4777184345185027E-002
  -4.3024966368066533E-002   1.4173236456188010E-002   3.1162619003098455E-002
  -6.1160336135776427E-002   1.8655368626031454E-002   1.2020128718996714E-002
  -5.5231203964345665E-002   1.7684315285114049E-002   1.4453770736794658E-002
  -4.9302071792915014E-002   1.6801240072393336E-002   1.9232785641233846E-002
  -4.3372939621484363E-002   1.6006142987868170E-002   2.6357173432313884E-002
  -3.7443807450053601E-002   1.5299024031540043E-002   3.5826934110035014E-002
 </DataArray>
 </PointData>
 </Piece>
 <Piece  NumberOfPoints="          1600 "  NumberOfCells="         1024 ">
 <Points>
 <DataArray  type="Float64" NumberOfComponents="3"  format="ascii" >
  0.50000000000000000        0.0000000000000000        0.0000000000000000     
  0.53125000000000000        0.0000000000000000        0.0000000000000000     
  0.56250000000000000        0.0000000000000000        0.0000000000000000     
  0.59375000000000000        0.0000000000000000        0.0000000000000000     
  0.62500000000000000        0.0000000000000000        0.0000000000000000     
  0.50000000000000000        3.1250000000000000E-002   0.0000000000000000     
  0.53125000000000000        3.1250000000000000E-002   0.0000000000000000     
  0.56250000000000000        3.1250000000000000E-002   0.0000000000000000     
  0.59375000000000000        3.1250000000000000E-002   0.0000000000000000     
  0.62500000000000000        3.1250000000000000E-002   0.0000000000000000     
  0.50000000000000000        6.2500000000000000E-002   0.0000000000000000     
  0.53125000000000000        6.2500000000000000E-002   0.0000000000000000     
  0.56250000000000000        6.2500000000000000E-002   0.0000000000000000     
  0.59375000000000000        6.2500000000000000E-002   0.0000000000000000     
  0.62500000000000000        6.2500000000000000E-002   0.0000000000000000     
  0.50000000000000000        9.3750000000000000E-002   0.0000000000000000     
  0.53125000000000000        9.3750000000000000E-002   0.0000000000000000     
  0.56250000000000000        9.3750000000000000E-002   0.0000000000000000     
  0.59375000000000000        9.3750000000000000E-002   0.0000000000000000     
  0.62500000000000000        9.3750000000000000E-002   0.0000000000000000     
  0.50000000000000000       0.12500000000000000        0.0000000000000000     
  0.53125000000000000       0.12500000000000000        0.0000000000000000     
  0.56250000000000000       0.12500000000000000        0.0000000000000000     
  0.59375000000000000       0.12500000000000000        0.0000000000000000     
  0.62500000000000000       0.12500000000000000        0.0000000000000000     
  0.62500000000000000        0.0000000000000000        0.0000000000000000     
  0.65625000000000000        0.0000000000000000        0.0000000000000000     
  0.68750000000000000        0.0000000000000000        0.0000000000000000     
  0.71875000000000000        0.0000000000000000        0.0000000000000000     
  0.75000000000000000        0.0000000000000000        0.0000000000000000     
  0.62500000000000000        3.1250000000000000E-002   0.0000000000000000     
  0.65625000000000000        3.1250000000000000E-002   0.0000000000000000     
  0.68750000000000000        3.1250000000000000E-002   0.0000000000000000     
  0.71875000000000000        3.1250000000000000E-002   0.0000000000000000     
  0.75000000000000000        3.1250000000000000E-002   0.0000000000000000     
  0.62500000000000000        6.2500000000000000E-002   0.0000000000000000     
  0.65625000000000000        6.2500000000000000E-002   0.0000000000000000     
  0.68750000000000000        6.2500000000000000E-002   0.0000000000000000     
  0.71875000000000000        6.2500000000000000E-002   0.0000000000000000     
  0.75000000000000000        6.2500000000000000E-002   0.0000000000000000     
  0.62500000000000000        9.3750000000000000E-002   0.0000000000000000     
  0.65625000000000000        9.3750000000000000E-002   0.0000000000000000     
  0.68750000000000000        9.3750000000000000E-002   0.0000000000000000     
  0.71875000000000000        9.3750000000000000E-002   0.0000000000000000     
  0.75000000000000000        9.3750000000000000E-002   0.0000000000000000     
  0.62500000000000000       0.12500000000000000        0.0000000000000000     
  0.65625000000000000       0.12500000000000000        0.0000000000000000     
  0.68750000000000000       0.12500000000000000        0.0000000000000000     
  0.71875000000000000       0.12500000000000000        0.0000000000000000     
  0.75000000000000000       0.12500000000000000        0.0000000000000000     
  0.75000000000000000        0.0000000000000000        0.0000000000000000     
  0.78125000000000000        0.0000000000000000        0.0000000000000000     
  0.81250000000000000        0.0000000000000000        0.0000000000000000     
  0.84375000000000000        0.0000000000000000        0.0000000000000000     
  0.87500000000000000        0.0000000000000000        0.0000000000000000     
  0.75000000000000000        3.1250000000000000E-002   0.0000000000000000     
  0.78125000000000000        3.1250000000000000E-002   0.0000000000000000     
  0.81250000000000000        3.1250000000000000E-002   0.0000000000000000     
  0.84375000000000000        3.1250000000000000E-002   0.0000000000000000     
  0.87500000000000000        3.1250000000000000E-002   0.0000000000000000     
  0.75000000000000000        6.2500000000000000E-002   0.0000000000000000     
  0.78125000000000000        6.2500000000000000E-002   0.0000000000000000     
  0.81250000000000000        6.2500000000000000E-002   0.0000000000000000     
  0.84375000000000000        6.2500000000000000E-002   0.0000000000000000     
  0.87500000000000000        6.2500000000000000E-002   0.0000000000000000     
  0.75000000000000000        9.3750000000000000E-002   0.0000000000000000     
  0.78125000000000000        9.3750000000000000E-002   0.0000000000000000     
  0.81250000000000000        9.3750000000000000E-002   0.0000000000000000     
  0.84375000000000000        9.3750000000000000E-002   0.0000000000000000     
  0.87500000000000000        9.3750000000000000E-002   0.0000000000000000     
  0.75000000000000000       0.12500000000000000        0.0000000000000000     
  0.78125000000000000       0.12500000000000000        0.0000000000000000     
  0.81250000000000000       0.12500000000000000        0.0000000000000000     
  0.84375000000000000       0.12500000000000000        0.0000000000000000     
  0.87500000000000000       0.12500000000000000        0.0000000000000000     
  0.87500000000000000        0.0000000000000000        0.0000000000000000     
  0.90625000000000000        0.0000000000000000        0.0000000000000000     
  0.93750000000000000        0.0000000000000000        0.0000000000000000     
  0.96875000000000000        0.0000000000000000        0.0000000000000000     
   1.0000000000000000        0.0000000000000000        0.0000000000000000     
  0.87500000000000000        3.1250000000000000E-002   0.0000000000000000     
  0.90625000000000000        3.1250000000000000E-002   0.0000000000000000     
  0.93750000000000000        3.1250000000000000E-002   0.0000000000000000     
  0.96875000000000000        3.1250000000000000E-002   0.0000000000000000     
   1.0000000000000000        3.1250000000000000E-002   0.0000000000000000     
  0.87500000000000000        6.2500000000000000E-002   0.0000000000000000     
  0.90625000000000000        6.2500000000000000E-002   0.0000000000000000     
  0.93750000000000000        6.2500000000000000E-002   0.0000000000000000     
  0.96875000000000000        6.2500000000000000E-002   0.0000000000000000     
   1.0000000000000000        6.2500000000000000E-002   0.0000000000000000     
  0.87500000000000000        9.3750000000000000E-002   0.0000000000000000     
  0.90625000000000000        9.3750000000000000E-002   0.0000000000000000     
  0.93750000000000000        9.3750000000000000E-002   0.0000000000000000     
  0.96875000000000000        9.3750000000000000E-002   0.0000000000000000     
   1.0000000000000000        9.3750000000000000E-002   0.0000000000000000     
  0.87500000000000000       0.12500000000000000        0.0000000000000000     
  0.90625000000000000       0.12500000000000000        0.0000000000000000     
  0.93750000000000000       0.12500000000000000        0.0000000000000000     
  0.96875000000000000       0.12500000000000000        0.0000000000000000     
   1.0000000000000000       0.12500000000000000        0.0000000000000000     
   1.0000000000000000        0.0000000000000000        0.0000000000000000     
   1.0312500000000000        0.0000000000000000        0.0000000000000000     
   1.0625000000000000        0.0000000000000000        0.0000000000000000     
   1.0937500000000000        0.0000000000000000        0.0000000000000000     
   1.1250000000000000        0.0000000000000000        0.0000000000000000     
   1.0000000000000000        3.1250000000000000E-002   0.0000000000000000     
   1.0312500000000000        3.1250000000000000E-002   0.0000000000000000     
   1.0625000000000000        3.1250000000000000E-002   0.0000000000000000     
   1.0937500000000000        3.1250000000000000E-002   0.0000000000000000     
   1.1250000000000000        3.1250000000000000E-002   0.0000000000000000     
   1.0000000000000000        6.2500000000000000E-002   0.0000000000000000     
   1.0312500000000000        6.2500000000000000E-002   0.0000000000000000     
   1.0625000000000000        6.2500000000000000E-002   0.0000000000000000     
   1.0937500000000000        6.2500000000000000E-002   0.0000000000000000     
   1.1250000000000000        6.2500000000000000E-002   0.0000000000000000     
   1.0000000000000000        9.3750000000000000E-002   0.0000000000000000     
   1.0312500000000000        9.3750000000000000E-002   0.0000000000000000     
   1.0625000000000000        9.3750000000000000E-002   0.0000000000000000     
   1.0937500000000000        9.3750000000000000E-002   0.0000000000000000     
   1.1250000000000000        9.3750000000000000E-002   0.0000000000000000     
   1.0000000000000000       0.12500000000000000        0.0000000000000000     
   1.0312500000000000       0.12500000000000000        0.0000000000000000     
   1.0625000000000000       0.12500000000000000        0.0000000000000000     
   1.0937500000000000       0.12500000000000000        0.0000000000000000     
   1.1250000000000000       0.12500000000000000        0.0000000000000000     
   1.1250000000000000        0.0000000000000000        0.0000000000000000     
   1.1562500000000000        0.0000000000000000        0.0000000000000000     
   1.1875000000000000        0.0000000000000000        0.0000000000000000     
   1.2187500000000000        0.0000000000000000        0.0000000000000000     
   1.2500000000000000        0.0000000000000000        0.0000000000000000     
   1.1250000000000000        3.1250000000000000E-002   0.0000000000000000     
   1.1562500000000000        3.1250000000000000E-002   0.0000000000000000     
   1.1875000000000000        3.1250000000000000E-002   0.0000000000000000     
   1.2187500000000000        3.1250000000000000E-002   0.0000000000000000     
   1.2500000000000000        3.1250000000000000E-002   0.0000000000000000     
   1.1250000000000000        6.2500000000000000E-002   0.0000000000000000     
   1.1562500000000000        6.2500000000000000E-002   0.0000000000000000     
   1.1875000000000000        6.2500000000000000E-002   0.0000000000000000     
   1.2187500000000000        6.2500000000000000E-002   0.0000000000000000     
   1.2500000000000000        6.2500000000000000E-002   0.0000000000000000     
   1.1250000000000000        9.3750000000000000E-002   0.0000000000000000     
   1.1562500000000000        9.3750000000000000E-002   0.0000000000000000     
   1.1875000000000000        9.3750000000000000E-002   0.0000000000000000     
   1.2187500000000000        9.3750000000000000E-002   0.0000000000000000     
   1.2500000000000000        9.3750000000000000E-002   0.0000000000000000     
   1.1250000000000000       0.12500000000000000        0.0000000000000000     
   1.1562500000000000       0.12500000000000000        0.0000000000000000     
   1.1875000000000000       0.12500000000000000        0.0000000000000000     
   1.2187500000000000       0.12500000000000000        0.0000000000000000     
   1.2500000000000000       0.12500000000000000        0.0000000000000000     
   1.2500000000000000        0.0000000000000000        0.0000000000000000     
   1.2812500000000000        0.0000000000000000        0.0000000000000000     
   1.3125000000000000        0.0000000000000000        0.0000000000000000     
   1.3437500000000000        0.0000000000000000        0.0000000000000000     
   1.3750000000000000        0.0000000000000000        0.0000000000000000     
   1.2500000000000000        3.1250000000000000E-002   0.0000000000000000     
   1.2812500000000000        3.1250000000000000E-002   0.0000000000000000     
   1.3125000000000000        3.1250000000000000E-002   0.0000000000000000     
   1.3437500000000000        3.1250000000000000E-002   0.0000000000000000     
   1.3750000000000000        3.1250000000000000E-002   0.0000000000000000     
   1.2500000000000000        6.2500000000000000E-002   0.0000000000000000     
   1.2812500000000000        6.2500000000000000E-002   0.0000000000000000     
   1.3125000000000000        6.2500000000000000E-002   0.0000000000000000     
   1.3437500000000000        6.2500000000000000E-002   0.0000000000000000     
   1.3750000000000000        6.2500000000000000E-002   0.0000000000000000     
   1.2500000000000000        9.3750000000000000E-002   0.0000000000000000     
   1.2812500000000000        9.3750000000000000E-002   0.0000000000000000     
   1.3125000000000000        9.3750000000000000E-002   0.0000000000000000     
   1.3437500000000000        9.3750000000000000E-002   0.0000000000000000     
   1.3750000000000000        9.3750000000000000E-002   0.0000000000000000     
   1.2500000000000000       0.12500000000000000        0.0000000000000000     
   1.2812500000000000       0.12500000000000000        0.0000000000000000     
   1.3125000000000000       0.12500000000000000        0.0000000000000000     
   1.3437500000000000       0.12500000000000000        0.0000000000000000     
   1.3750000000000000       0.12500000000000000        0.0000000000000000     
   1.3750000000000000        0.0000000000000000        0.0000000000000000     
   1.4062500000000000        0.0000000000000000        0.0000000000000000     
   1.4375000000000000        0.0000000000000000        0.0000000000000000     
   1.4687500000000000        0.0000000000000000        0.0000000000000000     
   1.5000000000000000        0.0000000000000000        0.0000000000000000     
   1.3750000000000000        3.1250000000000000E-002   0.0000000000000000     
   1.4062500000000000        3.1250000000000000E-002   0.0000000000000000     
   1.4375000000000000        3.1250000000000000E-002   0.0000000000000000     
   1.4687500000000000        3.1250000000000000E-002   0.0000000000000000     
   1.5000000000000000        3.1250000000000000E-002   0.0000000000000000     
   1.3750000000000000        6.2500000000000000E-002   0.0000000000000000     
   1.4062500000000000        6.2500000000000000E-002   0.0000000000000000     
   1.4375000000000000        6.2500000000000000E-002   0.0000000000000000     
   1.4687500000000000        6.2500000000000000E-002   0.0000000000000000     
   1.5000000000000000        6.2500000000000000E-002   0.0000000000000000     
   1.3750000000000000        9.3750000000000000E-002   0.0000000000000000     
   1.4062500000000000        9.3750000000000000E-002   0.0000000000000000     
   1.4375000000000000        9.3750000000000000E-002   0.0000000000000000     
   1.4687500000000000        9.3750000000000000E-002   0.0000000000000000     
   1.5000000000000000        9.3750000000000000E-002   0.0000000000000000     
   1.3750000000000000       0.12500000000000000        0.0000000000000000     
   1.4062500000000000       0.12500000000000000        0.0000000000000000     
   1.4375000000000000       0.12500000000000000        0.0000000000000000     
   1.4687500000000000       0.12500000000000000        0.0000000000000000     
   1.5000000000000000       0.12500000000000000        0.0000000000000000     
  0.50000000000000000       0.12500000000000000        0.0000000000000000     
  0.53125000000000000       0.12500000000000000        0.0000000000000000     
  0.56250000000000000       0.12500000000000000        0.0000000000000000     
  0.59375000000000000       0.12500000000000000        0.0000000000000000     
  0.62500000000000000       0.12500000000000000        0.0000000000000000     
  0.50000000000000000       0.15625000000000000        0.0000000000000000     
  0.53125000000000000       0.15625000000000000        0.0000000000000000     
  0.56250000000000000       0.15625000000000000        0.0000000000000000     
  0.59375000000000000       0.15625000000000000        0.0000000000000000     
  0.62500000000000000       0.15625000000000000        0.0000000000000000     
  0.50000000000000000       0.18750000000000000        0.0000000000000000     
  0.53125000000000000       0.18750000000000000        0.0000000000000000     
  0.56250000000000000       0.18750000000000000        0.0000000000000000     
  0.59375000000000000       0.18750000000000000        0.0000000000000000     
  0.62500000000000000       0.18750000000000000        0.0000000000000000     
  0.50000000000000000       0.21875000000000000        0.0000000000000000     
  0.53125000000000000       0.21875000000000000        0.0000000000000000     
  0.56250000000000000       0.21875000000000000        0.0000000000000000     
  0.59375000000000000       0.21875000000000000        0.0000000000000000     
  0.62500000000000000       0.21875000000000000        0.0000000000000000     
  0.50000000000000000       0.25000000000000000        0.0000000000000000     
  0.53125000000000000       0.25000000000000000        0.0000000000000000     
  0.56250000000000000       0.25000000000000000        0.0000000000000000     
  0.59375000000000000       0.25000000000000000        0.0000000000000000     
  0.62500000000000000       0.25000000000000000        0.0000000000000000     
  0.62500000000000000       0.12500000000000000        0.0000000000000000     
  0.65625000000000000       0.12500000000000000        0.0000000000000000     
  0.68750000000000000       0.12500000000000000        0.0000000000000000     
  0.71875000000000000       0.12500000000000000        0.0000000000000000     
  0.75000000000000000       0.12500000000000000        0.0000000000000000     
  0.62500000000000000       0.15625000000000000        0.0000000000000000     
  0.65625000000000000       0.15625000000000000        0.0000000000000000     
  0.68750000000000000       0.15625000000000000        0.0000000000000000     
  0.71875000000000000       0.15625000000000000        0.0000000000000000     
  0.75000000000000000       0.15625000000000000        0.0000000000000000     
  0.62500000000000000       0.18750000000000000        0.0000000000000000     
  0.65625000000000000       0.18750000000000000        0.0000000000000000     
  0.68750000000000000       0.18750000000000000        0.0000000000000000     
  0.71875000000000000       0.18750000000000000        0.0000000000000000     
  0.75000000000000000       0.18750000000000000        0.0000000000000000     
  0.62500000000000000       0.21875000000000000        0.0000000000000000     
  0.65625000000000000       0.21875000000000000        0.0000000000000000     
  0.68750000000000000       0.21875000000000000        0.0000000000000000     
  0.71875000000000000       0.21875000000000000        0.0000000000000000     
  0.75000000000000000       0.21875000000000000        0.0000000000000000     
  0.62500000000000000       0.25000000000000000        0.0000000000000000     
  0.65625000000000000       0.25000000000000000        0.0000000000000000     
  0.68750000000000000       0.25000000000000000        0.0000000000000000     
  0.71875000000000000       0.25000000000000000        0.0000000000000000     
  0.75000000000000000       0.25000000000000000        0.0000000000000000     
  0.75000000000000000       0.12500000000000000        0.0000000000000000     
  0.78125000000000000       0.12500000000000000        0.0000000000000000     
  0.81250000000000000       0.12500000000000000        0.0000000000000000     
  0.84375000000000000       0.12500000000000000        0.0000000000000000     
  0.87500000000000000       0.12500000000000000        0.0000000000000000     
  0.75000000000000000       0.15625000000000000        0.0000000000000000     
  0.78125000000000000       0.15625000000000000        0.0000000000000000     
  0.81250000000000000       0.15625000000000000        0.0000000000000000     
  0.84375000000000000       0.15625000000000000        0.0000000000000000     
  0.87500000000000000       0.15625000000000000        0.0000000000000000     
  0.75000000000000000       0.18750000000000000        0.0000000000000000     
  0.78125000000000000       0.18750000000000000        0.0000000000000000     
  0.81250000000000000       0.18750000000000000        0.0000000000000000     
  0.84375000000000000       0.18750000000000000        0.0000000000000000     
  0.87500000000000000       0.18750000000000000        0.0000000000000000     
  0.75000000000000000       0.21875000000000000        0.0000000000000000     
  0.78125000000000000       0.21875000000000000        0.0000000000000000     
  0.81250000000000000       0.21875000000000000        0.0000000000000000     
  0.84375000000000000       0.21875000000000000        0.0000000000000000     
  0.87500000000000000       0.21875000000000000        0.0000000000000000     
  0.75000000000000000       0.25000000000000000        0.0000000000000000     
  0.78125000000000000       0.25000000000000000        0.0000000000000000     
  0.81250000000000000       0.25000000000000000        0.0000000000000000     
  0.84375000000000000       0.25000000000000000        0.0000000000000000     
  0.87500000000000000       0.25000000000000000        0.0000000000000000     
  0.87500000000000000       0.12500000000000000        0.0000000000000000     
  0.90625000000000000       0.12500000000000000        0.0000000000000000     
  0.93750000000000000       0.12500000000000000        0.0000000000000000     
  0.96875000000000000       0.12500000000000000        0.0000000000000000     
   1.0000000000000000       0.12500000000000000        0.0000000000000000     
  0.87500000000000000       0.15625000000000000        0.0000000000000000     
  0.90625000000000000       0.15625000000000000        0.0000000000000000     
  0.93750000000000000       0.15625000000000000        0.0000000000000000     
  0.96875000000000000       0.15625000000000000        0.0000000000000000     
   1.0000000000000000       0.15625000000000000        0.0000000000000000     
  0.87500000000000000       0.18750000000000000        0.0000000000000000     
  0.90625000000000000       0.18750000000000000        0.0000000000000000     
  0.93750000000000000       0.18750000000000000        0.0000000000000000     
  0.96875000000000000       0.18750000000000000        0.0000000000000000     
   1.0000000000000000       0.18750000000000000        0.0000000000000000     
  0.87500000000000000       0.21875000000000000        0.0000000000000000     
  0.90625000000000000       0.21875000000000000        0.0000000000000000     
  0.93750000000000000       0.21875000000000000        0.0000000000000000     
  0.96875000000000000       0.21875000000000000        0.0000000000000000     
   1.0000000000000000       0.21875000000000000        0.0000000000000000     
  0.87500000000000000       0.25000000000000000        0.0000000000000000     
  0.90625000000000000       0.25000000000000000        0.0000000000000000     
  0.93750000000000000       0.25000000000000000        0.0000000000000000     
  0.96875000000000000       0.25000000000000000        0.0000000000000000     
   1.0000000000000000       0.25000000000000000        0.0000000000000000     
   1.0000000000000000       0.12500000000000000        0.0000000000000000     
   1.0312500000000000       0.12500000000000000        0.0000000000000000     
   1.0625000000000000       0.12500000000000000        0.0000000000000000     
   1.0937500000000000       0.12500000000000000        0.0000000000000000     
   1.1250000000000000       0.12500000000000000        0.0000000000000000     
   1.0000000000000000       0.15625000000000000        0.0000000000000000     
   1.0312500000000000       0.15625000000000000        0.0000000000000000     
   1.0625000000000000       0.15625000000000000        0.0000000000000000     
   1.0937500000000000       0.15625000000000000        0.0000000000000000     
   1.1250000000000000       0.15625000000000000        0.0000000000000000     
   1.0000000000000000       0.18750000000000000        0.0000000000000000     
   1.0312500000000000       0.18750000000000000        0.0000000000000000     
   1.0625000000000000       0.18750000000000000        0.0000000000000000     
   1.0937500000000000       0.18750000000000000        0.0000000000000000     
   1.1250000000000000       0.18750000000000000        0.0000000000000000     
   1.0000000000000000       0.21875000000000000        0.0000000000000000     
   1.0312500000000000       0.21875000000000000        0.0000000000000000     
   1.0625000000000000       0.21875000000000000        0.0000000000000000     
   1.0937500000000000       0.21875000000000000        0.0000000000000000     
   1.1250000000000000       0.21875000000000000        0.0000000000000000     
   1.0000000000000000       0.25000000000000000        0.0000000000000000     
   1.0312500000000000       0.25000000000000000        0.0000000000000000     
   1.0625000000000000       0.25000000000000000        0.0000000000000000     
   1.0937500000000000       0.25000000000000000        0.0000000000000000     
   1.1250000000000000       0.25000000000000000        0.0000000000000000     
   1.1250000000000000       0.12500000000000000        0.0000000000000000     
   1.1562500000000000       0.12500000000000000        0.0000000000000000     
   1.1875000000000000       0.12500000000000000        0.0000000000000000     
   1.2187500000000000       0.12500000000000000        0.0000000000000000     
   1.2500000000000000       0.12500000000000000        0.0000000000000000     
   1.1250000000000000       0.15625000000000000        0.0000000000000000     
   1.1562500000000000       0.15625000000000000        0.0000000000000000     
   1.1875000000000000       0.15625000000000000        0.0000000000000000     
   1.2187500000000000       0.15625000000000000        0.0000000000000000     
   1.2500000000000000       0.15625000000000000        0.0000000000000000     
   1.1250000000000000       0.18750000000000000        0.0000000000000000     
   1.1562500000000000       0.18750000000000000        0.0000000000000000     
   1.1875000000000000       0.18750000000000000        0.0000000000000000     
   1.2187500000000000       0.18750000000000000        0.0000000000000000     
   1.2500000000000000       0.18750000000000000        0.0000000000000000     
   1.1250000000000000       0.21875000000000000        0.0000000000000000     
   1.1562500000000000       0.21875000000000000        0.0000000000000000     
   1.1875000000000000       0.21875000000000000        0.0000000000000000     
   1.2187500000000000       0.21875000000000000        0.0000000000000000     
   1.2500000000000000       0.21875000000000000        0.0000000000000000     
   1.1250000000000000       0.25000000000000000        0.0000000000000000     
   1.1562500000000000       0.25000000000000000        0.0000000000000000     
   1.1875000000000000       0.25000000000000000        0.0000000000000000     
   1.2187500000000000       0.25000000000000000        0.0000000000000000     
   1.2500000000000000       0.25000000000000000        0.0000000000000000     
   1.2500000000000000       0.12500000000000000        0.0000000000000000     
   1.2812500000000000       0.12500000000000000        0.0000000000000000     
   1.3125000000000000       0.12500000000000000        0.0000000000000000     
   1.3437500000000000       0.12500000000000000        0.0000000000000000     
   1.3750000000000000       0.12500000000000000        0.0000000000000000     
   1.2500000000000000       0.15625000000000000        0.0000000000000000     
   1.2812500000000000       0.15625000000000000        0.0000000000000000     
   1.3125000000000000       0.15625000000000000        0.0000000000000000     
   1.3437500000000000       0.15625000000000000        0.0000000000000000     
   1.3750000000000000       0.15625000000000000        0.0000000000000000     
   1.2500000000000000       0.18750000000000000        0.0000000000000000     
   1.2812500000000000       0.18750000000000000        0.0000000000000000     
   1.3125000000000000       0.18750000000000000        0.0000000000000000     
   1.3437500000000000       0.18750000000000000        0.0000000000000000     
   1.3750000000000000       0.18750000000000000        0.0000000000000000     
   1.2500000000000000       0.21875000000000000        0.0000000000000000     
   1.2812500000000000       0.21875000000000000        0.0000000000000000     
   1.3125000000000000       0.21875000000000000        0.0000000000000000     
   1.3437500000000000       0.21875000000000000        0.0000000000000000     
   1.3750000000000000       0.21875000000000000        0.0000000000000000     
   1.2500000000000000       0.25000000000000000        0.0000000000000000     
   1.2812500000000000       0.25000000000000000        0.0000000000000000     
   1.3125000000000000       0.25000000000000000        0.0000000000000000     
   1.3437500000000000       0.25000000000000000        0.0000000000000000     
   1.3750000000000000       0.25000000000000000        0.0000000000000000     
   1.3750000000000000       0.12500000000000000        0.0000000000000000     
   1.4062500000000000       0.12500000000000000        0.0000000000000000     
   1.4375000000000000       0.12500000000000000        0.0000000000000000     
   1.4687500000000000       0.12500000000000000        0.0000000000000000     
   1.5000000000000000       0.12500000000000000        0.0000000000000000     
   1.3750000000000000       0.15625000000000000        0.0000000000000000     
   1.4062500000000000       0.15625000000000000        0.0000000000000000     
   1.4375000000000000       0.15625000000000000        0.0000000000000000     
   1.4687500000000000       0.15625000000000000        0.0000000000000000     
   1.5000000000000000       0.15625000000000000        0.0000000000000000     
   1.3750000000000000       0.18750000000000000        0.0000000000000000     
   1.4062500000000000       0.18750000000000000        0.0000000000000000     
   1.4375000000000000       0.18750000000000000        0.0000000000000000     
   1.4687500000000000       0.18750000000000000        0.0000000000000000     
   1.5000000000000000       0.18750000000000000        0.0000000000000000     
   1.3750000000000000       0.21875000000000000        0.0000000000000000     
   1.4062500000000000       0.21875000000000000        0.0000000000000000     
   1.4375000000000000       0.21875000000000000        0.0000000000000000     
   1.4687500000000000       0.21875000000000000        0.0000000000000000     
   1.5000000000000000       0.21875000000000000        0.0000000000000000     
   1.3750000000000000       0.25000000000000000        0.0000000000000000     
   1.4062500000000000       0.25000000000000000        0.0000000000000000     
   1.4375000000000000       0.25000000000000000        0.0000000000000000     
   1.4687500000000000       0.25000000000000000        0.0000000000000000     
   1.5000000000000000       0.25000000000000000        0.0000000000000000     
  0.50000000000000000       0.25000000000000000        0.0000000000000000     
  0.53125000000000000       0.25000000000000000        0.0000000000000000     
  0.56250000000000000       0.25000000000000000        0.0000000000000000     
  0.59375000000000000       0.25000000000000000        0.0000000000000000     
  0.62500000000000000       0.25000000000000000        0.0000000000000000     
  0.50000000000000000       0.28125000000000000        0.0000000000000000     
  0.53125000000000000       0.28125000000000000        0.0000000000000000     
  0.56250000000000000       0.28125000000000000        0.0000000000000000     
  0.59375000000000000       0.28125000000000000        0.0000000000000000     
  0.62500000000000000       0.28125000000000000        0.0000000000000000     
  0.50000000000000000       0.31250000000000000        0.0000000000000000     
  0.53125000000000000       0.31250000000000000        0.0000000000000000     
  0.56250000000000000       0.31250000000000000        0.0000000000000000     
  0.59375000000000000       0.31250000000000000        0.0000000000000000     
  0.62500000000000000       0.31250000000000000        0.0000000000000000     
  0.50000000000000000       0.34375000000000000        0.0000000000000000     
  0.53125000000000000       0.34375000000000000        0.0000000000000000     
  0.56250000000000000       0.34375000000000000        0.0000000000000000     
  0.59375000000000000       0.34375000000000000        0.0000000000000000     
  0.62500000000000000       0.34375000000000000        0.0000000000000000     
  0.50000000000000000       0.37500000000000000        0.0000000000000000     
  0.53125000000000000       0.37500000000000000        0.0000000000000000     
  0.56250000000000000       0.37500000000000000        0.0000000000000000     
  0.59375000000000000       0.37500000000000000        0.0000000000000000     
  0.62500000000000000       0.37500000000000000        0.0000000000000000     
  0.62500000000000000       0.25000000000000000        0.0000000000000000     
  0.65625000000000000       0.25000000000000000        0.0000000000000000     
  0.68750000000000000       0.25000000000000000        0.0000000000000000     
  0.71875000000000000       0.25000000000000000        0.0000000000000000     
  0.75000000000000000       0.25000000000000000        0.0000000000000000     
  0.62500000000000000       0.28125000000000000        0.0000000000000000     
  0.65625000000000000       0.28125000000000000        0.0000000000000000     
  0.68750000000000000       0.28125000000000000        0.0000000000000000     
  0.71875000000000000       0.28125000000000000        0.0000000000000000     
  0.75000000000000000       0.28125000000000000        0.0000000000000000     
  0.62500000000000000       0.31250000000000000        0.0000000000000000     
  0.65625000000000000       0.31250000000000000        0.0000000000000000     
  0.68750000000000000       0.31250000000000000        0.0000000000000000     
  0.71875000000000000       0.31250000000000000        0.0000000000000000     
  0.75000000000000000       0.31250000000000000        0.0000000000000000     
  0.62500000000000000       0.34375000000000000        0.0000000000000000     
  0.65625000000000000       0.34375000000000000        0.0000000000000000     
  0.68750000000000000       0.34375000000000000        0.0000000000000000     
  0.71875000000000000       0.34375000000000000        0.0000000000000000     
  0.75000000000000000       0.34375000000000000        0.0000000000000000     
  0.62500000000000000       0.37500000000000000        0.0000000000000000     
  0.65625000000000000       0.37500000000000000        0.0000000000000000     
  0.68750000000000000       0.37500000000000000        0.0000000000000000     
  0.71875000000000000       0.37500000000000000        0.0000000000000000     
  0.75000000000000000       0.37500000000000000        0.0000000000000000     
  0.75000000000000000       0.25000000000000000        0.0000000000000000     
  0.78125000000000000       0.25000000000000000        0.0000000000000000     
  0.81250000000000000       0.25000000000000000        0.0000000000000000     
  0.84375000000000000       0.25000000000000000        0.0000000000000000     
  0.87500000000000000       0.25000000000000000        0.0000000000000000     
  0.75000000000000000       0.28125000000000000        0.0000000000000000     
  0.78125000000000000       0.28125000000000000        0.0000000000000000     
  0.81250000000000000       0.28125000000000000        0.0000000000000000     
  0.84375000000000000       0.28125000000000000        0.0000000000000000     
  0.87500000000000000       0.28125000000000000        0.0000000000000000     
  0.75000000000000000       0.31250000000000000        0.0000000000000000     
  0.78125000000000000       0.31250000000000000        0.0000000000000000     
  0.81250000000000000       0.31250000000000000        0.0000000000000000     
  0.84375000000000000       0.31250000000000000        0.0000000000000000     
  0.87500000000000000       0.31250000000000000        0.0000000000000000     
  0.75000000000000000       0.34375000000000000        0.0000000000000000     
  0.78125000000000000       0.34375000000000000        0.0000000000000000     
  0.81250000000000000       0.34375000000000000        0.0000000000000000     
  0.84375000000000000       0.34375000000000000        0.0000000000000000     
  0.87500000000000000       0.34375000000000000        0.0000000000000000     
  0.75000000000000000       0.37500000000000000        0.0000000000000000     
  0.78125000000000000       0.37500000000000000        0.0000000000000000     
  0.81250000000000000       0.37500000000000000        0.0000000000000000     
  0.84375000000000000       0.37500000000000000        0.0000000000000000     
  0.87500000000000000       0.37500000000000000        0.0000000000000000     
  0.87500000000000000       0.25000000000000000        0.0000000000000000     
  0.90625000000000000       0.25000000000000000        0.0000000000000000     
  0.93750000000000000       0.25000000000000000        0.0000000000000000     
  0.96875000000000000       0.25000000000000000        0.0000000000000000     
   1.0000000000000000       0.25000000000000000        0.0000000000000000     
  0.87500000000000000       0.28125000000000000        0.0000000000000000     
  0.90625000000000000       0.28125000000000000        0.0000000000000000     
  0.93750000000000000       0.28125000000000000        0.0000000000000000     
  0.96875000000000000       0.28125000000000000        0.0000000000000000     
   1.0000000000000000       0.28125000000000000        0.0000000000000000     
  0.87500000000000000       0.31250000000000000        0.0000000000000000     
  0.90625000000000000       0.31250000000000000        0.0000000000000000     
  0.93750000000000000       0.31250000000000000        0.0000000000000000     
  0.96875000000000000       0.31250000000000000        0.0000000000000000     
   1.0000000000000000       0.31250000000000000        0.0000000000000000     
  0.87500000000000000       0.34375000000000000        0.0000000000000000     
  0.90625000000000000       0.34375000000000000        0.0000000000000000     
  0.93750000000000000       0.34375000000000000        0.0000000000000000     
  0.96875000000000000       0.34375000000000000        0.0000000000000000     
   1.0000000000000000       0.34375000000000000        0.0000000000000000     
  0.87500000000000000       0.37500000000000000        0.0000000000000000     
  0.90625000000000000       0.37500000000000000        0.0000000000000000     
  0.93750000000000000       0.37500000000000000        0.0000000000000000     
  0.96875000000000000       0.37500000000000000        0.0000000000000000     
   1.0000000000000000       0.37500000000000000        0.0000000000000000     
   1.0000000000000000       0.25000000000000000        0.0000000000000000     
   1.0312500000000000       0.25000000000000000        0.0000000000000000     
   1.0625000000000000       0.25000000000000000        0.0000000000000000     
   1.0937500000000000       0.25000000000000000        0.0000000000000000     
   1.1250000000000000       0.25000000000000000        0.0000000000000000     
   1.0000000000000000       0.28125000000000000        0.0000000000000000     
   1.0312500000000000       0.28125000000000000        0.0000000000000000     
   1.0625000000000000       0.28125000000000000        0.0000000000000000     
   1.0937500000000000       0.28125000000000000        0.0000000000000000     
   1.1250000000000000       0.28125000000000000        0.0000000000000000     
   1.0000000000000000       0.31250000000000000        0.0000000000000000     
   1.0312500000000000       0.31250000000000000        0.0000000000000000     
   1.0625000000000000       0.31250000000000000        0.0000000000000000     
   1.0937500000000000       0.31250000000000000        0.0000000000000000     
   1.1250000000000000       0.31250000000000000        0.0000000000000000     
   1.0000000000000000       0.34375000000000000        0.0000000000000000     
   1.0312500000000000       0.34375000000000000        0.0000000000000000     
   1.0625000000000000       0.34375000000000000        0.0000000000000000     
   1.0937500000000000       0.34375000000000000        0.0000000000000000     
   1.1250000000000000       0.34375000000000000        0.0000000000000000     
   1.0000000000000000       0.37500000000000000        0.0000000000000000     
   1.0312500000000000       0.37500000000000000        0.0000000000000000     
   1.0625000000000000       0.37500000000000000        0.0000000000000000     
   1.0937500000000000       0.37500000000000000        0.0000000000000000     
   1.1250000000000000       0.37500000000000000        0.0000000000000000     
   1.1250000000000000       0.25000000000000000        0.0000000000000000     
   1.1562500000000000       0.25000000000000000        0.0000000000000000     
   1.1875000000000000       0.25000000000000000        0.0000000000000000     
   1.2187500000000000       0.25000000000000000        0.0000000000000000     
   1.2500000000000000       0.25000000000000000        0.0000000000000000     
   1.1250000000000000       0.28125000000000000        0.0000000000000000     
   1.1562500000000000       0.28125000000000000        0.0000000000000000     
   1.1875000000000000       0.28125000000000000        0.0000000000000000     
   1.2187500000000000       0.28125000000000000        0.0000000000000000     
   1.2500000000000000       0.28125000000000000        0.0000000000000000     
   1.1250000000000000       0.31250000000000000        0.0000000000000000     
   1.1562500000000000       0.31250000000000000        0.0000000000000000     
   1.1875000000000000       0.31250000000000000        0.0000000000000000     
   1.2187500000000000       0.31250000000000000        0.0000000000000000     
   1.2500000000000000       0.31250000000000000        0.0000000000000000     
   1.1250000000000000       0.34375000000000000        0.0000000000000000     
   1.1562500000000000       0.34375000000000000        0.0000000000000000     
   1.1875000000000000       0.34375000000000000        0.0000000000000000     
   1.2187500000000000       0.34375000000000000        0.0000000000000000     
   1.2500000000000000       0.34375000000000000        0.0000000000000000     
   1.1250000000000000       0.37500000000000000        0.0000000000000000     
   1.1562500000000000       0.37500000000000000        0.0000000000000000     
   1.1875000000000000       0.37500000000000000        0.0000000000000000     
   1.2187500000000000       0.37500000000000000        0.0000000000000000     
   1.2500000000000000       0.37500000000000000        0.0000000000000000     
   1.2500000000000000       0.25000000000000000        0.0000000000000000     
   1.2812500000000000       0.25000000000000000        0.0000000000000000     
   1.3125000000000000       0.25000000000000000        0.0000000000000000     
   1.3437500000000000       0.25000000000000000        0.0000000000000000     
   1.3750000000000000       0.25000000000000000        0.0000000000000000     
   1.2500000000000000       0.28125000000000000        0.0000000000000000     
   1.2812500000000000       0.28125000000000000        0.0000000000000000     
   1.3125000000000000       0.28125000000000000        0.0000000000000000     
   1.3437500000000000       0.28125000000000000        0.0000000000000000     
   1.3750000000000000       0.28125000000000000        0.0000000000000000     
   1.2500000000000000       0.31250000000000000        0.0000000000000000     
   1.2812500000000000       0.31250000000000000        0.0000000000000000     
   1.3125000000000000       0.31250000000000000        0.0000000000000000     
   1.3437500000000000       0.31250000000000000        0.0000000000000000     
   1.3750000000000000       0.31250000000000000        0.0000000000000000     
   1.2500000000000000       0.34375000000000000        0.0000000000000000     
   1.2812500000000000       0.34375000000000000        0.0000000000000000     
   1.3125000000000000       0.34375000000000000        0.0000000000000000     
   1.3437500000000000       0.34375000000000000        0.0000000000000000     
   1.3750000000000000       0.34375000000000000        0.0000000000000000     
   1.2500000000000000       0.37500000000000000        0.0000000000000000     
   1.2812500000000000       0.37500000000000000        0.0000000000000000     
   1.3125000000000000       0.37500000000000000        0.0000000000000000     
   1.3437500000000000       0.37500000000000000        0.0000000000000000     
   1.3750000000000000       0.37500000000000000        0.0000000000000000     
   1.3750000000000000       0.25000000000000000        0.0000000000000000     
   1.4062500000000000       0.25000000000000000        0.0000000000000000     
   1.4375000000000000       0.25000000000000000        0.0000000000000000     
   1.4687500000000000       0.25000000000000000        0.0000000000000000     
   1.5000000000000000       0.25000000000000000        0.0000000000000000     
   1.3750000000000000       0.28125000000000000        0.0000000000000000     
   1.4062500000000000       0.28125000000000000        0.0000000000000000     
   1.4375000000000000       0.28125000000000000        0.0000000000000000     
   1.4687500000000000       0.28125000000000000        0.0000000000000000     
   1.5000000000000000       0.28125000000000000        0.0000000000000000     
   1.3750000000000000       0.31250000000000000        0.0000000000000000     
   1.4062500000000000       0.31250000000000000        0.0000000000000000     
   1.4375000000000000       0.31250000000000000        0.0000000000000000     
   1.4687500000000000       0.31250000000000000        0.0000000000000000     
   1.5000000000000000       0.31250000000000000        0.0000000000000000     
   1.3750000000000000       0.34375000000000000        0.0000000000000000     
   1.4062500000000000       0.34375000000000000        0.0000000000000000     
   1.4375000000000000       0.34375000000000000        0.0000000000000000     
   1.4687500000000000       0.34375000000000000        0.0000000000000000     
   1.5000000000000000       0.34375000000000000        0.0000000000000000     
   1.3750000000000000       0.37500000000000000        0.0000000000000000     
   1.4062500000000000       0.37500000000000000        0.0000000000000000     
   1.4375000000000000       0.37500000000000000        0.0000000000000000     
   1.4687500000000000       0.37500000000000000        0.0000000000000000     
   1.5000000000000000       0.37500000000000000        0.0000000000000000     
  0.50000000000000000       0.37500000000000000        0.0000000000000000     
  0.53125000000000000       0.37500000000000000        0.0000000000000000     
  0.56250000000000000       0.37500000000000000        0.0000000000000000     
  0.59375000000000000       0.37500000000000000        0.0000000000000000     
  0.62500000000000000       0.37500000000000000        0.0000000000000000     
  0.50000000000000000       0.40625000000000000        0.0000000000000000     
  0.53125000000000000       0.40625000000000000        0.0000000000000000     
  0.56250000000000000       0.40625000000000000        0.0000000000000000     
  0.59375000000000000       0.40625000000000000        0.0000000000000000     
  0.62500000000000000       0.40625000000000000        0.0000000000000000     
  0.50000000000000000       0.43750000000000000        0.0000000000000000     
  0.53125000000000000       0.43750000000000000        0.0000000000000000     
  0.56250000000000000       0.43750000000000000        0.0000000000000000     
  0.59375000000000000       0.43750000000000000        0.0000000000000000     
  0.62500000000000000       0.43750000000000000        0.0000000000000000     
  0.50000000000000000       0.46875000000000000        0.0000000000000000     
  0.53125000000000000       0.46875000000000000        0.0000000000000000     
  0.56250000000000000       0.46875000000000000        0.0000000000000000     
  0.59375000000000000       0.46875000000000000        0.0000000000000000     
  0.62500000000000000       0.46875000000000000        0.0000000000000000     
  0.50000000000000000       0.50000000000000000        0.0000000000000000     
  0.53125000000000000       0.50000000000000000        0.0000000000000000     
  0.56250000000000000       0.50000000000000000        0.0000000000000000     
  0.59375000000000000       0.50000000000000000        0.0000000000000000     
  0.62500000000000000       0.50000000000000000        0.0000000000000000     
  0.62500000000000000       0.37500000000000000        0.0000000000000000     
  0.65625000000000000       0.37500000000000000        0.0000000000000000     
  0.68750000000000000       0.37500000000000000        0.0000000000000000     
  0.71875000000000000       0.37500000000000000        0.0000000000000000     
  0.75000000000000000       0.37500000000000000        0.0000000000000000     
  0.62500000000000000       0.40625000000000000        0.0000000000000000     
  0.65625000000000000       0.40625000000000000        0.0000000000000000     
  0.68750000000000000       0.40625000000000000        0.0000000000000000     
  0.71875000000000000       0.40625000000000000        0.0000000000000000     
  0.75000000000000000       0.40625000000000000        0.0000000000000000     
  0.62500000000000000       0.43750000000000000        0.0000000000000000     
  0.65625000000000000       0.43750000000000000        0.0000000000000000     
  0.68750000000000000       0.43750000000000000        0.0000000000000000     
  0.71875000000000000       0.43750000000000000        0.0000000000000000     
  0.75000000000000000       0.43750000000000000        0.0000000000000000     
  0.62500000000000000       0.46875000000000000        0.0000000000000000     
  0.65625000000000000       0.46875000000000000        0.0000000000000000     
  0.68750000000000000       0.46875000000000000        0.0000000000000000     
  0.71875000000000000       0.46875000000000000        0.0000000000000000     
  0.75000000000000000       0.46875000000000000        0.0000000000000000     
  0.62500000000000000       0.50000000000000000        0.0000000000000000     
  0.65625000000000000       0.50000000000000000        0.0000000000000000     
  0.68750000000000000       0.50000000000000000        0.0000000000000000     
  0.71875000000000000       0.50000000000000000        0.0000000000000000     
  0.75000000000000000       0.50000000000000000        0.0000000000000000     
  0.75000000000000000       0.37500000000000000        0.0000000000000000     
  0.78125000000000000       0.37500000000000000        0.0000000000000000     
  0.81250000000000000       0.37500000000000000        0.0000000000000000     
  0.84375000000000000       0.37500000000000000        0.0000000000000000     
  0.87500000000000000       0.37500000000000000        0.0000000000000000     
  0.75000000000000000       0.40625000000000000        0.0000000000000000     
  0.78125000000000000       0.40625000000000000        0.0000000000000000     
  0.81250000000000000       0.40625000000000000        0.0000000000000000     
  0.84375000000000000       0.40625000000000000        0.0000000000000000     
  0.87500000000000000       0.40625000000000000        0.0000000000000000     
  0.75000000000000000       0.43750000000000000        0.0000000000000000     
  0.78125000000000000       0.43750000000000000        0.0000000000000000     
  0.81250000000000000       0.43750000000000000        0.0000000000000000     
  0.84375000000000000       0.43750000000000000        0.0000000000000000     
  0.87500000000000000       0.43750000000000000        0.0000000000000000     
  0.75000000000000000       0.46875000000000000        0.0000000000000000     
  0.78125000000000000       0.46875000000000000        0.0000000000000000     
  0.81250000000000000       0.46875000000000000        0.0000000000000000     
  0.84375000000000000       0.46875000000000000        0.0000000000000000     
  0.87500000000000000       0.46875000000000000        0.0000000000000000     
  0.75000000000000000       0.50000000000000000        0.0000000000000000     
  0.78125000000000000       0.50000000000000000        0.0000000000000000     
  0.81250000000000000       0.50000000000000000        0.0000000000000000     
  0.84375000000000000       0.50000000000000000        0.0000000000000000     
  0.87500000000000000       0.50000000000000000        0.0000000000000000     
  0.87500000000000000       0.37500000000000000        0.0000000000000000     
  0.90625000000000000       0.37500000000000000        0.0000000000000000     
  0.93750000000000000       0.37500000000000000        0.0000000000000000     
  0.96875000000000000       0.37500000000000000        0.0000000000000000     
   1.0000000000000000       0.37500000000000000        0.0000000000000000     
  0.87500000000000000       0.40625000000000000        0.0000000000000000     
  0.90625000000000000       0.40625000000000000        0.0000000000000000     
  0.93750000000000000       0.40625000000000000        0.0000000000000000     
  0.96875000000000000       0.40625000000000000        0.0000000000000000     
   1.0000000000000000       0.40625000000000000        0.0000000000000000     
  0.87500000000000000       0.43750000000000000        0.0000000000000000     
  0.90625000000000000       0.43750000000000000        0.0000000000000000     
  0.93750000000000000       0.43750000000000000        0.0000000000000000     
  0.96875000000000000       0.43750000000000000        0.0000000000000000     
   1.0000000000000000       0.43750000000000000        0.0000000000000000     
  0.87500000000000000       0.46875000000000000        0.0000000000000000     
  0.90625000000000000       0.46875000000000000        0.0000000000000000     
  0.93750000000000000       0.46875000000000000        0.0000000000000000     
  0.96875000000000000       0.46875000000000000        0.0000000000000000     
   1.0000000000000000       0.46875000000000000        0.0000000000000000     
  0.87500000000000000       0.50000000000000000        0.0000000000000000     
  0.90625000000000000       0.50000000000000000        0.0000000000000000     
  0.93750000000000000       0.50000000000000000        0.0000000000000000     
  0.96875000000000000       0.50000000000000000        0.0000000000000000     
   1.0000000000000000       0.50000000000000000        0.0000000000000000     
   1.0000000000000000       0.37500000000000000        0.0000000000000000     
   1.0312500000000000       0.37500000000000000        0.0000000000000000     
   1.0625000000000000       0.37500000000000000        0.0000000000000000     
   1.0937500000000000       0.37500000000000000        0.0000000000000000     
   1.1250000000000000       0.37500000000000000        0.0000000000000000     
   1.0000000000000000       0.40625000000000000        0.0000000000000000     
   1.0312500000000000       0.40625000000000000        0.0000000000000000     
   1.0625000000000000       0.40625000000000000        0.0000000000000000     
   1.0937500000000000       0.40625000000000000        0.0000000000000000     
   1.1250000000000000       0.40625000000000000        0.0000000000000000     
   1.0000000000000000       0.43750000000000000        0.0000000000000000     
   1.0312500000000000       0.43750000000000000        0.0000000000000000     
   1.0625000000000000       0.43750000000000000        0.0000000000000000     
   1.0937500000000000       0.43750000000000000        0.0000000000000000     
   1.1250000000000000       0.43750000000000000        0.0000000000000000     
   1.0000000000000000       0.46875000000000000        0.0000000000000000     
   1.0312500000000000       0.46875000000000000        0.0000000000000000     
   1.0625000000000000       0.46875000000000000        0.0000000000000000     
   1.0937500000000000       0.46875000000000000        0.0000000000000000     
   1.1250000000000000       0.46875000000000000        0.0000000000000000     
   1.0000000000000000       0.50000000000000000        0.0000000000000000     
   1.0312500000000000       0.50000000000000000        0.0000000000000000     
   1.0625000000000000       0.50000000000000000        0.0000000000000000     
   1.0937500000000000       0.50000000000000000        0.0000000000000000     
   1.1250000000000000       0.50000000000000000        0.0000000000000000     
   1.1250000000000000       0.37500000000000000        0.0000000000000000     
   1.1562500000000000       0.37500000000000000        0.0000000000000000     
   1.1875000000000000       0.37500000000000000        0.0000000000000000     
   1.2187500000000000       0.37500000000000000        0.0000000000000000     
   1.2500000000000000       0.37500000000000000        0.0000000000000000     
   1.1250000000000000       0.40625000000000000        0.0000000000000000     
   1.1562500000000000       0.40625000000000000        0.0000000000000000     
   1.1875000000000000       0.40625000000000000        0.0000000000000000     
   1.2187500000000000       0.40625000000000000        0.0000000000000000     
   1.2500000000000000       0.40625000000000000        0.0000000000000000     
   1.1250000000000000       0.43750000000000000        0.0000000000000000     
   1.1562500000000000       0.43750000000000000        0.0000000000000000     
   1.1875000000000000       0.43750000000000000        0.0000000000000000     
   1.2187500000000000       0.43750000000000000        0.0000000000000000     
   1.2500000000000000       0.43750000000000000        0.0000000000000000     
   1.1250000000000000       0.46875000000000000        0.0000000000000000     
   1.1562500000000000       0.46875000000000000        0.0000000000000000     
   1.1875000000000000       0.46875000000000000        0.0000000000000000     
   1.2187500000000000       0.46875000000000000        0.0000000000000000     
   1.2500000000000000       0.46875000000000000        0.0000000000000000     
   1.1250000000000000       0.50000000000000000        0.0000000000000000     
   1.1562500000000000       0.50000000000000000        0.0000000000000000     
   1.1875000000000000       0.50000000000000000        0.0000000000000000     
   1.2187500000000000       0.50000000000000000        0.0000000000000000     
   1.2500000000000000       0.50000000000000000        0.0000000000000000     
   1.2500000000000000       0.37500000000000000        0.0000000000000000     
   1.2812500000000000       0.37500000000000000        0.0000000000000000     
   1.3125000000000000       0.37500000000000000        0.0000000000000000     
   1.3437500000000000       0.37500000000000000        0.0000000000000000     
   1.3750000000000000       0.37500000000000000        0.0000000000000000     
   1.2500000000000000       0.40625000000000000        0.0000000000000000     
   1.2812500000000000       0.40625000000000000        0.0000000000000000     
   1.3125000000000000       0.40625000000000000        0.0000000000000000     
   1.3437500000000000       0.40625000000000000        0.0000000000000000     
   1.3750000000000000       0.40625000000000000        0.0000000000000000     
   1.2500000000000000       0.43750000000000000        0.0000000000000000     
   1.2812500000000000       0.43750000000000000        0.0000000000000000     
   1.3125000000000000       0.43750000000000000        0.0000000000000000     
   1.3437500000000000       0.43750000000000000        0.0000000000000000     
   1.3750000000000000       0.43750000000000000        0.0000000000000000     
   1.2500000000000000       0.46875000000000000        0.0000000000000000     
   1.2812500000000000       0.46875000000000000        0.0000000000000000     
   1.3125000000000000       0.46875000000000000        0.0000000000000000     
   1.3437500000000000       0.46875000000000000        0.0000000000000000     
   1.3750000000000000       0.46875000000000000        0.0000000000000000     
   1.2500000000000000       0.50000000000000000        0.0000000000000000     
   1.2812500000000000       0.50000000000000000        0.0000000000000000     
   1.3125000000000000       0.50000000000000000        0.0000000000000000     
   1.3437500000000000       0.50000000000000000        0.0000000000000000     
   1.3750000000000000       0.50000000000000000        0.0000000000000000     
   1.3750000000000000       0.37500000000000000        0.0000000000000000     
   1.4062500000000000       0.37500000000000000        0.0000000000000000     
   1.4375000000000000       0.37500000000000000        0.0000000000000000     
   1.4687500000000000       0.37500000000000000        0.0000000000000000     
   1.5000000000000000       0.37500000000000000        0.0000000000000000     
   1.3750000000000000       0.40625000000000000        0.0000000000000000     
   1.4062500000000000       0.40625000000000000        0.0000000000000000     
   1.4375000000000000       0.40625000000000000        0.0000000000000000     
   1.4687500000000000       0.40625000000000000        0.0000000000000000     
   1.5000000000000000       0.40625000000000000        0.0000000000000000     
   1.3750000000000000       0.43750000000000000        0.0000000000000000     
   1.4062500000000000       0.43750000000000000        0.0000000000000000     
   1.4375000000000000       0.43750000000000000        0.0000000000000000     
   1.4687500000000000       0.43750000000000000        0.0000000000000000     
   1.5000000000000000       0.43750000000000000        0.0000000000000000     
   1.3750000000000000       0.46875000000000000        0.0000000000000000     
   1.4062500000000000       0.46875000000000000        0.0000000000000000     
   1.4375000000000000       0.46875000000000000        0.0000000000000000     
   1.4687500000000000       0.46875000000000000        0.0000000000000000     
   1.5000000000000000       0.46875000000000000        0.0000000000000000     
   1.3750000000000000       0.50000000000000000        0.0000000000000000     
   1.4062500000000000       0.50000000000000000        0.0000000000000000     
   1.4375000000000000       0.50000000000000000        0.0000000000000000     
   1.4687500000000000       0.50000000000000000        0.0000000000000000     
   1.5000000000000000       0.50000000000000000        0.0000000000000000     
  0.50000000000000000       0.50000000000000000        0.0000000000000000     
  0.53125000000000000       0.50000000000000000        0.0000000000000000     
  0.56250000000000000       0.50000000000000000        0.0000000000000000     
  0.59375000000000000       0.50000000000000000        0.0000000000000000     
  0.62500000000000000       0.50000000000000000        0.0000000000000000     
  0.50000000000000000       0.53125000000000000        0.0000000000000000     
  0.53125000000000000       0.53125000000000000        0.0000000000000000     
  0.56250000000000000       0.53125000000000000        0.0000000000000000     
  0.59375000000000000       0.53125000000000000        0.0000000000000000     
  0.62500000000000000       0.53125000000000000        0.0000000000000000     
  0.50000000000000000       0.56250000000000000        0.0000000000000000     
  0.53125000000000000       0.56250000000000000        0.0000000000000000     
  0.56250000000000000       0.56250000000000000        0.0000000000000000     
  0.59375000000000000       0.56250000000000000        0.0000000000000000     
  0.62500000000000000       0.56250000000000000        0.0000000000000000     
  0.50000000000000000       0.59375000000000000        0.0000000000000000     
  0.53125000000000000       0.59375000000000000        0.0000000000000000     
  0.56250000000000000       0.59375000000000000        0.0000000000000000     
  0.59375000000000000       0.59375000000000000        0.0000000000000000     
  0.62500000000000000       0.59375000000000000        0.0000000000000000     
  0.50000000000000000       0.62500000000000000        0.0000000000000000     
  0.53125000000000000       0.62500000000000000        0.0000000000000000     
  0.56250000000000000       0.62500000000000000        0.0000000000000000     
  0.59375000000000000       0.62500000000000000        0.0000000000000000     
  0.62500000000000000       0.62500000000000000        0.0000000000000000     
  0.62500000000000000       0.50000000000000000        0.0000000000000000     
  0.65625000000000000       0.50000000000000000        0.0000000000000000     
  0.68750000000000000       0.50000000000000000        0.0000000000000000     
  0.71875000000000000       0.50000000000000000        0.0000000000000000     
  0.75000000000000000       0.50000000000000000        0.0000000000000000     
  0.62500000000000000       0.53125000000000000        0.0000000000000000     
  0.65625000000000000       0.53125000000000000        0.0000000000000000     
  0.68750000000000000       0.53125000000000000        0.0000000000000000     
  0.71875000000000000       0.53125000000000000        0.0000000000000000     
  0.75000000000000000       0.53125000000000000        0.0000000000000000     
  0.62500000000000000       0.56250000000000000        0.0000000000000000     
  0.65625000000000000       0.56250000000000000        0.0000000000000000     
  0.68750000000000000       0.56250000000000000        0.0000000000000000     
  0.71875000000000000       0.56250000000000000        0.0000000000000000     
  0.75000000000000000       0.56250000000000000        0.0000000000000000     
  0.62500000000000000       0.59375000000000000        0.0000000000000000     
  0.65625000000000000       0.59375000000000000        0.0000000000000000     
  0.68750000000000000       0.59375000000000000        0.0000000000000000     
  0.71875000000000000       0.59375000000000000        0.0000000000000000     
  0.75000000000000000       0.59375000000000000        0.0000000000000000     
  0.62500000000000000       0.62500000000000000        0.0000000000000000     
  0.65625000000000000       0.62500000000000000        0.0000000000000000     
  0.68750000000000000       0.62500000000000000        0.0000000000000000     
  0.71875000000000000       0.62500000000000000        0.0000000000000000     
  0.75000000000000000       0.62500000000000000        0.0000000000000000     
  0.75000000000000000       0.50000000000000000        0.0000000000000000     
  0.78125000000000000       0.50000000000000000        0.0000000000000000     
  0.81250000000000000       0.50000000000000000        0.0000000000000000     
  0.84375000000000000       0.50000000000000000        0.0000000000000000     
  0.87500000000000000       0.50000000000000000        0.0000000000000000     
  0.75000000000000000       0.53125000000000000        0.0000000000000000     
  0.78125000000000000       0.53125000000000000        0.0000000000000000     
  0.81250000000000000       0.53125000000000000        0.0000000000000000     
  0.84375000000000000       0.53125000000000000        0.0000000000000000     
  0.87500000000000000       0.53125000000000000        0.0000000000000000     
  0.75000000000000000       0.56250000000000000        0.0000000000000000     
  0.78125000000000000       0.56250000000000000        0.0000000000000000     
  0.81250000000000000       0.56250000000000000        0.0000000000000000     
  0.84375000000000000       0.56250000000000000        0.0000000000000000     
  0.87500000000000000       0.56250000000000000        0.0000000000000000     
  0.75000000000000000       0.59375000000000000        0.0000000000000000     
  0.78125000000000000       0.59375000000000000        0.0000000000000000     
  0.81250000000000000       0.59375000000000000        0.0000000000000000     
  0.84375000000000000       0.59375000000000000        0.0000000000000000     
  0.87500000000000000       0.59375000000000000        0.0000000000000000     
  0.75000000000000000       0.62500000000000000        0.0000000000000000     
  0.78125000000000000       0.62500000000000000        0.0000000000000000     
  0.81250000000000000       0.62500000000000000        0.0000000000000000     
  0.84375000000000000       0.62500000000000000        0.0000000000000000     
  0.87500000000000000       0.62500000000000000        0.0000000000000000     
  0.87500000000000000       0.50000000000000000        0.0000000000000000     
  0.90625000000000000       0.50000000000000000        0.0000000000000000     
  0.93750000000000000       0.50000000000000000        0.0000000000000000     
  0.96875000000000000       0.50000000000000000        0.0000000000000000     
   1.0000000000000000       0.50000000000000000        0.0000000000000000     
  0.87500000000000000       0.53125000000000000        0.0000000000000000     
  0.90625000000000000       0.53125000000000000        0.0000000000000000     
  0.93750000000000000       0.53125000000000000        0.0000000000000000     
  0.96875000000000000       0.53125000000000000        0.0000000000000000     
   1.0000000000000000       0.53125000000000000        0.0000000000000000     
  0.87500000000000000       0.56250000000000000        0.0000000000000000     
  0.90625000000000000       0.56250000000000000        0.0000000000000000     
  0.93750000000000000       0.56250000000000000        0.0000000000000000     
  0.96875000000000000       0.56250000000000000        0.0000000000000000     
   1.0000000000000000       0.56250000000000000        0.0000000000000000     
  0.87500000000000000       0.59375000000000000        0.0000000000000000     
  0.90625000000000000       0.59375000000000000        0.0000000000000000     
  0.93750000000000000       0.59375000000000000        0.0000000000000000     
  0.96875000000000000       0.59375000000000000        0.0000000000000000     
   1.0000000000000000       0.59375000000000000        0.0000000000000000     
  0.87500000000000000       0.62500000000000000        0.0000000000000000     
  0.90625000000000000       0.62500000000000000        0.0000000000000000     
  0.93750000000000000       0.62500000000000000        0.0000000000000000     
  0.96875000000000000       0.62500000000000000        0.0000000000000000     
   1.0000000000000000       0.62500000000000000        0.0000000000000000     
   1.0000000000000000       0.50000000000000000        0.0000000000000000     
   1.0312500000000000       0.50000000000000000        0.0000000000000000     
   1.0625000000000000       0.50000000000000000        0.0000000000000000     
   1.0937500000000000       0.50000000000000000        0.0000000000000000     
   1.1250000000000000       0.50000000000000000        0.0000000000000000     
   1.0000000000000000       0.53125000000000000        0.0000000000000000     
   1.0312500000000000       0.53125000000000000        0.0000000000000000     
   1.0625000000000000       0.53125000000000000        0.0000000000000000     
   1.0937500000000000       0.53125000000000000        0.0000000000000000     
   1.1250000000000000       0.53125000000000000        0.0000000000000000     
   1.0000000000000000       0.56250000000000000        0.0000000000000000     
   1.0312500000000000       0.56250000000000000        0.0000000000000000     
   1.0625000000000000       0.56250000000000000        0.0000000000000000     
   1.0937500000000000       0.56250000000000000        0.0000000000000000     
   1.1250000000000000       0.56250000000000000        0.0000000000000000     
   1.0000000000000000       0.59375000000000000        0.0000000000000000     
   1.0312500000000000       0.59375000000000000        0.0000000000000000     
   1.0625000000000000       0.59375000000000000        0.0000000000000000     
   1.0937500000000000       0.59375000000000000        0.0000000000000000     
   1.1250000000000000       0.59375000000000000        0.0000000000000000     
   1.0000000000000000       0.62500000000000000        0.0000000000000000     
   1.0312500000000000       0.62500000000000000        0.0000000000000000     
   1.0625000000000000       0.62500000000000000        0.0000000000000000     
   1.0937500000000000       0.62500000000000000        0.0000000000000000     
   1.1250000000000000       0.62500000000000000        0.0000000000000000     
   1.1250000000000000       0.50000000000000000        0.0000000000000000     
   1.1562500000000000       0.50000000000000000        0.0000000000000000     
   1.1875000000000000       0.50000000000000000        0.0000000000000000     
   1.2187500000000000       0.50000000000000000        0.0000000000000000     
   1.2500000000000000       0.50000000000000000        0.0000000000000000     
   1.1250000000000000       0.53125000000000000        0.0000000000000000     
   1.1562500000000000       0.53125000000000000        0.0000000000000000     
   1.1875000000000000       0.53125000000000000        0.0000000000000000     
   1.2187500000000000       0.53125000000000000        0.0000000000000000     
   1.2500000000000000       0.53125000000000000        0.0000000000000000     
   1.1250000000000000       0.56250000000000000        0.0000000000000000     
   1.1562500000000000       0.56250000000000000        0.0000000000000000     
   1.1875000000000000       0.56250000000000000        0.0000000000000000     
   1.2187500000000000       0.56250000000000000        0.0000000000000000     
   1.2500000000000000       0.56250000000000000        0.0000000000000000     
   1.1250000000000000       0.59375000000000000        0.0000000000000000     
   1.1562500000000000       0.59375000000000000        0.0000000000000000     
   1.1875000000000000       0.59375000000000000        0.0000000000000000     
   1.2187500000000000       0.59375000000000000        0.0000000000000000     
   1.2500000000000000       0.59375000000000000        0.0000000000000000     
   1.1250000000000000       0.62500000000000000        0.0000000000000000     
   1.1562500000000000       0.62500000000000000        0.0000000000000000     
   1.1875000000000000       0.62500000000000000        0.0000000000000000     
   1.2187500000000000       0.62500000000000000        0.0000000000000000     
   1.2500000000000000       0.62500000000000000        0.0000000000000000     
   1.2500000000000000       0.50000000000000000        0.0000000000000000     
   1.2812500000000000       0.50000000000000000        0.0000000000000000     
   1.3125000000000000       0.50000000000000000        0.0000000000000000     
   1.3437500000000000       0.50000000000000000        0.0000000000000000     
   1.3750000000000000       0.50000000000000000        0.0000000000000000     
   1.2500000000000000       0.53125000000000000        0.0000000000000000     
   1.2812500000000000       0.53125000000000000        0.0000000000000000     
   1.3125000000000000       0.53125000000000000        0.0000000000000000     
   1.3437500000000000       0.53125000000000000        0.0000000000000000     
   1.3750000000000000       0.53125000000000000        0.0000000000000000     
   1.2500000000000000       0.56250000000000000        0.0000000000000000     
   1.2812500000000000       0.56250000000000000        0.0000000000000000     
   1.3125000000000000       0.56250000000000000        0.0000000000000000     
   1.3437500000000000       0.56250000000000000        0.0000000000000000     
   1.3750000000000000       0.56250000000000000        0.0000000000000000     
   1.2500000000000000       0.59375000000000000        0.0000000000000000     
   1.2812500000000000       0.59375000000000000        0.0000000000000000     
   1.3125000000000000       0.59375000000000000        0.0000000000000000     
   1.3437500000000000       0.59375000000000000        0.0000000000000000     
   1.3750000000000000       0.59375000000000000        0.0000000000000000     
   1.2500000000000000       0.62500000000000000        0.0000000000000000     
   1.2812500000000000       0.62500000000000000        0.0000000000000000     
   1.3125000000000000       0.62500000000000000        0.0000000000000000     
   1.3437500000000000       0.62500000000000000        0.0000000000000000     
   1.3750000000000000       0.62500000000000000        0.0000000000000000     
   1.3750000000000000       0.50000000000000000        0.0000000000000000     
   1.4062500000000000       0.50000000000000000        0.0000000000000000     
   1.4375000000000000       0.50000000000000000        0.0000000000000000     
   1.4687500000000000       0.50000000000000000        0.0000000000000000     
   1.5000000000000000       0.50000000000000000        0.0000000000000000     
   1.3750000000000000       0.53125000000000000        0.0000000000000000     
   1.4062500000000000       0.53125000000000000        0.0000000000000000     
   1.4375000000000000       0.53125000000000000        0.0000000000000000     
   1.4687500000000000       0.53125000000000000        0.0000000000000000     
   1.5000000000000000       0.53125000000000000        0.0000000000000000     
   1.3750000000000000       0.56250000000000000        0.0000000000000000     
   1.4062500000000000       0.56250000000000000        0.0000000000000000     
   1.4375000000000000       0.56250000000000000        0.0000000000000000     
   1.4687500000000000       0.56250000000000000        0.0000000000000000     
   1.5000000000000000       0.56250000000000000        0.0000000000000000     
   1.3750000000000000       0.59375000000000000        0.0000000000000000     
   1.4062500000000000       0.59375000000000000        0.0000000000000000     
   1.4375000000000000       0.59375000000000000        0.0000000000000000     
   1.4687500000000000       0.59375000000000000        0.0000000000000000     
   1.5000000000000000       0.59375000000000000        0.0000000000000000     
   1.3750000000000000       0.62500000000000000        0.0000000000000000     
   1.4062500000000000       0.62500000000000000        0.0000000000000000     
   1.4375000000000000       0.62500000000000000        0.0000000000000000     
   1.4687500000000000       0.62500000000000000        0.0000000000000000     
   1.5000000000000000       0.62500000000000000        0.0000000000000000     
  0.50000000000000000       0.62500000000000000        0.0000000000000000     
  0.53125000000000000       0.62500000000000000        0.0000000000000000     
  0.56250000000000000       0.62500000000000000        0.0000000000000000     
  0.59375000000000000       0.62500000000000000        0.0000000000000000     
  0.62500000000000000       0.62500000000000000        0.0000000000000000     
  0.50000000000000000       0.65625000000000000        0.0000000000000000     
  0.53125000000000000       0.65625000000000000        0.0000000000000000     
  0.56250000000000000       0.65625000000000000        0.0000000000000000     
  0.59375000000000000       0.65625000000000000        0.0000000000000000     
  0.62500000000000000       0.65625000000000000        0.0000000000000000     
  0.50000000000000000       0.68750000000000000        0.0000000000000000     
  0.53125000000000000       0.68750000000000000        0.0000000000000000     
  0.56250000000000000       0.68750000000000000        0.0000000000000000     
  0.59375000000000000       0.68750000000000000        0.0000000000000000     
  0.62500000000000000       0.68750000000000000        0.0000000000000000     
  0.50000000000000000       0.71875000000000000        0.0000000000000000     
  0.53125000000000000       0.71875000000000000        0.0000000000000000     
  0.56250000000000000       0.71875000000000000        0.0000000000000000     
  0.59375000000000000       0.71875000000000000        0.0000000000000000     
  0.62500000000000000       0.71875000000000000        0.0000000000000000     
  0.50000000000000000       0.75000000000000000        0.0000000000000000     
  0.53125000000000000       0.75000000000000000        0.0000000000000000     
  0.56250000000000000       0.75000000000000000        0.0000000000000000     
  0.59375000000000000       0.75000000000000000        0.0000000000000000     
  0.62500000000000000       0.75000000000000000        0.0000000000000000     
  0.62500000000000000       0.62500000000000000        0.0000000000000000     
  0.65625000000000000       0.62500000000000000        0.0000000000000000     
  0.68750000000000000       0.62500000000000000        0.0000000000000000     
  0.71875000000000000       0.62500000000000000        0.0000000000000000     
  0.75000000000000000       0.62500000000000000        0.0000000000000000     
  0.62500000000000000       0.65625000000000000        0.0000000000000000     
  0.65625000000000000       0.65625000000000000        0.0000000000000000     
  0.68750000000000000       0.65625000000000000        0.0000000000000000     
  0.71875000000000000       0.65625000000000000        0.0000000000000000     
  0.75000000000000000       0.65625000000000000        0.0000000000000000     
  0.62500000000000000       0.68750000000000000        0.0000000000000000     
  0.65625000000000000       0.68750000000000000        0.0000000000000000     
  0.68750000000000000       0.68750000000000000        0.0000000000000000     
  0.71875000000000000       0.68750000000000000        0.0000000000000000     
  0.75000000000000000       0.68750000000000000        0.0000000000000000     
  0.62500000000000000       0.71875000000000000        0.0000000000000000     
  0.65625000000000000       0.71875000000000000        0.0000000000000000     
  0.68750000000000000       0.71875000000000000        0.0000000000000000     
  0.71875000000000000       0.71875000000000000        0.0000000000000000     
  0.75000000000000000       0.71875000000000000        0.0000000000000000     
  0.62500000000000000       0.75000000000000000        0.0000000000000000     
  0.65625000000000000       0.75000000000000000        0.0000000000000000     
  0.68750000000000000       0.75000000000000000        0.0000000000000000     
  0.71875000000000000       0.75000000000000000        0.0000000000000000     
  0.75000000000000000       0.75000000000000000        0.0000000000000000     
  0.75000000000000000       0.62500000000000000        0.0000000000000000     
  0.78125000000000000       0.62500000000000000        0.0000000000000000     
  0.81250000000000000       0.62500000000000000        0.0000000000000000     
  0.84375000000000000       0.62500000000000000        0.0000000000000000     
  0.87500000000000000       0.62500000000000000        0.0000000000000000     
  0.75000000000000000       0.65625000000000000        0.0000000000000000     
  0.78125000000000000       0.65625000000000000        0.0000000000000000     
  0.81250000000000000       0.65625000000000000        0.0000000000000000     
  0.84375000000000000       0.65625000000000000        0.0000000000000000     
  0.87500000000000000       0.65625000000000000        0.0000000000000000     
  0.75000000000000000       0.68750000000000000        0.0000000000000000     
  0.78125000000000000       0.68750000000000000        0.0000000000000000     
  0.81250000000000000       0.68750000000000000        0.0000000000000000     
  0.84375000000000000       0.68750000000000000        0.0000000000000000     
  0.87500000000000000       0.68750000000000000        0.0000000000000000     
  0.75000000000000000       0.71875000000000000        0.0000000000000000     
  0.78125000000000000       0.71875000000000000        0.0000000000000000     
  0.81250000000000000       0.71875000000000000        0.0000000000000000     
  0.84375000000000000       0.71875000000000000        0.0000000000000000     
  0.87500000000000000       0.71875000000000000        0.0000000000000000     
  0.75000000000000000       0.75000000000000000        0.0000000000000000     
  0.78125000000000000       0.75000000000000000        0.0000000000000000     
  0.81250000000000000       0.75000000000000000        0.0000000000000000     
  0.84375000000000000       0.75000000000000000        0.0000000000000000     
  0.87500000000000000       0.75000000000000000        0.0000000000000000     
  0.87500000000000000       0.62500000000000000        0.0000000000000000     
  0.90625000000000000       0.62500000000000000        0.0000000000000000     
  0.93750000000000000       0.62500000000000000        0.0000000000000000     
  0.96875000000000000       0.62500000000000000        0.0000000000000000     
   1.0000000000000000       0.62500000000000000        0.0000000000000000     
  0.87500000000000000       0.65625000000000000        0.0000000000000000     
  0.90625000000000000       0.65625000000000000        0.0000000000000000     
  0.93750000000000000       0.65625000000000000        0.0000000000000000     
  0.96875000000000000       0.65625000000000000        0.0000000000000000     
   1.0000000000000000       0.65625000000000000        0.0000000000000000     
  0.87500000000000000       0.68750000000000000        0.0000000000000000     
  0.90625000000000000       0.68750000000000000        0.0000000000000000     
  0.93750000000000000       0.68750000000000000        0.0000000000000000     
  0.96875000000000000       0.68750000000000000        0.0000000000000000     
   1.0000000000000000       0.68750000000000000        0.0000000000000000     
  0.87500000000000000       0.71875000000000000        0.0000000000000000     
  0.90625000000000000       0.71875000000000000        0.0000000000000000     
  0.93750000000000000       0.71875000000000000        0.0000000000000000     
  0.96875000000000000       0.71875000000000000        0.0000000000000000     
   1.0000000000000000       0.71875000000000000        0.0000000000000000     
  0.87500000000000000       0.75000000000000000        0.0000000000000000     
  0.90625000000000000       0.75000000000000000        0.0000000000000000     
  0.93750000000000000       0.75000000000000000        0.0000000000000000     
  0.96875000000000000       0.75000000000000000        0.0000000000000000     
   1.0000000000000000       0.75000000000000000        0.0000000000000000     
   1.0000000000000000       0.62500000000000000        0.0000000000000000     
   1.0312500000000000       0.62500000000000000        0.0000000000000000     
   1.0625000000000000       0.62500000000000000        0.0000000000000000     
   1.0937500000000000       0.62500000000000000        0.0000000000000000     
   1.1250000000000000       0.62500000000000000        0.0000000000000000     
   1.0000000000000000       0.65625000000000000        0.0000000000000000     
   1.0312500000000000       0.65625000000000000        0.0000000000000000     
   1.0625000000000000       0.65625000000000000        0.0000000000000000     
   1.0937500000000000       0.65625000000000000        0.0000000000000000     
   1.1250000000000000       0.65625000000000000        0.0000000000000000     
   1.0000000000000000       0.68750000000000000        0.0000000000000000     
   1.0312500000000000       0.68750000000000000        0.0000000000000000     
   1.0625000000000000       0.68750000000000000        0.0000000000000000     
   1.0937500000000000       0.68750000000000000        0.0000000000000000     
   1.1250000000000000       0.68750000000000000        0.0000000000000000     
   1.0000000000000000       0.71875000000000000        0.0000000000000000     
   1.0312500000000000       0.71875000000000000        0.0000000000000000     
   1.0625000000000000       0.71875000000000000        0.0000000000000000     
   1.0937500000000000       0.71875000000000000        0.0000000000000000     
   1.1250000000000000       0.71875000000000000        0.0000000000000000     
   1.0000000000000000       0.75000000000000000        0.0000000000000000     
   1.0312500000000000       0.75000000000000000        0.0000000000000000     
   1.0625000000000000       0.75000000000000000        0.0000000000000000     
   1.0937500000000000       0.75000000000000000        0.0000000000000000     
   1.1250000000000000       0.75000000000000000        0.0000000000000000     
   1.1250000000000000       0.62500000000000000        0.0000000000000000     
   1.1562500000000000       0.62500000000000000        0.0000000000000000     
   1.1875000000000000       0.62500000000000000        0.0000000000000000     
   1.2187500000000000       0.62500000000000000        0.0000000000000000     
   1.2500000000000000       0.62500000000000000        0.0000000000000000     
   1.1250000000000000       0.65625000000000000        0.0000000000000000     
   1.1562500000000000       0.65625000000000000        0.0000000000000000     
   1.1875000000000000       0.65625000000000000        0.0000000000000000     
   1.2187500000000000       0.65625000000000000        0.0000000000000000     
   1.2500000000000000       0.65625000000000000        0.0000000000000000     
   1.1250000000000000       0.68750000000000000        0.0000000000000000     
   1.1562500000000000       0.68750000000000000        0.0000000000000000     
   1.1875000000000000       0.68750000000000000        0.0000000000000000     
   1.2187500000000000       0.68750000000000000        0.0000000000000000     
   1.2500000000000000       0.68750000000000000        0.0000000000000000     
   1.1250000000000000       0.71875000000000000        0.0000000000000000     
   1.1562500000000000       0.71875000000000000        0.0000000000000000     
   1.1875000000000000       0.71875000000000000        0.0000000000000000     
   1.2187500000000000       0.71875000000000000        0.0000000000000000     
   1.2500000000000000       0.71875000000000000        0.0000000000000000     
   1.1250000000000000       0.75000000000000000        0.0000000000000000     
   1.1562500000000000       0.75000000000000000        0.0000000000000000     
   1.1875000000000000       0.75000000000000000        0.0000000000000000     
   1.2187500000000000       0.75000000000000000        0.0000000000000000     
   1.2500000000000000       0.75000000000000000        0.0000000000000000     
   1.2500000000000000       0.62500000000000000        0.0000000000000000     
   1.2812500000000000       0.62500000000000000        0.0000000000000000     
   1.3125000000000000       0.62500000000000000        0.0000000000000000     
   1.3437500000000000       0.62500000000000000        0.0000000000000000     
   1.3750000000000000       0.62500000000000000        0.0000000000000000     
   1.2500000000000000       0.65625000000000000        0.0000000000000000     
   1.2812500000000000       0.65625000000000000        0.0000000000000000     
   1.3125000000000000       0.65625000000000000        0.0000000000000000     
   1.3437500000000000       0.65625000000000000        0.0000000000000000     
   1.3750000000000000       0.65625000000000000        0.0000000000000000     
   1.2500000000000000       0.68750000000000000        0.0000000000000000     
   1.2812500000000000       0.68750000000000000        0.0000000000000000     
   1.3125000000000000       0.68750000000000000        0.0000000000000000     
   1.3437500000000000       0.68750000000000000        0.0000000000000000     
   1.3750000000000000       0.68750000000000000        0.0000000000000000     
   1.2500000000000000       0.71875000000000000        0.0000000000000000     
   1.2812500000000000       0.71875000000000000        0.0000000000000000     
   1.3125000000000000       0.71875000000000000        0.0000000000000000     
   1.3437500000000000       0.71875000000000000        0.0000000000000000     
   1.3750000000000000       0.71875000000000000        0.0000000000000000     
   1.2500000000000000       0.75000000000000000        0.0000000000000000     
   1.2812500000000000       0.75000000000000000        0.0000000000000000     
   1.3125000000000000       0.75000000000000000        0.0000000000000000     
   1.3437500000000000       0.75000000000000000        0.0000000000000000     
   1.3750000000000000       0.75000000000000000        0.0000000000000000     
   1.3750000000000000       0.62500000000000000        0.0000000000000000     
   1.4062500000000000       0.62500000000000000        0.0000000000000000     
   1.4375000000000000       0.62500000000000000        0.0000000000000000     
   1.4687500000000000       0.62500000000000000        0.0000000000000000     
   1.5000000000000000       0.62500000000000000        0.0000000000000000     
   1.3750000000000000       0.65625000000000000        0.0000000000000000     
   1.4062500000000000       0.65625000000000000        0.0000000000000000     
   1.4375000000000000       0.65625000000000000        0.0000000000000000     
   1.4687500000000000       0.65625000000000000        0.0000000000000000     
   1.5000000000000000       0.65625000000000000        0.0000000000000000     
   1.3750000000000000       0.68750000000000000        0.0000000000000000     
   1.4062500000000000       0.68750000000000000        0.0000000000000000     
   1.4375000000000000       0.68750000000000000        0.0000000000000000     
   1.4687500000000000       0.68750000000000000        0.0000000000000000     
   1.5000000000000000       0.68750000000000000        0.0000000000000000     
   1.3750000000000000       0.71875000000000000        0.0000000000000000     
   1.4062500000000000       0.71875000000000000        0.0000000000000000     
   1.4375000000000000       0.71875000000000000        0.0000000000000000     
   1.4687500000000000       0.71875000000000000        0.0000000000000000     
   1.5000000000000000       0.71875000000000000        0.0000000000000000     
   1.3750000000000000       0.75000000000000000        0.0000000000000000     
   1.4062500000000000       0.75000000000000000        0.0000000000000000     
   1.4375000000000000       0.75000000000000000        0.0000000000000000     
   1.4687500000000000       0.75000000000000000        0.0000000000000000     
   1.5000000000000000       0.75000000000000000        0.0000000000000000     
  0.50000000000000000       0.75000000000000000        0.0000000000000000     
  0.53125000000000000       0.75000000000000000        0.0000000000000000     
  0.56250000000000000       0.75000000000000000        0.0000000000000000     
  0.59375000000000000       0.75000000000000000        0.0000000000000000     
  0.62500000000000000       0.75000000000000000        0.0000000000000000     
  0.50000000000000000       0.78125000000000000        0.0000000000000000     
  0.53125000000000000       0.78125000000000000        0.0000000000000000     
  0.56250000000000000       0.78125000000000000        0.0000000000000000     
  0.59375000000000000       0.78125000000000000        0.0000000000000000     
  0.62500000000000000       0.78125000000000000        0.0000000000000000     
  0.50000000000000000       0.81250000000000000        0.0000000000000000     
  0.53125000000000000       0.81250000000000000        0.0000000000000000     
  0.56250000000000000       0.81250000000000000        0.0000000000000000     
  0.59375000000000000       0.81250000000000000        0.0000000000000000     
  0.62500000000000000       0.81250000000000000        0.0000000000000000     
  0.50000000000000000       0.84375000000000000        0.0000000000000000     
  0.53125000000000000       0.84375000000000000        0.0000000000000000     
  0.56250000000000000       0.84375000000000000        0.0000000000000000     
  0.59375000000000000       0.84375000000000000        0.0000000000000000     
  0.62500000000000000       0.84375000000000000        0.0000000000000000     
  0.50000000000000000       0.87500000000000000        0.0000000000000000     
  0.53125000000000000       0.87500000000000000        0.0000000000000000     
  0.56250000000000000       0.87500000000000000        0.0000000000000000     
  0.59375000000000000       0.87500000000000000        0.0000000000000000     
  0.62500000000000000       0.87500000000000000        0.0000000000000000     
  0.62500000000000000       0.75000000000000000        0.0000000000000000     
  0.65625000000000000       0.75000000000000000        0.0000000000000000     
  0.68750000000000000       0.75000000000000000        0.0000000000000000     
  0.71875000000000000       0.75000000000000000        0.0000000000000000     
  0.75000000000000000       0.75000000000000000        0.0000000000000000     
  0.62500000000000000       0.78125000000000000        0.0000000000000000     
  0.65625000000000000       0.78125000000000000        0.0000000000000000     
  0.68750000000000000       0.78125000000000000        0.0000000000000000     
  0.71875000000000000       0.78125000000000000        0.0000000000000000     
  0.75000000000000000       0.78125000000000000        0.0000000000000000     
  0.62500000000000000       0.81250000000000000        0.0000000000000000     
  0.65625000000000000       0.81250000000000000        0.0000000000000000     
  0.68750000000000000       0.81250000000000000        0.0000000000000000     
  0.71875000000000000       0.81250000000000000        0.0000000000000000     
  0.75000000000000000       0.81250000000000000        0.0000000000000000     
  0.62500000000000000       0.84375000000000000        0.0000000000000000     
  0.65625000000000000       0.84375000000000000        0.0000000000000000     
  0.68750000000000000       0.84375000000000000        0.0000000000000000     
  0.71875000000000000       0.84375000000000000        0.0000000000000000     
  0.75000000000000000       0.84375000000000000        0.0000000000000000     
  0.62500000000000000       0.87500000000000000        0.0000000000000000     
  0.65625000000000000       0.87500000000000000        0.0000000000000000     
  0.68750000000000000       0.87500000000000000        0.0000000000000000     
  0.71875000000000000       0.87500000000000000        0.0000000000000000     
  0.75000000000000000       0.87500000000000000        0.0000000000000000     
  0.75000000000000000       0.75000000000000000        0.0000000000000000     
  0.78125000000000000       0.75000000000000000        0.0000000000000000     
  0.81250000000000000       0.75000000000000000        0.0000000000000000     
  0.84375000000000000       0.75000000000000000        0.0000000000000000     
  0.87500000000000000       0.75000000000000000        0.0000000000000000     
  0.75000000000000000       0.78125000000000000        0.0000000000000000     
  0.78125000000000000       0.78125000000000000        0.0000000000000000     
  0.81250000000000000       0.78125000000000000        0.0000000000000000     
  0.84375000000000000       0.78125000000000000        0.0000000000000000     
  0.87500000000000000       0.78125000000000000        0.0000000000000000     
  0.75000000000000000       0.81250000000000000        0.0000000000000000     
  0.78125000000000000       0.81250000000000000        0.0000000000000000     
  0.81250000000000000       0.81250000000000000        0.0000000000000000     
  0.84375000000000000       0.81250000000000000        0.0000000000000000     
  0.87500000000000000       0.81250000000000000        0.0000000000000000     
  0.75000000000000000       0.84375000000000000        0.0000000000000000     
  0.78125000000000000       0.84375000000000000        0.0000000000000000     
  0.81250000000000000       0.84375000000000000        0.0000000000000000     
  0.84375000000000000       0.84375000000000000        0.0000000000000000     
  0.87500000000000000       0.84375000000000000        0.0000000000000000     
  0.75000000000000000       0.87500000000000000        0.0000000000000000     
  0.78125000000000000       0.87500000000000000        0.0000000000000000     
  0.81250000000000000       0.87500000000000000        0.0000000000000000     
  0.84375000000000000       0.87500000000000000        0.0000000000000000     
  0.87500000000000000       0.87500000000000000        0.0000000000000000     
  0.87500000000000000       0.75000000000000000        0.0000000000000000     
  0.90625000000000000       0.75000000000000000        0.0000000000000000     
  0.93750000000000000       0.75000000000000000        0.0000000000000000     
  0.96875000000000000       0.75000000000000000        0.0000000000000000     
   1.0000000000000000       0.75000000000000000        0.0000000000000000     
  0.87500000000000000       0.78125000000000000        0.0000000000000000     
  0.90625000000000000       0.78125000000000000        0.0000000000000000     
  0.93750000000000000       0.78125000000000000        0.0000000000000000     
  0.96875000000000000       0.78125000000000000        0.0000000000000000     
   1.0000000000000000       0.78125000000000000        0.0000000000000000     
  0.87500000000000000       0.81250000000000000        0.0000000000000000     
  0.90625000000000000       0.81250000000000000        0.0000000000000000     
  0.93750000000000000       0.81250000000000000        0.0000000000000000     
  0.96875000000000000       0.81250000000000000        0.0000000000000000     
   1.0000000000000000       0.81250000000000000        0.0000000000000000     
  0.87500000000000000       0.84375000000000000        0.0000000000000000     
  0.90625000000000000       0.84375000000000000        0.0000000000000000     
  0.93750000000000000       0.84375000000000000        0.0000000000000000     
  0.96875000000000000       0.84375000000000000        0.0000000000000000     
   1.0000000000000000       0.84375000000000000        0.0000000000000000     
  0.87500000000000000       0.87500000000000000        0.0000000000000000     
  0.90625000000000000       0.87500000000000000        0.0000000000000000     
  0.93750000000000000       0.87500000000000000        0.0000000000000000     
  0.96875000000000000       0.87500000000000000        0.0000000000000000     
   1.0000000000000000       0.87500000000000000        0.0000000000000000     
   1.0000000000000000       0.75000000000000000        0.0000000000000000     
   1.0312500000000000       0.75000000000000000        0.0000000000000000     
   1.0625000000000000       0.75000000000000000        0.0000000000000000     
   1.0937500000000000       0.75000000000000000        0.0000000000000000     
   1.1250000000000000       0.75000000000000000        0.0000000000000000     
   1.0000000000000000       0.78125000000000000        0.0000000000000000     
   1.0312500000000000       0.78125000000000000        0.0000000000000000     
   1.0625000000000000       0.78125000000000000        0.0000000000000000     
   1.0937500000000000       0.78125000000000000        0.0000000000000000     
   1.1250000000000000       0.78125000000000000        0.0000000000000000     
   1.0000000000000000       0.81250000000000000        0.0000000000000000     
   1.0312500000000000       0.81250000000000000        0.0000000000000000     
   1.0625000000000000       0.81250000000000000        0.0000000000000000     
   1.0937500000000000       0.81250000000000000        0.0000000000000000     
   1.1250000000000000       0.81250000000000000        0.0000000000000000     
   1.0000000000000000       0.84375000000000000        0.0000000000000000     
   1.0312500000000000       0.84375000000000000        0.0000000000000000     
   1.0625000000000000       0.84375000000000000        0.0000000000000000     
   1.0937500000000000       0.84375000000000000        0.0000000000000000     
   1.1250000000000000       0.84375000000000000        0.0000000000000000     
   1.0000000000000000       0.87500000000000000        0.0000000000000000     
   1.0312500000000000       0.87500000000000000        0.0000000000000000     
   1.0625000000000000       0.87500000000000000        0.0000000000000000     
   1.0937500000000000       0.87500000000000000        0.0000000000000000     
   1.1250000000000000       0.87500000000000000        0.0000000000000000     
   1.1250000000000000       0.75000000000000000        0.0000000000000000     
   1.1562500000000000       0.75000000000000000        0.0000000000000000     
   1.1875000000000000       0.75000000000000000        0.0000000000000000     
   1.2187500000000000       0.75000000000000000        0.0000000000000000     
   1.2500000000000000       0.75000000000000000        0.0000000000000000     
   1.1250000000000000       0.78125000000000000        0.0000000000000000     
   1.1562500000000000       0.78125000000000000        0.0000000000000000     
   1.1875000000000000       0.78125000000000000        0.0000000000000000     
   1.2187500000000000       0.78125000000000000        0.0000000000000000     
   1.2500000000000000       0.78125000000000000        0.0000000000000000     
   1.1250000000000000       0.81250000000000000        0.0000000000000000     
   1.1562500000000000       0.81250000000000000        0.0000000000000000     
   1.1875000000000000       0.81250000000000000        0.0000000000000000     
   1.2187500000000000       0.81250000000000000        0.0000000000000000     
   1.2500000000000000       0.81250000000000000        0.0000000000000000     
   1.1250000000000000       0.84375000000000000        0.0000000000000000     
   1.1562500000000000       0.84375000000000000        0.0000000000000000     
   1.1875000000000000       0.84375000000000000        0.0000000000000000     
   1.2187500000000000       0.84375000000000000        0.0000000000000000     
   1.2500000000000000       0.84375000000000000        0.0000000000000000     
   1.1250000000000000       0.87500000000000000        0.0000000000000000     
   1.1562500000000000       0.87500000000000000        0.0000000000000000     
   1.1875000000000000       0.87500000000000000        0.0000000000000000     
   1.2187500000000000       0.87500000000000000        0.0000000000000000     
   1.2500000000000000       0.87500000000000000        0.0000000000000000     
   1.2500000000000000       0.75000000000000000        0.0000000000000000     
   1.2812500000000000       0.75000000000000000        0.0000000000000000     
   1.3125000000000000       0.75000000000000000        0.0000000000000000     
   1.3437500000000000       0.75000000000000000        0.0000000000000000     
   1.3750000000000000       0.75000000000000000        0.0000000000000000     
   1.2500000000000000       0.78125000000000000        0.0000000000000000     
   1.2812500000000000       0.78125000000000000        0.0000000000000000     
   1.3125000000000000       0.78125000000000000        0.0000000000000000     
   1.3437500000000000       0.78125000000000000        0.0000000000000000     
   1.3750000000000000       0.78125000000000000        0.0000000000000000     
   1.2500000000000000       0.81250000000000000        0.0000000000000000     
   1.2812500000000000       0.81250000000000000        0.0000000000000000     
   1.3125000000000000       0.81250000000000000        0.0000000000000000     
   1.3437500000000000       0.81250000000000000        0.0000000000000000     
   1.3750000000000000       0.81250000000000000        0.0000000000000000     
   1.2500000000000000       0.84375000000000000        0.0000000000000000     
   1.2812500000000000       0.84375000000000000        0.0000000000000000     
   1.3125000000000000       0.84375000000000000        0.0000000000000000     
   1.3437500000000000       0.84375000000000000        0.0000000000000000     
   1.3750000000000000       0.84375000000000000        0.0000000000000000     
   1.2500000000000000       0.87500000000000000        0.0000000000000000     
   1.2812500000000000       0.87500000000000000        0.0000000000000000     
   1.3125000000000000       0.87500000000000000        0.0000000000000000     
   1.3437500000000000       0.87500000000000000        0.0000000000000000     
   1.3750000000000000       0.87500000000000000        0.0000000000000000     
   1.3750000000000000       0.75000000000000000        0.0000000000000000     
   1.4062500000000000       0.75000000000000000        0.0000000000000000     
   1.4375000000000000       0.75000000000000000        0.0000000000000000     
   1.4687500000000000       0.75000000000000000        0.0000000000000000     
   1.5000000000000000       0.75000000000000000        0.0000000000000000     
   1.3750000000000000       0.78125000000000000        0.0000000000000000     
   1.4062500000000000       0.78125000000000000        0.0000000000000000     
   1.4375000000000000       0.78125000000000000        0.0000000000000000     
   1.4687500000000000       0.78125000000000000        0.0000000000000000     
   1.5000000000000000       0.78125000000000000        0.0000000000000000     
   1.3750000000000000       0.81250000000000000        0.0000000000000000     
   1.4062500000000000       0.81250000000000000        0.0000000000000000     
   1.4375000000000000       0.81250000000000000        0.0000000000000000     
   1.4687500000000000       0.81250000000000000        0.0000000000000000     
   1.5000000000000000       0.81250000000000000        0.0000000000000000     
   1.3750000000000000       0.84375000000000000        0.0000000000000000     
   1.4062500000000000       0.84375000000000000        0.0000000000000000     
   1.4375000000000000       0.84375000000000000        0.0000000000000000     
   1.4687500000000000       0.84375000000000000        0.0000000000000000     
   1.5000000000000000       0.84375000000000000        0.0000000000000000     
   1.3750000000000000       0.87500000000000000        0.0000000000000000     
   1.4062500000000000       0.87500000000000000        0.0000000000000000     
   1.4375000000000000       0.87500000000000000        0.0000000000000000     
   1.4687500000000000       0.87500000000000000        0.0000000000000000     
   1.5000000000000000       0.87500000000000000        0.0000000000000000     
  0.50000000000000000       0.87500000000000000        0.0000000000000000     
  0.53125000000000000       0.87500000000000000        0.0000000000000000     
  0.56250000000000000       0.87500000000000000        0.0000000000000000     
  0.59375000000000000       0.87500000000000000        0.0000000000000000     
  0.62500000000000000       0.87500000000000000        0.0000000000000000     
  0.50000000000000000       0.90625000000000000        0.0000000000000000     
  0.53125000000000000       0.90625000000000000        0.0000000000000000     
  0.56250000000000000       0.90625000000000000        0.0000000000000000     
  0.59375000000000000       0.90625000000000000        0.0000000000000000     
  0.62500000000000000       0.90625000000000000        0.0000000000000000     
  0.50000000000000000       0.93750000000000000        0.0000000000000000     
  0.53125000000000000       0.93750000000000000        0.0000000000000000     
  0.56250000000000000       0.93750000000000000        0.0000000000000000     
  0.59375000000000000       0.93750000000000000        0.0000000000000000     
  0.62500000000000000       0.93750000000000000        0.0000000000000000     
  0.50000000000000000       0.96875000000000000        0.0000000000000000     
  0.53125000000000000       0.96875000000000000        0.0000000000000000     
  0.56250000000000000       0.96875000000000000        0.0000000000000000     
  0.59375000000000000       0.96875000000000000        0.0000000000000000     
  0.62500000000000000       0.96875000000000000        0.0000000000000000     
  0.50000000000000000        1.0000000000000000        0.0000000000000000     
  0.53125000000000000        1.0000000000000000        0.0000000000000000     
  0.56250000000000000        1.0000000000000000        0.0000000000000000     
  0.59375000000000000        1.0000000000000000        0.0000000000000000     
  0.62500000000000000        1.0000000000000000        0.0000000000000000     
  0.62500000000000000       0.87500000000000000        0.0000000000000000     
  0.65625000000000000       0.87500000000000000        0.0000000000000000     
  0.68750000000000000       0.87500000000000000        0.0000000000000000     
  0.71875000000000000       0.87500000000000000        0.0000000000000000     
  0.75000000000000000       0.87500000000000000        0.0000000000000000     
  0.62500000000000000       0.90625000000000000        0.0000000000000000     
  0.65625000000000000       0.90625000000000000        0.0000000000000000     
  0.68750000000000000       0.90625000000000000        0.0000000000000000     
  0.71875000000000000       0.90625000000000000        0.0000000000000000     
  0.75000000000000000       0.90625000000000000        0.0000000000000000     
  0.62500000000000000       0.93750000000000000        0.0000000000000000     
  0.65625000000000000       0.93750000000000000        0.0000000000000000     
  0.68750000000000000       0.93750000000000000        0.0000000000000000     
  0.71875000000000000       0.93750000000000000        0.0000000000000000     
  0.75000000000000000       0.93750000000000000        0.0000000000000000     
  0.62500000000000000       0.96875000000000000        0.0000000000000000     
  0.65625000000000000       0.96875000000000000        0.0000000000000000     
  0.68750000000000000       0.96875000000000000        0.0000000000000000     
  0.71875000000000000       0.96875000000000000        0.0000000000000000     
  0.75000000000000000       0.96875000000000000        0.0000000000000000     
  0.62500000000000000        1.0000000000000000        0.0000000000000000     
  0.65625000000000000        1.0000000000000000        0.0000000000000000     
  0.68750000000000000        1.0000000000000000        0.0000000000000000     
  0.71875000000000000        1.0000000000000000        0.0000000000000000     
  0.75000000000000000        1.0000000000000000        0.0000000000000000     
  0.75000000000000000       0.87500000000000000        0.0000000000000000     
  0.78125000000000000       0.87500000000000000        0.0000000000000000     
  0.81250000000000000       0.87500000000000000        0.0000000000000000     
  0.84375000000000000       0.87500000000000000        0.0000000000000000     
  0.87500000000000000       0.87500000000000000        0.0000000000000000     
  0.75000000000000000       0.90625000000000000        0.0000000000000000     
  0.78125000000000000       0.90625000000000000        0.0000000000000000     
  0.81250000000000000       0.90625000000000000        0.0000000000000000     
  0.84375000000000000       0.90625000000000000        0.0000000000000000     
  0.87500000000000000       0.90625000000000000        0.0000000000000000     
  0.75000000000000000       0.93750000000000000        0.0000000000000000     
  0.78125000000000000       0.93750000000000000        0.0000000000000000     
  0.81250000000000000       0.93750000000000000        0.0000000000000000     
  0.84375000000000000       0.93750000000000000        0.0000000000000000     
  0.87500000000000000       0.93750000000000000        0.0000000000000000     
  0.75000000000000000       0.96875000000000000        0.0000000000000000     
  0.78125000000000000       0.96875000000000000        0.0000000000000000     
  0.81250000000000000       0.96875000000000000        0.0000000000000000     
  0.84375000000000000       0.96875000000000000        0.0000000000000000     
  0.87500000000000000       0.96875000000000000        0.0000000000000000     
  0.75000000000000000        1.0000000000000000        0.0000000000000000     
  0.78125000000000000        1.0000000000000000        0.0000000000000000     
  0.81250000000000000        1.0000000000000000        0.0000000000000000     
  0.84375000000000000        1.0000000000000000        0.0000000000000000     
  0.87500000000000000        1.0000000000000000        0.0000000000000000     
  0.87500000000000000       0.87500000000000000        0.0000000000000000     
  0.90625000000000000       0.87500000000000000        0.0000000000000000     
  0.93750000000000000       0.87500000000000000        0.0000000000000000     
  0.96875000000000000       0.87500000000000000        0.0000000000000000     
   1.0000000000000000       0.87500000000000000        0.0000000000000000     
  0.87500000000000000       0.90625000000000000        0.0000000000000000     
  0.90625000000000000       0.90625000000000000        0.0000000000000000     
  0.93750000000000000       0.90625000000000000        0.0000000000000000     
  0.96875000000000000       0.90625000000000000        0.0000000000000000     
   1.0000000000000000       0.90625000000000000        0.0000000000000000     
  0.87500000000000000       0.93750000000000000        0.0000000000000000     
  0.90625000000000000       0.93750000000000000        0.0000000000000000     
  0.93750000000000000       0.93750000000000000        0.0000000000000000     
  0.96875000000000000       0.93750000000000000        0.0000000000000000     
   1.0000000000000000       0.93750000000000000        0.0000000000000000     
  0.87500000000000000       0.96875000000000000        0.0000000000000000     
  0.90625000000000000       0.96875000000000000        0.0000000000000000     
  0.93750000000000000       0.96875000000000000        0.0000000000000000     
  0.96875000000000000       0.96875000000000000        0.0000000000000000     
   1.0000000000000000       0.96875000000000000        0.0000000000000000     
  0.87500000000000000        1.0000000000000000        0.0000000000000000     
  0.90625000000000000        1.0000000000000000        0.0000000000000000     
  0.93750000000000000        1.0000000000000000        0.0000000000000000     
  0.96875000000000000        1.0000000000000000        0.0000000000000000     
   1.0000000000000000        1.0000000000000000        0.0000000000000000     
   1.0000000000000000       0.87500000000000000        0.0000000000000000     
   1.0312500000000000       0.87500000000000000        0.0000000000000000     
   1.0625000000000000       0.87500000000000000        0.0000000000000000     
   1.0937500000000000       0.87500000000000000        0.0000000000000000     
   1.1250000000000000       0.87500000000000000        0.0000000000000000     
   1.0000000000000000       0.90625000000000000        0.0000000000000000     
   1.0312500000000000       0.90625000000000000        0.0000000000000000     
   1.0625000000000000       0.90625000000000000        0.0000000000000000     
   1.0937500000000000       0.90625000000000000        0.0000000000000000     
   1.1250000000000000       0.90625000000000000        0.0000000000000000     
   1.0000000000000000       0.93750000000000000        0.0000000000000000     
   1.0312500000000000       0.93750000000000000        0.0000000000000000     
   1.0625000000000000       0.93750000000000000        0.0000000000000000     
   1.0937500000000000       0.93750000000000000        0.0000000000000000     
   1.1250000000000000       0.93750000000000000        0.0000000000000000     
   1.0000000000000000       0.96875000000000000        0.0000000000000000     
   1.0312500000000000       0.96875000000000000        0.0000000000000000     
   1.0625000000000000       0.96875000000000000        0.0000000000000000     
   1.0937500000000000       0.96875000000000000        0.0000000000000000     
   1.1250000000000000       0.96875000000000000        0.0000000000000000     
   1.0000000000000000        1.0000000000000000        0.0000000000000000     
   1.0312500000000000        1.0000000000000000        0.0000000000000000     
   1.0625000000000000        1.0000000000000000        0.0000000000000000     
   1.0937500000000000        1.0000000000000000        0.0000000000000000     
   1.1250000000000000        1.0000000000000000        0.0000000000000000     
   1.1250000000000000       0.87500000000000000        0.0000000000000000     
   1.1562500000000000       0.87500000000000000        0.0000000000000000     
   1.1875000000000000       0.87500000000000000        0.0000000000000000     
   1.2187500000000000       0.87500000000000000        0.0000000000000000     
   1.2500000000000000       0.87500000000000000        0.0000000000000000     
   1.1250000000000000       0.90625000000000000        0.0000000000000000     
   1.1562500000000000       0.90625000000000000        0.0000000000000000     
   1.1875000000000000       0.90625000000000000        0.0000000000000000     
   1.2187500000000000       0.90625000000000000        0.0000000000000000     
   1.2500000000000000       0.90625000000000000        0.0000000000000000     
   1.1250000000000000       0.93750000000000000        0.0000000000000000     
   1.1562500000000000       0.93750000000000000        0.0000000000000000     
   1.1875000000000000       0.93750000000000000        0.0000000000000000     
   1.2187500000000000       0.93750000000000000        0.0000000000000000     
   1.2500000000000000       0.93750000000000000        0.0000000000000000     
   1.1250000000000000       0.96875000000000000        0.0000000000000000     
   1.1562500000000000       0.96875000000000000        0.0000000000000000     
   1.1875000000000000       0.96875000000000000        0.0000000000000000     
   1.2187500000000000       0.96875000000000000        0.0000000000000000     
   1.2500000000000000       0.96875000000000000        0.0000000000000000     
   1.1250000000000000        1.0000000000000000        0.0000000000000000     
   1.1562500000000000        1.0000000000000000        0.0000000000000000     
   1.1875000000000000        1.0000000000000000        0.0000000000000000     
   1.2187500000000000        1.0000000000000000        0.0000000000000000     
   1.2500000000000000        1.0000000000000000        0.0000000000000000     
   1.2500000000000000       0.87500000000000000        0.0000000000000000     
   1.2812500000000000       0.87500000000000000        0.0000000000000000     
   1.3125000000000000       0.87500000000000000        0.0000000000000000     
   1.3437500000000000       0.87500000000000000        0.0000000000000000     
   1.3750000000000000       0.87500000000000000        0.0000000000000000     
   1.2500000000000000       0.90625000000000000        0.0000000000000000     
   1.2812500000000000       0.90625000000000000        0.0000000000000000     
   1.3125000000000000       0.90625000000000000        0.0000000000000000     
   1.3437500000000000       0.90625000000000000        0.0000000000000000     
   1.3750000000000000       0.90625000000000000        0.0000000000000000     
   1.2500000000000000       0.93750000000000000        0.0000000000000000     
   1.2812500000000000       0.93750000000000000        0.0000000000000000     
   1.3125000000000000       0.93750000000000000        0.0000000000000000     
   1.3437500000000000       0.93750000000000000        0.0000000000000000     
   1.3750000000000000       0.93750000000000000        0.0000000000000000     
   1.2500000000000000       0.96875000000000000        0.0000000000000000     
   1.2812500000000000       0.96875000000000000        0.0000000000000000     
   1.3125000000000000       0.96875000000000000        0.0000000000000000     
   1.3437500000000000       0.96875000000000000        0.0000000000000000     
   1.3750000000000000       0.96875000000000000        0.0000000000000000     
   1.2500000000000000        1.0000000000000000        0.0000000000000000     
   1.2812500000000000        1.0000000000000000        0.0000000000000000     
   1.3125000000000000        1.0000000000000000        0.0000000000000000     
   1.3437500000000000        1.0000000000000000        0.0000000000000000     
   1.3750000000000000        1.0000000000000000        0.0000000000000000     
   1.3750000000000000       0.87500000000000000        0.0000000000000000     
   1.4062500000000000       0.87500000000000000        0.0000000000000000     
   1.4375000000000000       0.87500000000000000        0.0000000000000000     
   1.4687500000000000       0.87500000000000000        0.0000000000000000     
   1.5000000000000000       0.87500000000000000        0.0000000000000000     
   1.3750000000000000       0.90625000000000000        0.0000000000000000     
   1.4062500000000000       0.90625000000000000        0.0000000000000000     
   1.4375000000000000       0.90625000000000000        0.0000000000000000     
   1.4687500000000000       0.90625000000000000        0.0000000000000000     
   1.5000000000000000       0.90625000000000000        0.0000000000000000     
   1.3750000000000000       0.93750000000000000        0.0000000000000000     
   1.4062500000000000       0.93750000000000000        0.0000000000000000     
   1.4375000000000000       0.93750000000000000        0.0000000000000000     
   1.4687500000000000       0.93750000000000000        0.0000000000000000     
   1.5000000000000000       0.93750000000000000        0.0000000000000000     
   1.3750000000000000       0.96875000000000000        0.0000000000000000     
   1.4062500000000000       0.96875000000000000        0.0000000000000000     
   1.4375000000000000       0.96875000000000000        0.0000000000000000     
   1.4687500000000000       0.96875000000000000        0.0000000000000000     
   1.5000000000000000       0.96875000000000000        0.0000000000000000     
   1.3750000000000000        1.0000000000000000        0.0000000000000000     
   1.4062500000000000        1.0000000000000000        0.0000000000000000     
   1.4375000000000000        1.0000000000000000        0.0000000000000000     
   1.4687500000000000        1.0000000000000000        0.0000000000000000     
   1.5000000000000000        1.0000000000000000        0.0000000000000000     
 </DataArray>
 </Points>
 <Cells>
 <DataArray  type="Int32"  Name="connectivity"  format="ascii">
           0           1           6           5
           1           2           7           6
           2           3           8           7
           3           4           9           8
           5           6          11          10
           6           7          12          11
           7           8          13          12
           8           9          14          13
          10          11          16          15
          11          12          17          16
          12          13          18          17
          13          14          19          18
          15          16          21          20
          16          17          22          21
          17          18          23          22
          18          19          24          23
          25          26          31          30
          26          27          32          31
          27          28          33          32
          28          29          34          33
          30          31          36          35
          31          32          37          36
          32          33          38          37
          33          34          39          38
          35          36          41          40
          36          37          42          41
          37          38          43          42
          38          39          44          43
          40          41          46          45
          41          42          47          46
          42          43          48          47
          43          44          49          48
          50          51          56          55
          51          52          57          56
          52          53          58          57
          53          54          59          58
          55          56          61          60
          56          57          62          61
          57          58          63          62
          58          59          64          63
          60          61          66          65
          61          62          67          66
          62          63          68          67
          63          64          69          68
          65          66          71          70
          66          67          72          71
          67          68          73          72
          68          69          74          73
          75          76          81          80
          76          77          82          81
          77          78          83          82
          78          79          84          83
          80          81          86          85
          81          82          87          86
          82          83          88          87
          83          84          89          88
          85          86          91          90
          86          87          92          91
          87          88          93          92
          88          89          94          93
          90          91          96          95
          91          92          97          96
          92          93          98          97
          93          94          99          98
         100         101         106         105
         101         102         107         106
         102         103         108         107
         103         104         109         108
         105         106         111         110
         106         107         112         111
         107         108         113         112
         108         109         114         113
         110         111         116         115
         111         112         117         116
         112         113         118         117
         113         114         119         118
         115         116         121         120
         116         117         122         121
         117         118         123         122
         118         119         124         123
         125         126         131         130
         126         127         132         131
         127         128         133         132
         128         129         134         133
         130         131         136         135
         131         132         137         136
         132         133         138         137
         133         134         139         138
         135         136         141         140
         136         137         142         141
         137         138         143         142
         138         139         144         143
         140         141         146         145
         141         142         147         146
         142         143         148         147
         143         144         149         148
         150         151         156         155
         151         152         157         156
         152         153         158         157
         153         154         159         158
         155         156         161         160
         156         157         162         161
         157         158         163         162
         158         159         164         163
         160         161         166         165
         161         162         167         166
         162         163         168         167
         163         164         169         168
         165         166         171         170
         166         167         172         171
         167         168         173         172
         168         169         174         173
         175         176         181         180
         176         177         182         181
         177         178         183         182
         178         179         184         183
         180         181         186         185
         181         182         187         186
         182         183         188         187
         183         184         189         188
         185         186         191         190
         186         187         192         191
         187         188         193         192
         188         189         194         193
         190         191         196         195
         191         192         197         196
         192         193         198         197
         193         194         199         198
         200         201         206         205
         201         202         207         206
         202         203         208         207
         203         204         209         208
         205         206         211         210
         206         207         212         211
         207         208         213         212
         208         209         214         213
         210         211         216         215
         211         212         217         216
         212         213         218         217
         213         214         219         218
         215         216         221         220
         216         217         222         221
         217         218         223         222
         218         219         224         223
         225         226         231         230
         226         227         232         231
         227         228         233         232
         228         229         234         233
         230         231         236         235
         231         232         237         236
         232         233         238         237
         233         234         239         238
         235         236         241         240
         236         237         242         241
         237         238         243         242
         238         239         244         243
         240         241         246         245
         241         242         247         246
         242         243         248         247
         243         244         249         248
         250         251         256         255
         251         252         257         256
         252         253         258         257
         253         254         259         258
         255         256         261         260
         256         257         262         261
         257         258         263         262
         258         259         264         263
         260         261         266         265
         261         262         267         266
         262         263         268         267
         263         264         269         268
         265         266         271         270
         266         267         272         271
         267         268         273         272
         268         269         274         273
         275         276         281         280
         276         277         282         281
         277         278         283         282
         278         279         284         283
         280         281         286         285
         281         282         287         286
         282         283         288         287
         283         284         289         288
         285         286         291         290
         286         287         292         291
         287         288         293         292
         288         289         294         293
         290         291         296         295
         291         292         297         296
         292         293         298         297
         293         294         299         298
         300         301         306         305
         301         302         307         306
         302         303         308         307
         303         304         309         308
         305         306         311         310
         306         307         312         311
         307         308         313         312
         308         309         314         313
         310         311         316         315
         311         312         317         316
         312         313         318         317
         313         314         319         318
         315         316         321         320
         316         317         322         321
         317         318         323         322
         318         319         324         323
         325         326         331         330
         326         327         332         331
         327         328         333         332
         328         329         334         333
         330         331         336         335
         331         332         337         336
         332         333         338         337
         333         334         339         338
         335         336         341         340
         336         337         342         341
         337         338         343         342
         338         339         344         343
         340         341         346         345
         341         342         347         346
         342         343         348         347
         343         344         349         348
         350         351         356         355
         351         352         357         356
         352         353         358         357
         353         354         359         358
         355         356         361         360
         356         357         362         361
         357         358         363         362
         358         359         364         363
         360         361         366         365
         361         362         367         366
         362         363         368         367
         363         364         369         368
         365         366         371         370
         366         367         372         371
         367         368         373         372
         368         369         374         373
         375         376         381         380
         376         377         382         381
         377         378         383         382
         378         379         384         383
         380         381         386         385
         381         382         387         386
         382         383         388         387
         383         384         389         388
         385         386         391         390
         386         387         392         391
         387         388         393         392
         388         389         394         393
         390         391         396         395
         391         392         397         396
         392         393         398         397
         393         394         399         398
         400         401         406         405
         401         402         407         406
         402         403         408         407
         403         404         409         408
         405         406         411         410
         406         407         412         411
         407         408         413         412
         408         409         414         413
         410         411         416         415
         411         412         417         416
         412         413         418         417
         413         414         419         418
         415         416         421         420
         416         417         422         421
         417         418         423         422
         418         419         424         423
         425         426         431         430
         426         427         432         431
         427         428         433         432
         428         429         434         433
         430         431         436         435
         431         432         437         436
         432         433         438         437
         433         434         439         438
         435         436         441         440
         436         437         442         441
         437         438         443         442
         438         439         444         443
         440         441         446         445
         441         442         447         446
         442         443         448         447
         443         444         449         448
         450         451         456         455
         451         452         457         456
         452         453         458         457
         453         454         459         458
         455         456         461         460
         456         457         462         461
         457         458         463         462
         458         459         464         463
         460         461         466         465
         461         462         467         466
         462         463         468         467
         463         464         469         468
         465         466         471         470
         466         467         472         471
         467         468         473         472
         468         469         474         473
         475         476         481         480
         476         477         482         481
         477         478         483         482
         478         479         484         483
         480         481         486         485
         481         482         487         486
         482         483         488         487
         483         484         489         488
         485         486         491         490
         486         487         492         491
         487         488         493         492
         488         489         494         493
         490         491         496         495
         491         492         497         496
         492         493         498         497
         493         494         499         498
         500         501         506         505
         501         502         507         506
         502         503         508         507
         503         504         509         508
         505         506         511         510
         506         507         512         511
         507         508         513         512
         508         509         514         513
         510         511         516         515
         511         512         517         516
         512         513         518         517
         513         514         519         518
         515         516         521         520
         516         517         522         521
         517         518         523         522
         518         519         524         523
         525         526         531         530
         526         527         532         531
         527         528         533         532
         528         529         534         533
         530         531         536         535
         531         532         537         536
         532         533         538         537
         533         534         539         538
         535         536         541         540
         536         537         542         541
         537         538         543         542
         538         539         544         543
         540         541         546         545
         541         542         547         546
         542         543         548         547
         543         544         549         548
         550         551         556         555
         551         552         557         556
         552         553         558         557
         553         554         559         558
         555         556         561         560
         556         557         562         561
         557         558         563         562
         558         559         564         563
         560         561         566         565
         561         562         567         566
         562         563         568         567
         563         564         569         568
         565         566         571         570
         566         567         572         571
         567         568         573         572
         568         569         574         573
         575         576         581         580
         576         577         582         581
         577         578         583         582
         578         579         584         583
         580         581         586         585
         581         582         587         586
         582         583         588         587
         583         584         589         588
         585         586         591         590
         586         587         592         591
         587         588         593         592
         588         589         594         593
         590         591         596         595
         591         592         597         596
         592         593         598         597
         593         594         599         598
         600         601         606         605
         601         602         607         606
         602         603         608         607
         603         604         609         608
         605         606         611         610
         606         607         612         611
         607         608         613         612
         608         609         614         613
         610         611         616         615
         611         612         617         616
         612         613         618         617
         613         614         619         618
         615         616         621         620
         616         617         622         621
         617         618         623         622
         618         619         624         623
         625         626         631         630
         626         627         632         631
         627         628         633         632
         628         629         634         633
         630         631         636         635
         631         632         637         636
         632         633         638         637
         633         634         639         638
         635         636         641         640
         636         637         642         641
         637         638         643         642
         638         639         644         643
         640         641         646         645
         641         642         647         646
         642         643         648         647
         643         644         649         648
         650         651         656         655
         651         652         657         656
         652         653         658         657
         653         654         659         658
         655         656         661         660
         656         657         662         661
         657         658         663         662
         658         659         664         663
         660         661         666         665
         661         662         667         666
         662         663         668         667
         663         664         669         668
         665         666         671         670
         666         667         672         671
         667         668         673         672
         668         669         674         673
         675         676         681         680
         676         677         682         681
         677         678         683         682
         678         679         684         683
         680         681         686         685
         681         682         687         686
         682         683         688         687
         683         684         689         688
         685         686         691         690
         686         687         692         691
         687         688         693         692
         688         689         694         693
         690         691         696         695
         691         692         697         696
         692         693         698         697
         693         694         699         698
         700         701         706         705
         701         702         707         706
         702         703         708         707
         703         704         709         708
         705         706         711         710
         706         707         712         711
         707         708         713         712
         708         709         714         713
         710         711         716         715
         711         712         717         716
         712         713         718         717
         713         714         719         718
         715         716         721         720
         716         717         722         721
         717         718         723         722
         718         719         724         723
         725         726         731         730
         726         727         732         731
         727         728         733         732
         728         729         734         733
         730         731         736         735
         731         732         737         736
         732         733         738         737
         733         734         739         738
         735         736         741         740
         736         737         742         741
         737         738         743         742
         738         739         744         743
         740         741         746         745
         741         742         747         746
         742         743         748         747
         743         744         749         748
         750         751         756         755
         751         752         757         756
         752         753         758         757
         753         754         759         758
         755         756         761         760
         756         757         762         761
         757         758         763         762
         758         759         764         763
         760         761         766         765
         761         762         767         766
         762         763         768         767
         763         764         769         768
         765         766         771         770
         766         767         772         771
         767         768         773         772
         768         769         774         773
         775         776         781         780
         776         777         782         781
         777         778         783         782
         778         779         784         783
         780         781         786         785
         781         782         787         786
         782         783         788         787
         783         784         789         788
         785         786         791         790
         786         787         792         791
         787         788         793         792
         788         789         794         793
         790         791         796         795
         791         792         797         796
         792         793         798         797
         793         794         799         798
         800         801         806         805
         801         802         807         806
         802         803         808         807
         803         804         809         808
         805         806         811         810
         806         807         812         811
         807         808         813         812
         808         809         814         813
         810         811         816         815
         811         812         817         816
         812         813         818         817
         813         814         819         818
         815         816         821         820
         816         817         822         821
         817         818         823         822
         818         819         824         823
         825         826         831         830
         826         827         832         831
         827         828         833         832
         828         829         834         833
         830         831         836         835
         831         832         837         836
         832         833         838         837
         833         834         839         838
         835         836         841         840
         836         837         842         841
         837         838         843         842
         838         839         844         843
         840         841         846         845
         841         842         847         846
         842         843         848         847
         843         844         849         848
         850         851         856         855
         851         852         857         856
         852         853         858         857
         853         854         859         858
         855         856         861         860
         856         857         862         861
         857         858         863         862
         858         859         864         863
         860         861         866         865
         861         862         867         866
         862         863         868         867
         863         864         869         868
         865         866         871         870
         866         867         872         871
         867         868         873         872
         868         869         874         873
         875         876         881         880
         876         877         882         881
         877         878         883         882
         878         879         884         883
         880         881         886         885
         881         882         887         886
         882         883         888         887
         883         884         889         888
         885         886         891         890
         886         887         892         891
         887         888         893         892
         888         889         894         893
         890         891         896         895
         891         892         897         896
         892         893         898         897
         893         894         899         898
         900         901         906         905
         901         902         907         906
         902         903         908         907
         903         904         909         908
         905         906         911         910
         906         907         912         911
         907         908         913         912
         908         909         914         913
         910         911         916         915
         911         912         917         916
         912         913         918         917
         913         914         919         918
         915         916         921         920
         916         917         922         921
         917         918         923         922
         918         919         924         923
         925         926         931         930
         926         927         932         931
         927         928         933         932
         928         929         934         933
         930         931         936         935
         931         932         937         936
         932         933         938         937
         933         934         939         938
         935         936         941         940
         936         937         942         941
         937         938         943         942
         938         939         944         943
         940         941         946         945
         941         942         947         946
         942         943         948         947
         943         944         949         948
         950         951         956         955
         951         952         957         956
         952         953         958         957
         953         954         959         958
         955         956         961         960
         956         957         962         961
         957         958         963         962
         958         959         964         963
         960         961         966         965
         961         962         967         966
         962         963         968         967
         963         964         969         968
         965         966         971         970
         966         967         972         971
         967         968         973         972
         968         969         974         973
         975         976         981         980
         976         977         982         981
         977         978         983         982
         978         979         984         983
         980         981         986         985
         981         982         987         986
         982         983         988         987
         983         984         989         988
         985         986         991         990
         986         987         992         991
         987         988         993         992
         988         989         994         993
         990         991         996         995
         991         992         997         996
         992         993         998         997
         993         994         999         998
        1000        1001        1006        1005
        1001        1002        1007        1006
        1002        1003        1008        1007
        1003        1004        1009        1008
        1005        1006        1011        1010
        1006        1007        1012        1011
        1007        1008        1013        1012
        1008        1009        1014        1013
        1010        1011        1016        1015
        1011        1012        1017        1016
        1012        1013        1018        1017
        1013        1014        1019        1018
        1015        1016        1021        1020
        1016        1017        1022        1021
        1017        1018        1023        1022
        1018        1019        1024        1023
        1025        1026        1031        1030
        1026        1027        1032        1031
        1027        1028        1033        1032
        1028        1029        1034        1033
        1030        1031        1036        1035
        1031        1032        1037        1036
        1032        1033        1038        1037
        1033        1034        1039        1038
        1035        1036        1041        1040
        1036        1037        1042        1041
        1037        1038        1043        1042
        1038        1039        1044        1043
        1040        1041        1046        1045
        1041        1042        1047        1046
        1042        1043        1048        1047
        1043        1044        1049        1048
        1050        1051        1056        1055
        1051        1052        1057        1056
        1052        1053        1058        1057
        1053        1054        1059        1058
        1055        1056        1061        1060
        1056        1057        1062        1061
        1057        1058        1063        1062
        1058        1059        1064        1063
        1060        1061        1066        1065
        1061        1062        1067        1066
        1062        1063        1068        1067
        1063        1064        1069        1068
        1065        1066        1071        1070
        1066        1067        1072        1071
        1067        1068        1073        1072
        1068        1069        1074        1073
        1075        1076        1081        1080
        1076        1077        1082        1081
        1077        1078        1083        1082
        1078        1079        1084        1083
        1080        1081        1086        1085
        1081        1082        1087        1086
        1082        1083        1088        1087
        1083        1084        1089        1088
        1085        1086        1091        1090
        1086        1087        1092        1091
        1087        1088        1093        1092
        1088        1089        1094        1093
        1090        1091        1096        1095
        1091        1092        1097        1096
        1092        1093        1098        1097
        1093        1094        1099        1098
        1100        1101        1106        1105
        1101        1102        1107        1106
        1102        1103        1108        1107
        1103        1104        1109        1108
        1105        1106        1111        1110
        1106        1107        1112        1111
        1107        1108        1113        1112
        1108        1109        1114        1113
        1110        1111        1116        1115
        1111        1112        1117        1116
        1112        1113        1118        1117
        1113        1114        1119        1118
        1115        1116        1121        1120
        1116        1117        1122        1121
        1117        1118        1123        1122
        1118        1119        1124        1123
        1125        1126        1131        1130
        1126        1127        1132        1131
        1127        1128        1133        1132
        1128        1129        1134        1133
        1130        1131        1136        1135
        1131        1132        1137        1136
        1132        1133        1138        1137
        1133        1134        1139        1138
        1135        1136        1141        1140
        1136        1137        1142        1141
        1137        1138        1143        1142
        1138        1139        1144        1143
        1140        1141        1146        1145
        1141        1142        1147        1146
        1142        1143        1148        1147
        1143        1144        1149        1148
        1150        1151        1156        1155
        1151        1152        1157        1156
        1152        1153        1158        1157
        1153        1154        1159        1158
        1155        1156        1161        1160
        1156        1157        1162        1161
        1157        1158        1163        1162
        1158        1159        1164        1163
        1160        1161        1166        1165
        1161        1162        1167        1166
        1162        1163        1168        1167
        1163        1164        1169        1168
        1165        1166        1171        1170
        1166        1167        1172        1171
        1167        1168        1173        1172
        1168        1169        1174        1173
        1175        1176        1181        1180
        1176        1177        1182        1181
        1177        1178        1183        1182
        1178        1179        1184        1183
        1180        1181        1186        1185
        1181        1182        1187        1186
        1182        1183        1188        1187
        1183        1184        1189        1188
        1185        1186        1191        1190
        1186        1187        1192        1191
        1187        1188        1193        1192
        1188        1189        1194        1193
        1190        1191        1196        1195
        1191        1192        1197        1196
        1192        1193        1198        1197
        1193        1194        1199        1198
        1200        1201        1206        1205
        1201        1202        1207        1206
        1202        1203        1208        1207
        1203        1204        1209        1208
        1205        1206        1211        1210
        1206        1207        1212        1211
        1207        1208        1213        1212
        1208        1209        1214        1213
        1210        1211        1216        1215
        1211        1212        1217        1216
        1212        1213        1218        1217
        1213        1214        1219        1218
        1215        1216        1221        1220
        1216        1217        1222        1221
        1217        1218        1223        1222
        1218        1219        1224        1223
        1225        1226        1231        1230
        1226        1227        1232        1231
        1227        1228        1233        1232
        1228        1229        1234        1233
        1230        1231        1236        1235
        1231        1232        1237        1236
        1232        1233        1238        1237
        1233        1234        1239        1238
        1235        1236        1241        1240
        1236        1237        1242        1241
        1237        1238        1243        1242
        1238        1239        1244        1243
        1240        1241        1246        1245
        1241        1242        1247        1246
        1242        1243        1248        1247
        1243        1244        1249        1248
        1250        1251        1256        1255
        1251        1252        1257        1256
        1252        1253        1258        1257
        1253        1254        1259        1258
        1255        1256        1261        1260
        1256        1257        1262        1261
        1257        1258        1263        1262
        1258        1259        1264        1263
        1260        1261        1266        1265
        1261        1262        1267        1266
        1262        1263        1268        1267
        1263        1264        1269        1268
        1265        1266        1271        1270
        1266        1267        1272        1271
        1267        1268        1273        1272
        1268        1269        1274        1273
        1275        1276        1281        1280
        1276        1277        1282        1281
        1277        1278        1283        1282
        1278        1279        1284        1283
        1280        1281        1286        1285
        1281        1282        1287        1286
        1282        1283        1288        1287
        1283        1284        1289        1288
        1285        1286        1291        1290
        1286        1287        1292        1291
        1287        1288        1293        1292
        1288        1289        1294        1293
        1290        1291        1296        1295
        1291        1292        1297        1296
        1292        1293        1298        1297
        1293        1294        1299        1298
        1300        1301        1306        1305
        1301        1302        1307        1306
        1302        1303        1308        1307
        1303        1304        1309        1308
        1305        1306        1311        1310
        1306        1307        1312        1311
        1307        1308        1313        1312
        1308        1309        1314        1313
        1310        1311        1316        1315
        1311        1312        1317        1316
        1312        1313        1318        1317
        1313        1314        1319        1318
        1315        1316        1321        1320
        1316        1317        1322        1321
        1317        1318        1323        1322
        1318        1319        1324        1323
        1325        1326        1331        1330
        1326        1327        1332        1331
        1327        1328        1333        1332
        1328        1329        1334        1333
        1330        1331        1336        1335
        1331        1332        1337        1336
        1332        1333        1338        1337
        1333        1334        1339        1338
        1335        1336        1341        1340
        1336        1337        1342        1341
        1337        1338        1343        1342
        1338        1339        1344        1343
        1340        1341        1346        1345
        1341        1342        1347        1346
        1342        1343        1348        1347
        1343        1344        1349        1348
        1350        1351        1356        1355
        1351        1352        1357        1356
        1352        1353        1358        1357
        1353        1354        1359        1358
        1355        1356        1361        1360
        1356        1357        1362        1361
        1357        1358        1363        1362
        1358        1359        1364        1363
        1360        1361        1366        1365
        1361        1362        1367        1366
        1362        1363        1368        1367
        1363        1364        1369        1368
        1365        1366        1371        1370
        1366        1367        1372        1371
        1367        1368        1373        1372
        1368        1369        1374        1373
        1375        1376        1381        1380
        1376        1377        1382        1381
        1377        1378        1383        1382
        1378        1379        1384        1383
        1380        1381        1386        1385
        1381        1382        1387        1386
        1382        1383        1388        1387
        1383        1384        1389        1388
        1385        1386        1391        1390
        1386        1387        1392        1391
        1387        1388        1393        1392
        1388        1389        1394        1393
        1390        1391        1396        1395
        1391        1392        1397        1396
        1392        1393        1398        1397
        1393        1394        1399        1398
        1400        1401        1406        1405
        1401        1402        1407        1406
        1402        1403        1408        1407
        1403        1404        1409        1408
        1405        1406        1411        1410
        1406        1407        1412        1411
        1407        1408        1413        1412
        1408        1409        1414        1413
        1410        1411        1416        1415
        1411        1412        1417        1416
        1412        1413        1418        1417
        1413        1414        1419        1418
        1415        1416        1421        1420
        1416        1417        1422        1421
        1417        1418        1423        1422
        1418        1419        1424        1423
        1425        1426        1431        1430
        1426        1427        1432        1431
        1427        1428        1433        1432
        1428        1429        1434        1433
        1430        1431        1436        1435
        1431        1432        1437        1436
        1432        1433        1438        1437
        1433        1434        1439        1438
        1435        1436        1441        1440
        1436        1437        1442        1441
        1437        1438        1443        1442
        1438        1439        1444        1443
        1440        1441        1446        1445
        1441        1442        1447        1446
        1442        1443        1448        1447
        1443        1444        1449        1448
        1450        1451        1456        1455
        1451        1452        1457        1456
        1452        1453        1458        1457
        1453        1454        1459        1458
        1455        1456        1461        1460
        1456        1457        1462        1461
        1457        1458        1463        1462
        1458        1459        1464        1463
        1460        1461        1466        1465
        1461        1462        1467        1466
        1462        1463        1468        1467
        1463        1464        1469        1468
        1465        1466        1471        1470
        1466        1467        1472        1471
        1467        1468        1473        1472
        1468        1469        1474        1473
        1475        1476        1481        1480
        1476        1477        1482        1481
        1477        1478        1483        1482
        1478        1479        1484        1483
        1480        1481        1486        1485
        1481        1482        1487        1486
        1482        1483        1488        1487
        1483        1484        1489        1488
        1485        1486        1491        1490
        1486        1487        1492        1491
        1487        1488        1493        1492
        1488        1489        1494        1493
        1490        1491        1496        1495
        1491        1492        1497        1496
        1492        1493        1498        1497
        1493        1494        1499        1498
        1500        1501        1506        1505
        1501        1502        1507        1506
        1502        1503        1508        1507
        1503        1504        1509        1508
        1505        1506        1511        1510
        1506        1507        1512        1511
        1507        1508        1513        1512
        1508        1509        1514        1513
        1510        1511        1516        1515
        1511        1512        1517        1516
        1512        1513        1518        1517
        1513        1514        1519        1518
        1515        1516        1521        1520
        1516        1517        1522        1521
        1517        1518        1523        1522
        1518        1519        1524        1523
        1525        1526        1531        1530
        1526        1527        1532        1531
        1527        1528        1533        1532
        1528        1529        1534        1533
        1530        1531        1536        1535
        1531        1532        1537        1536
        1532        1533        1538        1537
        1533        1534        1539        1538
        1535        1536        1541        1540
        1536        1537        1542        1541
        1537        1538        1543        1542
        1538        1539        1544        1543
        1540        1541        1546        1545
        1541        1542        1547        1546
        1542        1543        1548        1547
        1543        1544        1549        1548
        1550        1551        1556        1555
        1551        1552        1557        1556
        1552        1553        1558        1557
        1553        1554        1559        1558
        1555        1556        1561        1560
        1556        1557        1562        1561
        1557        1558        1563        1562
        1558        1559        1564        1563
        1560        1561        1566        1565
        1561        1562        1567        1566
        1562        1563        1568        1567
        1563        1564        1569        1568
        1565        1566        1571        1570
        1566        1567        1572        1571
        1567        1568        1573        1572
        1568        1569        1574        1573
        1575        1576        1581        1580
        1576        1577        1582        1581
        1577        1578        1583        1582
        1578        1579        1584        1583
        1580        1581        1586        1585
        1581        1582        1587        1586
        1582        1583        1588        1587
        1583        1584        1589        1588
        1585        1586        1591        1590
        1586        1587        1592        1591
        1587        1588        1593        1592
        1588        1589        1594        1593
        1590        1591        1596        1595
        1591        1592        1597        1596
        1592        1593        1598        1597
        1593        1594        1599        1598
 </DataArray>
 <DataArray  type="Int32"  Name="offsets"  format="ascii"> 
           4
           8
          12
          16
          20
          24
          28
          32
          36
          40
          44
          48
          52
          56
          60
          64
          68
          72
          76
          80
          84
          88
          92
          96
         100
         104
         108
         112
         116
         120
         124
         128
         132
         136
         140
         144
         148
         152
         156
         160
         164
         168
         172
         176
         180
         184
         188
         192
         196
         200
         204
         208
         212
         216
         220
         224
         228
         232
         236
         240
         244
         248
         252
         256
         260
         264
         268
         272
         276
         280
         284
         288
         292
         296
         300
         304
         308
         312
         316
         320
         324
         328
         332
         336
         340
         344
         348
         352
         356
         360
         364
         368
         372
         376
         380
         384
         388
         392
         396
         400
         404
         408
         412
         416
         420
         424
         428
         432
         436
         440
         444
         448
         452
         456
         460
         464
         468
         472
         476
         480
         484
         488
         492
         496
         500
         504
         508
         512
         516
         520
         524
         528
         532
         536
         540
         544
         548
         552
         556
         560
         564
         568
         572
         576
         580
         584
         588
         592
         596
         600
         604
         608
         612
         616
         620
         624
         628
         632
         636
         640
         644
         648
         652
         656
         660
         664
         668
         672
         676
         680
         684
         688
         692
         696
         700
         704
         708
         712
         716
         720
         724
         728
         732
         736
         740
         744
         748
         752
         756
         760
         764
         768
         772
         776
         780
         784
         788
         792
         796
         800
         804
         808
         812
         816
         820
         824
         828
         832
         836
         840
         844
         848
         852
         856
         860
         864
         868
         872
         876
         880
         884
         888
         892
         896
         900
         904
         908
         912
         916
         920
         924
         928
         932
         936
         940
         944
         948
         952
         956
         960
         964
         968
         972
         976
         980
         984
         988
         992
         996
        1000
        1004
        1008
        1012
        1016
        1020
        1024
        1028
        1032
        1036
        1040
        1044
        1048
        1052
        1056
        1060
        1064
        1068
        1072
        1076
        1080
        1084
        1088
        1092
        1096
        1100
        1104
        1108
        1112
        1116
        1120
        1124
        1128
        1132
        1136
        1140
        1144
        1148
        1152
        1156
        1160
        1164
        1168
        1172
        1176
        1180
        1184
        1188
        1192
        1196
        1200
        1204
        1208
        1212
        1216
        1220
        1224
        1228
        1232
        1236
        1240
        1244
        1248
        1252
        1256
        1260
        1264
        1268
        1272
        1276
        1280
        1284
        1288
        1292
        1296
        1300
        1304
        1308
        1312
        1316
        1320
        1324
        1328
        1332
        1336
        1340
        1344
        1348
        1352
        1356
        1360
        1364
        1368
        1372
        1376
        1380
        1384
        1388
        1392
        1396
        1400
        1404
        1408
        1412
        1416
        1420
        1424
        1428
        1432
        1436
        1440
        1444
        1448
        1452
        1456
        1460
        1464
        1468
        1472
        1476
        1480
        1484
        1488
        1492
        1496
        1500
        1504
        1508
        1512
        1516
        1520
        1524
        1528
        1532
        1536
        1540
        1544
        1548
        1552
        1556
        1560
        1564
        1568
        1572
        1576
        1580
        1584
        1588
        1592
        1596
        1600
        1604
        1608
        1612
        1616
        1620
        1624
        1628
        1632
        1636
        1640
        1644
        1648
        1652
        1656
        1660
        1664
        1668
        1672
        1676
        1680
        1684
        1688
        1692
        1696
        1700
        1704
        1708
        1712
        1716
        1720
        1724
        1728
        1732
        1736
        1740
        1744
        1748
        1752
        1756
        1760
        1764
        1768
        1772
        1776
        1780
        1784
        1788
        1792
        1796
        1800
        1804
        1808
        1812
        1816
        1820
        1824
        1828
        1832
        1836
        1840
        1844
        1848
        1852
        1856
        1860
        1864
        1868
        1872
        1876
        1880
        1884
        1888
        1892
        1896
        1900
        1904
        1908
        1912
        1916
        1920
        1924
        1928
        1932
        1936
        1940
        1944
        1948
        1952
        1956
        1960
        1964
        1968
        1972
        1976
        1980
        1984
        1988
        1992
        1996
        2000
        2004
        2008
        2012
        2016
        2020
        2024
        2028
        2032
        2036
        2040
        2044
        2048
        2052
        2056
        2060
        2064
        2068
        2072
        2076
        2080
        2084
        2088
        2092
        2096
        2100
        2104
        2108
        2112
        2116
        2120
        2124
        2128
        2132
        2136
        2140
        2144
        2148
        2152
        2156
        2160
        2164
        2168
        2172
        2176
        2180
        2184
        2188
        2192
        2196
        2200
        2204
        2208
        2212
        2216
        2220
        2224
        2228
        2232
        2236
        2240
        2244
        2248
        2252
        2256
        2260
        2264
        2268
        2272
        2276
        2280
        2284
        2288
        2292
        2296
        2300
        2304
        2308
        2312
        2316
        2320
        2324
        2328
        2332
        2336
        2340
        2344
        2348
        2352
        2356
        2360
        2364
        2368
        2372
        2376
        2380
        2384
        2388
        2392
        2396
        2400
        2404
        2408
        2412
        2416
        2420
        2424
        2428
        2432
        2436
        2440
        2444
        2448
        2452
        2456
        2460
        2464
        2468
        2472
        2476
        2480
        2484
        2488
        2492
        2496
        2500
        2504
        2508
        2512
        2516
        2520
        2524
        2528
        2532
        2536
        2540
        2544
        2548
        2552
        2556
        2560
        2564
        2568
        2572
        2576
        2580
        2584
        2588
        2592
        2596
        2600
        2604
        2608
        2612
        2616
        2620
        2624
        2628
        2632
        2636
        2640
        2644
        2648
        2652
        2656
        2660
        2664
        2668
        2672
        2676
        2680
        2684
        2688
        2692
        2696
        2700
        2704
        2708
        2712
        2716
        2720
        2724
        2728
        2732
        2736
        2740
        2744
        2748
        2752
        2756
        2760
        2764
        2768
        2772
        2776
        2780
        2784
        2788
        2792
        2796
        2800
        2804
        2808
        2812
        2816
        2820
        2824
        2828
        2832
        2836
        2840
        2844
        2848
        2852
        2856
        2860
        2864
        2868
        2872
        2876
        2880
        2884
        2888
        2892
        2896
        2900
        2904
        2908
        2912
        2916
        2920
        2924
        2928
        2932
        2936
        2940
        2944
        2948
        2952
        2956
        2960
        2964
        2968
        2972
        2976
        2980
        2984
        2988
        2992
        2996
        3000
        3004
        3008
        3012
        3016
        3020
        3024
        3028
        3032
        3036
        3040
        3044
        3048
        3052
        3056
        3060
        3064
        3068
        3072
        3076
        3080
        3084
        3088
        3092
        3096
        3100
        3104
        3108
        3112
        3116
        3120
        3124
        3128
        3132
        3136
        3140
        3144
        3148
        3152
        3156
        3160
        3164
        3168
        3172
        3176
        3180
        3184
        3188
        3192
        3196
        3200
        3204
        3208
        3212
        3216
        3220
        3224
        3228
        3232
        3236
        3240
        3244
        3248
        3252
        3256
        3260
        3264
        3268
        3272
        3276
        3280
        3284
        3288
        3292
        3296
        3300
        3304
        3308
        3312
        3316
        3320
        3324
        3328
        3332
        3336
        3340
        3344
        3348
        3352
        3356
        3360
        3364
        3368
        3372
        3376
        3380
        3384
        3388
        3392
        3396
        3400
        3404
        3408
        3412
        3416
        3420
        3424
        3428
        3432
        3436
        3440
        3444
        3448
        3452
        3456
        3460
        3464
        3468
        3472
        3476
        3480
        3484
        3488
        3492
        3496
        3500
        3504
        3508
        3512
        3516
        3520
        3524
        3528
        3532
        3536
        3540
        3544
        3548
        3552
        3556
        3560
        3564
        3568
        3572
        3576
        3580
        3584
        3588
        3592
        3596
        3600
        3604
        3608
        3612
        3616
        3620
        3624
        3628
        3632
        3636
        3640
        3644
        3648
        3652
        3656
        3660
        3664
        3668
        3672
        3676
        3680
        3684
        3688
        3692
        3696
        3700
        3704
        3708
        3712
        3716
        3720
        3724
        3728
        3732
        3736
        3740
        3744
        3748
        3752
        3756
        3760
        3764
        3768
        3772
        3776
        3780
        3784
        3788
        3792
        3796
        3800
        3804
        3808
        3812
        3816
        3820
        3824
        3828
        3832
        3836
        3840
        3844
        3848
        3852
        3856
        3860
        3864
        3868
        3872
        3876
        3880
        3884
        3888
        3892
        3896
        3900
        3904
        3908
        3912
        3916
        3920
        3924
        3928
        3932
        3936
        3940
        3944
        3948
        3952
        3956
        3960
        3964
        3968
        3972
        3976
        3980
        3984
        3988
        3992
        3996
        4000
        4004
        4008
        4012
        4016
        4020
        4024
        4028
        4032
        4036
        4040
        4044
        4048
        4052
        4056
        4060
        4064
        4068
        4072
        4076
        4080
        4084
        4088
        4092
        4096
 </DataArray>
 <DataArray  type="UInt8"  Name="types"  format="ascii">
 9
 9
 9
 9
 9
 9
 9
 9
 9
 9
 9
 9
 9
 9
 9
 9
 9
 9
 9
 9
 9
 9
 9
 9
 9
 9
 9
 9
 9
 9
 9
 9
 9
 9
 9
 9
 9
 9
 9
 9
 9
 9
 9
 9
 9
 9
 9
 9
 9
 9
 9
 9
 9
 9
 9
 9
 9
 9
 9
 9
 9
 9
 9
 9
 9
 9
 9
 9
 9
 9
 9
 9
 9
 9
 9
 9
 9
 9
 9
 9
 9
 9
 9
 9
 9
 9
 9
 9
 9
 9
 9
 9
 9
 9
 9
 9
 9
 9
 9
 9
 9
 9
 9
 9
 9
 9
 9
 9
 9
 9
 9
 9
 9
 9
 9
 9
 9
 9
 9
 9
 9
 9
 9
 9
 9
 9
 9
 9
 9
 9
 9
 9
 9
 9
 9
 9
 9
 9
 9
 9
 9
 9
 9
 9
 9
 9
 9
 9
 9
 9
 9
 9
 9
 9
 9
 9
 9
 9
 9
 9
 9
 9
 9
 9
 9
 9
 9
 9
 9
 9
 9
 9
 9
 9
 9
 9
 9
 9
 9
 9
 9
 9
 9
 9
 9
 9
 9
 9
 9
 9
 9
 9
 9
 9
 9
 9
 9
 9
 9
 9
 9
 9
 9
 9
 9
 9
 9
 9
 9
 9
 9
 9
 9
 9
 9
 9
 9
 9
 9
 9
 9
 9
 9
 9
 9
 9
 9
 9
 9
 9
 9
 9
 9
 9
 9
 9
 9
 9
 9
 9
 9
 9
 9
 9
 9
 9
 9
 9
 9
 9
 9
 9
 9
 9
 9
 9
 9
 9
 9
 9
 9
 9
 9
 9
 9
 9
 9
 9
 9
 9
 9
 9
 9
 9
 9
 9
 9
 9
 9
 9
 9
 9
 9
 9
 9
 9
 9
 9
 9
 9
 9
 9
 9
 9
 9
 9
 9
 9
 9
 9
 9
 9
 9
 9
 9
 9
 9
 9
 9
 9
 9
 9
 9
 9
 9
 9
 9
 9
 9
 9
 9
 9
 9
 9
 9
 9
 9
 9
 9
 9
 9
 9
 9
 9
 9
 9
 9
 9
 9
 9
 9
 9
 9
 9
 9
 9
 9
 9
 9
 9
 9
 9
 9
 9
 9
 9
 9
 9
 9
 9
 9
 9
 9
 9
 9
 9
 9
 9
 9
 9
 9
 9
 9
 9
 9
 9
 9
 9
 9
 9
 9
 9
 9
 9
 9
 9
 9
 9
 9
 9
 9
 9
 9
 9
 9
 9
 9
 9
 9
 9
 9
 9
 9
 9
 9
 9
 9
 9
 9
 9
 9
 9
 9
 9
 9
 9
 9
 9
 9
 9
 9
 9
 9
 9
 9
 9
 9
 9
 9
 9
 9
 9
 9
 9
 9
 9
 9
 9
 9
 9
 9
 9
 9
 9
 9
 9
 9
 9
 9
 9
 9
 9
 9
 9
 9
 9
 9
 9
 9
 9
 9
 9
 9
 9
 9
 9
 9
 9
 9
 9
 9
 9
 9
 9
 9
 9
 9
 9
 9
 9
 9
 9
 9
 9
 9
 9
 9
 9
 9
 9
 9
 9
 9
 9
 9
 9
 9
 9
 9
 9
 9
 9
 9
 9
 9
 9
 9
 9
 9
 9
 9
 9
 9
 9
 9
 9
 9
 9
 9
 9
 9
 9
 9
 9
 9
 9
 9
 9
 9
 9
 9
 9
 9
 9
 9
 9
 9
 9
 9
 9
 9
 9
 9
 9
 9
 9
 9
 9
 9
 9
 9
 9
 9
 9
 9
 9
 9
 9
 9
 9
 9
 9
 9
 9
 9
 9
 9
 9
 9
 9
 9
 9
 9
 9
 9
 9
 9
 9
 9
 9
 9
 9
 9
 9
 9
 9
 9
 9
 9
 9
 9
 9
 9
 9
 9
 9
 9
 9
 9
 9
 9
 9
 9
 9
 9
 9
 9
 9
 9
 9
 9
 9
 9
 9
 9
 9
 9
 9
 9
 9
 9
 9
 9
 9
 9
 9
 9
 9
 9
 9
 9
 9
 9
 9
 9
 9
 9
 9
 9
 9
 9
 9
 9
 9
 9
 9
 9
 9
 9
 9
 9
 9
 9
 9
 9
 9
 9
 9
 9
 9
 9
 9
 9
 9
 9
 9
 9
 9
 9
 9
 9
 9
 9
 9
 9
 9
 9
 9
 9
 9
 9
 9
 9
 9
 9
 9
 9
 9
 9
 9
 9
 9
 9
 9
 9
 9
 9
 9
 9
 9
 9
 9
 9
 9
 9
 9
 9
 9
 9
 9
 9
 9
 9
 9
 9
 9
 9
 9
 9
 9
 9
 9
 9
 9
 9
 9
 9
 9
 9
 9
 9
 9
 9
 9
 9
 9
 9
 9
 9
 9
 9
 9
 9
 9
 9
 9
 9
 9
 9
 9
 9
 9
 9
 9
 9
 9
 9
 9
 9
 9
 9
 9
 9
 9
 9
 9
 9
 9
 9
 9
 9
 9
 9
 9
 9
 9
 9
 9
 9
 9
 9
 9
 9
 9
 9
 9
 9
 9
 9
 9
 9
 9
 9
 9
 9
 9
 9
 9
 9
 9
 9
 9
 9
 9
 9
 9
 9
 9
 9
 9
 9
 9
 9
 9
 9
 9
 9
 9
 9
 9
 9
 9
 9
 9
 9
 9
 9
 9
 9
 9
 9
 9
 9
 9
 9
 9
 9
 9
 9
 9
 9
 9
 9
 9
 9
 9
 9
 9
 9
 9
 9
 9
 9
 9
 9
 9
 9
 9
 9
 9
 9
 9
 9
 9
 9
 9
 9
 9
 9
 9
 9
 9
 9
 9
 9
 9
 9
 9
 9
 9
 9
 9
 9
 9
 9
 9
 9
 9
 9
 9
 9
 9
 9
 9
 9
 9
 9
 9
 9
 9
 9
 9
 9
 9
 9
 9
 9
 9
 9
 9
 9
 9
 9
 9
 9
 9
 9
 9
 9
 9
 9
 9
 9
 9
 9
 9
 9
 9
 9
 9
 9
 9
 9
 9
 9
 9
 9
 9
 9
 9
 9
 9
 9
 9
 9
 9
 9
 9
 9
 9
 9
 9
 9
 9
 9
 9
 9
 9
 9
 9
 9
 9
 9
 9
 9
 9
 9
 9
 9
 9
 9
 9
 9
 9
 9
 9
 9
 9
 9
 9
 9
 9
 9
 9
 9
 9
 9
 9
 9
 9
 9
 9
 9
 9
 9
 9
 9
 9
 9
 9
 9
 9
 9
 9
 9
 9
 9
 9
 9
 9
 9
 9
 9
 9
 9
 9
 9
 9
 9
 9
 9
 9
 9
 9
 </DataArray>
 </Cells> 
 <PointData>
 <DataArray  type="Float64" Name="disp" NumberOfComponents="3" format="ascii">
   6.7639892428916909E-002   6.2750705293403319E-002   0.0000000000000000     
   7.0046477608402685E-002   6.8148659435910225E-002   0.0000000000000000     
   7.2506077286724369E-002   7.3722773892623689E-002   0.0000000000000000     
   7.5018691463881959E-002   7.9473048663543697E-002   0.0000000000000000     
   7.7584320139875484E-002   8.5399483748670263E-002   0.0000000000000000     
   6.0807317131856907E-002   6.1857628622239098E-002   0.0000000000000000     
   6.3504903492519901E-002   6.7281006843486202E-002   0.0000000000000000     
   6.6149127829835758E-002   7.2881189534292373E-002   0.0000000000000000     
   6.8739990143804455E-002   7.8658176694657619E-002   0.0000000000000000     
   7.1277490434426008E-002   8.4611968324581954E-002   0.0000000000000000     
   5.4798457831779508E-002   6.1018654608491540E-002   0.0000000000000000     
   5.7604688705531600E-002   6.6465580874138563E-002   0.0000000000000000     
   6.0293808330558120E-002   7.2090205582542297E-002   0.0000000000000000     
   6.2865816706859118E-002   7.7892528733702712E-002   0.0000000000000000     
   6.5320713834434538E-002   8.3872550327619783E-002   0.0000000000000000     
   4.9613314528684713E-002   6.0233783252160653E-002   0.0000000000000000     
   5.2345833247437759E-002   6.5702381527867351E-002   0.0000000000000000     
   5.4940118788891504E-002   7.1349822037373445E-002   0.0000000000000000     
   5.7396171153045926E-002   7.7176104780678906E-002   0.0000000000000000     
   5.9713990339901067E-002   8.3181229757783817E-002   0.0000000000000000     
   4.5251887222572507E-002   5.9503014553246428E-002   0.0000000000000000     
   4.7728337118238373E-002   6.4991408804672524E-002   0.0000000000000000     
   5.0088059204835833E-002   7.0660038898785818E-002   0.0000000000000000     
   5.2331053482364914E-002   7.6508904835586283E-002   0.0000000000000000     
   5.4457319950825589E-002   8.2538006615073933E-002   0.0000000000000000     
   7.7584320139875484E-002   8.5399483748670263E-002   0.0000000000000000     
   8.0141187498754374E-002   9.1494374142120763E-002   0.0000000000000000     
   8.2627517724568139E-002   9.7750014838012600E-002   0.0000000000000000     
   8.5043310817316739E-002  0.10416640583634573        0.0000000000000000     
   8.7388566777000201E-002  0.11074354713712020        0.0000000000000000     
   7.1277490434426008E-002   8.4611968324581954E-002   0.0000000000000000     
   7.3748823853869092E-002   9.0734424547103593E-002   0.0000000000000000     
   7.6141185554302410E-002   9.7017405485260763E-002   0.0000000000000000     
   7.8454575535725921E-002  0.10346091113905348        0.0000000000000000     
   8.0688993798139680E-002  0.11006494150848173        0.0000000000000000     
   6.5320713834434538E-002   8.3872550327619783E-002   0.0000000000000000     
   6.7675981354644463E-002   9.0021456060698529E-002   0.0000000000000000     
   6.9949100908848941E-002   9.6330431629343904E-002   0.0000000000000000     
   7.2140072497048013E-002  0.10279947703355583        0.0000000000000000     
   7.4248896119241639E-002  0.10942859227333440        0.0000000000000000     
   5.9713990339901067E-002   8.3181229757783817E-002   0.0000000000000000     
   6.1922660001080480E-002   8.9355468682905614E-002   0.0000000000000000     
   6.4051263788207788E-002   9.5689093270261968E-002   0.0000000000000000     
   6.6099801701282976E-002  0.10218210351985287        0.0000000000000000     
   6.8068273740306051E-002  0.10883449943167825        0.0000000000000000     
   5.4457319950825589E-002   8.2538006615073933E-002   0.0000000000000000     
   5.6488859793177151E-002   8.8736462413724806E-002   0.0000000000000000     
   5.8447674192378903E-002   9.5093390408015011E-002   0.0000000000000000     
   6.0333763148430822E-002  0.10160879059794445        0.0000000000000000     
   6.2147126661332923E-002  0.10828266298351322        0.0000000000000000     
   8.7388566777000201E-002  0.11074354713712020        0.0000000000000000     
   8.9652477991370383E-002  0.11746524667047133        0.0000000000000000     
   9.1824236848179183E-002  0.12431531236653441        0.0000000000000000     
   9.3903843347426574E-002  0.13129374422530948        0.0000000000000000     
   9.5891297489112570E-002  0.13840054224679657        0.0000000000000000     
   8.0688993798139680E-002  0.11006494150848173        0.0000000000000000     
   8.2838318146499626E-002  0.11681380549304750        0.0000000000000000     
   8.4896426385761684E-002  0.12369181199225275        0.0000000000000000     
   8.6863318515925866E-002  0.13069896100609754        0.0000000000000000     
   8.8738994536992188E-002  0.13783525253458181        0.0000000000000000     
   7.4248896119241639E-002  0.10942859227333440        0.0000000000000000     
   7.6272407962897762E-002  0.11620276108565174        0.0000000000000000     
   7.8207444215484354E-002  0.12310696720747998        0.0000000000000000     
   8.0054004877001372E-002  0.13014121063881912        0.0000000000000000     
   8.1812089947448860E-002  0.13730549137966919        0.0000000000000000     
   6.8068273740306051E-002  0.10883449943167825        0.0000000000000000     
   6.9954747440564832E-002  0.11563211344828402        0.0000000000000000     
   7.1757290337347193E-002  0.12256077801221600        0.0000000000000000     
   7.3475902430653134E-002  0.12962049312347421        0.0000000000000000     
   7.5110583720482627E-002  0.13681125878205860        0.0000000000000000     
   6.2147126661332923E-002  0.10828266298351322        0.0000000000000000     
   6.3885336579500837E-002  0.11510186258094433        0.0000000000000000     
   6.5545964751350230E-002  0.12205324440646088        0.0000000000000000     
   6.7129011176881109E-002  0.12913680846006284        0.0000000000000000     
   6.8634475856093446E-002  0.13635255474175023        0.0000000000000000     
   9.5891297489112570E-002  0.13840054224679657        0.0000000000000000     
   9.7786052212359462E-002  0.14562932159416192        0.0000000000000000     
   9.9587560456289553E-002  0.15297369743057182        0.0000000000000000     
  0.10129582222090285       0.16043366975602624        0.0000000000000000     
  0.10291083750619932       0.16800923857052530        0.0000000000000000     
   8.8738994536992188E-002  0.13783525253458181        0.0000000000000000     
   9.0525873913610944E-002  0.14509300507952788        0.0000000000000000     
   9.2226376110432454E-002  0.15246453714275796        0.0000000000000000     
   9.3840501127456719E-002  0.15994984872427204        0.0000000000000000     
   9.5368248964683752E-002  0.16754893982407021        0.0000000000000000     
   8.1812089947448860E-002  0.13730549137966919        0.0000000000000000     
   8.3485708544918227E-002  0.14459098490658623        0.0000000000000000     
   8.5078869787500899E-002  0.15198886669612632        0.0000000000000000     
   8.6591573675196876E-002  0.15949913674828950        0.0000000000000000     
   8.8023820208006157E-002  0.16712179506307570        0.0000000000000000     
   7.5110583720482627E-002  0.13681125878205860        0.0000000000000000     
   7.6665556106281327E-002  0.14412326107533696        0.0000000000000000     
   7.8145041487494890E-002  0.15154668609067698        0.0000000000000000     
   7.9549039864123275E-002  0.15908153382807858        0.0000000000000000     
   8.0877551236166537E-002  0.16672780428754180        0.0000000000000000     
   6.8634475856093446E-002  0.13635255474175023        0.0000000000000000     
   7.0065416597700228E-002  0.14368983358578016        0.0000000000000000     
   7.1424891210414385E-002  0.15113799532640987        0.0000000000000000     
   7.2712899694235944E-002  0.15869703996363929        0.0000000000000000     
   7.3929442049164906E-002  0.16636696749746849        0.0000000000000000     
  0.10291083750619932       0.16800923857052530        0.0000000000000000     
  0.10443867721446173       0.17568579723999411        0.0000000000000000     
  0.10588541224797282       0.18344873913035806        0.0000000000000000     
  0.10725104260673257       0.19129806424161708        0.0000000000000000     
  0.10853556829074099       0.19923377257377123        0.0000000000000000     
   9.5368248964683752E-002  0.16754893982407021        0.0000000000000000     
   9.6811347256358343E-002  0.17524879671202795        0.0000000000000000     
   9.8171523636725294E-002  0.18303640565802087        0.0000000000000000     
   9.9448778105784633E-002  0.19091176666204893        0.0000000000000000     
  0.10064311066353633       0.19887487972411214        0.0000000000000000     
   8.8023820208006157E-002  0.16712179506307570        0.0000000000000000     
   8.9374517247849311E-002  0.17484496582980558        0.0000000000000000     
   9.0642572656646964E-002  0.18265677323779964        0.0000000000000000     
   9.1827986434399045E-002  0.19055721728705796        0.0000000000000000     
   9.2930758581105624E-002  0.19854629797758044        0.0000000000000000     
   8.0877551236166537E-002  0.16672780428754180        0.0000000000000000     
   8.2128187188934706E-002  0.17447430459332697        0.0000000000000000     
   8.3298559307737802E-002  0.18230984186969443        0.0000000000000000     
   8.4388667592575892E-002  0.19023441611664413        0.0000000000000000     
   8.5398512043448879E-002  0.19824802733417610        0.0000000000000000     
   7.3929442049164906E-002  0.16636696749746849        0.0000000000000000     
   7.5072357079614460E-002  0.17413681300259215        0.0000000000000000     
   7.6139483589997850E-002  0.18199561155370517        0.0000000000000000     
   7.7130821580315076E-002  0.18994336315080748        0.0000000000000000     
   7.8046371050566124E-002  0.19798006779389912        0.0000000000000000     
  0.10853556829074099       0.19923377257377123        0.0000000000000000     
  0.10974205131789365       0.20725376473836385        0.0000000000000000     
  0.11087355370608609       0.21535594134693836        0.0000000000000000     
  0.11193007545531834       0.22354030239949485        0.0000000000000000     
  0.11291161656559040       0.23180684789603317        0.0000000000000000     
  0.10064311066353633       0.19887487972411214        0.0000000000000000     
  0.10175946438770822       0.20692079331303703        0.0000000000000000     
  0.10280278235602815       0.21504455589765017        0.0000000000000000     
  0.10377306456849608       0.22324616747795153        0.0000000000000000     
  0.10467031102511208       0.23152562805394114        0.0000000000000000     
   9.2930758581105624E-002  0.19854629797758044        0.0000000000000000     
   9.3956136981624166E-002  0.20661731146719195        0.0000000000000000     
   9.4909369520812178E-002  0.21476355391371724        0.0000000000000000     
   9.5790456198669688E-002  0.22298502531715636        0.0000000000000000     
   9.6599397015196639E-002  0.23128172567750926        0.0000000000000000     
   8.5398512043448879E-002  0.19824802733417610        0.0000000000000000     
   8.6332069099641445E-002  0.20634331920082846        0.0000000000000000     
   8.7193315200438187E-002  0.21451293539513955        0.0000000000000000     
   8.7982250345839064E-002  0.22275687591710927        0.0000000000000000     
   8.8698874535844102E-002  0.23107514076673755        0.0000000000000000     
   7.8046371050566124E-002  0.19798006779389912        0.0000000000000000     
   7.8887260741760112E-002  0.20609881651394676        0.0000000000000000     
   7.9654619394906173E-002  0.21429270034191714        0.0000000000000000     
   8.0348447010004279E-002  0.22256171927781024        0.0000000000000000     
   8.0968743587054456E-002  0.23090587332162604        0.0000000000000000     
  0.11291161656559040       0.23180684789603317        0.0000000000000000     
  0.11384617894271486       0.24017192801523837        0.0000000000000000     
  0.11476176449250437       0.24865189293579520        0.0000000000000000     
  0.11565837321495888       0.25724674265770381        0.0000000000000000     
  0.11653600511007843       0.26595647718096405        0.0000000000000000     
  0.10467031102511208       0.23152562805394114        0.0000000000000000     
  0.10549950260980685       0.23990629367411745        0.0000000000000000     
  0.10626562020651123       0.24841152038697883        0.0000000000000000     
  0.10696866381522520       0.25704130819252541        0.0000000000000000     
  0.10760863343594873       0.26579565709075714        0.0000000000000000     
   9.6599397015196639E-002  0.23128172567750926        0.0000000000000000     
   9.7327090554318776E-002  0.23968007960005500        0.0000000000000000     
   9.7964435399961788E-002  0.24820651169007255        0.0000000000000000     
   9.8511431552125661E-002  0.25686102194756188        0.0000000000000000     
   9.8968079010810395E-002  0.26564361037252299        0.0000000000000000     
   8.8698874535844102E-002  0.23107514076673755        0.0000000000000000     
   8.9328942776250642E-002  0.23949328579305110        0.0000000000000000     
   8.9858210072856035E-002  0.24803686684507623        0.0000000000000000     
   9.0286676425660267E-002  0.25670588392281313        0.0000000000000000     
   9.0614341834663367E-002  0.26550033702626169        0.0000000000000000     
   8.0968743587054456E-002  0.23090587332162604        0.0000000000000000     
   8.1505059275602434E-002  0.23934591225310561        0.0000000000000000     
   8.1946944225193982E-002  0.24790258585199001        0.0000000000000000     
   8.2294398435829044E-002  0.25657589411827919        0.0000000000000000     
   8.2547421907507662E-002  0.26536583705197325        0.0000000000000000     
  0.11653600511007843       0.26595647718096405        0.0000000000000000     
  0.11733498565485365       0.27494570539646485        0.0000000000000000     
  0.11799564032627512       0.28437903619509508        0.0000000000000000     
  0.11851796912434287       0.29425646957685464        0.0000000000000000     
  0.11890197204905691       0.30457800554174375        0.0000000000000000     
  0.10760863343594873       0.26579565709075714        0.0000000000000000     
  0.10816652117804017       0.27480669250186696        0.0000000000000000     
  0.10862331915085773       0.28420653984604810        0.0000000000000000     
  0.10897902735440143       0.29399519912330047        0.0000000000000000     
  0.10923364578867126       0.30417267033362400        0.0000000000000000     
   9.8968079010810395E-002  0.26564361037252299        0.0000000000000000     
   9.9345363739477777E-002  0.27465253244182675        0.0000000000000000     
   9.9654271701589608E-002  0.28398604363234375        0.0000000000000000     
   9.9894802897145862E-002  0.29364414394407429        0.0000000000000000     
  0.10006695732614658       0.30362683337701807        0.0000000000000000     
   9.0614341834663367E-002  0.26550033702626169        0.0000000000000000     
   9.0871513339166460E-002  0.27448322521634400        0.0000000000000000     
   9.1088497978470753E-002  0.28371754755398210        0.0000000000000000     
   9.1265295752576220E-002  0.29320330403917616        0.0000000000000000     
   9.1401906661482873E-002  0.30294049467192596        0.0000000000000000     
   8.2547421907507662E-002  0.26536583705197325        0.0000000000000000     
   8.2744969977106259E-002  0.27429877082541892        0.0000000000000000     
   8.2925997981501173E-002  0.28340105161096324        0.0000000000000000     
   8.3090505920692490E-002  0.29267267940860608        0.0000000000000000     
   8.3238493794680124E-002  0.30211365421834757        0.0000000000000000     
   4.5251887222572507E-002   5.9503014553246428E-002   0.0000000000000000     
   4.7728337118238373E-002   6.4991408804672524E-002   0.0000000000000000     
   5.0088059204835833E-002   7.0660038898785818E-002   0.0000000000000000     
   5.2331053482364914E-002   7.6508904835586283E-002   0.0000000000000000     
   5.4457319950825589E-002   8.2538006615073933E-002   0.0000000000000000     
   4.1280613392584424E-002   5.8829077692915469E-002   0.0000000000000000     
   4.3436584887655207E-002   6.4335764561066308E-002   0.0000000000000000     
   4.5512386190627342E-002   7.0024002547532813E-002   0.0000000000000000     
   4.7508017301500824E-002   7.5893791652314982E-002   0.0000000000000000     
   4.9423478220275652E-002   8.1945131875412802E-002   0.0000000000000000     
   3.7265930517861978E-002   5.8214701852334377E-002   0.0000000000000000     
   3.9154961125410039E-002   6.3738550653560877E-002   0.0000000000000000     
   4.0987856358502182E-002   6.9444859364367825E-002   0.0000000000000000     
   4.2764616217138444E-002   7.5333627984755208E-002   0.0000000000000000     
   4.4485240701318783E-002   8.1404856514723012E-002   0.0000000000000000     
   3.3207838598405148E-002   5.7659887031503161E-002   0.0000000000000000     
   3.4883465831502827E-002   6.3199767082156272E-002   0.0000000000000000     
   3.6514469708460368E-002   6.8922609349290842E-002   0.0000000000000000     
   3.8100850229277734E-002   7.4828413832906948E-002   0.0000000000000000     
   3.9642607393954969E-002   8.0917180533004535E-002   0.0000000000000000     
   2.9106337634213955E-002   5.7164633230421827E-002   0.0000000000000000     
   3.0622099005933615E-002   6.2719413846852437E-002   0.0000000000000000     
   3.2092226240501877E-002   6.8457252502301905E-002   0.0000000000000000     
   3.3516719337918749E-002   7.4378149196770216E-002   0.0000000000000000     
   3.4895578298184224E-002   8.0482103930257370E-002   0.0000000000000000     
   5.4457319950825589E-002   8.2538006615073933E-002   0.0000000000000000     
   5.6488859793177151E-002   8.8736462413724806E-002   0.0000000000000000     
   5.8447674192378903E-002   9.5093390408015011E-002   0.0000000000000000     
   6.0333763148430822E-002  0.10160879059794445        0.0000000000000000     
   6.2147126661332923E-002  0.10828266298351322        0.0000000000000000     
   4.9423478220275652E-002   8.1945131875412802E-002   0.0000000000000000     
   5.1267081772238723E-002   8.8166077774718632E-002   0.0000000000000000     
   5.3047140782676930E-002   9.4544683908124788E-002   0.0000000000000000     
   5.4763655251590271E-002  0.10108095027563124        0.0000000000000000     
   5.6416625178978733E-002  0.10777487687723798        0.0000000000000000     
   4.4485240701318783E-002   8.1404856514723012E-002   0.0000000000000000     
   4.6149826979569403E-002   8.7645955287449548E-002   0.0000000000000000     
   4.7758472220416466E-002   9.4044334636113086E-002   0.0000000000000000     
   4.9311176423860008E-002  0.10059999456071364        0.0000000000000000     
   5.0807939589899979E-002  0.10731293506125118        0.0000000000000000     
   3.9642607393954969E-002   8.0917180533004535E-002   0.0000000000000000     
   4.1137095415169196E-002   8.7176094951917554E-002   0.0000000000000000     
   4.2581668505597553E-002   9.3592342591979932E-002   0.0000000000000000     
   4.3976326665240033E-002  0.10016592345319167        0.0000000000000000     
   4.5321069894096649E-002  0.10689683753555275        0.0000000000000000     
   3.4895578298184224E-002   8.0482103930257370E-002   0.0000000000000000     
   3.6228887079038097E-002   8.6756496768122637E-002   0.0000000000000000     
   3.7516729638220142E-002   9.3188707775725285E-002   0.0000000000000000     
   3.8759105975730353E-002   9.9778736953065328E-002   0.0000000000000000     
   3.9956016091568750E-002  0.10652658430014274        0.0000000000000000     
   6.2147126661332923E-002  0.10828266298351322        0.0000000000000000     
   6.3885336579500837E-002  0.11510186258094433        0.0000000000000000     
   6.5545964751350230E-002  0.12205324440646088        0.0000000000000000     
   6.7129011176881109E-002  0.12913680846006284        0.0000000000000000     
   6.8634475856093446E-002  0.13635255474175023        0.0000000000000000     
   5.6416625178978733E-002  0.10777487687723798        0.0000000000000000     
   5.8002538378971256E-002  0.11461425138004999        0.0000000000000000     
   5.9517882665696763E-002  0.12158686145117223        0.0000000000000000     
   6.0962658039155251E-002  0.12869270709060462        0.0000000000000000     
   6.2336864499346722E-002  0.13593178829834723        0.0000000000000000     
   5.0807939589899979E-002  0.10731293506125118        0.0000000000000000     
   5.2244715838241619E-002  0.11417152274201832        0.0000000000000000     
   5.3617459288590151E-002  0.12116412420730770        0.0000000000000000     
   5.4926169940945554E-002  0.12829073945711925        0.0000000000000000     
   5.6170847795307843E-002  0.13555136849145302        0.0000000000000000     
   4.5321069894096649E-002  0.10689683753555275        0.0000000000000000     
   4.6611868957311918E-002  0.11377367666684926        0.0000000000000000     
   4.7844694620030374E-002  0.12078503267486722        0.0000000000000000     
   4.9019546882251998E-002  0.12793090555960671        0.0000000000000000     
   5.0136425743976809E-002  0.13521129532106757        0.0000000000000000     
   3.9956016091568750E-002  0.10652658430014274        0.0000000000000000     
   4.1103997736182160E-002  0.11342071315454282        0.0000000000000000     
   4.2199588660017440E-002  0.12044958685385090        0.0000000000000000     
   4.3242788863074595E-002  0.12761320539806692        0.0000000000000000     
   4.4233598345353606E-002  0.13491156878719096        0.0000000000000000     
   6.8634475856093446E-002  0.13635255474175023        0.0000000000000000     
   7.0065416597700228E-002  0.14368983358578016        0.0000000000000000     
   7.1424891210414385E-002  0.15113799532640987        0.0000000000000000     
   7.2712899694235944E-002  0.15869703996363929        0.0000000000000000     
   7.3929442049164906E-002  0.16636696749746849        0.0000000000000000     
   6.2336864499346722E-002  0.13593178829834723        0.0000000000000000     
   6.3641982839293135E-002  0.14329280640957148        0.0000000000000000     
   6.4879493852016468E-002  0.15076446275944880        0.0000000000000000     
   6.6049397537516708E-002  0.15834675734797923        0.0000000000000000     
   6.7151693895793868E-002  0.16603969017516276        0.0000000000000000     
   5.6170847795307843E-002  0.13555136849145302        0.0000000000000000     
   5.7351947651178278E-002  0.14293428351836662        0.0000000000000000     
   5.8469924308058120E-002  0.15042775674591757        0.0000000000000000     
   5.9524777765947390E-002  0.15803178817410593        0.0000000000000000     
   6.0516508024846059E-002  0.16574637780293167        0.0000000000000000     
   5.0136425743976809E-002  0.13521129532106757        0.0000000000000000     
   5.1195311033355638E-002  0.14261426491216556        0.0000000000000000     
   5.2196182578539370E-002  0.15012787728581617        0.0000000000000000     
   5.3139040379527984E-002  0.15775213244201938        0.0000000000000000     
   5.4023884436321494E-002  0.16548703038077522        0.0000000000000000     
   4.4233598345353606E-002  0.13491156878719096        0.0000000000000000     
   4.5172072985825228E-002  0.14233275059096837        0.0000000000000000     
   4.6058268663460196E-002  0.14986482437914458        0.0000000000000000     
   4.6892185378258504E-002  0.15750779015171962        0.0000000000000000     
   4.7673823130220144E-002  0.16526164790869341        0.0000000000000000     
   7.3929442049164906E-002  0.16636696749746849        0.0000000000000000     
   7.5072357079614460E-002  0.17413681300259215        0.0000000000000000     
   7.6139483589997850E-002  0.18199561155370517        0.0000000000000000     
   7.7130821580315076E-002  0.18994336315080748        0.0000000000000000     
   7.8046371050566124E-002  0.19798006779389912        0.0000000000000000     
   6.7151693895793868E-002  0.16603969017516276        0.0000000000000000     
   6.8185000327990616E-002  0.17383228563280839        0.0000000000000000     
   6.9147934235249661E-002  0.18171356811272518        0.0000000000000000     
   7.0040495617570989E-002  0.18968353761491302        0.0000000000000000     
   7.0862684474954585E-002  0.19774219413937205        0.0000000000000000     
   6.0516508024846059E-002  0.16574637780293167        0.0000000000000000     
   6.1444090342165192E-002  0.17356051705918288        0.0000000000000000     
   6.2306499975315816E-002  0.18146319736964753        0.0000000000000000     
   6.3103736924297923E-002  0.18945441873432572        0.0000000000000000     
   6.3835801189111502E-002  0.19753418115321736        0.0000000000000000     
   5.4023884436321494E-002  0.16548703038077522        0.0000000000000000     
   5.4849627122138166E-002  0.17332150728171558        0.0000000000000000     
   5.5615180810196292E-002  0.18124449932447237        0.0000000000000000     
   5.6320545500495867E-002  0.18925600650904550        0.0000000000000000     
   5.6965721193036910E-002  0.19735602883543507        0.0000000000000000     
   4.7673823130220144E-002  0.16526164790869341        0.0000000000000000     
   4.8401610667909545E-002  0.17311525630040658        0.0000000000000000     
   4.9073976739891126E-002  0.18105747397719960        0.0000000000000000     
   4.9690921346164874E-002  0.18908830093907247        0.0000000000000000     
   5.0252444486730781E-002  0.19720773718602522        0.0000000000000000     
   7.8046371050566124E-002  0.19798006779389912        0.0000000000000000     
   7.8887260741760112E-002  0.20609881651394676        0.0000000000000000     
   7.9654619394906173E-002  0.21429270034191714        0.0000000000000000     
   8.0348447010004279E-002  0.22256171927781024        0.0000000000000000     
   8.0968743587054456E-002  0.23090587332162604        0.0000000000000000     
   7.0862684474954585E-002  0.19774219413937205        0.0000000000000000     
   7.1612664433726159E-002  0.20588327209885660        0.0000000000000000     
   7.2288599120211405E-002  0.21410050590612106        0.0000000000000000     
   7.2890488534410339E-002  0.22239389556116551        0.0000000000000000     
   7.3418332676322931E-002  0.23076344106398983        0.0000000000000000     
   6.3835801189111502E-002  0.19753418115321736        0.0000000000000000     
   6.4499232701285589E-002  0.20569615464786783        0.0000000000000000     
   6.5090571392349139E-002  0.21393400923982245        0.0000000000000000     
   6.5609817262302181E-002  0.22224774492908117        0.0000000000000000     
   6.6056970311144728E-002  0.23063736171564408        0.0000000000000000     
   5.6965721193036910E-002  0.19735602883543507        0.0000000000000000     
   5.7546965544438410E-002  0.20553746416098054        0.0000000000000000     
   5.8060536211319395E-002  0.21379321034302126        0.0000000000000000     
   5.8506433193679874E-002  0.22212326738155738        0.0000000000000000     
   5.8884656491519832E-002  0.23052763527658882        0.0000000000000000     
   5.0252444486730781E-002  0.19720773718602522        0.0000000000000000     
   5.0755862963184628E-002  0.20540720063819465        0.0000000000000000     
   5.1198493577122153E-002  0.21367810921571756        0.0000000000000000     
   5.1580336328543364E-002  0.22202046291859404        0.0000000000000000     
   5.1901391217448273E-002  0.23043426174682399        0.0000000000000000     
   8.0968743587054456E-002  0.23090587332162604        0.0000000000000000     
   8.1505059275602434E-002  0.23934591225310561        0.0000000000000000     
   8.1946944225193982E-002  0.24790258585199001        0.0000000000000000     
   8.2294398435829044E-002  0.25657589411827919        0.0000000000000000     
   8.2547421907507662E-002  0.26536583705197325        0.0000000000000000     
   7.3418332676322931E-002  0.23076344106398983        0.0000000000000000     
   7.3869042377030944E-002  0.23922299616659784        0.0000000000000000     
   7.4239528467616084E-002  0.24778641462099316        0.0000000000000000     
   7.4529790948078392E-002  0.25645369642717586        0.0000000000000000     
   7.4739829818417855E-002  0.26522484158514592        0.0000000000000000     
   6.6056970311144728E-002  0.23063736171564408        0.0000000000000000     
   6.6434494405192904E-002  0.23910957471990682        0.0000000000000000     
   6.6744853410762917E-002  0.24767109906226506        0.0000000000000000     
   6.6988047327854766E-002  0.25632193474271886        0.0000000000000000     
   6.7164076156468452E-002  0.26506208176126811        0.0000000000000000     
   5.8884656491519832E-002  0.23052763527658882        0.0000000000000000     
   5.9201415360088334E-002  0.23900564791303255        0.0000000000000000     
   5.9462919054634446E-002  0.24755663917580564        0.0000000000000000     
   5.9669167575158152E-002  0.25618060906490803        0.0000000000000000     
   5.9820160921659468E-002  0.26487755758033987        0.0000000000000000     
   5.1901391217448273E-002  0.23043426174682399        0.0000000000000000     
   5.2169805241717257E-002  0.23891121574597507        0.0000000000000000     
   5.2393725399230678E-002  0.24744303496161499        0.0000000000000000     
   5.2573151689988565E-002  0.25602971939374369        0.0000000000000000     
   5.2708084113990909E-002  0.26467126904236121        0.0000000000000000     
   8.2547421907507662E-002  0.26536583705197325        0.0000000000000000     
   8.2744969977106259E-002  0.27429877082541892        0.0000000000000000     
   8.2925997981501173E-002  0.28340105161096324        0.0000000000000000     
   8.3090505920692490E-002  0.29267267940860608        0.0000000000000000     
   8.3238493794680124E-002  0.30211365421834757        0.0000000000000000     
   7.4739829818417855E-002  0.26522484158514592        0.0000000000000000     
   7.4910578252543145E-002  0.27409348222281776        0.0000000000000000     
   7.5082969424362975E-002  0.28305325046810592        0.0000000000000000     
   7.5257003333877345E-002  0.29210414632101034        0.0000000000000000     
   7.5432679981086270E-002  0.30124616978153107        0.0000000000000000     
   6.7164076156468452E-002  0.26506208176126811        0.0000000000000000     
   6.7313182764723187E-002  0.27386167236230691        0.0000000000000000     
   6.7475610020738236E-002  0.28269083879022933        0.0000000000000000     
   6.7651357924513572E-002  0.29154958104503503        0.0000000000000000     
   6.7840426476049209E-002  0.30043789912672447        0.0000000000000000     
   5.9820160921659468E-002  0.26487755758033987        0.0000000000000000     
   5.9952783513646392E-002  0.27360334124388652        0.0000000000000000     
   6.0103919770626943E-002  0.28231381657733329        0.0000000000000000     
   6.0273569692601121E-002  0.29100898358068045        0.0000000000000000     
   6.0461733279568934E-002  0.29968884225392778        0.0000000000000000     
   5.2708084113990909E-002  0.26467126904236121        0.0000000000000000     
   5.2829380499312746E-002  0.27331848886755633        0.0000000000000000     
   5.2967898674029110E-002  0.28192218382941808        0.0000000000000000     
   5.3123638638140007E-002  0.29048235392794619        0.0000000000000000     
   5.3296600391645452E-002  0.29899899916314088        0.0000000000000000     
   2.9106337634213955E-002   5.7164633230421827E-002   0.0000000000000000     
   3.0622099005933615E-002   6.2719413846852437E-002   0.0000000000000000     
   3.2092226240501877E-002   6.8457252502301905E-002   0.0000000000000000     
   3.3516719337918749E-002   7.4378149196770216E-002   0.0000000000000000     
   3.4895578298184224E-002   8.0482103930257370E-002   0.0000000000000000     
   2.5068140758767045E-002   5.6728669988743916E-002   0.0000000000000000     
   2.6438810338324389E-002   6.2296581288843550E-002   0.0000000000000000     
   2.7759338320345172E-002   6.8047571291855513E-002   0.0000000000000000     
   2.9029724704829393E-002   7.3981639997779805E-002   0.0000000000000000     
   3.0249969491777062E-002   8.0098787406616384E-002   0.0000000000000000     
   2.1199961105543074E-002   5.6351726846122996E-002   0.0000000000000000     
   2.2401549518297179E-002   6.1930359749323746E-002   0.0000000000000000     
   2.3554018313708697E-002   6.7692348186406237E-002   0.0000000000000000     
   2.4657367491777629E-002   7.3637692157370455E-002   0.0000000000000000     
   2.5711597052503980E-002   7.9766391662216413E-002   0.0000000000000000     
   1.7501798674542043E-002   5.6033803802559061E-002   0.0000000000000000     
   1.8510316545851977E-002   6.1620749228293005E-002   0.0000000000000000     
   1.9476266220592446E-002   6.7391583185954049E-002   0.0000000000000000     
   2.0399647698763450E-002   7.3346305675542220E-002   0.0000000000000000     
   2.1280460980364999E-002   7.9484916697057484E-002   0.0000000000000000     
   1.3973653465763953E-002   5.5774900858052118E-002   0.0000000000000000     
   1.4765111420988786E-002   6.1367749725751333E-002   0.0000000000000000     
   1.5526082040996423E-002   6.7145276290498990E-002   0.0000000000000000     
   1.6256565325786860E-002   7.3107480552295059E-002   0.0000000000000000     
   1.6956561275360098E-002   7.9254362511139570E-002   0.0000000000000000     
   3.4895578298184224E-002   8.0482103930257370E-002   0.0000000000000000     
   3.6228887079038097E-002   8.6756496768122637E-002   0.0000000000000000     
   3.7516729638220142E-002   9.3188707775725285E-002   0.0000000000000000     
   3.8759105975730353E-002   9.9778736953065328E-002   0.0000000000000000     
   3.9956016091568750E-002  0.10652658430014274        0.0000000000000000     
   3.0249969491777062E-002   8.0098787406616384E-002   0.0000000000000000     
   3.1424446769659775E-002   8.6386693585596405E-002   0.0000000000000000     
   3.2557530626949140E-002   9.2833038601950968E-002   0.0000000000000000     
   3.3649221063645166E-002   9.9437822455680100E-002   0.0000000000000000     
   3.4699518079747853E-002  0.10620104514678375        0.0000000000000000     
   2.5711597052503980E-002   7.9766391662216413E-002   0.0000000000000000     
   2.6723019285517874E-002   8.6066218253870425E-002   0.0000000000000000     
   2.7697946480449421E-002   9.2524943485258734E-002   0.0000000000000000     
   2.8636378637298641E-002   9.9142567356381411E-002   0.0000000000000000     
   2.9538315756065522E-002  0.10591908986723841        0.0000000000000000     
   2.1280460980364999E-002   7.9484916697057484E-002   0.0000000000000000     
   2.2124604626612396E-002   8.5795070772944682E-002   0.0000000000000000     
   2.2937977198721000E-002   9.2264422425648612E-002   0.0000000000000000     
   2.3720578696690788E-002   9.8892971655169304E-002   0.0000000000000000     
   2.4472409120521767E-002  0.10568071846150670        0.0000000000000000     
   1.6956561275360098E-002   7.9254362511139570E-002   0.0000000000000000     
   1.7629202792943360E-002   8.5573251142819204E-002   0.0000000000000000     
   1.8277622781763859E-002   9.2051475423120574E-002   0.0000000000000000     
   1.8901821241821607E-002   9.8689035352043764E-002   0.0000000000000000     
   1.9501798173116591E-002  0.10548593092958868        0.0000000000000000     
   3.9956016091568750E-002  0.10652658430014274        0.0000000000000000     
   4.1103997736182160E-002  0.11342071315454282        0.0000000000000000     
   4.2199588660017440E-002  0.12044958685385090        0.0000000000000000     
   4.3242788863074595E-002  0.12761320539806692        0.0000000000000000     
   4.4233598345353606E-002  0.13491156878719096        0.0000000000000000     
   3.4699518079747853E-002  0.10620104514678375        0.0000000000000000     
   3.5705705916783251E-002  0.11311092386657505        0.0000000000000000     
   3.6665068816277416E-002  0.12015567580636710        0.0000000000000000     
   3.7577606778230362E-002  0.12733530096615989        0.0000000000000000     
   3.8443319802642074E-002  0.13464979934595342        0.0000000000000000     
   2.9538315756065522E-002  0.10591908986723841        0.0000000000000000     
   3.0401597241046085E-002  0.11284260046442197        0.0000000000000000     
   3.1224062496536364E-002  0.11990118859452431        0.0000000000000000     
   3.2005711522536354E-002  0.12709485425754544        0.0000000000000000     
   3.2746544319046049E-002  0.13442359745348534        0.0000000000000000     
   2.4472409120521767E-002  0.10568071846150670        0.0000000000000000     
   2.5191671708970683E-002  0.11261574294808356        0.0000000000000000     
   2.5876569700794279E-002  0.11968612521832252        0.0000000000000000     
   2.6527103095992557E-002  0.12689186527222360        0.0000000000000000     
   2.7143271894565509E-002  0.13423296310978677        0.0000000000000000     
   1.9501798173116591E-002  0.10548593092958868        0.0000000000000000     
   2.0075929320557039E-002  0.11243035131755987        0.0000000000000000     
   2.0622590429051166E-002  0.11951048567776172        0.0000000000000000     
   2.1141781498598976E-002  0.12672633401019431        0.0000000000000000     
   2.1633502529200474E-002  0.13407789631485761        0.0000000000000000     
   4.4233598345353606E-002  0.13491156878719096        0.0000000000000000     
   4.5172072985825228E-002  0.14233275059096837        0.0000000000000000     
   4.6058268663460196E-002  0.14986482437914458        0.0000000000000000     
   4.6892185378258504E-002  0.15750779015171962        0.0000000000000000     
   4.7673823130220144E-002  0.16526164790869341        0.0000000000000000     
   3.8443319802642074E-002  0.13464979934595342        0.0000000000000000     
   3.9262527403878207E-002  0.14208733568072493        0.0000000000000000     
   4.0035549096304412E-002  0.14963607470545162        0.0000000000000000     
   4.0762384879920670E-002  0.15729601642013349        0.0000000000000000     
   4.1443034754726993E-002  0.16506716082477052        0.0000000000000000     
   3.2746544319046049E-002  0.13442359745348534        0.0000000000000000     
   3.3446968182805771E-002  0.14187561530738521        0.0000000000000000     
   3.4107390410555841E-002  0.14943910494428608        0.0000000000000000     
   3.4727811002296251E-002  0.15711406636418795        0.0000000000000000     
   3.5308229958027001E-002  0.16490049956709091        0.0000000000000000     
   2.7143271894565509E-002  0.13423296310978677        0.0000000000000000     
   2.7725395322607899E-002  0.14169758947094918        0.0000000000000000     
   2.8273792606214470E-002  0.14927391509564791        0.0000000000000000     
   2.8788463745385219E-002  0.15696193998388300        0.0000000000000000     
   2.9269408740120153E-002  0.16476166413565449        0.0000000000000000     
   2.1633502529200474E-002  0.13407789631485761        0.0000000000000000     
   2.2097808823284600E-002  0.14155325817141684        0.0000000000000000     
   2.2534755683280311E-002  0.14914050515953717        0.0000000000000000     
   2.2944343109187599E-002  0.15683963727921868        0.0000000000000000     
   2.3326571101006464E-002  0.16465065453046129        0.0000000000000000     
   4.7673823130220144E-002  0.16526164790869341        0.0000000000000000     
   4.8401610667909545E-002  0.17311525630040658        0.0000000000000000     
   4.9073976739891126E-002  0.18105747397719960        0.0000000000000000     
   4.9690921346164874E-002  0.18908830093907247        0.0000000000000000     
   5.0252444486730781E-002  0.19720773718602522        0.0000000000000000     
   4.1443034754726993E-002  0.16506716082477052        0.0000000000000000     
   4.2075407839868476E-002  0.17293824865341331        0.0000000000000000     
   4.2657413254490191E-002  0.18089802064011232        0.0000000000000000     
   4.3189050998592160E-002  0.18894647678486756        0.0000000000000000     
   4.3670321072174376E-002  0.19708361708767907        0.0000000000000000     
   3.5308229958027001E-002  0.16490049956709091        0.0000000000000000     
   3.5846385498404063E-002  0.17278696887889328        0.0000000000000000     
   3.6340015844083404E-002  0.18076203862549362        0.0000000000000000     
   3.6789120995065025E-002  0.18882570880689187        0.0000000000000000     
   3.7193700951348926E-002  0.19697797942308798        0.0000000000000000     
   2.9269408740120153E-002  0.16476166413565449        0.0000000000000000     
   2.9714543643516320E-002  0.17266141697684656        0.0000000000000000     
   3.0121784508670747E-002  0.18064952793334346        0.0000000000000000     
   3.0491131335583458E-002  0.18872599700514531        0.0000000000000000     
   3.0822584124254437E-002  0.19689082419225193        0.0000000000000000     
   2.3326571101006464E-002  0.16465065453046129        0.0000000000000000     
   2.3679882275205240E-002  0.17256159294727302        0.0000000000000000     
   2.4002719248252240E-002  0.18056048856366191        0.0000000000000000     
   2.4295082020147463E-002  0.18864734137962783        0.0000000000000000     
   2.4556970590890910E-002  0.19682215139517090        0.0000000000000000     
   5.0252444486730781E-002  0.19720773718602522        0.0000000000000000     
   5.0755862963184628E-002  0.20540720063819465        0.0000000000000000     
   5.1198493577122153E-002  0.21367810921571756        0.0000000000000000     
   5.1580336328543364E-002  0.22202046291859404        0.0000000000000000     
   5.1901391217448273E-002  0.23043426174682399        0.0000000000000000     
   4.3670321072174376E-002  0.19708361708767907        0.0000000000000000     
   4.4100047572110578E-002  0.20529906635582809        0.0000000000000000     
   4.4477054595274519E-002  0.21358244939659601        0.0000000000000000     
   4.4801342141666207E-002  0.22193376620998279        0.0000000000000000     
   4.5072910211285636E-002  0.23035301679598844        0.0000000000000000     
   3.7193700951348926E-002  0.19697797942308798        0.0000000000000000     
   3.7553641985802612E-002  0.20520676359019882        0.0000000000000000     
   3.7868830371293606E-002  0.21349997442434132        0.0000000000000000     
   3.8139266107821902E-002  0.22185761192551534        0.0000000000000000     
   3.8364949195387500E-002  0.23027967609372099        0.0000000000000000     
   3.0822584124254437E-002  0.19689082419225193        0.0000000000000000     
   3.1116646204260735E-002  0.20513029234130684        0.0000000000000000     
   3.1373820905179414E-002  0.21343068429895343        0.0000000000000000     
   3.1594108227010462E-002  0.22179200006519170        0.0000000000000000     
   3.1777508169753881E-002  0.23021423964002166        0.0000000000000000     
   2.4556970590890910E-002  0.19682215139517090        0.0000000000000000     
   2.4789060227484942E-002  0.20506965260915208        0.0000000000000000     
   2.4992026196931937E-002  0.21337457902043241        0.0000000000000000     
   2.5165868499231872E-002  0.22173693062901187        0.0000000000000000     
   2.5310587134384770E-002  0.23015670743489042        0.0000000000000000     
   5.1901391217448273E-002  0.23043426174682399        0.0000000000000000     
   5.2169805241717257E-002  0.23891121574597507        0.0000000000000000     
   5.2393725399230678E-002  0.24744303496161499        0.0000000000000000     
   5.2573151689988565E-002  0.25602971939374369        0.0000000000000000     
   5.2708084113990909E-002  0.26467126904236121        0.0000000000000000     
   4.5072910211285636E-002  0.23035301679598844        0.0000000000000000     
   4.5300563128535871E-002  0.23882489948049312        0.0000000000000000     
   4.5493105217819997E-002  0.24733411258937701        0.0000000000000000     
   4.5650536479138006E-002  0.25588065612264016        0.0000000000000000     
   4.5772856912489897E-002  0.26446453008028259        0.0000000000000000     
   3.8364949195387500E-002  0.23027967609372099        0.0000000000000000     
   3.8554588099000434E-002  0.23874532037834539        0.0000000000000000     
   3.8716891283670764E-002  0.24723369822877581        0.0000000000000000     
   3.8851858749398470E-002  0.25574480964501223        0.0000000000000000     
   3.8959490496183559E-002  0.26427865462705458        0.0000000000000000     
   3.1777508169753881E-002  0.23021423964002166        0.0000000000000000     
   3.1931880153110957E-002  0.23867247843953196        0.0000000000000000     
   3.2065083596782992E-002  0.24714179187981131        0.0000000000000000     
   3.2177118500769972E-002  0.25562217996085973        0.0000000000000000     
   3.2267984865071903E-002  0.26411364268267717        0.0000000000000000     
   2.5310587134384770E-002  0.23015670743489042        0.0000000000000000     
   2.5432439290867432E-002  0.23860637366405274        0.0000000000000000     
   2.5537682157156679E-002  0.24705839354248352        0.0000000000000000     
   2.5626315733252511E-002  0.25551276707018272        0.0000000000000000     
   2.5698340019154931E-002  0.26396949424715033        0.0000000000000000     
   5.2708084113990909E-002  0.26467126904236121        0.0000000000000000     
   5.2829380499312746E-002  0.27331848886755633        0.0000000000000000     
   5.2967898674029110E-002  0.28192218382941808        0.0000000000000000     
   5.3123638638140007E-002  0.29048235392794619        0.0000000000000000     
   5.3296600391645452E-002  0.29899899916314088        0.0000000000000000     
   4.5772856912489897E-002  0.26446453008028259        0.0000000000000000     
   4.5884237853827538E-002  0.27303583999385356        0.0000000000000000     
   4.6008850639102809E-002  0.28154469139490224        0.0000000000000000     
   4.6146695268315691E-002  0.28999108428342874        0.0000000000000000     
   4.6297771741466209E-002  0.29837501865943306        0.0000000000000000     
   3.8959490496183559E-002  0.26427865462705458        0.0000000000000000     
   3.9058619709296083E-002  0.27278411938331476        0.0000000000000000     
   3.9168079574006108E-002  0.28121009012220466        0.0000000000000000     
   3.9287870090313613E-002  0.28955656684372422        0.0000000000000000     
   3.9417991258218626E-002  0.29782354954787349        0.0000000000000000     
   3.2267984865071903E-002  0.26411364268267717        0.0000000000000000     
   3.2352526065718389E-002  0.27256332703594022        0.0000000000000000     
   3.2445585478739013E-002  0.28091838001132530        0.0000000000000000     
   3.2547163104133796E-002  0.28917880160883253        0.0000000000000000     
   3.2657258941902717E-002  0.29734459182846196        0.0000000000000000     
   2.5698340019154931E-002  0.26396949424715033        0.0000000000000000     
   2.5765956923094437E-002  0.27237346295172976        0.0000000000000000     
   2.5841368353301530E-002  0.28066956106226426        0.0000000000000000     
   2.5924574309776210E-002  0.28885778857875388        0.0000000000000000     
   2.6015574792518474E-002  0.29693814550119857        0.0000000000000000     
   1.3973653465763953E-002   5.5774900858052118E-002   0.0000000000000000     
   1.4765111420988786E-002   6.1367749725751333E-002   0.0000000000000000     
   1.5526082040996423E-002   6.7145276290498990E-002   0.0000000000000000     
   1.6256565325786860E-002   7.3107480552295059E-002   0.0000000000000000     
   1.6956561275360098E-002   7.9254362511139570E-002   0.0000000000000000     
   1.0517947686086940E-002   5.5574182078158757E-002   0.0000000000000000     
   1.1088148560718979E-002   6.1171142483956373E-002   0.0000000000000000     
   1.1640901746646880E-002   6.6953583179154563E-002   0.0000000000000000     
   1.2176207243870644E-002   7.2921504163753342E-002   0.0000000000000000     
   1.2694065052390270E-002   7.9074905437752682E-002   0.0000000000000000     
   7.0371035423891486E-003   5.5430811528435556E-002   0.0000000000000000     
   7.4016423820539214E-003   6.1030708745165745E-002   0.0000000000000000     
   7.7581613092700683E-003   6.6816659531034342E-002   0.0000000000000000     
   8.1066603240375901E-003   7.2788663886041355E-002   0.0000000000000000     
   8.4471394263564877E-003   7.8946721810186762E-002   0.0000000000000000     
   3.5311210346705767E-003   5.5344789208882514E-002   0.0000000000000000     
   3.7055928849936163E-003   6.0946448509379442E-002   0.0000000000000000     
   3.8778607288659905E-003   6.6734505346138312E-002   0.0000000000000000     
   4.0479245662876995E-003   7.2708959719159111E-002   0.0000000000000000     
   4.2157843972587461E-003   7.8869811628441852E-002   0.0000000000000000     
   1.6293122536911731E-010   5.5316115119499638E-002   0.0000000000000000     
   6.9538060639556809E-011   6.0918361776597485E-002   0.0000000000000000     
   5.4346430784432687E-012   6.6707120624466473E-002   0.0000000000000000     
  -2.9379027883429457E-011   7.2682391663106638E-002   0.0000000000000000     
  -3.4902951188964249E-011   7.8844174892517938E-002   0.0000000000000000     
   1.6956561275360098E-002   7.9254362511139570E-002   0.0000000000000000     
   1.7629202792943360E-002   8.5573251142819204E-002   0.0000000000000000     
   1.8277622781763859E-002   9.2051475423120574E-002   0.0000000000000000     
   1.8901821241821607E-002   9.8689035352043764E-002   0.0000000000000000     
   1.9501798173116591E-002  0.10548593092958868        0.0000000000000000     
   1.2694065052390270E-002   7.9074905437752682E-002   0.0000000000000000     
   1.3194456050904642E-002   8.5400739898207484E-002   0.0000000000000000     
   1.3677361118112640E-002   9.1885960442172607E-002   0.0000000000000000     
   1.4142780254014263E-002   9.8530567069648051E-002   0.0000000000000000     
   1.4590713458609513E-002  0.10533455978063380        0.0000000000000000     
   8.4471394263564877E-003   7.8946721810186762E-002   0.0000000000000000     
   8.7780066668901487E-003   8.5277517573823056E-002   0.0000000000000000     
   9.0976700963019633E-003   9.1767735447302642E-002   0.0000000000000000     
   9.4061297145919352E-003   9.8417375430625495E-002   0.0000000000000000     
   9.7033855217600641E-003  0.10522643752379165        0.0000000000000000     
   4.2157843972587461E-003   7.8869811628441852E-002   0.0000000000000000     
   4.3798546408998738E-003   8.5203584169665933E-002   0.0000000000000000     
   4.5385497163318335E-003   9.1696800438510639E-002   0.0000000000000000     
   4.6918696235546233E-003   9.8349460434976096E-002   0.0000000000000000     
   4.8398143625682415E-003  0.10516156415906219        0.0000000000000000     
  -3.4902951188964249E-011   7.8844174892517938E-002   0.0000000000000000     
  -2.7066177207477060E-011   8.5178939685736060E-002   0.0000000000000000     
  -2.1797752621996458E-011   9.1673155415796695E-002   0.0000000000000000     
  -1.9097677595152768E-011   9.8326822082699813E-002   0.0000000000000000     
  -1.8965952940097619E-011  0.10513993968644544        0.0000000000000000     
   1.9501798173116591E-002  0.10548593092958868        0.0000000000000000     
   2.0075929320557039E-002  0.11243035131755987        0.0000000000000000     
   2.0622590429051166E-002  0.11951048567776172        0.0000000000000000     
   2.1141781498598976E-002  0.12672633401019431        0.0000000000000000     
   2.1633502529200474E-002  0.13407789631485761        0.0000000000000000     
   1.4590713458609513E-002  0.10533455978063380        0.0000000000000000     
   1.5019695624369906E-002  0.11228627496332175        0.0000000000000000     
   1.5428261643766957E-002  0.11937404900590376        0.0000000000000000     
   1.5816411516800671E-002  0.12659788190837981        0.0000000000000000     
   1.6184145243471042E-002  0.13395777367074993        0.0000000000000000     
   9.7033855217600641E-003  0.10522643752379165        0.0000000000000000     
   9.9882961689740455E-003  0.11218336327584023        0.0000000000000000     
   1.0259720307401583E-002  0.11927659423581045        0.0000000000000000     
   1.0517657937042676E-002  0.12650613040370226        0.0000000000000000     
   1.0762109057897325E-002  0.13387197177951565        0.0000000000000000     
   4.8398143625682415E-003  0.10516156415906219        0.0000000000000000     
   4.9817309543694595E-003  0.11212161625511534        0.0000000000000000     
   5.1169664199550444E-003  0.11921812136748182        0.0000000000000000     
   5.2455207593249988E-003  0.12645107949616163        0.0000000000000000     
   5.3673939724793200E-003  0.13382049064115481        0.0000000000000000     
  -1.8965952940097619E-011  0.10513993968644544        0.0000000000000000     
  -1.9443854512579684E-011  0.11210103390114699        0.0000000000000000     
  -1.8572657300985895E-011  0.11919863040091781        0.0000000000000000     
  -1.6352362931619513E-011  0.12643272918575796        0.0000000000000000     
  -1.2782971296060319E-011  0.13380333025566743        0.0000000000000000     
   2.1633502529200474E-002  0.13407789631485761        0.0000000000000000     
   2.2097808823284600E-002  0.14155325817141684        0.0000000000000000     
   2.2534755683280311E-002  0.14914050515953717        0.0000000000000000     
   2.2944343109187599E-002  0.15683963727921868        0.0000000000000000     
   2.3326571101006464E-002  0.16465065453046129        0.0000000000000000     
   1.6184145243471042E-002  0.13395777367074993        0.0000000000000000     
   1.6531250782111984E-002  0.14144170964335959        0.0000000000000000     
   1.6857516091057394E-002  0.14903767517655428        0.0000000000000000     
   1.7162941170307283E-002  0.15674567027033398        0.0000000000000000     
   1.7447526019861638E-002  0.16456569492469880        0.0000000000000000     
   1.0762109057897325E-002  0.13387197177951565        0.0000000000000000     
   1.0992763296366144E-002  0.14136203212134874        0.0000000000000000     
   1.1209310278849763E-002  0.14896422518729951        0.0000000000000000     
   1.1411750005348173E-002  0.15667855097736808        0.0000000000000000     
   1.1600082475861379E-002  0.16450500949155439        0.0000000000000000     
   5.3673939724793200E-003  0.13382049064115481        0.0000000000000000     
   5.4823463660470953E-003  0.14131422560538431        0.0000000000000000     
   5.5901382466574156E-003  0.14892015519177301        0.0000000000000000     
   5.6907696143102789E-003  0.15663827940032091        0.0000000000000000     
   5.7842404690056845E-003  0.16446859823102805        0.0000000000000000     
  -1.2782971296060319E-011  0.13380333025566743        0.0000000000000000     
  -8.8451696054342444E-012  0.14129829009546629        0.0000000000000000     
  -5.5196478897928669E-012  0.14890546518997466        0.0000000000000000     
  -2.8064058780856438E-012  0.15662485553919250        0.0000000000000000     
  -7.0544308242159737E-013  0.16445646114311985        0.0000000000000000     
   2.3326571101006464E-002  0.16465065453046129        0.0000000000000000     
   2.3679882275205240E-002  0.17256159294727302        0.0000000000000000     
   2.4002719248252240E-002  0.18056048856366191        0.0000000000000000     
   2.4295082020147463E-002  0.18864734137962783        0.0000000000000000     
   2.4556970590890910E-002  0.19682215139517090        0.0000000000000000     
   1.7447526019861638E-002  0.16456569492469880        0.0000000000000000     
   1.7710336289286522E-002  0.17248550286555775        0.0000000000000000     
   1.7950437628147981E-002  0.18049284781882008        0.0000000000000000     
   1.8167830036446016E-002  0.18858772978448579        0.0000000000000000     
   1.8362513514180626E-002  0.19677014876255486        0.0000000000000000     
   1.1600082475861379E-002  0.16450500949155439        0.0000000000000000     
   1.1773840581575861E-002  0.17243115280708568        0.0000000000000000     
   1.1932557213678101E-002  0.18044453300118934        0.0000000000000000     
   1.2076232372168103E-002  0.18854515007386535        0.0000000000000000     
   1.2204866057045866E-002  0.19673300402511368        0.0000000000000000     
   5.7842404690056845E-003  0.16446859823102805        0.0000000000000000     
   5.8703951520732520E-003  0.17239854277185682        0.0000000000000000     
   5.9490780048425994E-003  0.18041554411076968        0.0000000000000000     
   6.0202890273137266E-003  0.18851960224776648        0.0000000000000000     
   6.0840282194866355E-003  0.19671071718284738        0.0000000000000000     
  -7.0544308242159737E-013  0.16445646114311985        0.0000000000000000     
   7.7869763588644947E-013  0.17238767275987119        0.0000000000000000     
   1.6414730902650221E-012  0.18040588114756101        0.0000000000000000     
   1.8828843920213473E-012  0.18851108630618924        0.0000000000000000     
   1.5029314598402621E-012  0.19670328823575595        0.0000000000000000     
   2.4556970590890910E-002  0.19682215139517090        0.0000000000000000     
   2.4789060227484942E-002  0.20506965260915208        0.0000000000000000     
   2.4992026196931937E-002  0.21337457902043241        0.0000000000000000     
   2.5165868499231872E-002  0.22173693062901187        0.0000000000000000     
   2.5310587134384770E-002  0.23015670743489042        0.0000000000000000     
   1.8362513514180626E-002  0.19677014876255486        0.0000000000000000     
   1.8535083157532006E-002  0.20502351913210556        0.0000000000000000     
   1.8686134062680361E-002  0.21333125527221614        0.0000000000000000     
   1.8815666229625692E-002  0.22169335718288660        0.0000000000000000     
   1.8923679658367994E-002  0.23010982486411696        0.0000000000000000     
   1.2204866057045866E-002  0.19673300402511368        0.0000000000000000     
   1.2318914096458692E-002  0.20499056664853815        0.0000000000000000     
   1.2418832318553889E-002  0.21330030973774247        0.0000000000000000     
   1.2504620723331455E-002  0.22166223329272669        0.0000000000000000     
   1.2576279310791390E-002  0.23007633731349086        0.0000000000000000     
   6.0840282194866355E-003  0.19671071718284738        0.0000000000000000     
   6.1405530442650040E-003  0.20497079515844985        0.0000000000000000     
   6.1901209645525129E-003  0.21328174241701148        0.0000000000000000     
   6.2327319803491613E-003  0.22164355895853224        0.0000000000000000     
   6.2683860916549518E-003  0.23005624478301215        0.0000000000000000     
   1.5029314598402621E-012  0.19670328823575595        0.0000000000000000     
   9.5093811297575215E-013  0.20496420466184070        0.0000000000000000     
   6.7623250749049291E-013  0.21327555331002310        0.0000000000000000     
   6.7881290866100841E-013  0.22163733418030312        0.0000000000000000     
   9.5868148489164362E-013  0.23004954727268082        0.0000000000000000     
   2.5310587134384770E-002  0.23015670743489042        0.0000000000000000     
   2.5432439290867432E-002  0.23860637366405274        0.0000000000000000     
   2.5537682157156679E-002  0.24705839354248352        0.0000000000000000     
   2.5626315733252511E-002  0.25551276707018272        0.0000000000000000     
   2.5698340019154931E-002  0.26396949424715033        0.0000000000000000     
   1.8923679658367994E-002  0.23010982486411696        0.0000000000000000     
   1.9014556344955226E-002  0.23855147949444075        0.0000000000000000     
   1.9092678285435340E-002  0.24698914225239146        0.0000000000000000     
   1.9158045479808334E-002  0.25542281313796916        0.0000000000000000     
   1.9210657928074210E-002  0.26385249215117385        0.0000000000000000     
   1.2576279310791390E-002  0.23007633731349086        0.0000000000000000     
   1.2636522148059725E-002  0.23851226937322870        0.0000000000000000     
   1.2688063302262494E-002  0.24693967704513406        0.0000000000000000     
   1.2730902773399694E-002  0.25535856032920690        0.0000000000000000     
   1.2765040561471323E-002  0.26376891922544737        0.0000000000000000     
   6.2683860916549518E-003  0.23005624478301215        0.0000000000000000     
   6.2983367001809305E-003  0.23848874330041664        0.0000000000000000     
   6.3238372076381407E-003  0.24690999792071130        0.0000000000000000     
   6.3448876140265878E-003  0.25532000864389603        0.0000000000000000     
   6.3614879193462665E-003  0.26371877546997086        0.0000000000000000     
   9.5868148489164362E-013  0.23004954727268082        0.0000000000000000     
   1.3188371835587409E-012  0.23848090127600463        0.0000000000000000     
   1.5622832888473326E-012  0.24690010487912320        0.0000000000000000     
   1.6890176323530737E-012  0.25530715808203647        0.0000000000000000     
   1.6990428161611781E-012  0.26370206088474429        0.0000000000000000     
   2.5698340019154931E-002  0.26396949424715033        0.0000000000000000     
   2.5765956923094437E-002  0.27237346295172976        0.0000000000000000     
   2.5841368353301530E-002  0.28066956106226426        0.0000000000000000     
   2.5924574309776210E-002  0.28885778857875388        0.0000000000000000     
   2.6015574792518474E-002  0.29693814550119857        0.0000000000000000     
   1.9210657928074210E-002  0.26385249215117385        0.0000000000000000     
   1.9260479446395036E-002  0.27222086299316950        0.0000000000000000     
   1.9317473850932874E-002  0.28047060936512003        0.0000000000000000     
   1.9381641141687726E-002  0.28860173126702554        0.0000000000000000     
   1.9452981318659593E-002  0.29661422869888587        0.0000000000000000     
   1.2765040561471323E-002  0.26376891922544737        0.0000000000000000     
   1.2797660800590985E-002  0.27211186302274543        0.0000000000000000     
   1.2835947624872276E-002  0.28032850100999129        0.0000000000000000     
   1.2879901034315196E-002  0.28841883318718486        0.0000000000000000     
   1.2929521028919748E-002  0.29638285955432625        0.0000000000000000     
   6.3614879193462665E-003  0.26371877546997086        0.0000000000000000     
   6.3775009856822818E-003  0.27204646304045760        0.0000000000000000     
   6.3967896751197326E-003  0.28024323599687800        0.0000000000000000     
   6.4193539876586233E-003  0.28830909433923207        0.0000000000000000     
   6.4451939232989461E-003  0.29624403806751987        0.0000000000000000     
   1.6990428161611781E-012  0.26370206088474429        0.0000000000000000     
   1.6689299681821312E-012  0.27202466304630596        0.0000000000000000     
   1.6752483731827250E-012  0.28021481432578010        0.0000000000000000     
   1.7180020156059433E-012  0.28827251472316701        0.0000000000000000     
   1.7971865315380420E-012  0.29619776423846655        0.0000000000000000     
   1.6293122536911731E-010   5.5316115119499638E-002   0.0000000000000000     
   6.9538060639556809E-011   6.0918361776597485E-002   0.0000000000000000     
   5.4346430784432687E-012   6.6707120624466473E-002   0.0000000000000000     
  -2.9379027883429457E-011   7.2682391663106638E-002   0.0000000000000000     
  -3.4902951188964249E-011   7.8844174892517938E-002   0.0000000000000000     
  -3.5311207690452554E-003   5.5344789264012775E-002   0.0000000000000000     
  -3.7055927718248277E-003   6.0946448540921336E-002   0.0000000000000000     
  -3.8778607197874266E-003   6.6734505355993706E-002   0.0000000000000000     
  -4.0479246129330520E-003   7.2708959709229914E-002   0.0000000000000000     
  -4.2157844512617027E-003   7.8869811600629947E-002   0.0000000000000000     
  -7.0371034574752168E-003   5.5430811646147778E-002   0.0000000000000000     
  -7.4016423466071379E-003   6.1030708796452483E-002   0.0000000000000000     
  -7.7581613055636763E-003   6.6816659530694919E-002   0.0000000000000000     
  -8.1066603343448312E-003   7.2788663848875029E-002   0.0000000000000000     
  -8.4471394329506035E-003   7.8946721750992876E-002   0.0000000000000000     
  -1.0517947902358655E-002   5.5574182265904624E-002   0.0000000000000000     
  -1.1088148654808866E-002   6.1171142543190955E-002   0.0000000000000000     
  -1.1640901751894106E-002   6.6953583148570056E-002   0.0000000000000000     
  -1.2176207193614369E-002   7.2921504082041969E-002   0.0000000000000000     
  -1.2694064979969657E-002   7.9074905343606672E-002   0.0000000000000000     
  -1.3973654103695573E-002   5.5774901123283344E-002   0.0000000000000000     
  -1.4765111696430019E-002   6.1367749781136703E-002   0.0000000000000000     
  -1.5526082058778716E-002   6.7145276209619159E-002   0.0000000000000000     
  -1.6256565190741663E-002   7.3107480408730732E-002   0.0000000000000000     
  -1.6956561092318859E-002   7.9254362378471416E-002   0.0000000000000000     
  -3.4902951188964249E-011   7.8844174892517938E-002   0.0000000000000000     
  -2.7066177207477060E-011   8.5178939685736060E-002   0.0000000000000000     
  -2.1797752621996458E-011   9.1673155415796695E-002   0.0000000000000000     
  -1.9097677595152768E-011   9.8326822082699813E-002   0.0000000000000000     
  -1.8965952940097619E-011  0.10513993968644544        0.0000000000000000     
  -4.2157844512617027E-003   7.8869811600629947E-002   0.0000000000000000     
  -4.3798546808257958E-003   8.5203584128328250E-002   0.0000000000000000     
  -4.5385497476777507E-003   9.1696800390459313E-002   0.0000000000000000     
  -4.6918696518175613E-003   9.8349460387023108E-002   0.0000000000000000     
  -4.8398143932452346E-003  0.10516156411801968        0.0000000000000000     
  -8.4471394329506035E-003   7.8946721750992876E-002   0.0000000000000000     
  -8.7780066641967719E-003   8.5277517503737257E-002   0.0000000000000000     
  -9.0976700908991133E-003   9.1767735373797107E-002   0.0000000000000000     
  -9.4061297130576295E-003   9.8417375361172385E-002   0.0000000000000000     
  -9.7033855306723187E-003  0.10522643746586313        0.0000000000000000     
  -1.2694064979969657E-002   7.9074905343606672E-002   0.0000000000000000     
  -1.3194455977179104E-002   8.5400739811963083E-002   0.0000000000000000     
  -1.3677361051461844E-002   9.1885960365810065E-002   0.0000000000000000     
  -1.4142780202817878E-002   9.8530567005147646E-002   0.0000000000000000     
  -1.4590713431247205E-002  0.10533455972997581        0.0000000000000000     
  -1.6956561092318859E-002   7.9254362378471416E-002   0.0000000000000000     
  -1.7629202619772796E-002   8.5573251053005728E-002   0.0000000000000000     
  -1.8277622629365942E-002   9.2051475366498228E-002   0.0000000000000000     
  -1.8901821121098308E-002   9.8689035318948889E-002   0.0000000000000000     
  -1.9501798094969894E-002  0.10548593091035771        0.0000000000000000     
  -1.8965952940097619E-011  0.10513993968644544        0.0000000000000000     
  -1.9443854512579684E-011  0.11210103390114699        0.0000000000000000     
  -1.8572657300985895E-011  0.11919863040091781        0.0000000000000000     
  -1.6352362931619513E-011  0.12643272918575796        0.0000000000000000     
  -1.2782971296060319E-011  0.13380333025566743        0.0000000000000000     
  -4.8398143932452346E-003  0.10516156411801968        0.0000000000000000     
  -4.9817309885526765E-003  0.11212161622349921        0.0000000000000000     
  -5.1169664543317984E-003  0.11921812134351205        0.0000000000000000     
  -5.2455207905825977E-003  0.12645107947805814        0.0000000000000000     
  -5.3673939973050751E-003  0.13382049062713749        0.0000000000000000     
  -9.7033855306723187E-003  0.10522643746586313        0.0000000000000000     
  -9.9882961890437900E-003  0.11218336323173608        0.0000000000000000     
  -1.0259720333472645E-002  0.11927659420265808        0.0000000000000000     
  -1.0517657963958892E-002  0.12650613037862912        0.0000000000000000     
  -1.0762109080502524E-002  0.13387197175964916        0.0000000000000000     
  -1.4590713431247205E-002  0.10533455972997581        0.0000000000000000     
  -1.5019695620917194E-002  0.11228627492585755        0.0000000000000000     
  -1.5428261655995208E-002  0.11937404897835587        0.0000000000000000     
  -1.5816411536481244E-002  0.12659788188747081        0.0000000000000000     
  -1.6184145262375313E-002  0.13395777365320230        0.0000000000000000     
  -1.9501798094969894E-002  0.10548593091035771        0.0000000000000000     
  -2.0075929284172889E-002  0.11243035130586362        0.0000000000000000     
  -2.0622590421899477E-002  0.11951048567060547        0.0000000000000000     
  -2.1141781508149667E-002  0.12672633400458327        0.0000000000000000     
  -2.1633502542923445E-002  0.13407789630779701        0.0000000000000000     
  -1.2782971296060319E-011  0.13380333025566743        0.0000000000000000     
  -8.8451696054342444E-012  0.14129829009546629        0.0000000000000000     
  -5.5196478897928669E-012  0.14890546518997466        0.0000000000000000     
  -2.8064058780856438E-012  0.15662485553919250        0.0000000000000000     
  -7.0544308242159737E-013  0.16445646114311985        0.0000000000000000     
  -5.3673939973050751E-003  0.13382049062713749        0.0000000000000000     
  -5.4823463833495959E-003  0.14131422559447671        0.0000000000000000     
  -5.5901382575665260E-003  0.14892015518380228        0.0000000000000000     
  -5.6907696199558584E-003  0.15663827939511424        0.0000000000000000     
  -5.7842404705175966E-003  0.16446859822841259        0.0000000000000000     
  -1.0762109080502524E-002  0.13387197175964916        0.0000000000000000     
  -1.0992763312505132E-002  0.14136203210529755        0.0000000000000000     
  -1.1209310289368311E-002  0.14896422517515365        0.0000000000000000     
  -1.1411750011092060E-002  0.15667855096921754        0.0000000000000000     
  -1.1600082477676375E-002  0.16450500948748911        0.0000000000000000     
  -1.6184145262375313E-002  0.13395777365320230        0.0000000000000000     
  -1.6531250796311774E-002  0.14144170962792887        0.0000000000000000     
  -1.6857516100925011E-002  0.14903767516402891        0.0000000000000000     
  -1.7162941176215005E-002  0.15674567026150241        0.0000000000000000     
  -1.7447526022181768E-002  0.16456569492034942        0.0000000000000000     
  -2.1633502542923445E-002  0.13407789630779701        0.0000000000000000     
  -2.2097808834769531E-002  0.14155325816237058        0.0000000000000000     
  -2.2534755692236619E-002  0.14914050515042784        0.0000000000000000     
  -2.2944343115324704E-002  0.15683963727196884        0.0000000000000000     
  -2.3326571104033793E-002  0.16465065452699348        0.0000000000000000     
  -7.0544308242159737E-013  0.16445646114311985        0.0000000000000000     
   7.7869763588644947E-013  0.17238767275987119        0.0000000000000000     
   1.6414730902650221E-012  0.18040588114756101        0.0000000000000000     
   1.8828843920213473E-012  0.18851108630618924        0.0000000000000000     
   1.5029314598402621E-012  0.19670328823575595        0.0000000000000000     
  -5.7842404705175966E-003  0.16446859822841259        0.0000000000000000     
  -5.8703951506280201E-003  0.17239854277133482        0.0000000000000000     
  -5.9490780016634012E-003  0.18041554411151842        0.0000000000000000     
  -6.0202890236237400E-003  0.18851960224896328        0.0000000000000000     
  -6.0840282165090373E-003  0.19671071718366959        0.0000000000000000     
  -1.1600082477676375E-002  0.16450500948748911        0.0000000000000000     
  -1.1773840580467116E-002  0.17243115280645382        0.0000000000000000     
  -1.1932557210810149E-002  0.18044453300259691        0.0000000000000000     
  -1.2076232368705463E-002  0.18854515007591849        0.0000000000000000     
  -1.2204866054153066E-002  0.19673300402641852        0.0000000000000000     
  -1.7447526022181768E-002  0.16456569492034942        0.0000000000000000     
  -1.7710336288738592E-002  0.17248550286522804        0.0000000000000000     
  -1.7950437625798767E-002  0.18049284782079647        0.0000000000000000     
  -1.8167830033362281E-002  0.18858772978705471        0.0000000000000000     
  -1.8362513511429146E-002  0.19677014876400270        0.0000000000000000     
  -2.3326571104033793E-002  0.16465065452699348        0.0000000000000000     
  -2.3679882275442449E-002  0.17256159294765766        0.0000000000000000     
  -2.4002719246629257E-002  0.18056048856611717        0.0000000000000000     
  -2.4295082017594199E-002  0.18864734138237205        0.0000000000000000     
  -2.4556970588337289E-002  0.19682215139642220        0.0000000000000000     
   1.5029314598402621E-012  0.19670328823575595        0.0000000000000000     
   9.5093811297575215E-013  0.20496420466184070        0.0000000000000000     
   6.7623250749049291E-013  0.21327555331002310        0.0000000000000000     
   6.7881290866100841E-013  0.22163733418030312        0.0000000000000000     
   9.5868148489164362E-013  0.23004954727268082        0.0000000000000000     
  -6.0840282165090373E-003  0.19671071718366959        0.0000000000000000     
  -6.1405530423439096E-003  0.20497079515859931        0.0000000000000000     
  -6.1901209631529674E-003  0.21328174241671460        0.0000000000000000     
  -6.2327319789362073E-003  0.22164355895801544        0.0000000000000000     
  -6.2683860896936396E-003  0.23005624478250186        0.0000000000000000     
  -1.2204866054153066E-002  0.19673300402641852        0.0000000000000000     
  -1.2318914094479948E-002  0.20499056664861429        0.0000000000000000     
  -1.2418832317013101E-002  0.21330030973702319        0.0000000000000000     
  -1.2504620721752527E-002  0.22166223329164514        0.0000000000000000     
  -1.2576279308698222E-002  0.23007633731248026        0.0000000000000000     
  -1.8362513511429146E-002  0.19677014876400270        0.0000000000000000     
  -1.8535083155457176E-002  0.20502351913188574        0.0000000000000000     
  -1.8686134060904171E-002  0.21333125527094893        0.0000000000000000     
  -1.8815666227770138E-002  0.22169335718119232        0.0000000000000000     
  -1.8923679656055070E-002  0.23010982486261597        0.0000000000000000     
  -2.4556970588337289E-002  0.19682215139642220        0.0000000000000000     
  -2.4789060225275588E-002  0.20506965260841356        0.0000000000000000     
  -2.4992026194826177E-002  0.21337457901849180        0.0000000000000000     
  -2.5165868496989041E-002  0.22173693062665695        0.0000000000000000     
  -2.5310587131764189E-002  0.23015670743290906        0.0000000000000000     
   9.5868148489164362E-013  0.23004954727268082        0.0000000000000000     
   1.3188371835587409E-012  0.23848090127600463        0.0000000000000000     
   1.5622832888473326E-012  0.24690010487912320        0.0000000000000000     
   1.6890176323530737E-012  0.25530715808203647        0.0000000000000000     
   1.6990428161611781E-012  0.26370206088474429        0.0000000000000000     
  -6.2683860896936396E-003  0.23005624478250186        0.0000000000000000     
  -6.2983366975170318E-003  0.23848874330001568        0.0000000000000000     
  -6.3238372044981707E-003  0.24690999792039880        0.0000000000000000     
  -6.3448876106370535E-003  0.25532000864365118        0.0000000000000000     
  -6.3614879159336838E-003  0.26371877546977279        0.0000000000000000     
  -1.2576279308698222E-002  0.23007633731248026        0.0000000000000000     
  -1.2636522145317160E-002  0.23851226937247277        0.0000000000000000     
  -1.2688063299076315E-002  0.24693967704456710        0.0000000000000000     
  -1.2730902769975672E-002  0.25535856032876320        0.0000000000000000     
  -1.2765040558015245E-002  0.26376891922506124        0.0000000000000000     
  -1.8923679656055070E-002  0.23010982486261597        0.0000000000000000     
  -1.9014556342081552E-002  0.23855147949337588        0.0000000000000000     
  -1.9092678282172142E-002  0.24698914225162813        0.0000000000000000     
  -1.9158045476326838E-002  0.25542281313737264        0.0000000000000000     
  -1.9210657924545644E-002  0.26385249215060957        0.0000000000000000     
  -2.5310587131764189E-002  0.23015670743290906        0.0000000000000000     
  -2.5432439287810197E-002  0.23860637366272502        0.0000000000000000     
  -2.5537682153785650E-002  0.24705839354158182        0.0000000000000000     
  -2.5626315729690548E-002  0.25551276706947940        0.0000000000000000     
  -2.5698340015524884E-002  0.26396949424641780        0.0000000000000000     
   1.6990428161611781E-012  0.26370206088474429        0.0000000000000000     
   1.6689299681821312E-012  0.27202466304630596        0.0000000000000000     
   1.6752483731827250E-012  0.28021481432578010        0.0000000000000000     
   1.7180020156059433E-012  0.28827251472316701        0.0000000000000000     
   1.7971865315380420E-012  0.29619776423846655        0.0000000000000000     
  -6.3614879159336838E-003  0.26371877546977279        0.0000000000000000     
  -6.3775009823251729E-003  0.27204646304027935        0.0000000000000000     
  -6.3967896717486436E-003  0.28024323599668627        0.0000000000000000     
  -6.4193539842040976E-003  0.28830909433899365        0.0000000000000000     
  -6.4451939196915314E-003  0.29624403806720151        0.0000000000000000     
  -1.2765040558015245E-002  0.26376891922506124        0.0000000000000000     
  -1.2797660797176128E-002  0.27211186302236651        0.0000000000000000     
  -1.2835947621439414E-002  0.28032850100958473        0.0000000000000000     
  -1.2879901030805102E-002  0.28841883318671580        0.0000000000000000     
  -1.2929521025273203E-002  0.29638285955375981        0.0000000000000000     
  -1.9210657924545644E-002  0.26385249215060957        0.0000000000000000     
  -1.9260479442883931E-002  0.27222086299256754        0.0000000000000000     
  -1.9317473847397060E-002  0.28047060936447554        0.0000000000000000     
  -1.9381641138085028E-002  0.28860173126633354        0.0000000000000000     
  -1.9452981314947833E-002  0.29661422869814147        0.0000000000000000     
  -2.5698340015524884E-002  0.26396949424641780        0.0000000000000000     
  -2.5765956919448583E-002  0.27237346295088244        0.0000000000000000     
  -2.5841368349621575E-002  0.28066956106135882        0.0000000000000000     
  -2.5924574306043852E-002  0.28885778857784683        0.0000000000000000     
  -2.6015574788715419E-002  0.29693814550034658        0.0000000000000000     
  -1.3973654103695573E-002   5.5774901123283344E-002   0.0000000000000000     
  -1.4765111696430019E-002   6.1367749781136703E-002   0.0000000000000000     
  -1.5526082058778716E-002   6.7145276209619159E-002   0.0000000000000000     
  -1.6256565190741663E-002   7.3107480408730732E-002   0.0000000000000000     
  -1.6956561092318859E-002   7.9254362378471416E-002   0.0000000000000000     
  -1.7501799640750368E-002   5.6033804126217723E-002   0.0000000000000000     
  -1.8510316963105868E-002   6.1620749274985682E-002   0.0000000000000000     
  -1.9476266249150886E-002   6.7391583060250698E-002   0.0000000000000000     
  -2.0399647498885426E-002   7.3346305482012819E-002   0.0000000000000000     
  -2.1280460712309473E-002   7.9484916540271996E-002   0.0000000000000000     
  -2.1199962092787433E-002   5.6351727182641573E-002   0.0000000000000000     
  -2.2401549946471706E-002   6.1930359789433821E-002   0.0000000000000000     
  -2.3554018345944009E-002   6.7692348046873185E-002   0.0000000000000000     
  -2.4657367291204359E-002   7.3637691954959714E-002   0.0000000000000000     
  -2.5711596782252745E-002   7.9766391513693385E-002   0.0000000000000000     
  -2.5068141459806775E-002   5.6728670292554871E-002   0.0000000000000000     
  -2.6438810646527516E-002   6.2296581324481105E-002   0.0000000000000000     
  -2.7759338349158082E-002   6.8047571169486593E-002   0.0000000000000000     
  -2.9029724567698471E-002   7.3981639827571458E-002   0.0000000000000000     
  -3.0249969302148686E-002   8.0098787298735596E-002   0.0000000000000000     
  -2.9106337741808389E-002   5.7164633455957632E-002   0.0000000000000000     
  -3.0622099063273314E-002   6.2719413880127514E-002   0.0000000000000000     
  -3.2092226258793100E-002   6.8457252428090976E-002   0.0000000000000000     
  -3.3516719328367757E-002   7.4378149099848009E-002   0.0000000000000000     
  -3.4895578271997289E-002   8.0482103895398602E-002   0.0000000000000000     
  -1.6956561092318859E-002   7.9254362378471416E-002   0.0000000000000000     
  -1.7629202619772796E-002   8.5573251053005728E-002   0.0000000000000000     
  -1.8277622629365942E-002   9.2051475366498228E-002   0.0000000000000000     
  -1.8901821121098308E-002   9.8689035318948889E-002   0.0000000000000000     
  -1.9501798094969894E-002  0.10548593091035771        0.0000000000000000     
  -2.1280460712309473E-002   7.9484916540271996E-002   0.0000000000000000     
  -2.2124604376978805E-002   8.5795070694091410E-002   0.0000000000000000     
  -2.2937976980449186E-002   9.2264422402534296E-002   0.0000000000000000     
  -2.3720578522720619E-002   9.8892971665600571E-002   0.0000000000000000     
  -2.4472409003793102E-002  0.10568071848329030        0.0000000000000000     
  -2.5711596782252745E-002   7.9766391513693385E-002   0.0000000000000000     
  -2.6723019033798100E-002   8.6066218202446407E-002   0.0000000000000000     
  -2.7697946260549354E-002   9.2524943500591025E-002   0.0000000000000000     
  -2.8636378462506495E-002   9.9142567408127213E-002   0.0000000000000000     
  -2.9538315639669539E-002  0.10591908992505496        0.0000000000000000     
  -3.0249969302148686E-002   8.0098787298735596E-002   0.0000000000000000     
  -3.1424446590230692E-002   8.6386693578070689E-002   0.0000000000000000     
  -3.2557530469666446E-002   9.2833038660668415E-002   0.0000000000000000     
  -3.3649220940455950E-002   9.9437822546528734E-002   0.0000000000000000     
  -3.4699518002599211E-002  0.10620104523565171        0.0000000000000000     
  -3.4895578271997289E-002   8.0482103895398602E-002   0.0000000000000000     
  -3.6228887046276567E-002   8.6756496820964271E-002   0.0000000000000000     
  -3.7516729607800454E-002   9.3188707882766481E-002   0.0000000000000000     
  -3.8759105956568979E-002   9.9778737080805230E-002   0.0000000000000000     
  -3.9956016092582113E-002  0.10652658441508053        0.0000000000000000     
  -1.9501798094969894E-002  0.10548593091035771        0.0000000000000000     
  -2.0075929284172889E-002  0.11243035130586362        0.0000000000000000     
  -2.0622590421899477E-002  0.11951048567060547        0.0000000000000000     
  -2.1141781508149667E-002  0.12672633400458327        0.0000000000000000     
  -2.1633502542923445E-002  0.13407789630779701        0.0000000000000000     
  -2.4472409003793102E-002  0.10568071848329030        0.0000000000000000     
  -2.5191671647991673E-002  0.11261574296902846        0.0000000000000000     
  -2.5876569679641370E-002  0.11968612523624005        0.0000000000000000     
  -2.6527103098742191E-002  0.12689186528492510        0.0000000000000000     
  -2.7143271905294145E-002  0.13423296311508365        0.0000000000000000     
  -2.9538315639669539E-002  0.10591908992505496        0.0000000000000000     
  -3.0401597181554350E-002  0.11284260051262621        0.0000000000000000     
  -3.1224062477676798E-002  0.11990118863209290        0.0000000000000000     
  -3.2005711528036884E-002  0.12709485428345502        0.0000000000000000     
  -3.2746544332634617E-002  0.13442359746671251        0.0000000000000000     
  -3.4699518002599211E-002  0.10620104523565171        0.0000000000000000     
  -3.5705705884860911E-002  0.11311092393665691        0.0000000000000000     
  -3.6665068816005758E-002  0.12015567585816393        0.0000000000000000     
  -3.7577606796033745E-002  0.12733530100017287        0.0000000000000000     
  -3.8443319824944873E-002  0.13464979936268365        0.0000000000000000     
  -3.9956016092582113E-002  0.10652658441508053        0.0000000000000000     
  -4.1103997757911369E-002  0.11342071324112050        0.0000000000000000     
  -4.2199588694628254E-002  0.12044958691445323        0.0000000000000000     
  -4.3242788902732768E-002  0.12761320543507870        0.0000000000000000     
  -4.4233598382224910E-002  0.13491156880299698        0.0000000000000000     
  -2.1633502542923445E-002  0.13407789630779701        0.0000000000000000     
  -2.2097808834769531E-002  0.14155325816237058        0.0000000000000000     
  -2.2534755692236619E-002  0.14914050515042784        0.0000000000000000     
  -2.2944343115324704E-002  0.15683963727196884        0.0000000000000000     
  -2.3326571104033793E-002  0.16465065452699348        0.0000000000000000     
  -2.7143271905294145E-002  0.13423296311508365        0.0000000000000000     
  -2.7725395332919119E-002  0.14169758946937033        0.0000000000000000     
  -2.8273792615239018E-002  0.14927391509044000        0.0000000000000000     
  -2.8788463752253853E-002  0.15696193997829261        0.0000000000000000     
  -2.9269408743963620E-002  0.16476166413292812        0.0000000000000000     
  -3.2746544332634617E-002  0.13442359746671251        0.0000000000000000     
  -3.3446968195801272E-002  0.14187561530967566        0.0000000000000000     
  -3.4107390421868118E-002  0.14943910494015467        0.0000000000000000     
  -3.4727811010835191E-002  0.15711406635814948        0.0000000000000000     
  -3.5308229962702456E-002  0.16490049956366018        0.0000000000000000     
  -3.8443319824944873E-002  0.13464979936268365        0.0000000000000000     
  -3.9262527423415981E-002  0.14208733568328652        0.0000000000000000     
  -4.0035549112123925E-002  0.14963607469957174        0.0000000000000000     
  -4.0762384891068690E-002  0.15729601641153942        0.0000000000000000     
  -4.1443034760250276E-002  0.16506716081918960        0.0000000000000000     
  -4.4233598382224910E-002  0.13491156880299698        0.0000000000000000     
  -4.5172073015763259E-002  0.14233275059020295        0.0000000000000000     
  -4.6058268686006411E-002  0.14986482436869147        0.0000000000000000     
  -4.6892185392954359E-002  0.15750779013846264        0.0000000000000000     
  -4.7673823136607105E-002  0.16526164789951636        0.0000000000000000     
  -2.3326571104033793E-002  0.16465065452699348        0.0000000000000000     
  -2.3679882275442449E-002  0.17256159294765766        0.0000000000000000     
  -2.4002719246629257E-002  0.18056048856611717        0.0000000000000000     
  -2.4295082017594199E-002  0.18864734138237205        0.0000000000000000     
  -2.4556970588337289E-002  0.19682215139642220        0.0000000000000000     
  -2.9269408743963620E-002  0.16476166413292812        0.0000000000000000     
  -2.9714543644360464E-002  0.17266141697771373        0.0000000000000000     
  -3.0121784507436539E-002  0.18064952793601644        0.0000000000000000     
  -3.0491131333191847E-002  0.18872599700783635        0.0000000000000000     
  -3.0822584121626386E-002  0.19689082419317336        0.0000000000000000     
  -3.5308229962702456E-002  0.16490049956366018        0.0000000000000000     
  -3.5846385499274401E-002  0.17278696887936740        0.0000000000000000     
  -3.6340015842355536E-002  0.18076203862795190        0.0000000000000000     
  -3.6789120991945846E-002  0.18882570880941357        0.0000000000000000     
  -3.7193700948045333E-002  0.19697797942375253        0.0000000000000000     
  -4.1443034760250276E-002  0.16506716081918960        0.0000000000000000     
  -4.2075407840184278E-002  0.17293824865261864        0.0000000000000000     
  -4.2657413251386250E-002  0.18089802064192340        0.0000000000000000     
  -4.3189050993856198E-002  0.18894647678710369        0.0000000000000000     
  -4.3670321067594130E-002  0.19708361708815969        0.0000000000000000     
  -4.7673823136607105E-002  0.16526164789951636        0.0000000000000000     
  -4.8401610667090082E-002  0.17311525629746755        0.0000000000000000     
  -4.9073976734528679E-002  0.18105747397793104        0.0000000000000000     
  -4.9690921338922903E-002  0.18908830094090678        0.0000000000000000     
  -5.0252444480272780E-002  0.19720773718639484        0.0000000000000000     
  -2.4556970588337289E-002  0.19682215139642220        0.0000000000000000     
  -2.4789060225275588E-002  0.20506965260841356        0.0000000000000000     
  -2.4992026194826177E-002  0.21337457901849180        0.0000000000000000     
  -2.5165868496989041E-002  0.22173693062665695        0.0000000000000000     
  -2.5310587131764189E-002  0.23015670743290906        0.0000000000000000     
  -3.0822584121626386E-002  0.19689082419317336        0.0000000000000000     
  -3.1116646201781461E-002  0.20513029234002159        0.0000000000000000     
  -3.1373820902698399E-002  0.21343068429637518        0.0000000000000000     
  -3.1594108224377165E-002  0.22179200006223401        0.0000000000000000     
  -3.1777508166817792E-002  0.23021423963759818        0.0000000000000000     
  -3.7193700948045333E-002  0.19697797942375253        0.0000000000000000     
  -3.7553641982821066E-002  0.20520676358853379        0.0000000000000000     
  -3.7868830368440111E-002  0.21349997442132243        0.0000000000000000     
  -3.8139266104902460E-002  0.22185761192211850        0.0000000000000000     
  -3.8364949192208113E-002  0.23027967609092195        0.0000000000000000     
  -4.3670321067594130E-002  0.19708361708815969        0.0000000000000000     
  -4.4100047568394377E-002  0.20529906635395001        0.0000000000000000     
  -4.4477054592051313E-002  0.21358244939333362        0.0000000000000000     
  -4.4801342138564897E-002  0.22193376620631042        0.0000000000000000     
  -4.5072910207935142E-002  0.23035301679288037        0.0000000000000000     
  -5.0252444480272780E-002  0.19720773718639484        0.0000000000000000     
  -5.0755862958501437E-002  0.20540720063627038        0.0000000000000000     
  -5.1198493573531997E-002  0.21367810921240871        0.0000000000000000     
  -5.1580336325364483E-002  0.22202046291480970        0.0000000000000000     
  -5.1901391213998893E-002  0.23043426174347351        0.0000000000000000     
  -2.5310587131764189E-002  0.23015670743290906        0.0000000000000000     
  -2.5432439287810197E-002  0.23860637366272502        0.0000000000000000     
  -2.5537682153785650E-002  0.24705839354158182        0.0000000000000000     
  -2.5626315729690548E-002  0.25551276706947940        0.0000000000000000     
  -2.5698340015524884E-002  0.26396949424641780        0.0000000000000000     
  -3.1777508166817792E-002  0.23021423963759818        0.0000000000000000     
  -3.1931880149839796E-002  0.23867247843794723        0.0000000000000000     
  -3.2065083593262704E-002  0.24714179187876084        0.0000000000000000     
  -3.2177118497086529E-002  0.25562217996003894        0.0000000000000000     
  -3.2267984861311265E-002  0.26411364268178167        0.0000000000000000     
  -3.8364949192208113E-002  0.23027967609092195        0.0000000000000000     
  -3.8554588095507027E-002  0.23874532037646945        0.0000000000000000     
  -3.8716891279949164E-002  0.24723369822749777        0.0000000000000000     
  -3.8851858745534526E-002  0.25574480964400692        0.0000000000000000     
  -3.8959490492263077E-002  0.26427865462599676        0.0000000000000000     
  -4.5072910207935142E-002  0.23035301679288037        0.0000000000000000     
  -4.5300563124811906E-002  0.23882489947829175        0.0000000000000000     
  -4.5493105213845024E-002  0.24733411258779267        0.0000000000000000     
  -4.5650536475034510E-002  0.25588065612138317        0.0000000000000000     
  -4.5772856908380351E-002  0.26446453007906318        0.0000000000000000     
  -5.1901391213998893E-002  0.23043426174347351        0.0000000000000000     
  -5.2169805237754420E-002  0.23891121574341406        0.0000000000000000     
  -5.2393725394950283E-002  0.24744303495964548        0.0000000000000000     
  -5.2573151685586503E-002  0.25602971939216773        0.0000000000000000     
  -5.2708084109663045E-002  0.26467126904098087        0.0000000000000000     
  -2.5698340015524884E-002  0.26396949424641780        0.0000000000000000     
  -2.5765956919448583E-002  0.27237346295088244        0.0000000000000000     
  -2.5841368349621575E-002  0.28066956106135882        0.0000000000000000     
  -2.5924574306043852E-002  0.28885778857784683        0.0000000000000000     
  -2.6015574788715419E-002  0.29693814550034658        0.0000000000000000     
  -3.2267984861311265E-002  0.26411364268178167        0.0000000000000000     
  -3.2352526061923292E-002  0.27256332703487185        0.0000000000000000     
  -3.2445585474909028E-002  0.28091838001019259        0.0000000000000000     
  -3.2547163100268457E-002  0.28917880160774395        0.0000000000000000     
  -3.2657258938001567E-002  0.29734459182752582        0.0000000000000000     
  -3.8959490492263077E-002  0.26427865462599676        0.0000000000000000     
  -3.9058619705361251E-002  0.27278411938209657        0.0000000000000000     
  -3.9168079570055456E-002  0.28121009012093534        0.0000000000000000     
  -3.9287870086345669E-002  0.28955656684251319        0.0000000000000000     
  -3.9417991254231899E-002  0.29782354954682999        0.0000000000000000     
  -4.5772856908380351E-002  0.26446453007906318        0.0000000000000000     
  -4.5884237849762470E-002  0.27303583999255654        0.0000000000000000     
  -4.6008850635060869E-002  0.28154469139358690        0.0000000000000000     
  -4.6146695264275513E-002  0.28999108428215442        0.0000000000000000     
  -4.6297771737406401E-002  0.29837501865825888        0.0000000000000000     
  -5.2708084109663045E-002  0.26467126904098087        0.0000000000000000     
  -5.2829380495126955E-002  0.27331848886625176        0.0000000000000000     
  -5.2967898669925260E-002  0.28192218382814743        0.0000000000000000     
  -5.3123638634057981E-002  0.29048235392666777        0.0000000000000000     
  -5.3296600387525081E-002  0.29899899916181283        0.0000000000000000     
  -2.9106337741808389E-002   5.7164633455957632E-002   0.0000000000000000     
  -3.0622099063273314E-002   6.2719413880127514E-002   0.0000000000000000     
  -3.2092226258793100E-002   6.8457252428090976E-002   0.0000000000000000     
  -3.3516719328367757E-002   7.4378149099848009E-002   0.0000000000000000     
  -3.4895578271997289E-002   8.0482103895398602E-002   0.0000000000000000     
  -3.3207838099468659E-002   5.7659887145385280E-002   0.0000000000000000     
  -3.4883465629676591E-002   6.3199767110105734E-002   0.0000000000000000     
  -3.6514469712209612E-002   6.8922609336915422E-002   0.0000000000000000     
  -3.8100850347067713E-002   7.4828413825814372E-002   0.0000000000000000     
  -3.9642607534250918E-002   8.0917180576802542E-002   0.0000000000000000     
  -3.7265929693463977E-002   5.8214701833373225E-002   0.0000000000000000     
  -3.9154960778704867E-002   6.3738550668148375E-002   0.0000000000000000     
  -4.0987856346768152E-002   6.9444859410189158E-002   0.0000000000000000     
  -4.2764616397653853E-002   7.5333628059495533E-002   0.0000000000000000     
  -4.4485240931361948E-002   8.1404856616067528E-002   0.0000000000000000     
  -4.1280612523794336E-002   5.8829077519921481E-002   0.0000000000000000     
  -4.3436584510358131E-002   6.4335764554255465E-002   0.0000000000000000     
  -4.5512386162468728E-002   7.0024002647912142E-002   0.0000000000000000     
  -4.7508017480126154E-002   7.5893791800891508E-002   0.0000000000000000     
  -4.9423478463330374E-002   8.1945132013193561E-002   0.0000000000000000     
  -4.5251886590459742E-002   5.9503014205030041E-002   0.0000000000000000     
  -4.7728336824636390E-002   6.4991408768426989E-002   0.0000000000000000     
  -5.0088059159311353E-002   7.0660039050084389E-002   0.0000000000000000     
  -5.2331053594484617E-002   7.6508905050002268E-002   0.0000000000000000     
  -5.4457320130156195E-002   8.2538006768180627E-002   0.0000000000000000     
  -3.4895578271997289E-002   8.0482103895398602E-002   0.0000000000000000     
  -3.6228887046276567E-002   8.6756496820964271E-002   0.0000000000000000     
  -3.7516729607800454E-002   9.3188707882766481E-002   0.0000000000000000     
  -3.8759105956568979E-002   9.9778737080805230E-002   0.0000000000000000     
  -3.9956016092582113E-002  0.10652658441508053        0.0000000000000000     
  -3.9642607534250918E-002   8.0917180576802542E-002   0.0000000000000000     
  -4.1137095534163996E-002   8.7176095055886180E-002   0.0000000000000000     
  -4.2581668607211721E-002   9.3592342729071493E-002   0.0000000000000000     
  -4.3976326753394107E-002  0.10016592359635844        0.0000000000000000     
  -4.5321069972711160E-002  0.10689683765774707        0.0000000000000000     
  -4.4485240931361948E-002   8.1404856616067528E-002   0.0000000000000000     
  -4.6149827186121255E-002   8.7645955407595455E-002   0.0000000000000000     
  -4.7758472400160575E-002   9.4044334761769682E-002   0.0000000000000000     
  -4.9311176573479915E-002  0.10059999467859017        0.0000000000000000     
  -5.0807939706079289E-002  0.10731293515805690        0.0000000000000000     
  -4.9423478463330374E-002   8.1945132013193561E-002   0.0000000000000000     
  -5.1267082002148349E-002   8.8166077876092153E-002   0.0000000000000000     
  -5.3047140986647028E-002   9.4544683980861091E-002   0.0000000000000000     
  -5.4763655416826401E-002  0.10108095032750038        0.0000000000000000     
  -5.6416625292686477E-002  0.10777487691601007        0.0000000000000000     
  -5.4457320130156195E-002   8.2538006768180627E-002   0.0000000000000000     
  -5.6488859982245260E-002   8.8736462461376175E-002   0.0000000000000000     
  -5.8447674366671053E-002   9.5093390386345691E-002   0.0000000000000000     
  -6.0333763283433553E-002  0.10160879054308913        0.0000000000000000     
  -6.2147126732532761E-002  0.10828266293160652        0.0000000000000000     
  -3.9956016092582113E-002  0.10652658441508053        0.0000000000000000     
  -4.1103997757911369E-002  0.11342071324112050        0.0000000000000000     
  -4.2199588694628254E-002  0.12044958691445323        0.0000000000000000     
  -4.3242788902732768E-002  0.12761320543507870        0.0000000000000000     
  -4.4233598382224910E-002  0.13491156880299698        0.0000000000000000     
  -4.5321069972711160E-002  0.10689683765774707        0.0000000000000000     
  -4.6611869028111617E-002  0.11377367675637026        0.0000000000000000     
  -4.7844694682544209E-002  0.12078503273536090        0.0000000000000000     
  -4.9019546936008948E-002  0.12793090559471898        0.0000000000000000     
  -5.0136425788505842E-002  0.13521129533444456        0.0000000000000000     
  -5.0807939706079289E-002  0.10731293515805690        0.0000000000000000     
  -5.2244715922867530E-002  0.11417152281275941        0.0000000000000000     
  -5.3617459348753532E-002  0.12116412425528712        0.0000000000000000     
  -5.4926169983737297E-002  0.12829073948564010        0.0000000000000000     
  -5.6170847827818816E-002  0.13555136850381827        0.0000000000000000     
  -5.6416625292686477E-002  0.10777487691601007        0.0000000000000000     
  -5.8002538442179147E-002  0.11461425141028796        0.0000000000000000     
  -5.9517882693256238E-002  0.12158686147423194        0.0000000000000000     
  -6.0962658045917800E-002  0.12869270710784197        0.0000000000000000     
  -6.2336864500163791E-002  0.13593178831111816        0.0000000000000000     
  -6.2147126732532761E-002  0.10828266293160652        0.0000000000000000     
  -6.3885336586046421E-002  0.11510186254895588        0.0000000000000000     
  -6.5545964716052341E-002  0.12205324439219530        0.0000000000000000     
  -6.7129011122550458E-002  0.12913680846132472        0.0000000000000000     
  -6.8634475805540815E-002  0.13635255475634422        0.0000000000000000     
  -4.4233598382224910E-002  0.13491156880299698        0.0000000000000000     
  -4.5172073015763259E-002  0.14233275059020295        0.0000000000000000     
  -4.6058268686006411E-002  0.14986482436869147        0.0000000000000000     
  -4.6892185392954359E-002  0.15750779013846264        0.0000000000000000     
  -4.7673823136607105E-002  0.16526164789951636        0.0000000000000000     
  -5.0136425788505842E-002  0.13521129533444456        0.0000000000000000     
  -5.1195311068402242E-002  0.14261426490906251        0.0000000000000000     
  -5.2196182604065500E-002  0.15012787727309773        0.0000000000000000     
  -5.3139040395495628E-002  0.15775213242655026        0.0000000000000000     
  -5.4023884442692627E-002  0.16548703036942006        0.0000000000000000     
  -5.6170847827818816E-002  0.13555136850381827        0.0000000000000000     
  -5.7351947676892084E-002  0.14293428351850276        0.0000000000000000     
  -5.8469924326851122E-002  0.15042775673837458        0.0000000000000000     
  -5.9524777777695916E-002  0.15803178816343372        0.0000000000000000     
  -6.0516508029426506E-002  0.16574637779368021        0.0000000000000000     
  -6.2336864500163791E-002  0.13593178831111816        0.0000000000000000     
  -6.3641982841232778E-002  0.14329280641852374        0.0000000000000000     
  -6.4879493854363271E-002  0.15076446276452204        0.0000000000000000     
  -6.6049397539555257E-002  0.15834675734911302        0.0000000000000000     
  -6.7151693896808751E-002  0.16603969017229675        0.0000000000000000     
  -6.8634475805540815E-002  0.13635255475634422        0.0000000000000000     
  -7.0065416561424315E-002  0.14368983360912543        0.0000000000000000     
  -7.1424891186601919E-002  0.15113799535154013        0.0000000000000000     
  -7.2712899681073584E-002  0.15869703998358820        0.0000000000000000     
  -7.3929442044839366E-002  0.16636696750526975        0.0000000000000000     
  -4.7673823136607105E-002  0.16526164789951636        0.0000000000000000     
  -4.8401610667090082E-002  0.17311525629746755        0.0000000000000000     
  -4.9073976734528679E-002  0.18105747397793104        0.0000000000000000     
  -4.9690921338922903E-002  0.18908830094090678        0.0000000000000000     
  -5.0252444480272780E-002  0.19720773718639484        0.0000000000000000     
  -5.4023884442692627E-002  0.16548703036942006        0.0000000000000000     
  -5.4849627120418923E-002  0.17332150727670265        0.0000000000000000     
  -5.5615180803436991E-002  0.18124449932339351        0.0000000000000000     
  -5.6320545491746823E-002  0.18925600650949259        0.0000000000000000     
  -5.6965721185348400E-002  0.19735602883499992        0.0000000000000000     
  -6.0516508029426506E-002  0.16574637779368021        0.0000000000000000     
  -6.1444090340597952E-002  0.17356051705311262        0.0000000000000000     
  -6.2306499969765367E-002  0.18146319736572944        0.0000000000000000     
  -6.3103736916928749E-002  0.18945441873153088        0.0000000000000000     
  -6.3835801182088120E-002  0.19753418115051674        0.0000000000000000     
  -6.7151693896808751E-002  0.16603969017229675        0.0000000000000000     
  -6.8185000327627143E-002  0.17383228562669739        0.0000000000000000     
  -6.9147934233513800E-002  0.18171356810493897        0.0000000000000000     
  -7.0040495614468720E-002  0.18968353760702164        0.0000000000000000     
  -7.0862684470491905E-002  0.19774219413294525        0.0000000000000000     
  -7.3929442044839366E-002  0.16636696750526975        0.0000000000000000     
  -7.5072357081506516E-002  0.17413681299745695        0.0000000000000000     
  -7.6139483594682283E-002  0.18199561154102198        0.0000000000000000     
  -7.7130821584366724E-002  0.18994336313596483        0.0000000000000000     
  -7.8046371050559782E-002  0.19798006778228561        0.0000000000000000     
  -5.0252444480272780E-002  0.19720773718639484        0.0000000000000000     
  -5.0755862958501437E-002  0.20540720063627038        0.0000000000000000     
  -5.1198493573531997E-002  0.21367810921240871        0.0000000000000000     
  -5.1580336325364483E-002  0.22202046291480970        0.0000000000000000     
  -5.1901391213998893E-002  0.23043426174347351        0.0000000000000000     
  -5.6965721185348400E-002  0.19735602883499992        0.0000000000000000     
  -5.7546965538938281E-002  0.20553746415879576        0.0000000000000000     
  -5.8060536207212937E-002  0.21379321033976045        0.0000000000000000     
  -5.8506433190172402E-002  0.22212326737789401        0.0000000000000000     
  -5.8884656487816670E-002  0.23052763527319642        0.0000000000000000     
  -6.3835801182088120E-002  0.19753418115051674        0.0000000000000000     
  -6.4499232695500980E-002  0.20569615464482699        0.0000000000000000     
  -6.5090571387424884E-002  0.21393400923660166        0.0000000000000000     
  -6.5609817257859818E-002  0.22224774492584065        0.0000000000000000     
  -6.6056970306805796E-002  0.23063736171254409        0.0000000000000000     
  -7.0862684470491905E-002  0.19774219413294525        0.0000000000000000     
  -7.1612664428189546E-002  0.20588327209436413        0.0000000000000000     
  -7.2288599114167809E-002  0.21410050590293231        0.0000000000000000     
  -7.2890488528426722E-002  0.22239389555864980        0.0000000000000000     
  -7.3418332670966258E-002  0.23076344106151656        0.0000000000000000     
  -7.8046371050559782E-002  0.19798006778228561        0.0000000000000000     
  -7.8887260737003986E-002  0.20609881650740708        0.0000000000000000     
  -7.9654619387441769E-002  0.21429270033875233        0.0000000000000000     
  -8.0348447001873130E-002  0.22256171927632121        0.0000000000000000     
  -8.0968743580298069E-002  0.23090587332011389        0.0000000000000000     
  -5.1901391213998893E-002  0.23043426174347351        0.0000000000000000     
  -5.2169805237754420E-002  0.23891121574341406        0.0000000000000000     
  -5.2393725394950283E-002  0.24744303495964548        0.0000000000000000     
  -5.2573151685586503E-002  0.25602971939216773        0.0000000000000000     
  -5.2708084109663045E-002  0.26467126904098087        0.0000000000000000     
  -5.8884656487816670E-002  0.23052763527319642        0.0000000000000000     
  -5.9201415355893863E-002  0.23900564791021139        0.0000000000000000     
  -5.9462919050152142E-002  0.24755663917348295        0.0000000000000000     
  -5.9669167570591479E-002  0.25618060906301093        0.0000000000000000     
  -5.9820160917211922E-002  0.26487755757879539        0.0000000000000000     
  -6.6056970306805796E-002  0.23063736171254409        0.0000000000000000     
  -6.6434494400789523E-002  0.23910957471705876        0.0000000000000000     
  -6.6744853406337762E-002  0.24767109905973175        0.0000000000000000     
  -6.6988047323450456E-002  0.25632193474056303        0.0000000000000000     
  -6.7164076152127675E-002  0.26506208175955254        0.0000000000000000     
  -7.3418332670966258E-002  0.23076344106151656        0.0000000000000000     
  -7.3869042372441421E-002  0.23922299616395615        0.0000000000000000     
  -7.4239528463507107E-002  0.24778641461839193        0.0000000000000000     
  -7.4529790944163440E-002  0.25645369642482396        0.0000000000000000     
  -7.4739829814410311E-002  0.26522484158325221        0.0000000000000000     
  -8.0968743580298069E-002  0.23090587332011389        0.0000000000000000     
  -8.1505059270849500E-002  0.23934591225090351        0.0000000000000000     
  -8.1946944221660253E-002  0.24790258584946351        0.0000000000000000     
  -8.2294398432730384E-002  0.25657589411579385        0.0000000000000000     
  -8.2547421904059851E-002  0.26536583704989447        0.0000000000000000     
  -5.2708084109663045E-002  0.26467126904098087        0.0000000000000000     
  -5.2829380495126955E-002  0.27331848886625176        0.0000000000000000     
  -5.2967898669925260E-002  0.28192218382814743        0.0000000000000000     
  -5.3123638634057981E-002  0.29048235392666777        0.0000000000000000     
  -5.3296600387525081E-002  0.29899899916181283        0.0000000000000000     
  -5.9820160917211922E-002  0.26487755757879539        0.0000000000000000     
  -5.9952783509381873E-002  0.27360334124258490        0.0000000000000000     
  -6.0103919766469810E-002  0.28231381657612792        0.0000000000000000     
  -6.0273569688475741E-002  0.29100898357942440        0.0000000000000000     
  -6.0461733275399665E-002  0.29968884225247444        0.0000000000000000     
  -6.7164076152127675E-002  0.26506208175955254        0.0000000000000000     
  -6.7313182760454393E-002  0.27386167236095865        0.0000000000000000     
  -6.7475610016515669E-002  0.28269083878903978        0.0000000000000000     
  -6.7651357920311517E-002  0.29154958104379564        0.0000000000000000     
  -6.7840426471841894E-002  0.30043789912522650        0.0000000000000000     
  -7.4739829814410311E-002  0.26522484158325221        0.0000000000000000     
  -7.4910578248344545E-002  0.27409348222137303        0.0000000000000000     
  -7.5082969420062831E-002  0.28305325046688279        0.0000000000000000     
  -7.5257003329565225E-002  0.29210414631978143        0.0000000000000000     
  -7.5432679976851755E-002  0.30124616978006896        0.0000000000000000     
  -8.2547421904059851E-002  0.26536583704989447        0.0000000000000000     
  -8.2744969973052279E-002  0.27429877082382803        0.0000000000000000     
  -8.2925997977111324E-002  0.28340105160965717        0.0000000000000000     
  -8.3090505916236998E-002  0.29267267940738179        0.0000000000000000     
  -8.3238493790429247E-002  0.30211365421700198        0.0000000000000000     
  -4.5251886590459742E-002   5.9503014205030041E-002   0.0000000000000000     
  -4.7728336824636390E-002   6.4991408768426989E-002   0.0000000000000000     
  -5.0088059159311353E-002   7.0660039050084389E-002   0.0000000000000000     
  -5.2331053594484617E-002   7.6508905050002268E-002   0.0000000000000000     
  -5.4457320130156195E-002   8.2538006768180627E-002   0.0000000000000000     
  -4.9613314245064065E-002   6.0233782735398395E-002   0.0000000000000000     
  -5.2345833087557116E-002   6.5702381454859016E-002   0.0000000000000000     
  -5.4940118731404836E-002   7.1349822224074072E-002   0.0000000000000000     
  -5.7396171176607218E-002   7.7176105043043564E-002   0.0000000000000000     
  -5.9713990423164262E-002   8.3181229911767490E-002   0.0000000000000000     
  -5.4798457839211182E-002   6.1018653957726050E-002   0.0000000000000000     
  -5.7604688665137800E-002   6.6465580757747639E-002   0.0000000000000000     
  -6.0293808272858053E-002   7.2090205777249311E-002   0.0000000000000000     
  -6.2865816662371926E-002   7.7892529016231060E-002   0.0000000000000000     
  -6.5320713833679461E-002   8.3872550474692900E-002   0.0000000000000000     
  -6.0807317372901085E-002   6.1857627872012988E-002   0.0000000000000000     
  -6.3504903557378423E-002   6.7281006677092844E-002   0.0000000000000000     
  -6.6149127783670977E-002   7.2881189709610120E-002   0.0000000000000000     
  -6.8739990051778763E-002   7.8658176969564772E-002   0.0000000000000000     
  -7.1277490361701751E-002   8.4611968456956843E-002   0.0000000000000000     
  -6.7639892846133781E-002   6.2750704478259214E-002   0.0000000000000000     
  -7.0046477764278997E-002   6.8148659212894661E-002   0.0000000000000000     
  -7.2506077263843616E-002   7.3722774021156498E-002   0.0000000000000000     
  -7.5018691344827679E-002   7.9473048903044727E-002   0.0000000000000000     
  -7.7584320007231172E-002   8.5399483858559375E-002   0.0000000000000000     
  -5.4457320130156195E-002   8.2538006768180627E-002   0.0000000000000000     
  -5.6488859982245260E-002   8.8736462461376175E-002   0.0000000000000000     
  -5.8447674366671053E-002   9.5093390386345691E-002   0.0000000000000000     
  -6.0333763283433553E-002  0.10160879054308913        0.0000000000000000     
  -6.2147126732532761E-002  0.10828266293160652        0.0000000000000000     
  -5.9713990423164262E-002   8.3181229911767490E-002   0.0000000000000000     
  -6.1922660116995980E-002   8.9355468667929441E-002   0.0000000000000000     
  -6.4051263904022396E-002   9.5689093149213006E-002   0.0000000000000000     
  -6.6099801784243517E-002  0.10218210335561816        0.0000000000000000     
  -6.8068273757659295E-002  0.10883449928714492        0.0000000000000000     
  -6.5320713833679461E-002   8.3872550474692900E-002   0.0000000000000000     
  -6.7675981396984441E-002   9.0021456000233757E-002   0.0000000000000000     
  -6.9949100962490740E-002   9.6330431440452557E-002   0.0000000000000000     
  -7.2140072530198371E-002  0.10279947679534926        0.0000000000000000     
  -7.4248896100107306E-002  0.10942859206492393        0.0000000000000000     
  -7.1277490361701751E-002   8.4611968456956843E-002   0.0000000000000000     
  -7.3748823822210680E-002   9.0734424458289109E-002   0.0000000000000000     
  -7.6141185542076120E-002   9.7017405260064318E-002   0.0000000000000000     
  -7.8454575521298184E-002  0.10346091086228246        0.0000000000000000     
  -8.0688993759876773E-002  0.11006494126494354        0.0000000000000000     
  -7.7584320007231172E-002   8.5399483858559375E-002   0.0000000000000000     
  -8.0141187392674618E-002   9.1494374042095539E-002   0.0000000000000000     
  -8.2627517642778509E-002   9.7750014608048316E-002   0.0000000000000000     
  -8.5043310757542900E-002  0.10416640555641772        0.0000000000000000     
  -8.7388566736967710E-002  0.11074354688720377        0.0000000000000000     
  -6.2147126732532761E-002  0.10828266293160652        0.0000000000000000     
  -6.3885336586046421E-002  0.11510186254895588        0.0000000000000000     
  -6.5545964716052341E-002  0.12205324439219530        0.0000000000000000     
  -6.7129011122550458E-002  0.12913680846132472        0.0000000000000000     
  -6.8634475805540815E-002  0.13635255475634422        0.0000000000000000     
  -6.8068273757659295E-002  0.10883449928714492        0.0000000000000000     
  -6.9954747389326097E-002  0.11563211335219538        0.0000000000000000     
  -7.1757290244300179E-002  0.12256077795917163        0.0000000000000000     
  -7.3475902322581527E-002  0.12962049310807361        0.0000000000000000     
  -7.5110583624170196E-002  0.13681125879890141        0.0000000000000000     
  -7.4248896100107306E-002  0.10942859206492393        0.0000000000000000     
  -7.6272407886874810E-002  0.11620276094343857        0.0000000000000000     
  -7.8207444105158147E-002  0.12310696712515527        0.0000000000000000     
  -8.0054004754957317E-002  0.13014121061007397        0.0000000000000000     
  -8.1812089836272306E-002  0.13730549139819473        0.0000000000000000     
  -8.0688993759876773E-002  0.11006494126494354        0.0000000000000000     
  -8.2838318078692588E-002  0.11681380532268551        0.0000000000000000     
  -8.4896426298626246E-002  0.12369181189014627        0.0000000000000000     
  -8.6863318419677774E-002  0.13069896096732583        0.0000000000000000     
  -8.8738994441847116E-002  0.13783525255422416        0.0000000000000000     
  -8.7388566736967710E-002  0.11074354688720377        0.0000000000000000     
  -8.9652477964779431E-002  0.11746524648993616        0.0000000000000000     
  -9.1824236824704503E-002  0.12431531225414461        0.0000000000000000     
  -9.3903843316742897E-002  0.13129374417982911        0.0000000000000000     
  -9.5891297440894641E-002  0.13840054226698972        0.0000000000000000     
  -6.8634475805540815E-002  0.13635255475634422        0.0000000000000000     
  -7.0065416561424315E-002  0.14368983360912543        0.0000000000000000     
  -7.1424891186601919E-002  0.15113799535154013        0.0000000000000000     
  -7.2712899681073584E-002  0.15869703998358820        0.0000000000000000     
  -7.3929442044839366E-002  0.16636696750526975        0.0000000000000000     
  -7.5110583624170196E-002  0.13681125879890141        0.0000000000000000     
  -7.6665556034092835E-002  0.14412326111454721        0.0000000000000000     
  -7.8145041437376161E-002  0.15154668613790320        0.0000000000000000     
  -7.9549039834020160E-002  0.15908153386896937        0.0000000000000000     
  -8.0877551224024846E-002  0.16672780430774575        0.0000000000000000     
  -8.1812089836272306E-002  0.13730549139819473        0.0000000000000000     
  -8.3485708455864421E-002  0.14459098495902833        0.0000000000000000     
  -8.5078869720495040E-002  0.15198886676208564        0.0000000000000000     
  -8.6591573630164093E-002  0.15949913680736666        0.0000000000000000     
  -8.8023820184871635E-002  0.16712179509487138        0.0000000000000000     
  -8.8738994441847116E-002  0.13783525255422416        0.0000000000000000     
  -9.0525873826739101E-002  0.14509300514256887        0.0000000000000000     
  -9.2226376035958541E-002  0.15246453722408751        0.0000000000000000     
  -9.3840501069505422E-002  0.15994984879878010        0.0000000000000000     
  -9.5368248927379745E-002  0.16754893986664657        0.0000000000000000     
  -9.5891297440894641E-002  0.13840054226698972        0.0000000000000000     
  -9.7786052146716845E-002  0.14562932166516876        0.0000000000000000     
  -9.9587560383766704E-002  0.15297369752390871        0.0000000000000000     
 -0.10129582215204412       0.16043366984320959        0.0000000000000000     
 -0.10291083745154918       0.16800923862307138        0.0000000000000000     
  -7.3929442044839366E-002  0.16636696750526975        0.0000000000000000     
  -7.5072357081506516E-002  0.17413681299745695        0.0000000000000000     
  -7.6139483594682283E-002  0.18199561154102198        0.0000000000000000     
  -7.7130821584366724E-002  0.18994336313596483        0.0000000000000000     
  -7.8046371050559782E-002  0.19798006778228561        0.0000000000000000     
  -8.0877551224024846E-002  0.16672780430774575        0.0000000000000000     
  -8.2128187190488838E-002  0.17447430459032279        0.0000000000000000     
  -8.3298559316510798E-002  0.18230984185279089        0.0000000000000000     
  -8.4388667602090725E-002  0.19023441609515010        0.0000000000000000     
  -8.5398512047228606E-002  0.19824802731740035        0.0000000000000000     
  -8.8023820184871635E-002  0.16712179509487138        0.0000000000000000     
  -8.9374517242826926E-002  0.17484496583022635        0.0000000000000000     
  -9.0642572662239296E-002  0.18265677321905816        0.0000000000000000     
  -9.1827986443108717E-002  0.19055721726136679        0.0000000000000000     
  -9.2930758585435230E-002  0.19854629795715228        0.0000000000000000     
  -9.5368248927379745E-002  0.16754893986664657        0.0000000000000000     
  -9.6811347238520779E-002  0.17524879671716762        0.0000000000000000     
  -9.8171523631867763E-002  0.18303640563982371        0.0000000000000000     
  -9.9448778107420727E-002  0.19091176663461498        0.0000000000000000     
 -0.10064311066517964       0.19887487970154133        0.0000000000000000     
 -0.10291083745154918       0.16800923862307138        0.0000000000000000     
 -0.10443867717757035       0.17568579725114655        0.0000000000000000     
 -0.10588541222539621       0.18344873911508763        0.0000000000000000     
 -0.10725104259502670       0.19129806421489465        0.0000000000000000     
 -0.10853556828646187       0.19923377255056757        0.0000000000000000     
  -7.8046371050559782E-002  0.19798006778228561        0.0000000000000000     
  -7.8887260737003986E-002  0.20609881650740708        0.0000000000000000     
  -7.9654619387441769E-002  0.21429270033875233        0.0000000000000000     
  -8.0348447001873130E-002  0.22256171927632121        0.0000000000000000     
  -8.0968743580298069E-002  0.23090587332011389        0.0000000000000000     
  -8.5398512047228606E-002  0.19824802731740035        0.0000000000000000     
  -8.6332069095983316E-002  0.20634331919209256        0.0000000000000000     
  -8.7193315192413703E-002  0.21451293539177757        0.0000000000000000     
  -8.7982250336519754E-002  0.22275687591645546        0.0000000000000000     
  -8.8698874528301497E-002  0.23107514076612609        0.0000000000000000     
  -9.2930758585435230E-002  0.19854629795715228        0.0000000000000000     
  -9.3956136979166618E-002  0.20661731145655712        0.0000000000000000     
  -9.4909369514250677E-002  0.21476355390972396        0.0000000000000000     
  -9.5790456190687392E-002  0.22298502531665265        0.0000000000000000     
  -9.6599397008476820E-002  0.23128172567734334        0.0000000000000000     
 -0.10064311066517964       0.19887487970154133        0.0000000000000000     
 -0.10175946438655385       0.20692079330080082        0.0000000000000000     
 -0.10280278235295265       0.21504455589259130        0.0000000000000000     
 -0.10377306456437606       0.22324616747691295        0.0000000000000000     
 -0.10467031102082404       0.23152562805376564        0.0000000000000000     
 -0.10853556828646187       0.19923377255056757        0.0000000000000000     
 -0.10974205131814506       0.20725376472482357        0.0000000000000000     
 -0.11087355370851967       0.21535594134037980        0.0000000000000000     
 -0.11193007545758568       0.22354030239723630        0.0000000000000000     
 -0.11291161656534313       0.23180684789539296        0.0000000000000000     
  -8.0968743580298069E-002  0.23090587332011389        0.0000000000000000     
  -8.1505059270849500E-002  0.23934591225090351        0.0000000000000000     
  -8.1946944221660253E-002  0.24790258584946351        0.0000000000000000     
  -8.2294398432730384E-002  0.25657589411579385        0.0000000000000000     
  -8.2547421904059851E-002  0.26536583704989447        0.0000000000000000     
  -8.8698874528301497E-002  0.23107514076612609        0.0000000000000000     
  -8.9328942771475628E-002  0.23949328579137186        0.0000000000000000     
  -8.9858210069758804E-002  0.24803686684277507        0.0000000000000000     
  -9.0286676423151052E-002  0.25670588392033566        0.0000000000000000     
  -9.0614341831652345E-002  0.26550033702405368        0.0000000000000000     
  -9.6599397008476820E-002  0.23128172567734334        0.0000000000000000     
  -9.7327090549781572E-002  0.23968007959883220        0.0000000000000000     
  -9.7964435396764346E-002  0.24820651168815525        0.0000000000000000     
  -9.8511431549425127E-002  0.25686102194531263        0.0000000000000000     
  -9.8968079007763915E-002  0.26564361037030426        0.0000000000000000     
 -0.10467031102082404       0.23152562805376564        0.0000000000000000     
 -0.10549950260576738       0.23990629367328437        0.0000000000000000     
 -0.10626562020267694       0.24841152038560405        0.0000000000000000     
 -0.10696866381155264       0.25704130819072468        0.0000000000000000     
 -0.10760863343239456       0.26579565708864633        0.0000000000000000     
 -0.11291161656534313       0.23180684789539296        0.0000000000000000     
 -0.11384617893943305       0.24017192801472853        0.0000000000000000     
 -0.11476176448749655       0.24865189293512147        0.0000000000000000     
 -0.11565837320953361       0.25724674265657188        0.0000000000000000     
 -0.11653600510554424       0.26595647717907966        0.0000000000000000     
  -8.2547421904059851E-002  0.26536583704989447        0.0000000000000000     
  -8.2744969973052279E-002  0.27429877082382803        0.0000000000000000     
  -8.2925997977111324E-002  0.28340105160965717        0.0000000000000000     
  -8.3090505916236998E-002  0.29267267940738179        0.0000000000000000     
  -8.3238493790429247E-002  0.30211365421700198        0.0000000000000000     
  -9.0614341831652345E-002  0.26550033702405368        0.0000000000000000     
  -9.0871513335297777E-002  0.27448322521457191        0.0000000000000000     
  -9.1088497974122370E-002  0.28371754755253292        0.0000000000000000     
  -9.1265295748126168E-002  0.29320330403793693        0.0000000000000000     
  -9.1401906657309115E-002  0.30294049467078382        0.0000000000000000     
  -9.8968079007763915E-002  0.26564361037030426        0.0000000000000000     
  -9.9345363735801148E-002  0.27465253243985266        0.0000000000000000     
  -9.9654271697557237E-002  0.28398604363068031        0.0000000000000000     
  -9.9894802893032209E-002  0.29364414394278698        0.0000000000000000     
 -0.10006695732222606       0.30362683337617291        0.0000000000000000     
 -0.10760863343239456       0.26579565708864633        0.0000000000000000     
 -0.10816652117456238       0.27480669249967055        0.0000000000000000     
 -0.10862331914741591       0.28420653984409916        0.0000000000000000     
 -0.10897902735095515       0.29399519912193206        0.0000000000000000     
 -0.10923364578518009       0.30417267033316941        0.0000000000000000     
 -0.11653600510554424       0.26595647717907966        0.0000000000000000     
 -0.11733498565158150       0.27494570539402541        0.0000000000000000     
 -0.11799564032369840       0.28437903619278959        0.0000000000000000     
 -0.11851796912189498       0.29425646957537210        0.0000000000000000     
 -0.11890197204617123       0.30457800554177306        0.0000000000000000     
 </DataArray>
 <DataArray  type="Float64" Name="stress" NumberOfComponents="3" format="ascii">
   4439292195.3885746       -434858101.13872862       -1428597644.4167438     
   4567833299.7944021       -345680545.66917253       -1016285154.9930975     
   4696703070.0724010       -255407437.29238105       -698266945.38635421     
   4825901506.2225618       -164038776.00837660       -474543015.59652466     
   4955428608.2448721       -71574561.817202330       -345113365.62360436     
   5199739294.1006994       -102846869.28509808       -801778199.70545816     
   5102650158.5378637       -84960371.739432573       -523653411.99426347     
   5006047815.3073921       -65451233.085918427       -308344284.92115819     
   4909932264.4092655       -44319453.324575186       -155850818.48613068     
   4814303505.8434839       -21565032.455415964       -66173012.689192571     
   5530464406.3713894        100247766.63610888       -176436374.63439137     
   5297683942.7793951        73824879.839722157       -32314807.765441243     
   5065548397.9799547        49551722.351808786        80469717.644256085     
   4834057771.9730520        27428294.172353983        161917201.59469968     
   4603212064.7586784        7454595.3013620377        212027644.08588025     
   5431467532.2006388        174425806.62487674        447427830.79644001     
   5152934652.5190010        130675209.06829453        457730657.69337881     
   4875204818.0900927        89601429.020811796        468175062.30988830     
   4598278028.9139042        51204466.482408047        478761044.64596200     
   4322154284.9904470        15484321.453103781        489488604.70160782     
   4902748671.5884819        119687250.68122602        1069814416.5870397     
   4668402287.7566833        85590615.946288347        946482984.38218963     
   4435017075.6378031        54697886.921076298        854771749.07572651     
   4202593035.2318363        27009063.605581760        794680710.66765952     
   3971130166.5387912        2524145.9998250008        766209869.15798211     
   4955428608.2448721       -71574561.817202330       -345113365.62360436     
   4824404566.2579851       -56883716.823224306       -278295635.47898161     
   4693310302.7981825       -42426943.405616045       -219648063.18232566     
   4562145817.8654833       -28204241.564342022       -169170648.73362055     
   4430911111.4598799       -14215611.299405813       -126863392.13288869     
   4814303505.8434839       -21565032.455415964       -66173012.689192571     
   4664776821.5733328       -14568311.693354368       -22068547.728414632     
   4515034780.7538223       -8289446.0958106518        17748840.454413880     
   4365077383.3849497       -2728435.6628286839        53279151.859287843     
   4214904629.4667211        2114719.6056482792        84522386.486208543     
   4603212064.7586784        7454595.3013620377        212027644.08588025     
   4446277255.5481548        10085547.034385681        233249519.60694882     
   4288981954.7118201        11514860.014700651        254067399.42007416     
   4131326162.2496662        11742534.242286205        274481283.52525181     
   3973309878.1616964        10768569.717155933        294491171.92249775     
   4322154284.9904470        15484321.453103781        489488604.70160782     
   4168905868.1824493        17077859.359979868        487658566.52709049     
   4015151824.6721678        16985974.925917387        489307613.71465176     
   3860892154.4596252        15208668.150973797        494435746.26427728     
   3706126857.5448022        11745939.035109997        503042964.17597669     
   3971130166.5387912        2524145.9998250008        766209869.15798211     
   3832662659.4761901        6408625.2833702564        741158593.03203130     
   3693544390.6348681        8123898.6378402710        723469483.33815503     
   3553775360.0148201        7669966.0632143021        713142540.07635796     
   3413355567.6160364        5046827.5594921112        710177763.24664950     
   4430911111.4598799       -14215611.299405813       -126863392.13288869     
   4254262505.8984785       -13269208.111124516       -112543060.28168818     
   4078067820.2738075       -10809738.467098236       -98197536.789042994     
   3902327054.5858412       -6837202.3673720360       -83826821.654951856     
   3727040208.8345804       -1351599.8119735718       -69430914.879398122     
   4214904629.4667211        2114719.6056482792        84522386.486208543     
   4039054324.9330511       -269863.94687366486        91126321.956344411     
   3863732910.8148508       -891479.44782638550        99087832.746542290     
   3688940387.1121492        249873.10287284851        108406918.85680923     
   3514676753.8249326        3154193.7051911354        119083580.28714329     
   3973309878.1616964        10768569.717155933        294491171.92249775     
   3802064685.1660666        6195042.5768632889        293466176.57013214     
   3631423353.0647073        3634385.0841174126        295131140.21645772     
   3461385881.8575993        3086597.2388808727        299486062.86146688     
   3291952271.5447512        4551679.0411825180        306530944.50515759     
   3706126857.5448022        11745939.035109997        503042964.17597669     
   3543293586.5975671        6125511.4601757526        494476503.55969107     
   3381139147.0233641        2767855.1286873817        489932385.62070274     
   3219663538.8221855        1672970.0406196117        489410610.35902083     
   3058866761.9940491        2840856.1960109472        492911177.77464056     
   3413355567.6160364        5046827.5594921112        710177763.24664950     
   3262741029.2275262       -478457.29697895050        694157302.92500639     
   3112880292.6908216       -3491069.3141041994        683491568.95928049     
   2963773358.0059185       -3991008.4918864965        678180561.34947634     
   2815420225.1728272       -1978274.8302997351        678224280.09559059     
   3727040208.8345804       -1351599.8119735718       -69430914.879398122     
   3549029439.1794243        2056635.6317360401       -61740680.779427573     
   3369733855.1212721        1182156.3987684250       -48627157.947825134     
   3189153456.6601315       -3975037.5108097792       -30090346.384616427     
   3007288243.7959814       -13414946.097097516       -6130246.0898040077     
   3514676753.8249326        3154193.7051911354        119083580.28714329     
   3350379499.4295211        8310629.7561891079        121455116.57903469     
   3185066894.2545676        10082563.208723545        128548791.12205046     
   3018738938.3000546        8469994.0627205372        140364603.91617784     
   2851395631.5659966        3472922.3182250261        156902554.96143472     
   3291952271.5447512        4551679.0411825180        306530944.50515759     
   3139365245.3219495        10855329.573344946        303898157.21631891     
   2986032331.9430523        14672689.585180759        305286357.69810802     
   2831953531.4080472        16003759.076664567        310695545.95051306     
   2677128843.7169447        14848538.047820568        320125721.97352725     
   3058866761.9940491        2840856.1960109472        492911177.77464056     
   2915986676.8567271        9690735.0832172632        485588441.13242859     
   2772630168.1867471        14952535.528228283        481585541.78033656     
   2628797235.9841142        18626257.531054854        480902479.71836764     
   2484487880.2488251        20711901.091699243        483539254.94652718     
   2815420225.1728272       -1978274.8302997351        678224280.09559059     
   2680243794.0338426        4816846.2857843637        666525968.32735574     
   2544860402.9856510        10922101.037841082        657446343.36875284     
   2409270052.0282474        16337489.425858617        650985405.21977270     
   2273472741.1616383        21063011.449857831        647143153.88041735     
   3007288243.7959814       -13414946.097097516       -6130246.0898040077     
   2850908340.6811380       -15611371.404732823       -2089589.8960226178     
   2695548124.7300873       -14408839.499712586       -165360.75370793696     
   2541207595.9428082       -9807350.3821160793       -357558.66282025306     
   2387886754.3193221       -1806904.0518991947       -2666183.6233762195     
   2851395631.5659966        3472922.3182250261        156902554.96143472     
   2691191471.4566827        159287.65599679947        156297551.01720718     
   2531700481.7499027       -777112.33110070229        155125055.51819044     
   2372922662.4456654        663722.35693526268        153385068.46440241     
   2214858013.5439525        4481791.7200325727        151077589.85583031     
   2677128843.7169447        14848538.047820568        320125721.97352725     
   2517525956.6036139        11745353.028142214        314517455.00319266     
   2358329723.1315665        9997680.1460776329        309890631.97472262     
   2199540143.3008041        9605519.4016308784        306245252.88812900     
   2041157217.1113267        10568870.794794083        303581317.74341214     
   2484487880.2488251        20711901.091699243        483539254.94652718     
   2329911796.1219378        19146824.711718798        472570122.06194693     
   2175435848.8750787        17915537.931831002        464131368.61589146     
   2021060038.5082481        17018040.752051234        458222994.60837620     
   1866784365.0214555        16454333.172371745        454845000.03938907     
   2273472741.1616383        21063011.449857831        647143153.88041735     
   2128348990.0116394        22363702.706688523        630455552.19345999     
   1983018858.9804184        22976461.026107669        617847265.44170105     
   1837482348.0679891        22901286.408164501        609318293.62512970     
   1691739457.2743270        22138178.852785826        604868636.74374771     
   2387886754.3193221       -1806904.0518991947       -2666183.6233762195     
   2246353251.4860954        6290842.5159556866       -8220779.5587899787     
   2101532653.9729629        3431606.8174898624       -11949619.874540573     
   1953424961.7799361       -10384611.147316337       -13852704.570656186     
   1802030174.9070222       -35157811.378390908       -13930033.647103511     
   2214858013.5439525        4481791.7200325727        151077589.85583031     
   2076908002.9611480        12077260.563327551        141696678.37606698     
   1936756695.3721676        12335072.719353199        133362454.02113789     
   1794404090.7770209        5255228.1881716251        126074916.79099563     
   1649850189.1757073       -9162273.0302548409        119834066.68566710     
   2041157217.1113267        10568870.794794083        303581317.74341214     
   1904564788.7936594        16994288.917897105        291640854.67201805     
   1766856861.1435506        19701375.932870150        279968010.23056906     
   1628033434.1609969        18690131.839687049        268562784.41907728     
   1488094507.8460016        13960556.638370574        257425177.23754218     
   1866784365.0214555        16454333.172371745        454845000.03938907     
   1729323608.9836392        21041927.579727054        441611749.32900941     
   1591833151.2871144        25530516.458027780        427867048.75374842     
   1454312991.9318724        29920099.807278872        413610898.31358737     
   1316763130.9179103        34210677.627463698        398843298.00852716     
   1691739457.2743270        22138178.852785826        604868636.74374771     
   1551184463.5310884        24220176.548804581        591609362.34708464     
   1411685565.8028600        29822494.294851720        577059569.59067273     
   1273242764.0896459        38945132.090949774        561219258.47452378     
   1135856058.3914382        51588089.937069237        544088428.99864161     
   1802030174.9070222       -35157811.378390908       -13930033.647103511     
   1771190760.9218512       -16504163.051830411       -8334241.2826729137     
   1748425410.8636694        29063031.698049664       -41513874.079211436     
   1733734124.7324257        101543772.87104511       -113468932.03669602     
   1727116902.5281515        200938060.46727294       -224199415.15514457     
   1649850189.1757073       -9162273.0302548409        119834066.68566710     
   1527301616.0114136       -13983993.772597730        135435302.63691381     
   1408928525.7510688       -4887438.1684488058        124683849.55031024     
   1294730918.3946609        18127393.782154262        87579707.425862148     
   1184708793.9422133        55060502.079300523        24122876.263567615     
   1488094507.8460016        13960556.638370574        257425177.23754218     
   1309330307.2828894       -3688473.6388575435        278483512.24875528     
   1130843008.6007171       -20414497.646274209        285611894.34523946     
   952632611.79946446       -36217515.383966744        278810323.52699190     
   774699116.87916243       -51097526.851818889        258078799.79398152     
   1316763130.9179103        34210677.627463698        398843298.00852716     
   1117276834.7363057        14382397.349491477        420810387.55286425     
   914168859.41262078       -17518146.735408902        441270260.30556649     
   707439204.94684231       -61490954.627301872        460222916.26665074     
   497087871.33899426       -117536026.32609355        477668355.43611187     
   1135856058.3914382        51588089.937069237        544088428.99864161     
   951141198.37165749        40228619.192431092        562415928.54922795     
   758906078.18677640        3801614.5641203821        591658947.43130910     
   559150697.83679271       -57692923.947858185        631817485.64487851     
   351875057.32171905       -144254996.34348032        682891543.18994260     
   1727116902.5281515        200938060.46727294       -224199415.15514457     
   1456638202.0965741        184627981.82585078       -96619191.783501402     
   1153989224.9230278        61083647.377865255        60128530.488292076     
   819169971.00745440       -169694942.87686592        246043751.66026914     
   452180440.34991825       -507707788.93816185        461126471.73240674     
   1184708793.9422133        55060502.079300523        24122876.263567615     
   977653269.64488363        11849944.440896690        155542463.96867114     
   732773704.65324199       -157440748.84521422        312789414.18385440     
   450070098.96729064       -452811577.77899647        495863726.90913397     
   129542452.58701932       -874262542.36054480        704765402.14449584     
   774699116.87916243       -51097526.851818889        258078799.79398152     
   621523521.88728786       -124071537.53583559        386741693.88817197     
   424870122.24877703       -341971563.70863408        537891814.10236514     
   184738917.96361768       -704797605.37024713        711529160.43657970     
  -98870090.968156755       -1212549662.5206108        907653732.89080334     
   497087871.33899426       -117536026.32609355        477668355.43611187     
   388248958.82378441       -223136464.10436350        596978497.97499788     
   230278477.70962122       -492508797.21247947        735435730.24381423     
   23176427.996488929       -925653025.65048754        893040052.24259996     
  -233057190.31560558       -1522569149.4183586        1069791463.9712869     
   351875057.32171905       -144254996.34348032        682891543.18994260     
   277829580.45437813       -285344835.26464224        786252876.22915339     
   148998771.03575334       -609052449.35675025        905421162.60824120     
  -34617370.934148192       -1115377838.6198001        1040396402.3271772     
  -273018845.45534074       -1804321003.0537922        1191178595.3859811     
   4902748671.5884819        119687250.68122602        1069814416.5870397     
   4668402287.7566833        85590615.946288347        946482984.38218963     
   4435017075.6378031        54697886.921076298        854771749.07572651     
   4202593035.2318363        27009063.605581760        794680710.66765952     
   3971130166.5387912        2524145.9998250008        766209869.15798211     
   4225708348.4482942        30932311.658923149        1050781260.2863358     
   4067778833.6275263        17589825.021077156        967956502.81440091     
   3910553199.3180318        6593606.7541403770        907504336.58400655     
   3754031445.5198088       -2056343.1418993473        869424761.59515083     
   3598213572.2328548       -8360024.6670281887        853717777.84782028     
   3674837159.8716445       -19971886.994315147        1031063224.1329080     
   3566902783.6137476       -20486744.669519663        988444968.32532179     
   3459414996.6654787       -19512971.312633276        958951698.10240281     
   3352373799.0268312       -17050566.923665285        942583413.46416235     
   3245779190.6978140       -13099531.502609372        939340114.41060102     
   3250135105.8585496       -33025345.278488636        1010660308.1267788     
   3165774137.7153540       -28639093.125502348        1007948380.9149326     
   3081602467.6801400       -23621847.279244304        1009113833.6309088     
   2997620095.7529082       -17973607.739719510        1014156666.2747053     
   2913827021.9336534       -11694374.506926537        1023076878.8463198     
   2951602186.4090052       -8228063.1935969591        989572512.26792514     
   2864392895.9323444       -6867220.3468682766        1026466740.5832467     
   2777115612.3620253       -5733021.1456841230        1057990743.1695288     
   2689770335.6980410       -4825465.5900503397        1084144520.0267713     
   2602357065.9403882       -4144553.6799749136        1104928071.1549788     
   3971130166.5387912        2524145.9998250008        766209869.15798211     
   3832662659.4761901        6408625.2833702564        741158593.03203130     
   3693544390.6348681        8123898.6378402710        723469483.33815503     
   3553775360.0148201        7669966.0632143021        713142540.07635796     
   3413355567.6160364        5046827.5594921112        710177763.24664950     
   3598213572.2328548       -8360024.6670281887        853717777.84782028     
   3477637370.9208164       -3595629.9480168819        834653250.13078249     
   3356684041.6150818       -88328.541321277618        821786041.45851982     
   3235353584.3156624        2161879.5530892611        815116151.83103895     
   3113645999.0225482        3154994.3351850510        814643581.24833417     
   3245779190.6978140       -13099531.502609372        939340114.41060102     
   3139766159.7440329       -8453661.9658404589        926581574.51835096     
   3033649634.5816016       -4152773.1245810986        918855506.28357899     
   2927429615.2105136       -196864.97883284092        916161909.70628345     
   2821106101.6307731        3414062.4713968039        918500784.78646493     
   2913827021.9336534       -11694374.506926537        1023076878.8463198     
   2819049025.9458456       -8165470.7700766325        1016943566.1947361     
   2724441169.5344176       -4069435.1119585037        1014677877.8133290     
   2630003452.6993756        593732.46744799614        1016279813.7021010     
   2535735875.4407115        5824031.9681202173        1021749373.8610396     
   2602357065.9403882       -4144553.6799749136        1104928071.1549788     
   2515485969.5262547       -2731056.3607374430        1105739225.1599462     
   2429058646.4735408        161685.49656677246        1109253156.0477748     
   2343075096.7822447        4533671.8919298649        1115469863.8184845     
   2257535320.4523687        10384902.825359106        1124389348.4720592     
   3413355567.6160364        5046827.5594921112        710177763.24664950     
   3262741029.2275262       -478457.29697895050        694157302.92500639     
   3112880292.6908216       -3491069.3141041994        683491568.95928049     
   2963773358.0059185       -3991008.4918864965        678180561.34947634     
   2815420225.1728272       -1978274.8302997351        678224280.09559059     
   3113645999.0225482        3154994.3351850510        814643581.24833417     
   2977219025.9765038        39462.423969149590        801734338.21846890     
   2841371710.3522120       -1143878.0814092159        793827783.80105782     
   2706104052.1496720       -395027.18094599247        790923917.99610925     
   2571416051.3688898        2286015.1253728867        793022740.80361640     
   2821106101.6307731        3414062.4713968039        918500784.78646493     
   2697860871.8030195        2406536.8681778908        908499590.54664874     
   2575021154.9669600        2750721.2372901440        903149047.17583025     
   2452586951.1226072        4446615.5787459612        902449154.67400408     
   2330558260.2699590        7494219.8925460577        906399913.04117417     
   2535735875.4407115        5824031.9681202173        1021749373.8610396     
   2424666566.7070689        6622766.0356457233        1014453059.9095504     
   2313828626.5350790        8192728.6420139074        1011455359.0835901     
   2203222054.9247303        10533919.787192106        1012756271.3831654     
   2092846851.8760371        13646339.471222758        1018355796.8082741     
   2257535320.4523687        10384902.825359106        1124389348.4720592     
   2157636110.6886601        12688149.926380992        1119594746.3071654     
   2057794125.0565464        15182144.132718921        1118746719.5243402     
   1958009363.5560346        17866885.444394708        1121845268.1235921     
   1858281826.1871233        20742373.861401796        1128890392.1049087     
   2815420225.1728272       -1978274.8302997351        678224280.09559059     
   2680243794.0338426        4816846.2857843637        666525968.32735574     
   2544860402.9856510        10922101.037841082        657446343.36875284     
   2409270052.0282474        16337489.425858617        650985405.21977270     
   2273472741.1616383        21063011.449857831        647143153.88041735     
   2571416051.3688898        2286015.1253728867        793022740.80361640     
   2443215119.9426908        7636471.2657898664        782475882.30632603     
   2314911427.5965381        12644391.006359696        775009490.23439622     
   2186504974.3304338        17309774.347087383        770623564.58783710     
   2057995760.1443753        21632621.287977099        769318105.36662829     
   2330558260.2699590        7494219.8925460577        906399913.04117417     
   2210652198.8872218        11795822.156500220        897126073.30229497     
   2090747575.5737870        16102217.984800935        891394479.60451066     
   1970844390.3296561        20413407.377437115        889205131.94783258     
   1850942643.1548219        24729390.334415913        890558030.33224273     
   2092846851.8760371        13646339.471222758        1018355796.8082741     
   1982555030.8674366        17294898.957919002        1010476541.3152663     
   1872368846.9173913        21295581.973135114        1006601311.4790946     
   1762288300.0259087        25648388.516894221        1006730107.2997545     
   1652313390.1929798        30353318.589174747        1010862928.7772540     
   1858281826.1871233        20742373.861401796        1128890392.1049087     
   1758923615.8833292        24133701.670031071        1122527286.3452392     
   1659775241.6273556        28224482.971387327        1120629985.8581402     
   1560836703.4191959        33014717.765459180        1123198490.6436145     
   1462108001.2588453        38504406.052232623        1130232800.7016556     
   2273472741.1616383        21063011.449857831        647143153.88041735     
   2128348990.0116394        22363702.706688523        630455552.19345999     
   1983018858.9804184        22976461.026107669        617847265.44170105     
   1837482348.0679891        22901286.408164501        609318293.62512970     
   1691739457.2743270        22138178.852785826        604868636.74374771     
   2057995760.1443753        21632621.287977099        769318105.36662829     
   1923535707.8853602        23816606.692657232        755302596.96483779     
   1788945267.0203671        25565963.410755038        745206781.81756806     
   1654224437.5494084        26880691.442295611        739030659.92482495     
   1519373219.4724739        27760790.787248671        736774231.28659356     
   1850942643.1548219        24729390.334415913        890558030.33224273     
   1726690227.8420103        27659851.303514600        879303271.70341134     
   1602383415.1984675        30408987.836853683        871808584.64842367     
   1478022205.2242033        32976799.934445620        868073969.16728020     
   1353606597.9192138        35363287.596289456        868099425.25998652     
   1652313390.1929798        30353318.589174747        1010862928.7772540     
   1537812549.8815894        33893436.539252281        1002457576.4091599     
   1423333303.5147164        37505534.304387271        997652673.93424463     
   1308875651.0923705        41189611.884617507        996448221.35250175     
   1194439592.6145408        44945669.279902995        998844218.66393578     
   1462108001.2588453        38504406.052232623        1130232800.7016556     
   1356902674.0040972        42517362.399855316        1124765511.0820982     
   1251794931.9691186        46855602.813376963        1122739049.6750388     
   1146784775.1539032        51519127.292778254        1124153416.4804852     
   1041872203.5584608        56507935.838101208        1129008611.4984293     
   1691739457.2743270        22138178.852785826        604868636.74374771     
   1551184463.5310884        24220176.548804581        591609362.34708464     
   1411685565.8028600        29822494.294851720        577059569.59067273     
   1273242764.0896459        38945132.090949774        561219258.47452378     
   1135856058.3914382        51588089.937069237        544088428.99864161     
   1519373219.4724739        27760790.787248671        736774231.28659356     
   1376825760.4569514        26492336.701323152        727489375.85519433     
   1234514394.7841074        26010860.424326658        718735554.36992288     
   1092439122.4539602        26316361.956329763        710512766.83076823     
   950599943.46650541        27408841.297285140        702821013.23774517     
   1353606597.9192138        35363287.596289456        868099425.25998652     
   1214271108.7910209        32305712.276293814        861832319.00947881     
   1074351710.3331940        27301772.524167478        857917799.01095951     
   933848402.54573774        20351468.339949012        856355865.26444042     
   792761185.42864215        11454799.723601967        857146517.76990032     
   1194439592.6145408        44945669.279902995        998844218.66393578     
   1063520508.5333028        41660303.273726404        994638191.80993176     
   931197512.45011532        33695230.594364941        994606303.51379526     
   797470604.36495900        21050451.241794586        998748553.77551723     
   662339784.27784812        3725965.2160329819        1007064942.5951024     
   1041872203.5584608        56507935.838101208        1129008611.4984293     
   924573959.68380475        54556109.693635106        1125906994.2565579     
   805051801.13486362        45191234.634888828        1128801067.8784266     
   683305727.91165304        28413310.661909878        1137690832.3640132     
   559335740.01415110        4222337.7746263444        1152576287.7133386     
   1135856058.3914382        51588089.937069237        544088428.99864161     
   951141198.37165749        40228619.192431092        562415928.54922795     
   758906078.18677640        3801614.5641203821        591658947.43130910     
   559150697.83679271       -57692923.947858185        631817485.64487851     
   351875057.32171905       -144254996.34348032        682891543.18994260     
   950599943.46650541        27408841.297285140        702821013.23774517     
   791519505.58261979        10571819.803927243        720889361.20386398     
   623791684.35689807       -35089812.828879118        749025026.26965773     
   447416479.78933704       -109576056.60116109        787228008.43512344     
   262393891.87993836       -212886911.51289612        835498307.70026219     
   792761185.42864215        11454799.723601967        857146517.76990032     
   656891734.73261178       -11586803.002879351        873640737.11201644     
   511247777.51800656       -67210094.124610007        899354071.32198584     
   355829313.78482515       -155415073.64160106        934286520.39982140     
   190636343.53306249       -276201741.55385041        978438084.34551013     
   662339784.27784812        3725965.2160329819        1007064942.5951024     
   547257885.82164383       -26247249.227964729        1020670056.2736801     
   421274357.67010981       -92559229.323045403        1042646082.5883008     
   284389199.82327330       -195209975.06914291        1072993021.5389659     
   136602412.28110760       -334199486.46633673        1111710873.1256778     
   559335740.01415110        4222337.7746263444        1152576287.7133386     
   462617958.84970784       -33409518.871343851        1161977318.6888535     
   353871424.81322336       -111137218.42412943        1178901060.0685964     
   233096137.90466928       -228960760.88381338        1203347511.8525732     
   100292098.12407005       -386880146.25031459        1235316674.0407720     
   351875057.32171905       -144254996.34348032        682891543.18994260     
   277829580.45437813       -285344835.26464224        786252876.22915339     
   148998771.03575334       -609052449.35675025        905421162.60824120     
  -34617370.934148192       -1115377838.6198001        1040396402.3271772     
  -273018845.45534074       -1804321003.0537922        1191178595.3859811     
   262393891.87993836       -212886911.51289612        835498307.70026219     
   223658971.79238763       -352516833.04979086        884906462.98225832     
   140688775.50491449       -639597675.25309396        945332727.66632760     
   13483303.017490745       -1074129438.1229014        1016777101.7524617     
  -157957445.66987079       -1656112121.6591630        1099239585.2406728     
   190636343.53306249       -276201741.55385041        978438084.34551013     
   173529568.97448611       -418476469.08168942        986201460.94685102     
   122737574.56732118       -673035262.77148473        1000194103.0124762     
   38260360.311557472       -1039878122.6232783        1020416010.5423737     
  -79902073.792799652       -1519005048.6370397        1046867183.5365629     
   136602412.28110760       -334199486.46633673        1111710873.1256778     
   127441372.00067347       -483223743.36034632        1090137870.1229408     
   95145168.222969294       -709365211.91191268        1070005288.6466933     
   39713800.948039174       -1012623892.1209353        1051313128.6969292     
  -38852729.824155629       -1392999783.9874449        1034061390.2736645     
   100292098.12407005       -386880146.25031459        1235316674.0407720     
   85394380.870920479       -546758655.88584542        1196715690.5105276     
   57911556.471884400       -748587522.67432559        1154766284.5689707     
   17843624.926934481       -992366746.61586273        1109468456.2161145     
  -34809413.763915658       -1278096327.7103844        1060822205.4519645     
   2951602186.4090052       -8228063.1935969591        989572512.26792514     
   2864392895.9323444       -6867220.3468682766        1026466740.5832467     
   2777115612.3620253       -5733021.1456841230        1057990743.1695288     
   2689770335.6980410       -4825465.5900503397        1084144520.0267713     
   2602357065.9403882       -4144553.6799749136        1104928071.1549788     
   2687587349.1287227        25886075.811739087        1124812566.8736320     
   2589342943.9854283        19310949.568076968        1144006824.1754439     
   2491192691.0624771        13049664.058899760        1161914134.9451253     
   2393136590.3598690        7102219.2841951847        1178534499.1826775     
   2295174641.8776026        1468615.2439681292        1193867916.8880935     
   2367124311.5555191        43065754.729198694        1258179023.3703730     
   2269511303.7367444        32054612.992492676        1259862479.1916897     
   2172154593.4523239        21897796.370296836        1264342267.6777790     
   2075054180.7022543        12595304.862603068        1271618388.8286450     
   1978210065.4865386        4147138.4694224596        1281690842.6442823     
   1990213073.6893911        43310973.558781862        1389671881.7581439     
   1904897975.1863012        31363769.926378489        1374033705.6319766     
   1820001319.5315721        20811375.788516879        1365275141.3674834     
   1735523106.7252035        11653791.145187497        1363396188.9646749     
   1651463336.7671938        3891015.9963933229        1368396848.4235477     
   1556853635.5303392        26621732.300486088        1519291142.0369534     
   1495502958.3340936        17238420.369738340        1486520503.4963045     
   1434732869.3002174        9790402.3135561347        1464712756.0142441     
   1374543368.4287090        4277678.1319348216        1453867899.5907691     
   1314934455.7195721        700247.82488125563        1453985934.2258825     
   2602357065.9403882       -4144553.6799749136        1104928071.1549788     
   2515485969.5262547       -2731056.3607374430        1105739225.1599462     
   2429058646.4735408        161685.49656677246        1109253156.0477748     
   2343075096.7822447        4533671.8919298649        1115469863.8184845     
   2257535320.4523687        10384902.825359106        1124389348.4720592     
   2295174641.8776026        1468615.2439681292        1193867916.8880935     
   2215888436.9896221        2099157.4147524834        1192018486.8237684     
   2136944183.0457294        3869536.0658358335        1193481493.7770972     
   2058341880.0459306        6779751.1972317696        1198256937.7480838     
   1980081527.9902179        10829802.808911443        1206344818.7367268     
   1978210065.4865386        4147138.4694224596        1281690842.6442823     
   1908250638.2240987        4517291.3215782642        1277062035.6904478     
   1838531339.4884193        5687872.5962681770        1276355325.8890557     
   1769052169.2795026        7658882.2934992313        1279570713.2401056     
   1699813127.5973415        10430320.413252592        1286708197.7435987     
   1651463336.7671938        3891015.9963933229        1368396848.4235477     
   1592572573.2296846        4523345.3597334623        1360869871.7599847     
   1533820115.8016038        5616695.0878424048        1357874652.3836510     
   1475205964.4829581        7171065.1807318330        1359411190.2945445     
   1416730119.2737374        9186455.6383704543        1365479485.4926705     
   1314934455.7195721        700247.82488125563        1453985934.2258825     
   1268854242.0063782        2117319.5292227864        1443441995.0323768     
   1222810511.9852877        3656003.5405747294        1438039473.2608829     
   1176803265.6562967        5316299.8589248061        1437778368.9114037     
   1130832503.0194068        7098208.4842771292        1442658681.9839425     
   2257535320.4523687        10384902.825359106        1124389348.4720592     
   2157636110.6886601        12688149.926380992        1119594746.3071654     
   2057794125.0565464        15182144.132718921        1118746719.5243402     
   1958009363.5560346        17866885.444394708        1121845268.1235921     
   1858281826.1871233        20742373.861401796        1128890392.1049087     
   1980081527.9902179        10829802.808911443        1206344818.7367268     
   1890584892.6522846        12187285.279661298        1200823445.3343804     
   1801193547.5859036        13895735.322246432        1199575730.2536943     
   1711907492.7910802        15955152.936686158        1202601673.4946799     
   1622726728.2678041        18365538.122963667        1209901275.0573213     
   1699813127.5973415        10430320.413252592        1286708197.7435987     
   1621653589.3697379        11122395.059096038        1280516130.2670798     
   1543647407.5536399        12325657.743290961        1278924804.0518169     
   1465794582.1490560        14040108.465863168        1281934219.0978141     
   1388095113.1559732        16265747.226785541        1289544375.4050691     
   1416730119.2737374        9186455.6383704543        1365479485.4926705     
   1350842200.8410120        9493479.2646658421        1358672801.1052566     
   1285155704.9597504        10471911.395846188        1356793940.9187024     
   1219670631.6299543        12121752.031903744        1359842904.9329970     
   1154386980.8516221        14443001.172851384        1367819693.1481421     
   1130832503.0194068        7098208.4842771292        1442658681.9839425     
   1078150727.0661139        7300537.8963989019        1435293457.8489270     
   1025718439.8042356        8334496.2799046040        1433183140.8543553     
   973535641.23378706        10200083.634840667        1436327731.0002298     
   921602331.35475206        12897299.961154819        1444727228.2865498     
   1858281826.1871233        20742373.861401796        1128890392.1049087     
   1758923615.8833292        24133701.670031071        1122527286.3452392     
   1659775241.6273556        28224482.971387327        1120629985.8581402     
   1560836703.4191959        33014717.765459180        1123198490.6436145     
   1462108001.2588453        38504406.052232623        1130232800.7016556     
   1622726728.2678041        18365538.122963667        1209901275.0573213     
   1535038637.6306388        21661719.049336851        1204124513.1613767     
   1447534043.6939621        25569555.644006431        1202880918.0938599     
   1360212946.4577713        30089047.906962514        1206170489.8547764     
   1273075345.9220650        35220195.838194430        1213993228.4441216     
   1388095113.1559732        16265747.226785541        1289544375.4050691     
   1312269603.7736015        19524519.747346759        1284323228.1342967     
   1236601251.7443867        23307150.111767590        1283702609.2478135     
   1161090057.0683322        27613638.320058286        1287682518.7456214     
   1085736019.7454386        32443984.372212350        1296262956.6277220     
   1154386980.8516221        14443001.172851384        1367819693.1481421     
   1090616514.3122113        17722103.764043272        1363123431.2639949     
   1026976865.7786312        21437266.374676526        1363095059.3200004     
   963468035.25088513        25588489.004756510        1367734577.3161581     
   900090022.72897172        30175771.654273212        1377041985.2524538     
   921602331.35475206        12897299.961154819        1444727228.2865498     
   870079369.24647152        16254471.099438250        1440525122.5504794     
   818660885.79669714        19959904.432735145        1441058268.3104246     
   767346881.00542688        24013599.961049050        1446326665.5663731     
   716137354.87266207        28415557.684381217        1456330314.3183334     
   1462108001.2588453        38504406.052232623        1130232800.7016556     
   1356902674.0040972        42517362.399855316        1124765511.0820982     
   1251794931.9691186        46855602.813376963        1122739049.6750388     
   1146784775.1539032        51519127.292778254        1124153416.4804852     
   1041872203.5584608        56507935.838101208        1129008611.4984293     
   1273075345.9220650        35220195.838194430        1213993228.4441216     
   1177205035.5789552        38005586.020941913        1209465100.0010955     
   1081331924.2675021        40781639.642533600        1208960210.0848794     
   985456011.98767865        43548356.702896535        1212478558.6954627     
   889577298.73950648        46305737.202096522        1220020145.8328750     
   1085736019.7454386        32443984.372212350        1296262956.6277220     
   1000864755.7834272        34501017.230926037        1292556872.1417506     
   915890304.66493952        36214092.901379704        1293456436.4968939     
   830812666.38997221        37583211.383570164        1298961649.6931608     
   745631840.95852590        38608372.677497327        1309072511.7305388     
   900090022.72897172        30175771.654273212        1377041985.2524538     
   827881834.61750782        32003656.029786110        1374040827.5040646     
   755470073.16144288        33152962.589958906        1376227728.9110978     
   682854738.36077559        33623691.334793478        1383602689.4735575     
   610035830.21550763        33415842.264290154        1396165709.1914463     
   716137354.87266207        28415557.684381217        1456330314.3183334     
   658256272.08120000        30513502.417536318        1453916966.0880382     
   600071229.75700879        31598248.708255231        1457274087.3274794     
   541582227.90009701        31669796.556575090        1466401678.0366504     
   482789266.51045442        30728145.962459162        1481299738.2155681     
   1041872203.5584608        56507935.838101208        1129008611.4984293     
   924573959.68380475        54556109.693635106        1125906994.2565579     
   805051801.13486362        45191234.634888828        1128801067.8784266     
   683305727.91165304        28413310.661909878        1137690832.3640132     
   559335740.01415110        4222337.7746263444        1152576287.7133386     
   889577298.73950648        46305737.202096522        1220020145.8328750     
   787624519.06961620        43867789.644913971        1217210337.7975175     
   683450513.02970886        34025754.187680125        1220321223.9973433     
   577055280.61979222        16779630.830418169        1229352804.4323487     
   468438821.83986133       -7870580.4269025624        1244305079.1025355     
   745631840.95852590        38608372.677497327        1309072511.7305388     
   658810249.41183436        35620020.883129835        1306557649.2566748     
   569770119.79940033        25236542.202946097        1309888484.3894410     
   478511452.12121546        7457936.6369318664        1319065017.1288416     
   385034246.37728280       -17715795.814911425        1334087247.4748750     
   610035830.21550763        33415842.264290154        1396165709.1914463     
   538131150.71045947        29812803.408273578        1393948928.6340368     
   464010621.44392848        18823598.680652693        1397502849.0547194     
   387674242.41591215        448228.08141748607        1406827470.4534888     
   309122013.62642229       -25313308.389408186        1421922792.8303359     
   482789266.51045442        30728145.962459162        1481299738.2155681     
   425587222.96547824        26446137.220312119        1479384175.9295988     
   366172017.96329540        14786923.620809227        1483164317.9931750     
   304543651.50389296       -4249494.8360920697        1492640164.4062889     
   240702123.58727309       -30663118.150384903        1507811715.1689427     
   559335740.01415110        4222337.7746263444        1152576287.7133386     
   462617958.84970784       -33409518.871343851        1161977318.6888535     
   353871424.81322336       -111137218.42412943        1178901060.0685964     
   233096137.90466928       -228960760.88381338        1203347511.8525732     
   100292098.12407005       -386880146.25031459        1235316674.0407720     
   468438821.83986133       -7870580.4269025624        1244305079.1025355     
   390779494.94026577       -42025704.442412466        1242785963.3249686     
   302951030.24215961       -110077954.45295246        1247602163.6629503     
   204953427.74553192       -212027330.45856696        1258753680.1164725     
   96786687.450379744       -347873832.45926303        1276240512.6855388     
   385034246.37728280       -17715795.814911425        1334087247.4748750     
   323040818.63199961       -49411953.733110026        1323817535.8633540     
   252737868.16173744       -108806520.73457052        1318695746.0786886     
   174125394.96649104       -195899496.81931180        1318721878.1208823     
   87203399.046260238       -310690881.98733032        1323895931.9899194     
   309122013.62642229       -25313308.389408186        1421922792.8303359     
   259401929.92491764       -55568266.743441477        1405072036.3039937     
   203231938.57195157       -107322917.26900394        1392181807.3158128     
   140612039.56754887       -180577259.96603021        1383252105.8658009     
   71542232.911706969       -275331294.83451271        1378282931.9539618     
   240702123.58727309       -30663118.150384903        1507811715.1689427     
   199862828.81899339       -60494643.473465532        1486549464.6468914     
   154433241.47280577       -105627144.05624199        1468060347.3743174     
   104413361.54871902       -166060619.89868087        1452344363.3512313     
   49803189.046709701       -241795071.00086156        1439401512.5776231     
   100292098.12407005       -386880146.25031459        1235316674.0407720     
   85394380.870920479       -546758655.88584542        1196715690.5105276     
   57911556.471884400       -748587522.67432559        1154766284.5689707     
   17843624.926934481       -992366746.61586273        1109468456.2161145     
  -34809413.763915658       -1278096327.7103844        1060822205.4519645     
   96786687.450379744       -347873832.45926303        1276240512.6855388     
   79841281.414082170       -489042320.44771278        1221932501.3918669     
   51512231.023263544       -668156289.61789095        1165080069.9885225     
   11799536.277934968       -885215739.96976364        1105683218.4755132     
  -39296802.821901381       -1140220671.5033424        1043741946.8527993     
   87203399.046260238       -310690881.98733032        1323895931.9899194     
   70507453.660017282       -432460203.49876481        1255282599.5227983     
   43629326.710642815       -588170130.22063065        1184928849.2476261     
   6569018.1981544495       -777820662.15287900        1112834681.1643867     
  -40673471.877463341       -1001411799.2955601        1039000095.2731246     
   71542232.911706969       -275331294.83451271        1378282931.9539618     
   57392897.608723700       -377012305.03900379        1296765984.9033220     
   34262843.534015208       -508629044.48257858        1214312622.3462636     
   2152070.6875772774       -670181513.16524327        1130922844.2827854     
  -38939420.930602461       -861669711.08706427        1046596650.7128649     
   49803189.046709701       -241795071.00086156        1439401512.5776231     
   40497613.260226011       -322698625.06836396        1346382657.5334361     
   23412781.493387818       -429533032.40371472        1253231389.2844622     
  -1451306.2537846863       -562298293.00684655        1159947707.8306742     
  -34094649.981311381       -720994406.87782586        1066531613.1720828     
   1556853635.5303392        26621732.300486088        1519291142.0369534     
   1495502958.3340936        17238420.369738340        1486520503.4963045     
   1434732869.3002174        9790402.3135561347        1464712756.0142441     
   1374543368.4287090        4277678.1319348216        1453867899.5907691     
   1314934455.7195721        700247.82488125563        1453985934.2258825     
   1112568937.9339707        3444924.9482883811        1503467298.0257919     
   1077986918.3833957       -163265.84715479612        1482805684.4532707     
   1043840339.6700894       -2319987.1850308776        1470439734.6722252     
   1010129201.7940500       -3025239.0653510690        1466369448.6826518     
   976853504.75528133       -2279021.4881059527        1470594826.4845526     
   704998397.53350186       -8717635.2451411784        1486860632.4574494     
   689564386.29398739       -8836899.7056542635        1478138705.3071103     
   674420668.56663871       -7988519.1256129742        1475045214.6811273     
   659567244.35145688       -6172493.5050122738        1477580160.5795057     
   645004113.64844227       -3388822.8438592255        1485743543.0022407     
   334142014.32893229       -9865948.2797992826        1469471145.3319366     
   330235362.06586498       -8782481.2057713717        1472519566.0578251     
   326473855.98986477       -7215193.5081878304        1478529196.0409529     
   322857496.10092771       -5164085.1870600581        1487500035.2813299     
   319386282.39905822       -2629156.2423735410        1499432083.7789471     
  -211.67973930479201       -14.155689624147598        1451298836.6492460     
  -154.30097007799267       -10.347503943430013        1465948266.7054083     
  -98.060235160839454       -10.332768043201032        1480891678.7516999     
  -42.957536978132659       -14.111486189736624        1496129072.7881215     
   11.007126025659989       -21.683655626542127        1511660448.8146753     
   1314934455.7195721        700247.82488125563        1453985934.2258825     
   1268854242.0063782        2117319.5292227864        1443441995.0323768     
   1222810511.9852877        3656003.5405747294        1438039473.2608829     
   1176803265.6562967        5316299.8589248061        1437778368.9114037     
   1130832503.0194068        7098208.4842771292        1442658681.9839425     
   976853504.75528133       -2279021.4881059527        1470594826.4845526     
   943728522.22262096       -785669.56951189041        1462101739.7046289     
   910630903.24138820        798894.18717175722        1458415194.8228917     
   877560647.81158102        2474669.7819447517        1459535191.8393362     
   844517755.93320489        4241657.2148184180        1465461730.7539678     
   645004113.64844227       -3388822.8438592255        1485743543.0022407     
   623877575.08537042       -2106226.8742952943        1479290668.4717824     
   602769279.93304980       -762819.53555613756        1477309460.3156774     
   581679228.19148338        641399.17236003280        1479799918.5339262     
   560607419.86066902        2106429.2494512200        1486762043.1265249     
   319386282.39905822       -2629156.2423735410        1499432083.7789471     
   309301400.59462601       -1844352.3851264119        1495008781.3338354     
   299225642.06027323       -1029137.6276155710        1494722269.7392457     
   289159006.79599762       -183511.96984609962        1498572548.9951725     
   279101494.80180234        692524.58819057047        1506559619.1016252     
   11.007126025659989       -21.683655626542127        1511660448.8146753     
  -1.2496110831076734       -46.102007079101284        1509256078.2907865     
  -10.376943603846437       -60.089009557952764        1510653623.0935862     
  -16.374871902563896       -63.644664630066558        1515853083.2230778     
  -19.243397168784718       -56.768976607469575        1524854458.6792610     
   1130832503.0194068        7098208.4842771292        1442658681.9839425     
   1078150727.0661139        7300537.8963989019        1435293457.8489270     
   1025718439.8042356        8334496.2799046040        1433183140.8543553     
   973535641.23378706        10200083.634840667        1436327731.0002298     
   921602331.35475206        12897299.961154819        1444727228.2865498     
   844517755.93320489        4241657.2148184180        1465461730.7539678     
   805399672.23725963        4511381.6203751564        1459146857.9767241     
   766468704.89183259        5404827.1943282485        1457995134.7969756     
   727724853.89693141        6921993.9367021322        1462006561.2147155     
   689168119.25255466        9062881.8474867642        1471181137.2299483     
   560607419.86066902        2106429.2494512200        1486762043.1265249     
   534790864.01363415        2364899.3259141445        1481424753.9760101     
   509099052.17622304        3039182.7677928209        1481158856.8800342     
   483531984.34843659        4129279.5750851035        1485964351.8385975     
   458089660.53027403        5635189.7477903962        1495841238.8516986     
   279101494.80180234        692524.58819057047        1506559619.1016252     
   266324302.39523828        861091.01302164793        1502127145.8467867     
   253609481.65740651        1237563.0002971739        1502674307.1035357     
   240957032.58829594        1821940.5499743074        1508201102.8718686     
   228366955.18791077        2614223.6620708555        1518707533.1517885     
  -19.243397168784718       -56.768976607469575        1524854458.6792610     
  -12.617923921826584       -43.318292451246130        1521254033.5890534     
  -6.6646186737849105       -32.108166903632110        1522541485.4674773     
  -1.3834919245024535       -23.138637045771528        1528716814.3145347     
   3.2254627540290963       -16.409680757080636        1539780020.1302207     
   921602331.35475206        12897299.961154819        1444727228.2865498     
   870079369.24647152        16254471.099438250        1440525122.5504794     
   818660885.79669714        19959904.432735145        1441058268.3104246     
   767346881.00542688        24013599.961049050        1446326665.5663731     
   716137354.87266207        28415557.684381217        1456330314.3183334     
   689168119.25255466        9062881.8474867642        1471181137.2299483     
   649849353.03657317        11377797.845586032        1467639130.6655593     
   610608945.78356481        13953910.386928499        1468990236.0162029     
   571446897.49352074        16791219.471485406        1475234453.2818797     
   532363208.16644758        19889725.099278569        1486371782.4625845     
   458089660.53027403        5635189.7477903962        1495841238.8516986     
   431426119.97523135        7043159.5362991691        1492928858.4808569     
   404814818.68762624        8625260.2162666619        1495067450.4440787     
   378255756.66745239        10381491.787673101        1502257014.7413516     
   351748933.91471273        12311854.250526473        1514497551.3726802     
   228366955.18791077        2614223.6620708555        1518707533.1517885     
   214809670.06244645        3250556.1715801358        1516394305.9963770     
   201278504.50888625        3973953.9207710475        1519289911.5940437     
   187773458.52722016        4784416.9096083120        1527394349.9447949     
   174294532.11745459        5681945.1381140500        1540707621.0486255     
   3.2254627540290963       -16.409680757080636        1539780020.1302207     
   3.2982174226191558       -12.248575436879882        1538035473.2121131     
   3.2473420930289905       -8.4995708045025946        1541657619.4661062     
   3.0728271118084041       -5.1626976503373250        1550646458.8922060     
   2.7746730737197289       -2.2379553796217397        1565001991.4904103     
   716137354.87266207        28415557.684381217        1456330314.3183334     
   658256272.08120000        30513502.417536318        1453916966.0880382     
   600071229.75700879        31598248.708255231        1457274087.3274794     
   541582227.90009701        31669796.556575090        1466401678.0366504     
   482789266.51045442        30728145.962459162        1481299738.2155681     
   532363208.16644758        19889725.099278569        1486371782.4625845     
   489261959.97904515        21556053.413853884        1484717981.7201035     
   445932742.06706023        22462482.646493047        1488762418.8383687     
   402375554.43048167        22609012.797149792        1498505093.8173864     
   358590397.06932282        21995643.865873516        1513946006.6571591     
   351748933.91471273        12311854.250526473        1514497551.3726802     
   323221144.30570418        13484653.338832289        1513691952.8941746     
   294541374.78024554        14150852.705638543        1518512360.6674280     
   265709625.33834493        14310452.350971594        1528958774.6924527     
   236725895.97999707        13963452.274812996        1545031194.9692445     
   174294532.11745459        5681945.1381140500        1540707621.0486255     
   160133825.06117162        6299302.1924448833        1540838879.6102483     
   145897127.89658165        6663358.8857521713        1546523912.8146579     
   131584440.62368506        6774115.2180346698        1557762720.6618500     
   117195763.24248600        6631571.1893118471        1574555303.1518323     
   2.7746730737197289       -2.2379553796217397        1565001991.4904103     
   2.2454489732794198       -2.5302882499867341E-002   1566158761.8683333     
   1.4160568322325644        1.1867908670456297        1572797075.2800612     
  0.28650266682893133        1.3983434945677840        1584916931.7255912     
  -1.1432187614151186       0.60933927317793879        1602518331.2049222     
   482789266.51045442        30728145.962459162        1481299738.2155681     
   425587222.96547824        26446137.220312119        1479384175.9295988     
   366172017.96329540        14786923.620809227        1483164317.9931750     
   304543651.50389296       -4249494.8360920697        1492640164.4062889     
   240702123.58727309       -30663118.150384903        1507811715.1689427     
   358590397.06932282        21995643.865873516        1513946006.6571591     
   316372494.39883119        18989226.130271569        1510508447.4960089     
   272494720.65410972        10449904.813906237        1512607079.0411050     
   226957075.83517057       -3622320.0831859559        1520241901.2924547     
   179759559.94201928       -23227448.560985416        1533412914.2500327     
   236725895.97999707        13963452.274812996        1545031194.9692445     
   209036380.91742873        12095899.565756135        1540717144.3797421     
   180240285.16363901        6539744.5526252314        1541779770.8531907     
   150337608.71862060       -2705012.7646012306        1548219074.3895972     
   119328351.58238025       -15638372.385898158        1560035054.9889524     
   117195763.24248600        6631571.1893118471        1574555303.1518323     
   103578882.52129006        5766157.5268273056        1570010266.5808029     
   89408711.491876960        3056442.8369497471        1570682393.4294355     
   74685250.154220790       -1497572.8804049008        1576571683.6977320     
   59408498.508354001       -7895889.6251254119        1587678137.3856907     
  -1.1432187614151186       0.60933927317793879        1602518331.2049222     
 -0.78957829285786330        1.3506229102155543E-002   1598387814.0991910     
 -0.36117345378186710      -0.33311224657782457        1599314946.7698374     
  0.14199740284702733      -0.43051066374814367        1605299729.2168479     
  0.71994031615406395      -0.27866889199132228        1616342161.4402275     
   240702123.58727309       -30663118.150384903        1507811715.1689427     
   199862828.81899339       -60494643.473465532        1486549464.6468914     
   154433241.47280577       -105627144.05624199        1468060347.3743174     
   104413361.54871902       -166060619.89868087        1452344363.3512313     
   49803189.046709701       -241795071.00086156        1439401512.5776231     
   179759559.94201928       -23227448.560985416        1533412914.2500327     
   148501809.04099816       -45789576.478838488        1507717013.7108226     
   113801338.70585352       -79827435.843767017        1484940845.0341938     
   75658148.936577559       -125341026.65580083        1465084408.2201538     
   34072239.733173423       -182330348.91492984        1448147703.2686994     
   119328351.58238025       -15638372.385898158        1560035054.9889524     
   98070997.728934884       -30805446.944411859        1531244339.7669752     
   74518497.585138649       -53623009.137429148        1505519955.0206988     
   48670851.150998466       -84091058.964925885        1482861900.7501187     
   20528058.426502526       -122209596.42694184        1463270176.9552393     
   59408498.508354001       -7895889.6251254119        1587678137.3856907     
   48570394.882795461       -15542254.870218061        1557131442.8153601     
   36584718.110668957       -27013863.937206898        1529797677.3338375     
   23451468.191968970       -42310716.826105833        1505676840.9411252     
   9170645.1267031990       -61432813.536890723        1484768933.6372292     
  0.71994031615406395      -0.27866889199132228        1616342161.4402275     
  0.50258130990243899      -0.25625335187129394        1585378322.8559604     
  0.28243552185647469      -0.24312708439906330        1557774011.9736164     
   5.9500527215883767E-002 -0.23929747835286436        1533529228.7931862     
 -0.16622957589173115      -0.24478628830885957        1512643973.3146765     
   49803189.046709701       -241795071.00086156        1439401512.5776231     
   40497613.260226011       -322698625.06836396        1346382657.5334361     
   23412781.493387818       -429533032.40371472        1253231389.2844622     
  -1451306.2537846863       -562298293.00684655        1159947707.8306742     
  -34094649.981311381       -720994406.87782586        1066531613.1720828     
   34072239.733173423       -182330348.91492984        1448147703.2686994     
   29892864.172345147       -242168072.57324156        1347626249.1480782     
   19879046.622380868       -321453936.19533992        1246319093.6960278     
   4030787.0832871199       -420187939.78120583        1144226236.9125333     
  -17651914.444955885       -538370083.33089995        1041347678.7976388     
   20528058.426502526       -122209596.42694184        1463270176.9552393     
   19608345.586686224       -161541450.92742586        1357515073.4145796     
   14799004.748938069       -213838732.08768827        1250320980.4158635     
   6100035.9132651836       -279101439.90769631        1141687897.9590964     
  -6488560.9203417152       -357329574.38748306        1031615826.0442649     
   9170645.1267031990       -61432813.536890723        1484768933.6372292     
   9644057.5032407157       -80818760.130959481        1376049130.3329523     
   8172655.8730593547       -106687420.08075786        1265237049.4439898     
   4756440.2361510321       -139038793.38631293        1152332690.9703245     
  -604589.40747804940       -177872880.04759794        1037336054.9119886     
 -0.16622957589173115      -0.24478628830885957        1512643973.3146765     
  -7.7991276440699475E-002 -0.18382905088264348        1403228419.9031806     
  -5.2696857866363286E-003 -0.17459417611298911        1291067300.7803733     
   5.1947342947369191E-002 -0.21704429691245022        1176160615.9462464     
   9.3640296981646678E-002 -0.31123647615193883        1058508365.4008044     
  -211.67973930479201       -14.155689624147598        1451298836.6492460     
  -154.30097007799267       -10.347503943430013        1465948266.7054083     
  -98.060235160839454       -10.332768043201032        1480891678.7516999     
  -42.957536978132659       -14.111486189736624        1496129072.7881215     
   11.007126025659989       -21.683655626542127        1511660448.8146753     
  -334142349.76528710        9865960.6526208818        1469471038.2449944     
  -330235616.47718883        8782454.1176517606        1472519511.0778136     
  -326474024.69242394        7215142.5715674162        1478529178.0837915     
  -322857574.41099286        5164026.0143719018        1487500039.2629266     
  -319386265.63289291        2629104.4460735023        1499432094.6152186     
  -704998478.63385022        8717738.2260251045        1486860400.0092313     
  -689564463.19920194        8836903.2190658152        1478138585.1925294     
  -674420729.63318670        7988461.9833310843        1475045176.7320139     
  -659567277.93580139        6172414.5188292861        1477580174.6276813     
  -645004108.10704684        3388760.8255588114        1485743578.8795369     
  -1112568598.2854271       -3444681.4354739189        1503466921.9419601     
  -1077986694.4670107        163336.95674037933        1482805489.0495572     
  -1043840212.8825237        2319947.9025239944        1470439674.6963644     
  -1010129153.5319639        3025151.4018812180        1466369478.8823874     
  -976853516.41533589        2278947.4548019171        1470594901.6076200     
  -1556852708.7200179       -26621298.331877232        1519290604.0431821     
  -1495502310.2806134       -17238244.669321656        1486520222.6488953     
  -1434732474.4404352       -9790399.6708562970        1464712671.9768496     
  -1374543201.1994827       -4277763.3364797235        1453867952.0270422     
  -1314934490.5577567       -700335.66618782282        1453986062.7994728     
   11.007126025659989       -21.683655626542127        1511660448.8146753     
  -1.2496110831076734       -46.102007079101284        1509256078.2907865     
  -10.376943603846437       -60.089009557952764        1510653623.0935862     
  -16.374871902563896       -63.644664630066558        1515853083.2230778     
  -19.243397168784718       -56.768976607469575        1524854458.6792610     
  -319386265.63289291        2629104.4460735023        1499432094.6152186     
  -309301398.87368953        1844285.6190522611        1495008794.8426239     
  -299225653.01975095        1029063.7744823843        1494722285.3883693     
  -289159028.07108188        183438.91234786808        1498572566.2524555     
  -279101524.02767617       -692588.96733236313        1506559637.4348862     
  -645004108.10704684        3388760.8255588114        1485743578.8795369     
  -623877576.64146781        2106183.2970025241        1479290705.1511166     
  -602769290.11582732        762789.30198657513        1477309496.7326889     
  -581679248.53012335       -641421.15948581696        1479799953.6242557     
  -560607451.88435662       -2106448.0874135792        1486762075.8258169     
  -976853516.41533589        2278947.4548019171        1470594901.6076200     
  -943728534.55294836        785646.93183827400        1462101809.2162597     
  -910630921.66516888       -798883.50648361444        1458415257.1265457     
  -877560677.75199771       -2474643.8601676822        1459535245.3384790     
  -844517802.81343412       -4241634.1292113662        1465461773.8520555     
  -1314934490.5577567       -700335.66618782282        1453986062.7994728     
  -1268854272.6081262       -2117323.4764266610        1443442107.0380597     
  -1222810547.6677787       -3655954.6509392858        1438039566.5699422     
  -1176803315.7367053       -5316229.1897016168        1437778441.3951213     
  -1130832576.8149121       -7098147.0927293897        1442658731.5135984     
  -19.243397168784718       -56.768976607469575        1524854458.6792610     
  -12.617923921826584       -43.318292451246130        1521254033.5890534     
  -6.6646186737849105       -32.108166903632110        1522541485.4674773     
  -1.3834919245024535       -23.138637045771528        1528716814.3145347     
   3.2254627540290963       -16.409680757080636        1539780020.1302207     
  -279101524.02767617       -692588.96733236313        1506559637.4348862     
  -266324320.25652727       -861138.71142357588        1502127159.0987504     
  -253609489.06322074       -1237597.0483245105        1502674316.1817584     
  -240957030.44776487       -1821963.9780582637        1508201108.6839097     
  -228366944.41015241       -2614239.5006057620        1518707536.6052046     
  -560607451.88435662       -2106448.0874135792        1486762075.8258169     
  -534790883.96606529       -2364910.9258325994        1481424777.0204682     
  -509099060.53129107       -3039188.7093096972        1481158872.0847743     
  -483531981.58004010       -4129281.4378635883        1485964361.0187356     
  -458089647.11230904       -5635189.1114831865        1495841243.8223569     
  -844517802.81343412       -4241634.1292113662        1465461773.8520555     
  -805399703.74653733       -4511359.9615180790        1459146887.3542058     
  -766468721.06883454       -5404807.0911432803        1457995153.1765242     
  -727724854.78032625       -6921975.5180804729        1462006571.3190122     
  -689168104.88101006       -9062865.2423256338        1471181141.7816689     
  -1130832576.8149121       -7098147.0927293897        1442658731.5135984     
  -1078150779.5979493       -7300485.8184988499        1435293490.0999622     
  -1025718470.6758510       -8334452.1938203573        1433183159.4570100     
  -973535650.04862118       -10200046.218700409        1436327739.5847349     
  -921602317.71625853       -12897267.893139005        1444727230.4831440     
   3.2254627540290963       -16.409680757080636        1539780020.1302207     
   3.2982174226191558       -12.248575436879882        1538035473.2121131     
   3.2473420930289905       -8.4995708045025946        1541657619.4661062     
   3.0728271118084041       -5.1626976503373250        1550646458.8922060     
   2.7746730737197289       -2.2379553796217397        1565001991.4904103     
  -228366944.41015241       -2614239.5006057620        1518707536.6052046     
  -214809660.46108153       -3250568.7003037930        1516394308.8017757     
  -201278496.05543089       -3973963.0447349027        1519289913.8912799     
  -187773451.19320631       -4784422.5339187309        1527394351.8737276     
  -174294525.87439832       -5681947.1678287238        1540707622.7491088     
  -458089647.11230904       -5635189.1114831865        1495841243.8223569     
  -431426108.65597403       -7043160.4827252030        1492928862.4771862     
  -404814809.16284055       -8625261.7313074768        1495067453.7457864     
  -378255748.63291162       -10381492.857238263        1502257017.6281619     
  -351748927.06618768       -12311853.860517457        1514497554.1243136     
  -689168104.88101006       -9062865.2423256338        1471181141.7816689     
  -649849341.28644907       -11377787.595810533        1467639134.2383432     
  -610608936.07487488       -13953904.559252083        1468990239.0296299     
  -571446889.24628937       -16791216.132654428        1475234456.1555250     
  -532363200.80069363       -19889722.316024512        1486371785.6160314     
  -921602317.71625853       -12897267.893139005        1444727230.4831440     
  -870079358.35251451       -16254450.039579690        1440525124.0852530     
  -818660876.79154277       -19959891.528595001        1441058269.7428081     
  -767346873.03334332       -24013592.360182196        1446326667.4558060     
  -716137347.07791364       -28415552.534339100        1456330317.2242525     
   2.7746730737197289       -2.2379553796217397        1565001991.4904103     
   2.2454489732794198       -2.5302882499867341E-002   1566158761.8683333     
   1.4160568322325644        1.1867908670456297        1572797075.2800612     
  0.28650266682893133        1.3983434945677840        1584916931.7255912     
  -1.1432187614151186       0.60933927317793879        1602518331.2049222     
  -174294525.87439832       -5681947.1678287238        1540707622.7491088     
  -160133820.31229389       -6299301.3744113073        1540838880.6867635     
  -145897125.08301884       -6663356.6904238015        1546523913.2960784     
  -131584440.18658572       -6774113.1159105673        1557762720.5770502     
  -117195765.62298548       -6631570.6508420184        1574555302.5296838     
  -351748927.06618768       -12311853.860517457        1514497554.1243136     
  -323221139.30458260       -13484651.653868511        1513691954.5835843     
  -294541371.90848649       -14150850.665582702        1518512361.3523700     
  -265709624.87789029       -14310450.895629466        1528958774.4306710     
  -236725898.21280324       -13963452.344038613        1545031193.8184938     
  -532363200.80069363       -19889722.316024512        1486371785.6160314     
  -489261954.73143184       -21556050.863727987        1484717983.5587971     
  -445932739.06033295       -22462480.738638595        1488762419.4489405     
  -402375553.78741771       -22609011.940828577        1498505093.2864568     
  -358590398.91266829       -21995644.470239401        1513946005.0713530     
  -716137347.07791364       -28415552.534339100        1456330317.2242525     
  -658256266.59281385       -30513499.003894001        1453916967.6124034     
  -600071226.53856540       -31598246.909618676        1457274087.5857892     
  -541582226.91515625       -31669796.251474738        1466401677.1444128     
  -482789267.72259313       -30728147.029484808        1481299736.2882662     
  -1.1432187614151186       0.60933927317793879        1602518331.2049222     
 -0.78957829285786330        1.3506229102155543E-002   1598387814.0991910     
 -0.36117345378186710      -0.33311224657782457        1599314946.7698374     
  0.14199740284702733      -0.43051066374814367        1605299729.2168479     
  0.71994031615406395      -0.27866889199132228        1616342161.4402275     
  -117195765.62298548       -6631570.6508420184        1574555302.5296838     
  -103578884.16194710       -5766157.9459220581        1570010266.1959870     
  -89408712.255575925       -3056443.7565591782        1570682393.2529736     
  -74685249.903880507        1497571.9172161780        1576571683.7006476     
  -59408497.106866673        7895889.0753893442        1587678137.5390077     
  -236725898.21280324       -13963452.344038613        1545031193.8184938     
  -209036382.46059859       -12095900.383218497        1540717143.6891470     
  -180240285.89250889       -6539745.7027785778        1541779770.5648000     
  -150337608.50853717        2705011.6972694248        1548219074.4454579     
  -119328350.30867241        15638371.816957951        1560035055.3311148     
  -358590398.91266829       -21995644.470239401        1513946005.0713530     
  -316372495.68554044       -18989227.298400402        1510508446.5786719     
  -272494721.27196974       -10449906.171753004        1512607078.7053111     
  -226957075.67194954        3622318.9097259343        1520241901.4512691     
  -179759558.88548535        23227447.946019381        1533412914.8165452     
  -482789267.72259313       -30728147.029484808        1481299736.2882662     
  -425587223.83677620       -26446138.691490442        1479384174.8645740     
  -366172018.39395607       -14786925.163483426        1483164317.6745157     
  -304543651.39413470        4249493.5545260459        1492640164.7180924     
  -240702122.83730033        30663117.462580234        1507811715.9953074     
  0.71994031615406395      -0.27866889199132228        1616342161.4402275     
  0.50258130990243899      -0.25625335187129394        1585378322.8559604     
  0.28243552185647469      -0.24312708439906330        1557774011.9736164     
   5.9500527215883767E-002 -0.23929747835286436        1533529228.7931862     
 -0.16622957589173115      -0.24478628830885957        1512643973.3146765     
  -59408497.106866673        7895889.0753893442        1587678137.5390077     
  -48570393.878616467        15542254.445785586        1557131442.9271100     
  -36584717.524594717        27013863.568755377        1529797677.4142308     
  -23451468.044802323        42310716.444293439        1505676841.0003626     
  -9170645.4392386787        61432813.072401628        1484768933.6855080     
  -119328350.30867241        15638371.816957951        1560035055.3311148     
  -98070996.785968974        30805446.589988098        1531244340.0082424     
  -74518497.008935556        53623008.877451301        1505519955.1814766     
  -48670850.977571204        84091058.679351211        1482861900.8508275     
  -20528058.691874683        122209595.99569148        1463270177.0162866     
  -179759558.88548535        23227447.946019381        1533412914.8165452     
  -148501808.21948883        45789576.176312096        1507717014.0993512     
  -113801338.17059442        79827435.682935178        1484940845.2753572     
  -75658148.738803327        125341026.46588001        1465084408.3445787     
  -34072239.924130715        182330348.52509367        1448147703.3069987     
  -240702122.83730033        30663117.462580234        1507811715.9953074     
  -199862828.17915088        60494643.204843372        1486549465.2004356     
  -154433241.00955841        105627143.98525086        1468060347.6958730     
  -104413361.32850862        166060619.80384934        1452344363.4816091     
  -49803189.136010334        241795070.66060880        1439401512.5576415     
 -0.16622957589173115      -0.24478628830885957        1512643973.3146765     
  -7.7991276440699475E-002 -0.18382905088264348        1403228419.9031806     
  -5.2696857866363286E-003 -0.17459417611298911        1291067300.7803733     
   5.1947342947369191E-002 -0.21704429691245022        1176160615.9462464     
   9.3640296981646678E-002 -0.31123647615193883        1058508365.4008044     
  -9170645.4392386787        61432813.072401628        1484768933.6855080     
  -9644057.6669390239        80818759.718080983        1376049130.3637130     
  -8172655.8989623114        106687419.68268210        1265237049.4521935     
  -4756440.1352989227        139038792.96624032        1152332690.9509342     
   604589.62405640632        177872879.56877312        1037336054.8599643     
  -20528058.691874683        122209595.99569148        1463270177.0162866     
  -19608345.745256722        161541450.47314674        1357515073.4639075     
  -14799004.791755676        213838731.64021400        1250320980.4434071     
  -6100035.8313658237        279101439.49691188        1141687897.9547729     
   6488561.1359062344        357329574.04321283        1031615825.9980018     
  -34072239.924130715        182330348.52509367        1448147703.3069987     
  -29892864.312929720        242168072.08141586        1347626249.2037859     
  -19879046.683640987        321453935.69803202        1246319093.7540350     
  -4030787.0362686217        420187939.37492275        1144226236.9577432     
   17651914.629184812        538370083.11208785        1041347678.8149050     
  -49803189.136010334        241795070.66060880        1439401512.5576415     
  -40497613.369962037        322698624.54287720        1346382657.5833294     
  -23412781.574629009        429533031.85609263        1253231389.3840635     
   1451306.2499946654        562298292.60027349        1159947707.9598472     
   34094650.103892833        720994406.77537835        1066531613.3106899     
  -1556852708.7200179       -26621298.331877232        1519290604.0431821     
  -1495502310.2806134       -17238244.669321656        1486520222.6488953     
  -1434732474.4404352       -9790399.6708562970        1464712671.9768496     
  -1374543201.1994827       -4277763.3364797235        1453867952.0270422     
  -1314934490.5577567       -700335.66618782282        1453986062.7994728     
  -1990211723.8301818       -43310500.165161252        1389671509.6419582     
  -1904896990.8515754       -31363489.290244222        1374033483.3198638     
  -1820000687.0540760       -20811242.352347612        1365275047.3336022     
  -1735522812.4376831       -11653759.351477385        1363396201.6831703     
  -1651463367.0023973       -3891040.2876266241        1368396946.3685703     
  -2367122966.1672320       -43065370.166512728        1258178859.2791145     
  -2269510299.7534442       -32054322.410441399        1259862343.6836839     
  -2172153929.1026459       -21897593.864323974        1264342178.0376801     
  -2075053854.2148333       -12595184.528159976        1271618362.3410981     
  -1978210075.0900042       -4147094.4019485712        1281690896.5939424     
  -2687586435.7311745       -25885908.335932732        1124812652.9546490     
  -2589342236.9862280       -19310744.029913425        1144006803.7403574     
  -2491192200.5861526       -13049454.206781387        1161914064.0890856     
  -2393136326.5309381       -7102038.8665288687        1178534434.0008285     
  -2295174614.8205910       -1468498.0091680288        1193867913.4755886     
  -2951602132.5220022        8227885.3265848160        989572890.66856289     
  -2864392802.5499191        6867245.8513455391        1026466863.4898853     
  -2777115501.5045848        5733176.6202865839        1057990705.4878153     
  -2689770229.3859921        4825677.6334180832        1084144416.6623552     
  -2602356986.1941466        4144748.8907252550        1104927997.0135076     
  -1314934490.5577567       -700335.66618782282        1453986062.7994728     
  -1268854272.6081262       -2117323.4764266610        1443442107.0380597     
  -1222810547.6677787       -3655954.6509392858        1438039566.5699422     
  -1176803315.7367053       -5316229.1897016168        1437778441.3951213     
  -1130832576.8149121       -7098147.0927293897        1442658731.5135984     
  -1651463367.0023973       -3891040.2876266241        1368396946.3685703     
  -1592572613.5991306       -4523320.6166832447        1360869950.1182709     
  -1533820172.8499112       -5616643.1258944273        1357874710.2741213     
  -1475206044.7547326       -7171007.8152419925        1359411226.8361189     
  -1416730229.3135974       -9186414.6847364902        1365479499.8042722     
  -1978210075.0900042       -4147094.4019485712        1281690896.5939424     
  -1908250668.7678137       -4517232.0102424622        1277062070.2691989     
  -1838531394.7444310       -5687810.6145690680        1276355341.4634593     
  -1769052253.0198536       -7658830.2149070501        1279570710.1767199     
  -1699813243.5940812       -10430290.811273336        1286708176.4089825     
  -2295174614.8205910       -1468498.0091680288        1193867913.4755886     
  -2215888438.1141796       -2099057.6571085453        1192018467.4908440     
  -2136944213.3513389       -3869457.1169567108        1193481460.1379545     
  -2058341940.5320675       -6779696.3887016773        1198256891.4169197     
  -1980081619.6563680       -10829775.472354412        1206344761.3277390     
  -2602356986.1941466        4144748.8907252550        1104927997.0135076     
  -2515485921.6382213        2731202.4427291155        1105739141.7832029     
  -2429058628.6706338       -161582.63306641579        1109253066.2976084     
  -2343075107.2913756       -4533606.3366236687        1115469770.5567200     
  -2257535357.5004573       -10384868.667979360        1124389254.5605385     
  -1130832576.8149121       -7098147.0927293897        1442658731.5135984     
  -1078150779.5979493       -7300485.8184988499        1435293490.0999622     
  -1025718470.6758510       -8334452.1938203573        1433183159.4570100     
  -973535650.04862118       -10200046.218700409        1436327739.5847349     
  -921602317.71625853       -12897267.893139005        1444727230.4831440     
  -1416730229.3135974       -9186414.6847364902        1365479499.8042722     
  -1350842282.7106698       -9493446.3211048841        1358672808.2098391     
  -1285155758.0352988       -10471884.382664204        1356793942.1979129     
  -1219670655.2874799       -12121728.869398415        1359842901.7684951     
  -1154386974.4672153       -14442979.781308770        1367819686.9215841     
  -1699813243.5940812       -10430290.811273336        1286708176.4089825     
  -1621653676.7142618       -11122374.090980649        1280516112.0622888     
  -1543647465.3946838       -12325642.571484864        1278924788.1099262     
  -1465794609.6353443       -14040096.252791166        1281934204.5518961     
  -1388095109.4362454       -16265735.134893775        1289544361.3882000     
  -1980081619.6563680       -10829775.472354412        1206344761.3277390     
  -1890584961.6087244       -12187269.128111720        1200823401.6573112     
  -1801193592.7540069       -13895726.760290861        1199575697.1930442     
  -1711907513.0922096       -15955148.368871093        1202601647.9349375     
  -1622726722.6233485       -18365533.953904092        1209901253.8829870     
  -2257535357.5004573       -10384868.667979360        1124389254.5605385     
  -2157636137.3940558       -12688131.432506919        1119594676.9949133     
  -2057794140.1132669       -15182136.949074507        1118746669.4472706     
  -1958009365.6580935       -17866885.217689872        1121845231.9176154     
  -1858281814.0285268       -20742376.238336921        1128890364.4059477     
  -921602317.71625853       -12897267.893139005        1444727230.4831440     
  -870079358.35251451       -16254450.039579690        1440525124.0852530     
  -818660876.79154277       -19959891.528595001        1441058269.7428081     
  -767346873.03334332       -24013592.360182196        1446326667.4558060     
  -716137347.07791364       -28415552.534339100        1456330317.2242525     
  -1154386974.4672153       -14442979.781308770        1367819686.9215841     
  -1090616508.9266264       -17722091.265139341        1363123426.8275506     
  -1026976860.5714704       -21437260.033738375        1363095056.9688852     
  -963468029.40174496       -25588486.087107003        1367734577.3455927     
  -900090015.41744208       -30175769.425224453        1377041987.9576747     
  -1388095109.4362454       -16265735.134893775        1289544361.3882000     
  -1312269600.0618813       -19524514.659045100        1284323218.3182521     
  -1236601247.2556043       -23307149.410149515        1283702603.6636047     
  -1161090051.0174134       -27613639.388205051        1287682517.4242551     
  -1085736011.3473067       -32443984.593210697        1296262959.6002071     
  -1622726722.6233485       -18365533.953904092        1209901253.8829870     
  -1535038631.7582695       -21661720.221279323        1204124498.5573616     
  -1447534036.8439391       -25569559.657814622        1202880909.8269627     
  -1360212937.8803453       -30089052.263475597        1206170487.6917887     
  -1273075334.8675013       -35220198.038295865        1213993232.1518412     
  -1858281814.0285268       -20742376.238336921        1128890364.4059477     
  -1758923604.0158045       -24133707.951880932        1122527267.5448778     
  -1659775229.3364801       -28224490.776748240        1120629975.4589601     
  -1560836689.9905577       -33014724.712953568        1123198488.1481996     
  -1462107985.9780300       -38504409.760481358        1130232805.6125915     
  -716137347.07791364       -28415552.534339100        1456330317.2242525     
  -658256266.59281385       -30513499.003894001        1453916967.6124034     
  -600071226.53856540       -31598246.909618676        1457274087.5857892     
  -541582226.91515625       -31669796.251474738        1466401677.1444128     
  -482789267.72259313       -30728147.029484808        1481299736.2882662     
  -900090015.41744208       -30175769.425224453        1377041987.9576747     
  -827881829.23252523       -32003654.328413367        1374040829.2638886     
  -755470069.74696457       -33152961.562790155        1376227729.6232600     
  -682854736.96075523       -33623691.128341377        1383602689.0357890     
  -610035830.87390733       -33415843.025096148        1396165707.5014720     
  -1085736011.3473067       -32443984.593210697        1296262959.6002071     
  -1000864749.5542169       -34501016.957513511        1292556874.5112183     
  -915890300.72899580       -36214092.548037142        1293456437.9433110     
  -830812664.87164462       -37583211.364798188        1298961649.8964796     
  -745631841.98216140       -38608373.407786131        1309072510.3707285     
  -1273075334.8675013       -35220198.038295865        1213993232.1518412     
  -1177205027.5578921       -38005586.891201973        1209465103.3543899     
  -1081331919.4846644       -40781639.865385830        1208960212.5459375     
  -985456010.64781928       -43548356.960835755        1212478559.7264831     
  -889577301.04734862       -46305738.177544415        1220020144.8960311     
  -1462107985.9780300       -38504409.760481358        1130232805.6125915     
  -1356902663.2435553       -42517364.129506886        1124765515.7934027     
  -1251794926.0139697       -46855603.514818847        1122739053.4311419     
  -1146784774.2892814       -51519127.916459441        1124153418.5258029     
  -1041872208.0694895       -56507937.334422052        1129008611.0773842     
  -482789267.72259313       -30728147.029484808        1481299736.2882662     
  -425587223.83677620       -26446138.691490442        1479384174.8645740     
  -366172018.39395607       -14786925.163483426        1483164317.6745157     
  -304543651.39413470        4249493.5545260459        1492640164.7180924     
  -240702122.83730033        30663117.462580234        1507811715.9953074     
  -610035830.87390733       -33415843.025096148        1396165707.5014720     
  -538131151.15879488       -29812804.432230175        1393948927.6269488     
  -464010621.62269354       -18823599.769396290        1397502848.7132816     
  -387674242.26561320       -448229.03663064539        1406827470.7604620     
  -309122013.08754832        25313307.766074970        1421922793.7684934     
  -745631841.98216140       -38608373.407786131        1309072510.3707285     
  -658810250.07427466       -35620021.650988340        1306557648.3533549     
  -569770120.08142567       -25236542.944308370        1309888484.0240459     
  -478511452.00361168       -7457937.2877502143        1319065017.3828070     
  -385034245.84083545        17715795.318684608        1334087248.4296336     
  -889577301.04734862       -46305738.177544415        1220020144.8960311     
  -787624520.58322108       -43867790.347786427        1217210337.0437803     
  -683450513.77014399       -34025754.688199222        1220321223.6068144     
  -577055280.60813546       -16779631.198833942        1229352804.5851281     
  -468438821.09717333        7870580.1203657389        1244305079.9787316     
  -1041872208.0694895       -56507937.334422052        1129008611.0773842     
  -924573962.68563986       -54556110.522646248        1125906993.6982327     
  -805051802.68886840       -45191235.001125246        1128801067.4615831     
  -683305728.07916975       -28413310.769850850        1137690832.3674271     
  -559335738.85655701       -4222337.8288602531        1152576288.4157741     
  -240702122.83730033        30663117.462580234        1507811715.9953074     
  -199862828.17915088        60494643.204843372        1486549465.2004356     
  -154433241.00955841        105627143.98525086        1468060347.6958730     
  -104413361.32850862        166060619.80384934        1452344363.4816091     
  -49803189.136010334        241795070.66060880        1439401512.5576415     
  -309122013.08754832        25313307.766074970        1421922793.7684934     
  -259401929.48210740        55568266.350032970        1405072036.9720032     
  -203231938.25611296        107322917.00250491        1392181807.7273502     
  -140612039.40955186        180577259.72353134        1383252106.0345271     
  -71542232.942425579        275331294.51310849        1378282931.8935511     
  -385034245.84083545        17715795.318684608        1334087248.4296336     
  -323040818.25515157        49411953.254201278        1323817536.5921516     
  -252737867.93979841        108806520.28862138        1318695746.5680385     
  -174125394.89476401        195899496.42197639        1318721878.3572981     
  -87203399.120053455        310690881.65425104        1323895931.9599388     
  -468438821.09717333        7870580.1203657389        1244305079.9787316     
  -390779494.49828124        42025703.917354748        1242785964.0608850     
  -302951030.06061232        110077953.84360847        1247602164.2179499     
  -204953427.78414914        212027329.89916933        1258753680.4499185     
  -96786687.668897018        347873832.08403224        1276240512.7568004     
  -559335738.85655701       -4222337.8288602531        1152576288.4157741     
  -462617958.21151125        33409518.339451462        1161977319.3781970     
  -353871424.61856478        111137217.66743234        1178901060.6770725     
  -233096138.07771277        228960760.15509838        1203347512.3123863     
  -100292098.58895969        386880145.80243438        1235316674.2841489     
  -49803189.136010334        241795070.66060880        1439401512.5576415     
  -40497613.369962037        322698624.54287720        1346382657.5833294     
  -23412781.574629009        429533031.85609263        1253231389.3840635     
   1451306.2499946654        562298292.60027349        1159947707.9598472     
   34094650.103892833        720994406.77537835        1066531613.3106899     
  -71542232.942425579        275331294.51310849        1378282931.8935511     
  -57392897.652948722        377012304.66967940        1296765984.9224608     
  -34262843.575053215        508629044.12098199        1214312622.4387214     
  -2152070.7087337673        670181512.86702693        1130922844.4423480     
   38939420.946002126        861669710.90780449        1046596650.9333334     
  -87203399.120053455        310690881.65425104        1323895931.9599388     
  -70507453.700549036        432460203.26710415        1255282599.5443926     
  -43629326.733487219        588170130.03848171        1184928849.3285239     
  -6569018.2188787460        777820661.96836197        1112834681.3123193     
   40673471.843300283        1001411799.0567874        1039000095.4957978     
  -96786687.668897018        347873832.08403224        1276240512.7568004     
  -79841281.512763768        489042320.33514130        1221932501.4491255     
  -51512231.049939275        668156289.60856259        1165080070.0534370     
  -11799536.280421019        885215739.90428793        1105683218.5697422     
   39296802.795786798        1140220671.2223268        1043741946.9980049     
  -100292098.58895969        386880145.80243438        1235316674.2841489     
  -85394381.089595705        546758655.87379336        1196715690.6366806     
  -57911556.524404436        748587522.83124316        1154766284.6134953     
  -17843624.893393159        992366746.67476237        1109468456.2146099     
   34809413.803462088        1278096327.4044228        1060822205.4400253     
  -2951602132.5220022        8227885.3265848160        989572890.66856289     
  -2864392802.5499191        6867245.8513455391        1026466863.4898853     
  -2777115501.5045848        5733176.6202865839        1057990705.4878153     
  -2689770229.3859921        4825677.6334180832        1084144416.6623552     
  -2602356986.1941466        4144748.8907252550        1104927997.0135076     
  -3250135906.6719275        33024870.317391157        1010660571.9493200     
  -3165774673.9354973        28638914.319383621        1007948483.4825583     
  -3081602766.8694592        23621872.753416657        1009113831.7785519     
  -2997620185.4738088        17973745.619486690        1014156616.8373040     
  -2913826929.7485418        11694532.917606592        1023076838.6588103     
  -3674838409.1061249        19971236.822917461        1031063386.3233312     
  -3566903651.9306488        20486450.804548264        988445057.03423381     
  -3459415517.1692004        19512923.406083345        958951732.09404147     
  -3352374004.8217793        17050654.627517462        942583411.50275218     
  -3245779114.8883924        13099644.468852878        939340095.26036513     
  -4225709639.8246031       -30933015.156840801        1050781333.7905875     
  -4067779736.5353732       -17590144.693162918        967956584.14490867     
  -3910553752.4038115       -6593671.4217126369        907504406.43428230     
  -3754031687.4299188        2056404.6574969292        869424800.65870452     
  -3598213541.6137042        8360083.5444581509        853717766.81817651     
  -4902749598.8273611       -119687885.62188435        1069814414.3510976     
  -4668402927.7496653       -85590872.173734903        946483064.81458879     
  -4435017472.5732851       -54697911.729962349        854771854.79927313     
  -4202593233.2982159       -27009004.290575743        794680784.30515683     
  -3971130209.9244633       -2524149.8555674553        766209853.33223629     
  -2602356986.1941466        4144748.8907252550        1104927997.0135076     
  -2515485921.6382213        2731202.4427291155        1105739141.7832029     
  -2429058628.6706338       -161582.63306641579        1109253066.2976084     
  -2343075107.2913756       -4533606.3366236687        1115469770.5567200     
  -2257535357.5004573       -10384868.667979360        1124389254.5605385     
  -2913826929.7485418        11694532.917606592        1023076838.6588103     
  -2819048963.8380070        8165554.0145460367        1016943512.2797185     
  -2724441131.1076841        4069464.5107685328        1014677814.6875590     
  -2630003431.5575857       -593735.59374880791        1016279745.8823283     
  -2535735865.1877060       -5824046.2990003824        1021749305.8640273     
  -3245779114.8883924        13099644.468852878        939340095.26036513     
  -3139766107.5026064        8453675.1469336748        926581542.54195380     
  -3033649594.8889198        4152723.2513440847        918855467.65269542     
  -2927429577.0473399        196788.78206229210        916161870.59259033     
  -2821106053.9778662       -3414128.2608948946        918500751.36163926     
  -3598213541.6137042        8360083.5444581509        853717766.81817651     
  -3477637352.6320229        3595565.8398790359        834653232.56990969     
  -3356684020.0143337        88193.588667869568        821786025.19302142     
  -3235353543.7606349       -2162033.2091753483        815116144.68750906     
  -3113645923.8709292       -3155114.5536633730        814643591.05337465     
  -3971130209.9244633       -2524149.8555674553        766209853.33223629     
  -3832662699.2262654       -6408773.9066371918        741158582.36358762     
  -3693544406.4839330       -8124124.4772670269        723469487.30853415     
  -3553775331.6974821       -7670201.5674974918        713142568.16708314     
  -3413355474.8669019       -5047005.1772980690        710177824.93923128     
  -2257535357.5004573       -10384868.667979360        1124389254.5605385     
  -2157636137.3940558       -12688131.432506919        1119594676.9949133     
  -2057794140.1132669       -15182136.949074507        1118746669.4472706     
  -1958009365.6580935       -17866885.217689872        1121845231.9176154     
  -1858281814.0285268       -20742376.238336921        1128890364.4059477     
  -2535735865.1877060       -5824046.2990003824        1021749305.8640273     
  -2424666554.7337627       -6622777.6467804909        1014453013.9043686     
  -2313828612.5508652       -8192736.5647183657        1011455329.5594314     
  -2203222038.6390061       -10533923.052785158        1012756252.8292178     
  -2092846832.9981971       -13646337.111010909        1018355783.7137223     
  -2821106053.9778662       -3414128.2608948946        918500751.36163926     
  -2697860831.4714160       -2406581.6804413795        908499575.32160962     
  -2575021122.6814456       -2750747.4882436991        903149044.49304092     
  -2452586927.6079502       -4446625.6842966080        902449158.87592924     
  -2330558246.2509279       -7494216.2686029673        906399918.47027469     
  -3113645923.8709292       -3155114.5536633730        814643591.05337465     
  -2977218967.6070180       -39543.533487081528        801734361.24663770     
  -2841371670.5050120        1143830.2803219557        793827814.24809921     
  -2706104032.5649109        395006.88779032230        790923950.05775654     
  -2571416053.7867246       -2286013.7111150026        793022768.67560053     
  -3413355474.8669019       -5047005.1772980690        710177824.93923128     
  -3262740963.1405640        478336.79408597946        694157371.67945337     
  -3112880256.0215654        3490996.7409999371        683491638.82460558     
  -2963773353.5099034        3990974.6634629965        678180626.37469137     
  -2815420255.6055813        1978270.5614550114        678224334.32970655     
  -1858281814.0285268       -20742376.238336921        1128890364.4059477     
  -1758923604.0158045       -24133707.951880932        1122527267.5448778     
  -1659775229.3364801       -28224490.776748240        1120629975.4589601     
  -1560836689.9905577       -33014724.712953568        1123198488.1481996     
  -1462107985.9780300       -38504409.760481358        1130232805.6125915     
  -2092846832.9981971       -13646337.111010909        1018355783.7137223     
  -1982555010.5350816       -17294891.992696524        1010476533.2397550     
  -1872368825.8691454       -21295572.864978790        1006601308.2989681     
  -1762288279.0003912       -25648379.727867842        1006730108.8913655     
  -1652313369.9288247       -30353312.581371069        1010862935.0169420     
  -2330558246.2509279       -7494216.2686029673        906399918.47027469     
  -2210652180.6001978       -11795805.097255588        897126078.17566204     
  -2090747555.2104263       -16102194.795780778        891394484.17225826     
  -1970844370.0816302       -20413385.364210367        889205136.46006393     
  -1850942625.2137914       -24729376.802512407        890558035.03907704     
  -2571416053.7867246       -2286013.7111150026        793022768.67560053     
  -2443215114.2111535       -7636447.2655671835        782475902.35259652     
  -2314911417.3603339       -12644356.569183946        775009503.07882822     
  -2186504963.2342639       -17309741.621964693        770623570.85429597     
  -2057995751.8329387       -21632602.423907995        769318105.67899895     
  -2815420255.6055813        1978270.5614550114        678224334.32970655     
  -2680243811.3679557       -4816818.4976429939        666526005.77055943     
  -2544860412.3188543       -10922058.185154438        657446365.01868021     
  -2409270058.4582977       -16337448.501143217        650985412.07406318     
  -2273472749.7862649       -21062989.445557237        647143146.93670511     
  -1462107985.9780300       -38504409.760481358        1130232805.6125915     
  -1356902663.2435553       -42517364.129506886        1124765515.7934027     
  -1251794926.0139697       -46855603.514818847        1122739053.4311419     
  -1146784774.2892814       -51519127.916459441        1124153418.5258029     
  -1041872208.0694895       -56507937.334422052        1129008611.0773842     
  -1652313369.9288247       -30353312.581371069        1010862935.0169420     
  -1537812537.0206866       -33893435.686971903        1002457580.4795880     
  -1423333297.5701380       -37505536.984536231        997652676.01965594     
  -1308875651.5771737       -41189616.474061072        996448221.63713360     
  -1194439599.0418098       -44945674.155562639        998844217.33202934     
  -1850942625.2137914       -24729376.802512407        890558035.03907704     
  -1726690217.5020139       -27659849.255698919        879303273.17208529     
  -1602383411.2005222       -30408993.076505184        871808584.00299954     
  -1478022206.3093147       -32976808.264930487        868073967.53181934     
  -1353606602.8283927       -35363294.820965469        868099423.75854278     
  -2057995751.8329387       -21632602.423907995        769318105.67899895     
  -1923535704.6875503       -23816604.835693955        755302593.87088585     
  -1788945266.9051402       -25565971.790754199        745206777.38117135     
  -1654224438.4857106       -26880703.289083183        739030656.20985174     
  -1519373219.4292595       -27760799.330661654        736774230.35692918     
  -2273472749.7862649       -21062989.445557237        647143146.93670511     
  -2128348998.5772781       -22363702.426936150        630455542.57599556     
  -1983018864.6839771       -22976473.127259016        617847256.15416884     
  -1837482348.1063495       -22901301.546497822        609318287.67123520     
  -1691739448.8443923       -22138187.684644341        604868637.12718976     
  -1041872208.0694895       -56507937.334422052        1129008611.0773842     
  -924573962.68563986       -54556110.522646248        1125906993.6982327     
  -805051802.68886840       -45191235.001125246        1128801067.4615831     
  -683305728.07916975       -28413310.769850850        1137690832.3674271     
  -559335738.85655701       -4222337.8288602531        1152576288.4157741     
  -1194439599.0418098       -44945674.155562639        998844217.33202934     
  -1063520512.6655566       -41660305.585346818        994638191.17330182     
  -931197514.52438557       -33695231.132064104        994606303.46043992     
  -797470604.61831033       -21050450.795778483        998748554.19344878     
  -662339782.94732869       -3725964.5764560997        1007064943.3723130     
  -1353606602.8283927       -35363294.820965469        868099423.75854278     
  -1214271111.7358391       -32305715.375150442        861832318.83089924     
  -1074351711.7263803       -27301772.872986138        857917799.65247810     
  -933848402.80002129       -20351467.314490557        856355866.22329271     
  -792761184.95676184       -11454798.699653745        857146518.54333425     
  -1519373219.4292595       -27760799.330661654        736774230.35692918     
  -1376825759.8964920       -26492339.892058551        727489376.67101836     
  -1234514394.2948377       -26010860.223827064        718735556.03769934     
  -1092439122.6242869       -26316360.325952411        710512768.45698166     
  -950599944.88485467       -27408840.198444307        702821013.92885172     
  -1691739448.8443923       -22138187.684644341        604868637.12718976     
  -1551184457.1475165       -24220179.136101425        591609364.69366395     
  -1411685562.2297604       -29822493.184610784        577059572.61609626     
  -1273242764.0911274       -38945129.830204189        561219260.89449894     
  -1135856062.7316070       -51588089.072839320        544088429.52886105     
  -559335738.85655701       -4222337.8288602531        1152576288.4157741     
  -462617958.21151125        33409518.339451462        1161977319.3781970     
  -353871424.61856478        111137217.66743234        1178901060.6770725     
  -233096138.07771277        228960760.15509838        1203347512.3123863     
  -100292098.58895969        386880145.80243438        1235316674.2841489     
  -662339782.94732869       -3725964.5764560997        1007064943.3723130     
  -547257885.09052563        26247249.171766430        1020670056.8312999     
  -421274357.45589572        92559228.846074671        1042646082.9829121     
  -284389200.04345447        195209974.44641438        1072993021.8271500     
  -136602412.85317475        334199485.97289908        1111710873.3639989     
  -792761184.95676184       -11454798.699653745        857146518.54333425     
  -656891734.58484054        11586803.219484568        873640737.46712911     
  -511247777.60517079        67210093.831107944        899354071.43972635     
  -355829314.01775992        155415073.13519478        934286520.46111572     
  -190636343.82261372        276201741.13175654        978438084.53131080     
  -950599944.88485467       -27408840.198444307        702821013.92885172     
  -791519506.69444811       -10571819.517371774        720889361.28568399     
  -623791685.06637323        35089812.622572601        749025026.04750049     
  -447416480.00064719        109576056.22137061        787228008.21428859     
  -262393891.49725014        212886911.27906141        835498307.78605318     
  -1135856062.7316070       -51588089.072839320        544088429.52886105     
  -951141201.41935182       -40228619.038833618        562415928.28697872     
  -758906079.83950865       -3801614.7795343399        591658946.80624878     
  -559150697.99209142        57692923.705006391        631817485.08667564     
  -351875055.87709445        144254996.41482395        682891543.12824833     
  -100292098.58895969        386880145.80243438        1235316674.2841489     
  -85394381.089595705        546758655.87379336        1196715690.6366806     
  -57911556.524404436        748587522.83124316        1154766284.6134953     
  -17843624.893393159        992366746.67476237        1109468456.2146099     
   34809413.803462088        1278096327.4044228        1060822205.4400253     
  -136602412.85317475        334199485.97289908        1111710873.3639989     
  -127441372.32086825        483223743.22238982        1090137870.2787836     
  -95145168.344101340        709365211.95339453        1070005288.7073631     
  -39713800.922886252        1012623892.1659063        1051313128.6497220     
   38852729.942773938        1392999783.8599076        1034061390.1058807     
  -190636343.82261372        276201741.13175654        978438084.53131080     
  -173529569.14450413        418476468.89327061        986201461.11673880     
  -122737574.64331731        673035262.73170197        1000194103.1054547     
  -38260360.319064856        1039878122.6470240        1020416010.4974457     
   79902073.828266144        1519005048.6392598        1046867183.2927324     
  -262393891.49725014        212886911.27906141        835498307.78605318     
  -223658971.56050083        352516832.88644648        884906463.15052438     
  -140688775.42204592        639597675.16614974        945332727.80778134     
  -13483303.081904411        1074129438.1181471        1016777101.7578110     
   157957445.45992339        1656112121.7424550        1099239585.0006263     
  -351875055.87709445        144254996.41482395        682891543.12824833     
  -277829579.56885016        285344835.20192999        786252876.38015056     
  -148998770.68029004        609052449.25674450        905421162.81432772     
   34617370.788576424        1115377838.5792634        1040396402.4307789     
   273018844.83776295        1804321003.1695049        1191178595.2295115     
  -4902749598.8273611       -119687885.62188435        1069814414.3510976     
  -4668402927.7496653       -85590872.173734903        946483064.81458879     
  -4435017472.5732851       -54697911.729962349        854771854.79927313     
  -4202593233.2982159       -27009004.290575743        794680784.30515683     
  -3971130209.9244633       -2524149.8555674553        766209853.33223629     
  -5431467911.5491686       -174426210.87658572        447427990.30720615     
  -5152934916.4426346       -130675365.18496037        457730823.94126672     
  -4875204997.8731852       -89601441.283637047        468175190.63551438     
  -4598278155.8408327       -51204439.172610283        478761090.38995135     
  -4322154390.3455572       -15484358.851881742        489488523.20456845     
  -5530464347.1562853       -100247972.99687958       -176436091.30114281     
  -5297683903.6237936       -73824957.742652655       -32314578.571581516     
  -5065548397.2641640       -49551733.064640999        80469860.757154867     
  -4834057828.0774012       -27428298.962845802        161917226.68506840     
  -4603212196.0635033       -7454655.4372558594        212027519.21216279     
  -5199738905.6486988        102846828.01723623       -801777830.47394919     
  -5102649889.2931404        84960350.153203726       -523653142.72395790     
  -5006047670.7462120        65451212.927042007       -308344134.83580142     
  -4909932250.0079222        44319416.338755369       -155850806.80947834     
  -4814303627.0782795        21564960.388319731       -66173158.644987136     
  -4439291587.0264206        434858192.16575909       -1428597227.2112122     
  -4567832873.4506636        345680558.50261402       -1016284868.5158645     
  -4696702818.3193283        255407396.69140005       -698266796.14336061     
  -4825901421.6324120        164038706.73214245       -474543010.09369665     
  -4955428683.3898973        71574488.624856234       -345113510.36687559     
  -3971130209.9244633       -2524149.8555674553        766209853.33223629     
  -3832662699.2262654       -6408773.9066371918        741158582.36358762     
  -3693544406.4839330       -8124124.4772670269        723469487.30853415     
  -3553775331.6974821       -7670201.5674974918        713142568.16708314     
  -3413355474.8669019       -5047005.1772980690        710177824.93923128     
  -4322154390.3455572       -15484358.851881742        489488523.20456845     
  -4168905936.7393689       -17077983.718543053        487658519.15310758     
  -4015151842.8294959       -16986140.906264782        489307603.15163869     
  -3860892108.6159406       -15208830.415040731        494435775.20016140     
  -3706126734.0987053       -11746052.244881630        503043035.29867190     
  -4603212196.0635033       -7454655.4372558594        212027519.21216279     
  -4446277336.3024845       -10085642.145454168        233249450.04737085     
  -4288981977.9782352       -11514966.976208925        254067381.06896555     
  -4131326121.0907397       -11742629.929496288        274481312.27694356     
  -3973309765.6400123       -10768631.005319834        294491243.67130625     
  -4814303627.0782795        21564960.388319731       -66173158.644987136     
  -4664776897.9156046        14568250.812612295       -22068624.953619551     
  -4515034811.9301414        8289397.3128936291        17748821.060522497     
  -4365077369.1218786        2728399.8891513348        53279179.397438787     
  -4214904569.4908266       -2114741.4586119652        84522450.057131752     
  -4955428683.3898973        71574488.624856234       -345113510.36687559     
  -4824404621.5787268        56883695.155717850       -278295705.84987146     
  -4693310344.6852217        42426951.961045504       -219648076.87369549     
  -4562145852.7093534        28204259.040905237       -169170623.43836653     
  -4430911145.6511393        14215616.395253420       -126863345.54385605     
  -3413355474.8669019       -5047005.1772980690        710177824.93923128     
  -3262740963.1405640        478336.79408597946        694157371.67945337     
  -3112880256.0215654        3490996.7409999371        683491638.82460558     
  -2963773353.5099034        3990974.6634629965        678180626.37469137     
  -2815420255.6055813        1978270.5614550114        678224334.32970655     
  -3706126734.0987053       -11746052.244881630        503043035.29867190     
  -3543293505.0156240       -6125592.8012940884        494476567.82706517     
  -3381139108.6074257       -2767908.9406495094        489932443.11597413     
  -3219663544.8741202       -1673000.6629788876        489410661.16540086     
  -3058866813.8156877       -2840867.9682217836        492911221.97534168     
  -3973309765.6400123       -10768631.005319834        294491243.67130625     
  -3802064612.4699397       -6195092.0704500675        293466229.24239516     
  -3631423320.0422983       -3634422.2770197392        295131179.92959148     
  -3461385888.3570852       -3086621.6250190735        299486095.73288399     
  -3291952317.4143028       -4551690.1144444942        306530976.65228546     
  -4214904569.4908266       -2114741.4586119652        84522450.057131752     
  -4039054285.5035195        269838.98661947250        91126355.925451100     
  -3863732890.3261876        891456.73192024231        99087849.265456975     
  -3688940383.9588270       -249888.22268867493        108406930.07715823     
  -3514676766.4014587       -3154195.8772494793        119083598.36053832     
  -4430911145.6511393        14215616.395253420       -126863345.54385605     
  -4254262524.1163511        13269200.369899988       -112543052.12377281     
  -4078067819.4590864        10809728.086145639       -98197548.876426652     
  -3902327031.6793485        6837199.5439682007       -83826835.801798701     
  -3727040160.7771187        1351614.7434208393       -69430912.899902061     
  -2815420255.6055813        1978270.5614550114        678224334.32970655     
  -2680243811.3679557       -4816818.4976429939        666526005.77055943     
  -2544860412.3188543       -10922058.185154438        657446365.01868021     
  -2409270058.4582977       -16337448.501143217        650985412.07406318     
  -2273472749.7862649       -21062989.445557237        647143146.93670511     
  -3058866813.8156877       -2840867.9682217836        492911221.97534168     
  -2915986716.3798823       -9690719.0071961880        485588471.83815211     
  -2772630199.6627650       -14952505.775125504        481585558.34919375     
  -2628797263.6643281       -18626228.271990895        480902481.50846046     
  -2484487908.3845820       -20711886.497825503        483539241.31596029     
  -3291952317.4143028       -4551690.1144444942        306530976.65228546     
  -3139365284.3775716       -10855318.412483335        303898180.15187365     
  -2986032367.5896692       -14672667.539970994        305286369.14065301     
  -2831953567.0506058       -16003737.496919394        310695543.61863059     
  -2677128882.7603827       -14848528.283332229        320125703.58580071     
  -3514676766.4014587       -3154195.8772494793        119083598.36053832     
  -3350379515.3610210       -8310616.7134926319        121455130.71172465     
  -3185066916.0995636       -10082543.479678869        128548797.39305966     
  -3018738968.6171217       -8469976.1759059429        140364598.40456897     
  -2851395672.9136648       -3472914.8020933867        156902533.74622932     
  -3727040160.7771187        1351614.7434208393       -69430912.899902061     
  -3549029409.3302259       -2056613.9102153778       -61740676.482298255     
  -3369733845.1924901       -1182133.5943841934       -48627156.893574856     
  -3189153468.3638849        3975055.6910213232       -30090354.133725792     
  -3007288278.8444304        13414953.945913553       -6130268.2027462544     
  -2273472749.7862649       -21062989.445557237        647143146.93670511     
  -2128348998.5772781       -22363702.426936150        630455542.57599556     
  -1983018864.6839771       -22976473.127259016        617847256.15416884     
  -1837482348.1063495       -22901301.546497822        609318287.67123520     
  -1691739448.8443923       -22138187.684644341        604868637.12718976     
  -2484487908.3845820       -20711886.497825503        483539241.31596029     
  -2329911816.4273987       -19146825.469593406        472570110.91374308     
  -2175435859.1905408       -17915546.842440605        464131361.45364726     
  -2021060036.6740041       -17018050.616349697        458222992.93567377     
  -1866784348.8777819       -16454336.791317344        454845005.35981846     
  -2677128882.7603827       -14848528.283332229        320125703.58580071     
  -2517525984.3314829       -11745353.528418422        314517443.50333291     
  -2358329738.0275536       -9997685.8567434549        309890627.36621034     
  -2199540143.8485894       -9605525.2682740688        306245255.17444420     
  -2041157201.7945852       -10568871.763024688        303581326.92802930     
  -2851395672.9136648       -3472914.8020933867        156902533.74622932     
  -2691191502.2895379       -159286.60346186161        156297540.34475699     
  -2531700501.1950140        777109.82980573177        155125053.89186180     
  -2372922669.6301069       -663725.50230479240        153385074.38755253     
  -2214858007.5947962       -4481792.5997358561        151077601.83182582     
  -3007288278.8444304        13414953.945913553       -6130268.2027462544     
  -2850908370.3015494        15611375.305327535       -2089598.5619739078     
  -2695548148.6929255        14408840.217216611       -165358.96939421454     
  -2541207614.0185475        9807348.6816267967       -357549.42499180220     
  -2387886766.2784266        1806900.6985002756       -2666169.9287846051     
  -1691739448.8443923       -22138187.684644341        604868637.12718976     
  -1551184457.1475165       -24220179.136101425        591609364.69366395     
  -1411685562.2297604       -29822493.184610784        577059572.61609626     
  -1273242764.0911274       -38945129.830204189        561219260.89449894     
  -1135856062.7316070       -51588089.072839320        544088429.52886105     
  -1866784348.8777819       -16454336.791317344        454845005.35981846     
  -1729323597.8269005       -21041928.164044023        441611753.43308800     
  -1591833145.5771070       -25530515.540385902        427867051.40453762     
  -1454312992.1283937       -29920098.920342684        413610899.27417266     
  -1316763137.4807713       -34210678.303919077        398843297.04198718     
  -2041157201.7945852       -10568871.763024688        303581326.92802930     
  -1904564778.4119179       -16994289.163661599        291640859.81580091     
  -1766856855.8523142       -19701375.974504352        279968012.14396894     
  -1628033434.1157560       -18690132.195496380        268562783.91254950     
  -1488094513.2022631       -13960557.826717079        257425175.12151816     
  -2214858007.5947962       -4481792.5997358561        151077601.83182582     
  -2076907998.9025760       -12077262.134955525        141696683.84180191     
  -1936756693.0554023       -12335074.487001300        133362454.83440289     
  -1794404090.0532186       -5255229.6556935310        126074914.80961648     
  -1649850189.8960881        9162272.3588014841        119834063.76744887     
  -2387886766.2784266        1806900.6985002756       -2666169.9287846051     
  -2246353259.2988868       -6290847.0779986382       -8220774.4888967555     
  -2101532657.1863530       -3431611.0778400898       -11949620.524182452     
  -1953424959.9407847        10384608.699105620       -13852708.034620559     
  -1802030167.5622425        35157812.252608061       -13930037.020218119     
  -1135856062.7316070       -51588089.072839320        544088429.52886105     
  -951141201.41935182       -40228619.038833618        562415928.28697872     
  -758906079.83950865       -3801614.7795343399        591658946.80624878     
  -559150697.99209142        57692923.705006391        631817485.08667564     
  -351875055.87709445        144254996.41482395        682891543.12824833     
  -1316763137.4807713       -34210678.303919077        398843297.04198718     
  -1117276839.1159902       -14382397.723315418        420810386.84930909     
  -914168861.61009026        17518146.661042690        441270259.88665688     
  -707439204.96307290        61490954.849120349        460222916.15404171     
  -497087869.17492843        117536026.84094077        477668355.65145814     
  -1488094513.2022631       -13960557.826717079        257425175.12151816     
  -1309330310.7310143        3688473.4167052507        278483511.33049810     
  -1130843010.2451177        20414498.042285204        285611894.23839706     
  -952632611.74454677        36217516.050106347        278810323.84521157     
  -774699115.22933125        51097527.440090299        258078800.15092739     
  -1649850189.8960881        9162272.3588014841        119834063.76744887     
  -1527301616.2644265        13983994.381193817        135435301.73056078     
  -1408928525.7445810        4887439.3642206192        124683849.86145662     
  -1294730918.3365250       -18127392.692055464        87579708.160161823     
  -1184708794.0402708       -55060501.787682950        24122876.626647532     
  -1802030167.5622425        35157812.252608061       -13930037.020218119     
  -1771190755.7162261        16504165.170166135       -8334241.9505194612     
  -1748425408.1085026       -29063029.373218179       -41513873.244142883     
  -1733734124.7390056       -101543771.37738556       -113468930.90108374     
  -1727116905.6077995       -200938060.84249949       -224199414.92137006     
  -351875055.87709445        144254996.41482395        682891543.12824833     
  -277829579.56885016        285344835.20192999        786252876.38015056     
  -148998770.68029004        609052449.25674450        905421162.81432772     
   34617370.788576424        1115377838.5792634        1040396402.4307789     
   273018844.83776295        1804321003.1695049        1191178595.2295115     
  -497087869.17492843        117536026.84094077        477668355.65145814     
  -388248957.53421372        223136464.12339893        596978498.11583459     
  -230278477.20944414        492508797.01935387        735435730.30861497     
  -23176428.200614691        925653025.52881658        893040052.22978699     
   233057189.49226436        1522569149.6518252        1069791463.8793463     
  -774699115.22933125        51097527.440090299        258078800.15092739     
  -621523520.98151159        124071537.40026760        386741693.94881129     
  -424870121.94588673        341971563.31979573        537891814.02121890     
  -184738918.12248641        704797605.19859850        711529160.36813903     
   98870090.488720536        1212549663.0367322        907653732.98956275     
  -1184708794.0402708       -55060501.787682950        24122876.626647532     
  -977653269.91073263       -11849944.967370749        155542463.87907311     
  -732773704.88965654        157440748.15802982        312789413.95213932     
  -450070098.97704297        452811577.58855832        495863726.84583491     
  -129542452.17290062        874262543.32421565        704765402.56015503     
  -1727116905.6077995       -200938060.84249949       -224199414.92137006     
  -1456638204.3218884       -184627982.97964281       -96619192.093374044     
  -1153989226.0407238       -61083648.465895236        60128530.101370811     
  -819169970.76427531        169694942.69874305        246043751.66287729     
  -452180438.49257612        507707790.51428282        461126472.59111470     
 </DataArray>
 <DataArray  type="Float64" Name="VM" NumberOfComponents="1" format="ascii">
   5286733644.4679861     
   5065778691.4492750     
   4978609822.3660583     
   4978297125.0185108     
   5027264459.5205793     
   5432420082.9098558     
   5224980253.2830629     
   5067314790.8518505     
   4939622759.0492973     
   4826483244.6803846     
   5489540858.9917183     
   5261457700.1401644     
   5042881658.7405863     
   4828553451.7073765     
   4614127107.7714863     
   5402263488.6887121     
   5150242984.1066942     
   4898610903.3937378     
   4647468856.1606569     
   4396945426.4923077     
   5186326418.8891163     
   4908077461.2622805     
   4649912524.6170139     
   4409485446.4461956     
   4185820128.6448107     
   5027264459.5205793     
   4876975560.8920326     
   4729991571.8169479     
   4585684019.9241190     
   4443472339.5241661     
   4826483244.6803846     
   4672234370.8237219     
   4519289765.8571844     
   4367417296.7753305     
   4216389956.7681246     
   4614127107.7714863     
   4459580252.4750776     
   4305782449.6106319     
   4152770332.2107430     
   4000586911.5144939     
   4396945426.4923077     
   4245268476.2528667     
   4095338478.4181356     
   3947328289.6109204     
   3801465373.0626669     
   4185820128.6448107     
   4038902104.9134922     
   3896479752.6793628     
   3758701590.8182912     
   3625858856.9778695     
   4443472339.5241661     
   4265369158.3238516     
   4087023992.1587257     
   3908447901.1688266     
   3729655475.7457442     
   4216389956.7681246     
   4042271876.9756904     
   3867988163.7779751     
   3693591159.7374911     
   3519150374.5655160     
   4000586911.5144939     
   3832825000.7673130     
   3665427390.7481189     
   3498513048.6600690     
   3332247023.4917235     
   3801465373.0626669     
   3642359608.1332331     
   3484659569.6950049     
   3328575962.4807119     
   3174408358.2658124     
   3625858856.9778695     
   3477442079.8328223     
   3332024213.5331793     
   3189919044.7080569     
   3051578141.7465358     
   3729655475.7457442     
   3549612776.6981802     
   3370195528.5822058     
   3191568401.6647782     
   3014036809.9100299     
   3519150374.5655160     
   3352837921.7062893     
   3187822692.0217476     
   3024300660.2554741     
   2862590028.0404110     
   3332247023.4917235     
   3177847606.0385337     
   3025291809.1187077     
   2874802634.8162742     
   2726706678.2211375     
   3174408358.2658124     
   3030214935.9484468     
   2888255127.0476651     
   2748774049.6575541     
   2612102826.4472327     
   3051578141.7465358     
   2916091609.4088912     
   2783046105.2152176     
   2652703086.7757025     
   2525394733.0508957     
   3014036809.9100299     
   2858748287.2731977     
   2702781365.5042729     
   2546125512.7410045     
   2388795182.5581694     
   2862590028.0404110     
   2704694005.0945401     
   2546304517.8076897     
   2387418768.9504194     
   2228040145.2354207     
   2726706678.2211375     
   2570071857.5319901     
   2413780814.7634978     
   2257941506.5991187     
   2102699837.9570255     
   2612102826.4472327     
   2460530984.6956840     
   2310870350.6690326     
   2163442568.9700961     
   2018685176.2590830     
   2525394733.0508957     
   2382266652.6416178     
   2243331158.6895161     
   2109168435.1175625     
   1980560189.1215067     
   2388795182.5581694     
   2243259635.9474468     
   2099920955.2035241     
   1958784871.3830054     
   1820023735.4155934     
   2228040145.2354207     
   2085388021.4140937     
   1944388142.5369837     
   1805039697.4563649     
   1667419138.2126205     
   2102699837.9570255     
   1962256935.4257164     
   1822774824.5463893     
   1684277866.5573947     
   1546818896.7653565     
   2018685176.2590830     
   1881403044.6979208     
   1744464072.5929661     
   1607989498.2915795     
   1472146760.1852276     
   1980560189.1215067     
   1849106489.1281874     
   1717742347.8794322     
   1586813921.1126769     
   1456821995.8603923     
   1820023735.4155934     
   1779558793.3025396     
   1735566691.0985761     
   1696679358.1884093     
   1681386782.3366108     
   1667419138.2126205     
   1552170003.0090604     
   1427805209.3322659     
   1294680374.3438549     
   1158914001.8994937     
   1546818896.7653565     
   1397085569.5029809     
   1243796895.1268067     
   1084678836.0031970     
   917697601.92551768     
   1472146760.1852276     
   1328039685.4847798     
   1198409137.6050894     
   1087735205.0111735     
   1001917150.1696444     
   1456821995.8603923     
   1347946532.3343310     
   1274067796.3158267     
   1243308899.8919635     
   1262698647.4703896     
   1681386782.3366108     
   1383817898.6555245     
   1129503781.6928387     
   1010176915.0342284     
   1153136050.0616562     
   1158914001.8994937     
   1008435210.7077415     
   985203017.30115676     
   1161482189.9505422     
   1544167468.2880125     
   917697601.92551768     
   963071143.28870070     
   1144873566.0668001     
   1476446042.9694691     
   1957465958.8411512     
   1001917150.1696444     
   1164607065.3393548     
   1425343610.7361574     
   1808697212.3983872     
   2334747975.6605792     
   1262698647.4703896     
   1446536879.1668985     
   1715592035.2416742     
   2110433286.9838221     
   2663497563.9687371     
   5186326418.8891163     
   4908077461.2622805     
   4649912524.6170139     
   4409485446.4461956     
   4185820128.6448107     
   4586859568.0861082     
   4391628615.6011066     
   4211576606.5827899     
   4045760021.0022941     
   3894071659.3656211     
   4094813130.8768067     
   3965773539.5847411     
   3846323103.7800679     
   3736475767.0913262     
   3636598945.5636110     
   3706225639.2597566     
   3627876900.4465799     
   3553105274.4077125     
   3482164351.0952911     
   3415356344.0259829     
   3416733880.2223430     
   3374220820.6829219     
   3329618370.3816991     
   3282373403.3518486     
   3231975125.4934044     
   4185820128.6448107     
   4038902104.9134922     
   3896479752.6793628     
   3758701590.8182912     
   3625858856.9778695     
   3894071659.3656211     
   3767813298.6018076     
   3646041846.6946530     
   3528989383.2985649     
   3417003119.5679388     
   3636598945.5636110     
   3529929994.5964088     
   3427613124.8839259     
   3329936701.1291099     
   3237275233.1199131     
   3415356344.0259829     
   3327558504.1430144     
   3243824404.9706588     
   3164463773.6123071     
   3089844250.3628626     
   3231975125.4934044     
   3162676834.2152286     
   3096976086.9600639     
   3035163550.9304390     
   2977563350.3321509     
   3625858856.9778695     
   3477442079.8328223     
   3332024213.5331793     
   3189919044.7080569     
   3051578141.7465358     
   3417003119.5679388     
   3285125490.6243892     
   3157076549.3841014     
   3033273844.2048659     
   2914268800.4730635     
   3237275233.1199131     
   3122191712.7944794     
   3011759112.8543286     
   2906465249.0916476     
   2806915506.1833668     
   3089844250.3628626     
   2991711692.9327941     
   2898972109.8988223     
   2812137197.5866823     
   2731808934.7656560     
   2977563350.3321509     
   2896317550.3927517     
   2821043796.0008798     
   2752225786.7414813     
   2690404610.3499856     
   3051578141.7465358     
   2916091609.4088912     
   2783046105.2152176     
   2652703086.7757025     
   2525394733.0508957     
   2914268800.4730635     
   2790610401.8876543     
   2670509929.3703213     
   2554376197.4774637     
   2442712778.4328728     
   2806915506.1833668     
   2697323006.2181449     
   2592599349.6463742     
   2493284975.4338918     
   2400022571.5717363     
   2731808934.7656560     
   2638128881.7371621     
   2550702651.6764283     
   2470148692.7056041     
   2397173179.1731467     
   2690404610.3499856     
   2613837774.2375484     
   2544845549.6803246     
   2484048137.8670106     
   2432123218.0552874     
   2525394733.0508957     
   2382266652.6416178     
   2243331158.6895161     
   2109168435.1175625     
   1980560189.1215067     
   2442712778.4328728     
   2316504002.9742846     
   2195732707.0114651     
   2081156724.9015074     
   1973726283.7449403     
   2400022571.5717363     
   2292157705.3586111     
   2190885912.7900023     
   2097034552.3493159     
   2011572330.5503461     
   2397173179.1731467     
   2308388621.7544608     
   2227068489.1535039     
   2153988660.0411005     
   2089997723.9611623     
   2432123218.0552874     
   2362327884.7044635     
   2300469802.9050632     
   2247187331.2092752     
   2203133705.0308809     
   1980560189.1215067     
   1849106489.1281874     
   1717742347.8794322     
   1586813921.1126769     
   1456821995.8603923     
   1973726283.7449403     
   1856770869.7852890     
   1744228759.5154927     
   1637025332.5166907     
   1536297101.4936185     
   2011572330.5503461     
   1914297502.9738724     
   1825846140.2461545     
   1747431812.3808212     
   1680363367.7649610     
   2089997723.9611623     
   2014055675.4561827     
   1950541555.0085857     
   1900555548.0584641     
   1865148630.3962035     
   2203133705.0308809     
   2147177658.4189339     
   2106263259.3981259     
   2081182439.4393663     
   2072633322.7966020     
   1456821995.8603923     
   1347946532.3343310     
   1274067796.3158267     
   1243308899.8919635     
   1262698647.4703896     
   1536297101.4936185     
   1475564808.0644081     
   1447532923.2249818     
   1456158770.1467254     
   1504727179.0399666     
   1680363367.7649610     
   1651967521.7489285     
   1651292140.9694948     
   1680697322.9203794     
   1742787124.7784281     
   1865148630.3962035     
   1854682241.5519838     
   1867180946.2001629     
   1904846931.5837457     
   1970711842.9916031     
   2072633322.7966020     
   2069096731.1051238     
   2084784852.3875310     
   2122324765.7862437     
   2185533717.3304486     
   1262698647.4703896     
   1446536879.1668985     
   1715592035.2416742     
   2110433286.9838221     
   2663497563.9687371     
   1504727179.0399666     
   1613168729.6589341     
   1788805363.7778928     
   2066379850.3520856     
   2476094842.8824434     
   1742787124.7784281     
   1787633371.9502914     
   1884625274.1588175     
   2060665664.4024031     
   2340978796.4846458     
   1970711842.9916031     
   1968890782.6261692     
   2003616288.7443223     
   2093556151.6898441     
   2257362391.1803784     
   2185533717.3304486     
   2156226490.1252556     
   2146519138.5128288     
   2166928319.2509546     
   2228515961.1346416     
   3416733880.2223430     
   3374220820.6829219     
   3329618370.3816991     
   3282373403.3518486     
   3231975125.4934044     
   3309053443.2127285     
   3252894398.0114913     
   3197473293.2374339     
   3142767458.4810672     
   3088757011.1626186     
   3201910919.2980824     
   3136992373.1027269     
   3076825279.7127504     
   3021739984.6716790     
   2972090610.8732948     
   3109692857.8481097     
   3038713720.1033139     
   2977732328.4624681     
   2927199744.6812429     
   2887637481.8798490     
   3050867506.3323278     
   2973260125.6546049     
   2912156935.8668656     
   2867874391.3383727     
   2840837486.3714399     
   3231975125.4934044     
   3162676834.2152286     
   3096976086.9600639     
   3035163550.9304390     
   2977563350.3321509     
   3088757011.1626186     
   3027909954.3731928     
   2971779039.5890145     
   2920671375.0328031     
   2874926036.3880830     
   2972090610.8732948     
   2919842993.9230652     
   2873503307.7984385     
   2833365296.6605463     
   2799749600.0882697     
   2887637481.8798490     
   2843414238.1105180     
   2806330595.2345247     
   2776634944.7829289     
   2754595536.4329457     
   2840837486.3714399     
   2803191641.6296577     
   2773928783.3309011     
   2753226809.4722843     
   2741276685.7237401     
   2977563350.3321509     
   2896317550.3927517     
   2821043796.0008798     
   2752225786.7414813     
   2690404610.3499856     
   2874926036.3880830     
   2806661630.7295690     
   2745251933.1319847     
   2691155967.2741284     
   2644874356.9761720     
   2799749600.0882697     
   2744268951.7137647     
   2696464117.0097160     
   2656734272.1964083     
   2625503437.7961793     
   2754595536.4329457     
   2711091279.6672173     
   2675994432.8394594     
   2649618278.1422606     
   2632287451.6693406     
   2741276685.7237401     
   2708282322.4910617     
   2684336171.3372192     
   2669654957.8582926     
   2664458914.7235937     
   2690404610.3499856     
   2613837774.2375484     
   2544845549.6803246     
   2484048137.8670106     
   2432123218.0552874     
   2644874356.9761720     
   2583274821.4197488     
   2529775349.0962358     
   2484894132.5125251     
   2449175782.1181107     
   2625503437.7961793     
   2577842072.1686330     
   2538618008.8836217     
   2508228362.8091993     
   2487075123.9987450     
   2632287451.6693406     
   2597065055.3657112     
   2570449354.6517463     
   2552717249.6091146     
   2544139462.1091571     
   2664458914.7235937     
   2639791189.2334681     
   2623777896.2161784     
   2616591981.6289763     
   2618397346.8235888     
   2432123218.0552874     
   2362327884.7044635     
   2300469802.9050632     
   2247187331.2092752     
   2203133705.0308809     
   2449175782.1181107     
   2393936765.5556908     
   2347679226.8979115     
   2310934396.9264488     
   2284216917.8579192     
   2487075123.9987450     
   2445505986.6082673     
   2413728864.9450722     
   2392141651.0047159     
   2381109476.6099219     
   2544139462.1091571     
   2514732969.4352598     
   2495755670.0865345     
   2487474674.5096684     
   2490122794.9940681     
   2618397346.8235888     
   2599186473.1200900     
   2590958515.0927062     
   2593870492.2684608     
   2608053147.2870874     
   2203133705.0308809     
   2147177658.4189339     
   2106263259.3981259     
   2081182439.4393663     
   2072633322.7966020     
   2284216917.8579192     
   2243329765.9081898     
   2216429359.5257988     
   2203977434.4628601     
   2206370130.0793686     
   2381109476.6099219     
   2352256696.9336300     
   2336304639.6847501     
   2333507591.7552538     
   2344088897.6360326     
   2490122794.9940681     
   2470569081.6749005     
   2462918690.1533360     
   2467307915.0213413     
   2483871045.3769975     
   2608053147.2870874     
   2595438568.7972431     
   2593880341.2440324     
   2603455978.4541426     
   2624261214.5079727     
   2072633322.7966020     
   2069096731.1051238     
   2084784852.3875310     
   2122324765.7862437     
   2185533717.3304486     
   2206370130.0793686     
   2191905200.7258148     
   2192436587.1831341     
   2209932059.1772804     
   2247314610.9816165     
   2344088897.6360326     
   2319533917.5007277     
   2306532078.5169978     
   2306488568.9696569     
   2321492596.1836782     
   2483871045.3769975     
   2451014889.9514723     
   2426755741.2768159     
   2412038638.6743569     
   2408238972.8129148     
   2624261214.5079727     
   2585572144.6773424     
   2552826396.8542399     
   2526604376.7020202     
   2507711610.7845016     
   2185533717.3304486     
   2156226490.1252556     
   2146519138.5128288     
   2166928319.2509546     
   2228515961.1346416     
   2247314610.9816165     
   2182645161.4521179     
   2134417781.7158396     
   2112296714.3465598     
   2127212294.6227651     
   2321492596.1836782     
   2224789430.5717888     
   2141419674.0348971     
   2079750161.7654319     
   2049954297.6269534     
   2408238972.8129148     
   2282953374.5291271     
   2168172031.7065797     
   2070639903.3024876     
   1999132736.4070313     
   2507711610.7845016     
   2357346339.6240287     
   2215145614.3013797     
   2086097184.7648969     
   1977089369.1615989     
   3050867506.3323278     
   2973260125.6546049     
   2912156935.8668656     
   2867874391.3383727     
   2840837486.3714399     
   2831118249.2738395     
   2785385056.8367953     
   2752927309.8255119     
   2733888095.5153227     
   2728446749.5021930     
   2671237218.5229974     
   2652612455.9280467     
   2643401186.5583940     
   2643646651.2837520     
   2653399559.4589496     
   2567699591.3455677     
   2572348038.1676784     
   2582080277.6724629     
   2596901992.5795040     
   2616819433.5647926     
   2513723322.0421071     
   2539096879.2013030     
   2564979628.1039138     
   2591371568.7499413     
   2618272701.1393900     
   2840837486.3714399     
   2803191641.6296577     
   2773928783.3309011     
   2753226809.4722843     
   2741276685.7237401     
   2728446749.5021930     
   2702700518.2699881     
   2685041233.1853991     
   2675570232.7566571     
   2674393450.8263984     
   2653399559.4589496     
   2637317640.7259030     
   2628901085.1535311     
   2628193570.4977746     
   2635239714.9074774     
   2616819433.5647926     
   2607948425.0301547     
   2606228880.8393936     
   2611670936.9352970     
   2624284759.1422043     
   2618272701.1393900     
   2614108209.2317939     
   2616528827.8360968     
   2625534556.9523048     
   2641125396.5804176     
   2741276685.7237401     
   2708282322.4910617     
   2684336171.3372192     
   2669654957.8582926     
   2664458914.7235937     
   2674393450.8263984     
   2651864283.6230631     
   2638296855.1909990     
   2633815412.1080203     
   2638543310.0116544     
   2635239714.9074774     
   2620801411.6880560     
   2615174662.3188782     
   2618414359.2823853     
   2630573987.9041228     
   2624284759.1422043     
   2615312205.6324639     
   2614975270.0025611     
   2623287308.2726588     
   2640261163.5679598     
   2641125396.5804176     
   2634889277.3953323     
   2637119209.4610624     
   2647815192.7776113     
   2666977227.3449707     
   2664458914.7235937     
   2639791189.2334681     
   2623777896.2161784     
   2616591981.6289763     
   2618397346.8235888     
   2638543310.0116544     
   2622390824.2173228     
   2615017123.1385660     
   2616522174.1624618     
   2626998449.9069276     
   2630573987.9041228     
   2621001569.9264445     
   2620331628.5394840     
   2628609280.3631191     
   2645875415.0563512     
   2640261163.5679598     
   2635111114.0412517     
   2639025286.6540041     
   2652015059.6465573     
   2674090585.0642338     
   2666977227.3449707     
   2663955583.4466209     
   2670229324.7909822     
   2685798451.3780656     
   2710662963.2078662     
   2618397346.8235888     
   2599186473.1200900     
   2590958515.0927062     
   2593870492.2684608     
   2608053147.2870874     
   2626998449.9069276     
   2615809210.8767595     
   2615068724.9726949     
   2624856660.6185341     
   2645237416.1445746     
   2645875415.0563512     
   2640849333.7729349     
   2645831858.7882333     
   2660854895.1865964     
   2685943558.1114712     
   2674090585.0642338     
   2673429847.6932654     
   2682455376.3444448     
   2701174386.6586947     
   2729592431.2362232     
   2710662963.2078662     
   2712666548.2751198     
   2724164444.3807983     
   2745156651.5248976     
   2775643169.7074151     
   2608053147.2870874     
   2595438568.7972431     
   2593880341.2440324     
   2603455978.4541426     
   2624261214.5079727     
   2645237416.1445746     
   2634264942.4372706     
   2633525309.5608640     
   2643057143.1552796     
   2662910788.3020477     
   2685943558.1114712     
   2676329948.4968586     
   2676304390.1372600     
   2685882031.2424774     
   2705083738.7710643     
   2729592431.2362232     
   2721205852.7114935     
   2721922028.6417670     
   2731744277.4595194     
   2750677444.1058140     
   2775643169.7074151     
   2768488904.2187562     
   2770094745.1096730     
   2780460692.3801413     
   2799586746.0301709     
   2624261214.5079727     
   2585572144.6773424     
   2552826396.8542399     
   2526604376.7020202     
   2507711610.7845016     
   2662910788.3020477     
   2617361474.4326262     
   2577509567.9786930     
   2543685233.7023978     
   2516349138.8243332     
   2705083738.7710643     
   2654753416.2854972     
   2610018265.1783867     
   2571025319.0998297     
   2537980327.8743477     
   2750677444.1058140     
   2697652781.4036174     
   2650264003.0323944     
   2608547615.9326410     
   2572554728.0331831     
   2799586746.0301709     
   2745955804.4048586     
   2698143735.4487119     
   2656150539.1617155     
   2619976215.5438809     
   2507711610.7845016     
   2357346339.6240287     
   2215145614.3013797     
   2086097184.7648969     
   1977089369.1615989     
   2516349138.8243332     
   2348418101.2292786     
   2184044838.6671305     
   2026333853.0013652     
   1879857877.1998434     
   2537980327.8743477     
   2357581220.6208549     
   2176928633.7632570     
   1997496213.2735956     
   1821565702.6518910     
   2572554728.0331831     
   2384939774.4753423     
   2194264179.9325371     
   2000906702.3572135     
   1805472198.4530056     
   2619976215.5438809     
   2430462917.8969035     
   2236194160.9424162     
   2037169944.6804042     
   1833390269.1108756     
   2513723322.0421071     
   2539096879.2013030     
   2564979628.1039138     
   2591371568.7499413     
   2618272701.1393900     
   2567699452.6392474     
   2572347975.0132275     
   2582080265.0286965     
   2596902005.4391823     
   2616819446.9245772     
   2671236865.8299718     
   2652612275.7190170     
   2643401131.2406597     
   2643646673.2196679     
   2653399610.7586398     
   2831117564.3984976     
   2785384671.8648114     
   2752927158.1109443     
   2733888109.9588747     
   2728446861.8377810     
   3050866340.6248717     
   2973259423.5011082     
   2912156615.8335042     
   2867874370.7677126     
   2840837679.6028547     
   2618272701.1393900     
   2614108209.2317939     
   2616528827.8360968     
   2625534556.9523048     
   2641125396.5804176     
   2616819446.9245772     
   2607948444.0507917     
   2606228904.7562871     
   2611670964.9486594     
   2624284790.4146280     
   2653399610.7586398     
   2637317697.6266761     
   2628901145.4084949     
   2628193631.8415885     
   2635239775.0638709     
   2728446861.8377810     
   2702700631.4311981     
   2685041342.7622046     
   2675570334.3420854     
   2674393540.0495224     
   2840837679.6028547     
   2803191827.6041088     
   2773928954.8661880     
   2753226959.3525696     
   2741276806.7723107     
   2641125396.5804176     
   2634889277.3953323     
   2637119209.4610624     
   2647815192.7776113     
   2666977227.3449707     
   2624284790.4146280     
   2615312227.8696022     
   2614975284.7342963     
   2623287317.0416026     
   2640261167.9311256     
   2635239775.0638709     
   2620801453.6555028     
   2615174689.2036657     
   2618414374.2336164     
   2630573994.1154208     
   2674393540.0495224     
   2651864344.9116349     
   2638296893.2242107     
   2633815431.6734786     
   2638543316.0078845     
   2741276806.7723107     
   2708282404.8341384     
   2684336221.1679711     
   2669654981.5911026     
   2664458919.0030780     
   2666977227.3449707     
   2663955583.4466209     
   2670229324.7909822     
   2685798451.3780656     
   2710662963.2078662     
   2640261167.9311256     
   2635111117.6124449     
   2639025289.6489854     
   2652015062.2777619     
   2674090587.5413737     
   2630573994.1154208     
   2621001574.8320708     
   2620331632.6231437     
   2628609284.0995460     
   2645875418.9110355     
   2638543316.0078845     
   2622390828.5551553     
   2615017126.6251607     
   2616522177.5915198     
   2626998454.0557957     
   2664458919.0030780     
   2639791191.5299101     
   2623777897.7157869     
   2616591983.5055790     
   2618397350.2311306     
   2710662963.2078662     
   2712666548.2751198     
   2724164444.3807983     
   2745156651.5248976     
   2775643169.7074151     
   2674090587.5413737     
   2673429849.2983403     
   2682455377.0818233     
   2701174386.5371680     
   2729592430.2691379     
   2645875418.9110355     
   2640849336.1731381     
   2645831859.7581806     
   2660854894.7554231     
   2685943556.3139315     
   2626998454.0557957     
   2615809213.2652345     
   2615068725.6619668     
   2624856659.6716766     
   2645237413.6280494     
   2618397350.2311306     
   2599186474.7126021     
   2590958514.9891381     
   2593870490.5837159     
   2608053144.1341848     
   2775643169.7074151     
   2768488904.2187562     
   2770094745.1096730     
   2780460692.3801413     
   2799586746.0301709     
   2729592430.2691379     
   2721205852.0990529     
   2721922028.3468719     
   2731744277.4439602     
   2750677444.3315005     
   2685943556.3139315     
   2676329947.3929806     
   2676304389.6511245     
   2685882031.2962656     
   2705083739.2873383     
   2645237413.6280494     
   2634264940.9474158     
   2633525308.9801021     
   2643057143.3632040     
   2662910789.1786618     
   2608053144.1341848     
   2595438567.0088744     
   2593880340.6568847     
   2603455978.9004645     
   2624261215.8196259     
   2799586746.0301709     
   2745955804.4048586     
   2698143735.4487119     
   2656150539.1617155     
   2619976215.5438809     
   2750677444.3315005     
   2697652781.5698900     
   2650264003.1542335     
   2608547616.0247922     
   2572554728.1097021     
   2705083739.2873383     
   2654753416.6520157     
   2610018265.4251852     
   2571025319.2559214     
   2537980327.9659638     
   2662910789.1786618     
   2617361475.0363851     
   2577509568.3550534     
   2543685233.8944545     
   2516349138.8690743     
   2624261215.8196259     
   2585572145.5584955     
   2552826397.3663006     
   2526604376.9023223     
   2507711610.7199869     
   2619976215.5438809     
   2430462917.8969035     
   2236194160.9424162     
   2037169944.6804042     
   1833390269.1108756     
   2572554728.1097021     
   2384939774.5171967     
   2194264179.9273586     
   2000906702.2902794     
   1805472198.3056448     
   2537980327.9659638     
   2357581220.6798000     
   2176928633.7676339     
   1997496213.2021861     
   1821565702.4859934     
   2516349138.8690743     
   2348418101.2803721     
   2184044838.6960430     
   2026333852.9883313     
   1879857877.1422489     
   2507711610.7199869     
   2357346339.6424656     
   2215145614.3700833     
   2086097184.8714314     
   1977089369.3291979     
   3050866340.6248717     
   2973259423.5011082     
   2912156615.8335042     
   2867874370.7677126     
   2840837679.6028547     
   3109691649.3494473     
   3038712891.6198401     
   2977731854.6036253     
   2927199597.8555627     
   2887637631.4806805     
   3201909877.2618456     
   3136991590.7611995     
   3076824772.5988584     
   3021739768.5265017     
   2972090701.6587911     
   3309052859.4141507     
   3252893896.3550949     
   3197472915.7505898     
   3142767252.8348465     
   3088757030.6080017     
   3416734085.1344986     
   3374220864.3601842     
   3329618307.0093932     
   3282373300.9259095     
   3231975064.0315118     
   2840837679.6028547     
   2803191827.6041088     
   2773928954.8661880     
   2753226959.3525696     
   2741276806.7723107     
   2887637631.4806805     
   2843414380.0866280     
   2806330724.4865537     
   2776635056.0889716     
   2754595624.5227752     
   2972090701.6587911     
   2919843078.5222130     
   2873503383.5572834     
   2833365360.7987390     
   2799749649.7583289     
   3088757030.6080017     
   3027909968.7962136     
   2971779049.1149120     
   2920671379.7515669     
   2874926036.3926916     
   3231975064.0315118     
   3162676766.8756580     
   3096976016.8931003     
   3035163481.4156041     
   2977563284.7975907     
   2741276806.7723107     
   2708282404.8341384     
   2684336221.1679711     
   2669654981.5911026     
   2664458919.0030780     
   2754595624.5227752     
   2711091339.0900836     
   2675994466.5519786     
   2649618289.3309937     
   2632287443.7536793     
   2799749649.7583289     
   2744268983.7771430     
   2696464131.5796242     
   2656734269.5371370     
   2625503418.3090434     
   2874926036.3926916     
   2806661626.3377180     
   2745251922.0795603     
   2691155947.2879562     
   2644874325.7239943     
   2977563284.7975907     
   2896317496.6566148     
   2821043749.9472990     
   2752225744.0351219     
   2690404566.3289204     
   2664458919.0030780     
   2639791191.5299101     
   2623777897.7157869     
   2616591983.5055790     
   2618397350.2311306     
   2632287443.7536793     
   2597065048.6758900     
   2570449350.0665035     
   2552717247.9994674     
   2544139464.3263302     
   2625503418.3090434     
   2577842056.8782473     
   2538617998.4108148     
   2508228357.7708902     
   2487075124.9897261     
   2644874325.7239943     
   2583274797.1946955     
   2529775332.3110399     
   2484894123.5798759     
   2449175781.4247584     
   2690404566.3289204     
   2613837740.0289741     
   2544845525.5355163     
   2484048124.0430589     
   2432123214.7805123     
   2618397350.2311306     
   2599186474.7126021     
   2590958514.9891381     
   2593870490.5837159     
   2608053144.1341848     
   2544139464.3263302     
   2514732970.8398099     
   2495755670.3955789     
   2487474673.4298506     
   2490122792.2253528     
   2487075124.9897261     
   2445505987.9119921     
   2413728865.8681355     
   2392141650.8234930     
   2381109474.5769010     
   2449175781.4247584     
   2393936766.5573468     
   2347679228.4910827     
   2310934397.9404159     
   2284216917.0620084     
   2432123214.7805123     
   2362327884.8844304     
   2300469805.0481458     
   2247187333.7026176     
   2203133706.1435857     
   2608053144.1341848     
   2595438567.0088744     
   2593880340.6568847     
   2603455978.9004645     
   2624261215.8196259     
   2490122792.2253528     
   2470569079.9660263     
   2462918689.5108809     
   2467307915.4479656     
   2483871046.8732276     
   2381109474.5769010     
   2352256695.5130033     
   2336304639.0550194     
   2333507592.0973549     
   2344088899.1315255     
   2284216917.0620084     
   2243329765.0882549     
   2216429359.0338955     
   2203977434.6700830     
   2206370131.3691478     
   2203133706.1435857     
   2147177658.6376646     
   2106263259.2430985     
   2081182439.4825752     
   2072633323.6500344     
   2624261215.8196259     
   2585572145.5584955     
   2552826397.3663006     
   2526604376.9023223     
   2507711610.7199869     
   2483871046.8732276     
   2451014891.0186830     
   2426755741.9287095     
   2412038638.9242921     
   2408238972.6703405     
   2344088899.1315255     
   2319533918.6485100     
   2306532079.2812915     
   2306488569.3179588     
   2321492596.0892634     
   2206370131.3691478     
   2191905201.8376775     
   2192436588.0282612     
   2209932059.6728868     
   2247314611.0631838     
   2072633323.6500344     
   2069096732.0506089     
   2084784853.2769823     
   2122324766.4780858     
   2185533717.7160568     
   2507711610.7199869     
   2357346339.6424656     
   2215145614.3700833     
   2086097184.8714314     
   1977089369.3291979     
   2408238972.6703405     
   2282953374.5008707     
   2168172031.7797046     
   2070639903.4707031     
   1999132736.6747561     
   2321492596.0892634     
   2224789430.5648637     
   2141419674.1209059     
   2079750161.9375403     
   2049954297.8589265     
   2247314611.0631838     
   2182645161.5356684     
   2134417781.8239276     
   2112296714.4674449     
   2127212294.6949885     
   2185533717.7160568     
   2156226490.3683929     
   2146519138.6521039     
   2166928319.2679029     
   2228515960.9337840     
   3416734085.1344986     
   3374220864.3601842     
   3329618307.0093932     
   3282373300.9259095     
   3231975064.0315118     
   3706226348.4315352     
   3627877376.5454750     
   3553105544.5266223     
   3482164445.4266987     
   3415356297.2220693     
   4094814082.6349721     
   3965774255.4687648     
   3846323576.8829594     
   3736475990.4604001     
   3636598913.7450404     
   4586860484.6369963     
   4391629357.1271458     
   4211577134.9359102     
   4045760299.2856293     
   3894071651.1141448     
   5186326997.8867941     
   4908077993.5652046     
   4649912947.6381884     
   4409485702.3284025     
   4185820159.2748351     
   3231975064.0315118     
   3162676766.8756580     
   3096976016.8931003     
   3035163481.4156041     
   2977563284.7975907     
   3415356297.2220693     
   3327558437.4847279     
   3243824325.8174148     
   3164463689.4029264     
   3089844168.6490459     
   3636598913.7450404     
   3529929928.7796092     
   3427613036.5306692     
   3329936601.7961326     
   3237275134.5710750     
   3894071651.1141448     
   3767813240.3958111     
   3646041753.6850953     
   3528989270.8391376     
   3417003003.4738855     
   4185820159.2748351     
   4038902066.4479122     
   3896479663.3302350     
   3758701469.2111087     
   3625858722.6225119     
   2977563284.7975907     
   2896317496.6566148     
   2821043749.9472990     
   2752225744.0351219     
   2690404566.3289204     
   3089844168.6490459     
   2991711631.7632680     
   2898972064.7145734     
   2812137163.5448923     
   2731808906.5986834     
   3237275134.5710750     
   3122191645.3427806     
   3011759071.6536484     
   2906465228.9328570     
   2806915501.3164296     
   3417003003.4738855     
   3285125417.8334513     
   3157076514.9537110     
   3033273842.7565928     
   2914268825.9816709     
   3625858722.6225119     
   3477442002.4472766     
   3332024188.2743683     
   3189919066.2438626     
   3051578204.0231771     
   2690404566.3289204     
   2613837740.0289741     
   2544845525.5355163     
   2484048124.0430589     
   2432123214.7805123     
   2731808906.5986834     
   2638128859.8161225     
   2550702635.8155556     
   2470148682.8044009     
   2397173175.2219281     
   2806915501.3164296     
   2697323003.0492549     
   2592599347.2056174     
   2493284972.8593016     
   2400022568.1458926     
   2914268825.9816709     
   2790610424.1807165     
   2670509946.4668870     
   2554376207.4727836     
   2442712779.5418620     
   3051578204.0231771     
   2916091663.7261667     
   2783046148.4989920     
   2652703115.9746242     
   2525394745.1622334     
   2432123214.7805123     
   2362327884.8844304     
   2300469805.0481458     
   2247187333.7026176     
   2203133706.1435857     
   2397173175.2219281     
   2308388618.8554792     
   2227068487.3956132     
   2153988659.4194431     
   2089997724.3672602     
   2400022568.1458926     
   2292157700.0686564     
   2190885907.2798362     
   2097034548.2698483     
   2011572329.5630045     
   2442712779.5418620     
   2316503998.0608935     
   2195732699.0850916     
   2081156717.1268210     
   1973726279.5026793     
   2525394745.1622334     
   2382266652.7407618     
   2243331150.8037200     
   2109168423.5609102     
   1980560178.6460736     
   2203133706.1435857     
   2147177658.6376646     
   2106263259.2430985     
   2081182439.4825752     
   2072633323.6500344     
   2089997724.3672602     
   2014055676.0897732     
   1950541555.7802544     
   1900555548.9108741     
   1865148631.2962675     
   2011572329.5630045     
   1914297503.6452458     
   1825846141.8623977     
   1747431814.1869993     
   1680363368.9620812     
   1973726279.5026793     
   1856770869.1951599     
   1744228761.3025105     
   1637025335.2642384     
   1536297103.6274369     
   1980560178.6460736     
   1849106485.0159099     
   1717742348.4600086     
   1586813924.5330284     
   1456822000.0678737     
   2072633323.6500344     
   2069096732.0506089     
   2084784853.2769823     
   2122324766.4780858     
   2185533717.7160568     
   1865148631.2962675     
   1854682242.2426033     
   1867180946.7301316     
   1904846932.0045958     
   1970711843.3823054     
   1680363368.9620812     
   1651967522.2976375     
   1651292141.1332517     
   1680697322.9822495     
   1742787125.0560026     
   1536297103.6274369     
   1475564808.8515534     
   1447532923.1449995     
   1456158769.7745137     
   1504727179.0355978     
   1456822000.0678737     
   1347946534.1607187     
   1274067796.3634999     
   1243308899.0485382     
   1262698646.9032927     
   2185533717.7160568     
   2156226490.3683929     
   2146519138.6521039     
   2166928319.2679029     
   2228515960.9337840     
   1970711843.3823054     
   1968890782.9067254     
   2003616288.8843884     
   2093556151.6343448     
   2257362390.8376398     
   1742787125.0560026     
   1787633372.2146137     
   1884625274.3098683     
   2060665664.3498967     
   2340978796.1486349     
   1504727179.0355978     
   1613168729.8313375     
   1788805363.9463167     
   2066379850.3746569     
   2476094842.6726141     
   1262698646.9032927     
   1446536879.1373057     
   1715592035.4341528     
   2110433287.1520305     
   2663497563.9771399     
   5186326997.8867941     
   4908077993.5652046     
   4649912947.6381884     
   4409485702.3284025     
   4185820159.2748351     
   5402263713.4307690     
   5150243215.0081282     
   4898611111.5891781     
   4647469008.3914042     
   4396945484.4023304     
   5489540672.3753967     
   5261457618.6401196     
   5042881659.6008701     
   4828553507.8696566     
   4614127191.5454426     
   5432419523.4013605     
   5224979896.3019028     
   5067314609.4890385     
   4939622724.8510742     
   4826483335.6188107     
   5286732816.0930252     
   5065778126.7113523     
   4978609494.3811817     
   4978297004.1900711     
   5027264526.8206301     
   4185820159.2748351     
   4038902066.4479122     
   3896479663.3302350     
   3758701469.2111087     
   3625858722.6225119     
   4396945484.4023304     
   4245268466.5524607     
   4095338411.7193098     
   3947328177.0025258     
   3801465226.3024979     
   4614127191.5454426     
   4459580274.7840986     
   4305782416.5206394     
   4152770249.6976771     
   4000586785.4860020     
   4826483335.6188107     
   4672234417.6758318     
   4519289772.3462706     
   4367417265.6236753     
   4216389889.7397842     
   5027264526.8206301     
   4876975617.0161343     
   4729991619.7956619     
   4585684060.6977034     
   4443472372.2400656     
   3625858722.6225119     
   3477442002.4472766     
   3332024188.2743683     
   3189919066.2438626     
   3051578204.0231771     
   3801465226.3024979     
   3642359515.5854645     
   3484659530.6226101     
   3328575975.9489532     
   3174408423.1067367     
   4000586785.4860020     
   3832824916.3439689     
   3665427349.2541852     
   3498513051.4873123     
   3332247072.1922932     
   4216389889.7397842     
   4042271827.4017005     
   3867988133.2283125     
   3693591150.0268316     
   3519150387.8724594     
   4443472372.2400656     
   4265369171.9922600     
   4087023987.0094123     
   3908447877.7739892     
   3729655435.0686221     
   3051578204.0231771     
   2916091663.7261667     
   2783046148.4989920     
   2652703115.9746242     
   2525394745.1622334     
   3174408423.1067367     
   3030214996.3637872     
   2888255179.5971398     
   2748774090.7680807     
   2612102852.3519235     
   3332247072.1922932     
   3177847656.6092272     
   3025291858.4529853     
   2874802679.5812278     
   2726706714.7123017     
   3519150387.8724594     
   3352837945.6264529     
   3187822724.3655419     
   3024300698.5837808     
   2862590069.4470496     
   3729655435.0686221     
   3549612757.4846964     
   3370195530.0035224     
   3191568422.6920128     
   3014036849.0434828     
   2525394745.1622334     
   2382266652.7407618     
   2243331150.8037200     
   2109168423.5609102     
   1980560178.6460736     
   2612102852.3519235     
   2460530997.0679064     
   2310870351.8992891     
   2163442561.6709790     
   2018685163.3485126     
   2726706714.7123017     
   2570071880.1649055     
   2413780824.7453732     
   2257941505.2293568     
   2102699826.6401346     
   2862590069.4470496     
   2704694034.4459367     
   2546304535.6027694     
   2387418775.6696162     
   2228040141.3281498     
   3014036849.0434828     
   2858748318.8785067     
   2702781389.8281450     
   2546125529.9575982     
   2388795192.7927961     
   1980560178.6460736     
   1849106485.0159099     
   1717742348.4600086     
   1586813924.5330284     
   1456822000.0678737     
   2018685163.3485126     
   1881403037.1333826     
   1744464069.7800705     
   1607989499.5933254     
   1472146764.9067376     
   2102699826.6401346     
   1962256927.5705099     
   1822774820.3080034     
   1684277866.1035986     
   1546818900.2767472     
   2228040141.3281498     
   2085388017.7244084     
   1944388139.5348604     
   1805039695.5975411     
   1667419137.9623320     
   2388795192.7927961     
   2243259641.4329457     
   2099920956.3029976     
   1958784868.3837688     
   1820023728.5996127     
   1456822000.0678737     
   1347946534.1607187     
   1274067796.3634999     
   1243308899.0485382     
   1262698646.9032927     
   1472146764.9067376     
   1328039688.3236849     
   1198409138.8052258     
   1087735204.9639256     
   1001917149.4651538     
   1546818900.2767472     
   1397085572.0852709     
   1243796896.7482893     
   1084678836.5142026     
   917697601.06903994     
   1667419137.9623320     
   1552170003.3268125     
   1427805210.0014405     
   1294680374.9649482     
   1158914002.1552763     
   1820023728.5996127     
   1779558789.1804702     
   1735566689.4182391     
   1696679358.6408434     
   1681386785.0746090     
   1262698646.9032927     
   1446536879.1373057     
   1715592035.4341528     
   2110433287.1520305     
   2663497563.9771399     
   1001917149.4651538     
   1164607065.0093057     
   1425343610.5869071     
   1808697212.3712091     
   2334747975.8610730     
   917697601.06903994     
   963071142.65765083     
   1144873565.6064899     
   1476446042.8356404     
   1957465959.4094853     
   1158914002.1552763     
   1008435210.6734391     
   985203016.90981472     
   1161482189.7640102     
   1544167469.2911913     
   1681386785.0746090     
   1383817900.4610817     
   1129503782.2457817     
   1010176914.7163674     
   1153136050.9575837     
 </DataArray>
 <DataArray  type="Float64" Name="strain" NumberOfComponents="3" format="ascii">
   7.6162493762169881E-002  -2.9444095995921682E-002  -6.1905897924725561E-002
   7.7858957724919242E-002  -2.8600508926791557E-002  -4.4039023383034226E-002
   7.9555421687668604E-002  -2.7740305971901691E-002  -3.0258234300075348E-002
   8.1251885650417910E-002  -2.6863487131252417E-002  -2.0563530675849401E-002
   8.2948349613167216E-002  -2.5970052404844401E-002  -1.4954912510356189E-002
   8.7176555914770471E-002  -2.7712810958588463E-002  -3.4743721987236520E-002
   8.5468971167661556E-002  -2.6929256988346528E-002  -2.2691647853084751E-002
   8.3761386420552808E-002  -2.6121092961302272E-002  -1.3361585679916854E-002
   8.2053801673443977E-002  -2.5288318877455918E-002  -6.7535354677323300E-003
   8.0346216926335146E-002  -2.4430934736807686E-002  -2.8674972165316781E-003
   9.1673167939675948E-002  -2.5981525921255133E-002  -7.6455762341569589E-003
   8.7925607980457982E-002  -2.5258005049901611E-002  -1.4003083365024538E-003
   8.4178048021240209E-002  -2.4501879950702965E-002   3.4870210979177640E-003
   8.0430488062022437E-002  -2.3713150623659363E-002   7.0164120691036530E-003
   7.6682928102804498E-002  -2.2891817068770692E-002   9.1878645770548106E-003
   8.9652329836886258E-002  -2.4250240883921914E-002   1.9388539334512400E-002
   8.5228868163308547E-002  -2.3586753111456762E-002   1.9834995166713082E-002
   8.0805406489730822E-002  -2.2882666940103602E-002   2.0287586033428492E-002
   7.6381944816153041E-002  -2.2137982369862724E-002   2.0746311934658354E-002
   7.1958483142575261E-002  -2.1352699400733838E-002   2.1211172870403007E-002
   8.1114041606401899E-002  -2.2518955846588640E-002   4.6358624718771724E-002
   7.7378751716213279E-002  -2.1915501173011942E-002   4.1014262656561551E-002
   7.3643461826024659E-002  -2.1263453929504406E-002   3.7040109126614817E-002
   6.9908171935836039E-002  -2.0562814116066155E-002   3.4436164128931912E-002
   6.6172882045647391E-002  -1.9813581732696872E-002   3.3202427663512557E-002
   8.2948349613167216E-002  -2.5970052404844401E-002  -1.4954912510356189E-002
   8.0691161355082530E-002  -2.5070084778343660E-002  -1.2059477537422536E-002
   7.8433973096997789E-002  -2.4173667237417845E-002  -9.5180827379007793E-003
   7.6176784838913103E-002  -2.3280799782066451E-002  -7.3307281117902245E-003
   7.3919596580828362E-002  -2.2391482412289498E-002  -5.4974136590918432E-003
   8.0346216926335146E-002  -2.4430934736807686E-002  -2.8674972165316781E-003
   7.7819121918022316E-002  -2.3566689302755905E-002  -9.5630373489796749E-004
   7.5292026909709431E-002  -2.2713331338699294E-002   7.6911641969126809E-004
   7.2764931901396629E-002  -2.1870860844638559E-002   2.3087632472358066E-003
   7.0237836893083772E-002  -2.1039277820572799E-002   3.6626367477357036E-003
   7.6682928102804498E-002  -2.2891817068770692E-002   9.1878645770548106E-003
   7.4054193190630654E-002  -2.2063293827167679E-002   1.0107479182967782E-002
   7.1425458278456838E-002  -2.1252995439980757E-002   1.1009587308203214E-002
   6.8796723366283008E-002  -2.0460921907210227E-002   1.1894188952760912E-002
   6.6167988454109150E-002  -1.9687073228855878E-002   1.2761284116641569E-002
   7.1958483142575261E-002  -2.1352699400733838E-002   2.1211172870403007E-002
   6.9396375172907587E-002  -2.0559898351579245E-002   2.1131871216173923E-002
   6.6834267203239872E-002  -1.9792659541262213E-002   2.1203329927634910E-002
   6.4272159233572213E-002  -1.9050982969781895E-002   2.1425549004785348E-002
   6.1710051263904490E-002  -1.8334868637138846E-002   2.1798528447625656E-002
   6.6172882045647391E-002  -1.9813581732696872E-002   3.3202427663512557E-002
   6.3845667864852990E-002  -1.9056502875991449E-002   3.2116872364721355E-002
   6.1518453684058602E-002  -1.8332323642543669E-002   3.1350344277986719E-002
   5.9191239503264263E-002  -1.7641044032353864E-002   3.0902843403308844E-002
   5.6864025322469813E-002  -1.6982664045421980E-002   3.0774369740688146E-002
   7.3919596580828362E-002  -2.2391482412289498E-002  -5.4974136590918432E-003
   7.0970721138863602E-002  -2.1492465998011134E-002  -4.8768659455398211E-003
   6.8021845696898953E-002  -2.0570501409154007E-002  -4.2552265941918632E-003
   6.5072970254934220E-002  -1.9625588645718742E-002  -3.6324956050479140E-003
   6.2124094812969544E-002  -1.8657727707705796E-002  -3.0086729781072519E-003
   7.0237836893083772E-002  -2.1039277820572799E-002   3.6626367477357036E-003
   6.7318921401951892E-002  -2.0199769357113151E-002   3.9488072847749245E-003
   6.4400005910819985E-002  -1.9333522544871362E-002   4.2938060856834992E-003
   6.1481090419688120E-002  -1.8440537383846198E-002   4.6976331504617330E-003
   5.8562174928556254E-002  -1.7520813874038144E-002   5.1602884791095427E-003
   6.6167988454109150E-002  -1.9687073228855878E-002   1.2761284116641569E-002
   6.3336769539883458E-002  -1.8907072716215945E-002   1.2716867651372393E-002
   6.0505550625657864E-002  -1.8096543680588245E-002   1.2789016076046503E-002
   5.7674331711432249E-002  -1.7255486121973314E-002   1.2977729390663564E-002
   5.4843112797206606E-002  -1.6383900040370714E-002   1.3283007595223495E-002
   6.1710051263904490E-002  -1.8334868637138846E-002   2.1798528447625656E-002
   5.9024265552658571E-002  -1.7614376075318239E-002   2.1427315154253279E-002
   5.6338479841412631E-002  -1.6859564816305364E-002   2.1230403376897120E-002
   5.3652694130166656E-002  -1.6070434860100600E-002   2.1207793115557570E-002
   5.0966908418920757E-002  -1.5246986206703395E-002   2.1359484370234424E-002
   5.6864025322469813E-002  -1.6982664045421980E-002   3.0774369740688146E-002
   5.4381409440277001E-002  -1.6321679434420616E-002   3.0080149793416944E-002
   5.1898793558084216E-002  -1.5622585952022511E-002   2.9617967988235488E-002
   4.9416177675891404E-002  -1.4885383598227699E-002   2.9387824325143974E-002
   4.6933561793698619E-002  -1.4110072373035798E-002   2.9389718804142262E-002
   6.2124094812969544E-002  -1.8657727707705796E-002  -3.0086729781072519E-003
   5.9140207474831730E-002  -1.7710869935368190E-002  -2.6754295004418616E-003
   5.6156320136694027E-002  -1.6828966668960221E-002  -2.1071768444057559E-003
   5.3172432798556241E-002  -1.6012017908480822E-002  -1.3039150100000452E-003
   5.0188545460418510E-002  -1.5260023653931531E-002  -2.6564399722484033E-004
   5.8562174928556254E-002  -1.7520813874038144E-002   5.1602884791095427E-003
   5.5798105175044410E-002  -1.6613387001211122E-002   5.2630550517581698E-003
   5.3034035421532510E-002  -1.5757291751127445E-002   5.5704476152888538E-003
   5.0269965668020639E-002  -1.4952528123788264E-002   6.0824661697010396E-003
   4.7505895914508822E-002  -1.4199096119192900E-002   6.7991107149955043E-003
   5.4843112797206606E-002  -1.6383900040370714E-002   1.3283007595223495E-002
   5.2268477440832434E-002  -1.5515904067053998E-002   1.3168920146040486E-002
   4.9693842084458303E-002  -1.4685616833295584E-002   1.3229075500251347E-002
   4.7119206728084125E-002  -1.3893038339095824E-002   1.3463473657855565E-002
   4.4544571371709973E-002  -1.3138168584454379E-002   1.3872114618852849E-002
   5.0966908418920757E-002  -1.5246986206703395E-002   2.1359484370234424E-002
   4.8551324272196029E-002  -1.4418421132896680E-002   2.1042165782405239E-002
   4.6135740125471308E-002  -1.3613941915463265E-002   2.0868706810481252E-002
   4.3720155978746636E-002  -1.2833548554402992E-002   2.0839107454462599E-002
   4.1304571832021915E-002  -1.2077241049715803E-002   2.0953367714349511E-002
   4.6933561793698619E-002  -1.4110072373035798E-002   2.9389718804142262E-002
   4.4646645669135121E-002  -1.3320938198739474E-002   2.8882791960852083E-002
   4.2359729544571650E-002  -1.2542266997630905E-002   2.8489341545979291E-002
   4.0072813420008166E-002  -1.1774058769710261E-002   2.8209367559523482E-002
   3.7785897295444681E-002  -1.1016313514977227E-002   2.8042870001484754E-002
   5.0188545460418510E-002  -1.5260023653931531E-002  -2.6564399722484033E-004
   4.7593195868375959E-002  -1.4514731226817901E-002  -9.0548895494313442E-005
   4.4997846276333353E-002  -1.3717887948645646E-002  -7.1656326606772680E-006
   4.2402496684290719E-002  -1.2869493819415975E-002  -1.5494208722210967E-005
   3.9807147092248196E-002  -1.1969548839128263E-002  -1.1553462367963618E-004
   4.7505895914508822E-002  -1.4199096119192900E-002   6.7991107149955043E-003
   4.4852394752664726E-002  -1.3453302563016800E-002   6.7728938774123115E-003
   4.2198893590820546E-002  -1.2671454280934524E-002   6.7220857391215860E-003
   3.9545392428976409E-002  -1.1853551272946072E-002   6.6466863001241050E-003
   3.6891891267132382E-002  -1.0999593539052555E-002   6.5466955604193133E-003
   4.4544571371709973E-002  -1.3138168584454379E-002   1.3872114618852849E-002
   4.1900039178252857E-002  -1.2391873899215700E-002   1.3629089716805015E-002
   3.9255506984795727E-002  -1.1625020613223208E-002   1.3428594052237980E-002
   3.6610974791338589E-002  -1.0837608726476843E-002   1.3270627625152256E-002
   3.3966442597881480E-002  -1.0029638238976735E-002   1.3155190435547859E-002
   4.1304571832021915E-002  -1.2077241049715803E-002   2.0953367714349511E-002
   3.8736129145140373E-002  -1.1330445235414377E-002   2.0478038622684366E-002
   3.6167686458258824E-002  -1.0578586945511545E-002   2.0112359306688629E-002
   3.3599243771377213E-002  -9.8216661800070541E-003   1.9856329766362969E-002
   3.1030801084495734E-002  -9.0596829389010813E-003   1.9709950001706861E-002
   3.7785897295444681E-002  -1.1016313514977227E-002   2.8042870001484754E-002
   3.5360664653327212E-002  -1.0269016571613387E-002   2.7319740595049935E-002
   3.2935432011209770E-002  -9.5321532778002982E-003   2.6773381502473714E-002
   3.0510199369092328E-002  -8.8057236335372033E-003   2.6403792723755620E-002
   2.8084966726974858E-002  -8.0897276388252060E-003   2.6210974258895736E-002
   3.9807147092248196E-002  -1.1969548839128263E-002  -1.1553462367963618E-004
   3.7407766645521812E-002  -1.1126918882164549E-002  -3.5623378088089908E-004
   3.5008386198795260E-002  -1.0450469822906649E-002  -5.1781686123009152E-004
   3.2609005752068848E-002  -9.9402016613549526E-003  -6.0028386472843476E-004
   3.0209625305342325E-002  -9.5961143975082930E-003  -6.0363479137448550E-004
   3.6891891267132382E-002  -1.0999593539052555E-002   6.5466955604193133E-003
   3.4554747079869164E-002  -1.0183252338750282E-002   6.1401893962962362E-003
   3.2217602892606029E-002  -9.4781989315382842E-003   5.7790396742493089E-003
   2.9880458705342824E-002  -8.8844333174155771E-003   5.4632463942764775E-003
   2.7543314518079731E-002  -8.4019554963827847E-003   5.1928095563789078E-003
   3.3966442597881480E-002  -1.0029638238976735E-002   1.3155190435547859E-002
   3.1657775035304841E-002  -9.2395857953366800E-003   1.2637770369120782E-002
   2.9349107472728161E-002  -8.5059280401699189E-003   1.2131947109991326E-002
   2.7040439910151516E-002  -7.8286649734768676E-003   1.1637720658160017E-002
   2.4731772347574843E-002  -7.2077965952571654E-003   1.1155091013626828E-002
   3.1030801084495734E-002  -9.0596829389010813E-003   1.9709950001706861E-002
   2.8716850511828686E-002  -8.2959192519227454E-003   1.9136509137590407E-002
   2.6402899939161766E-002  -7.5336571488017756E-003   1.8540905445995765E-002
   2.4088949366494812E-002  -6.7728966295380472E-003   1.7923138926922121E-002
   2.1774998793827854E-002  -6.0136376941318237E-003   1.7283209580369510E-002
   2.8084966726974858E-002  -8.0897276388252060E-003   2.6210974258895736E-002
   2.5731973509440786E-002  -7.3522527085086997E-003   2.5636405701706999E-002
   2.3378980291906742E-002  -6.5613862574334381E-003   2.5005914682262487E-002
   2.1025987074372685E-002  -5.7171282855990671E-003   2.4319501200562699E-002
   1.8672993856838627E-002  -4.8194787930060379E-003   2.3577165256607802E-002
   3.0209625305342325E-002  -9.5961143975082930E-003  -6.0363479137448550E-004
   2.9602366830623339E-002  -9.1310231888064308E-003  -3.6115045558249292E-004
   2.8995108355904242E-002  -8.2577431926841860E-003  -1.7989345434324955E-003
   2.8387849881185201E-002  -6.9762744091447088E-003  -4.9169870549234940E-003
   2.7780591406466160E-002  -5.2866168381862089E-003  -9.7153079900562656E-003
   2.7543314518079731E-002  -8.4019554963827847E-003   5.1928095563789078E-003
   2.5524946902386547E-002  -7.8695746429336966E-003   5.8688631142662651E-003
   2.3506579286693391E-002  -7.1260999315628237E-003   5.4029668138467768E-003
   2.1488211671000249E-002  -6.1715313622707352E-003   3.7951206551206929E-003
   1.9469844055307051E-002  -5.0058689350560570E-003   1.0453246380879300E-003
   2.4731772347574843E-002  -7.2077965952571654E-003   1.1155091013626828E-002
   2.1840614156242444E-002  -6.6081260970620725E-003   1.2067618864112728E-002
   1.8949455964909989E-002  -5.9944566704414892E-003   1.2376515421627043E-002
   1.6058297773577576E-002  -5.3667883153967685E-003   1.2081780686169649E-002
   1.3167139582245135E-002  -4.7251210319261272E-003   1.1183414657739199E-002
   2.1774998793827854E-002  -6.0136376941318237E-003   1.7283209580369510E-002
   1.8549368592190973E-002  -5.3466775511900044E-003   1.8235116793957451E-002
   1.5323738390554058E-002  -4.8628134093199188E-003   1.9121711279907881E-002
   1.2098108188917215E-002  -4.5620452685225764E-003   1.9942993038221533E-002
   8.8724779872803722E-003  -4.4443731287965305E-003   2.0698962068898180E-002
   1.8672993856838627E-002  -4.8194787930060379E-003   2.3577165256607802E-002
   1.5651210210232136E-002  -4.0852290053177698E-003   2.4371356903799879E-002
   1.2629426563625673E-002  -3.7311701481985426E-003   2.5638554388690060E-002
   9.6076429170191685E-003  -3.7573022216482663E-003   2.7378757711278068E-002
   6.5858592704127195E-003  -4.1636252256666006E-003   2.9591966871564179E-002
   2.7780591406466160E-002  -5.2866168381862089E-003  -9.7153079900562656E-003
   2.3354163459146982E-002  -4.2060579800520248E-003  -4.1868316439517272E-003
   1.8927735511827803E-002  -4.7518853349840517E-003   2.6055696544926565E-003
   1.4501307564508570E-002  -6.9240989029850375E-003   1.0661895905278329E-002
   1.0074879617189447E-002  -1.0722698684052290E-002   1.9982147108404291E-002
   1.9469844055307051E-002  -5.0058689350560570E-003   1.0453246380879300E-003
   1.6234971438543577E-002  -4.6907672742094730E-003   6.7401734386424161E-003
   1.3000098821780104E-002  -6.2878810040197797E-003   1.3554207947967023E-002
   9.7652262050164917E-003  -9.7972101244863941E-003   2.1487428166062472E-002
   6.5303535882530461E-003  -1.5218754635610843E-002   3.0539834092928153E-002
   1.3167139582245135E-002  -4.7251210319261272E-003   1.1183414657739199E-002
   1.0979083052467309E-002  -5.1754765683670323E-003   1.6758806735154119E-002
   8.7910265226894546E-003  -7.8238766730544529E-003   2.3308645277769158E-002
   6.6029699929115310E-003  -1.2670321345988875E-002   3.0832930285585120E-002
   4.4149134631337739E-003  -1.9714810587169396E-002   3.9331661758601477E-002
   8.8724779872803722E-003  -4.4443731287965305E-003   2.0698962068898180E-002
   7.5864983009182249E-003  -5.6601858625249801E-003   2.5869068245583243E-002
   6.3005186145560846E-003  -9.3598723420894314E-003   3.1868881643898617E-002
   5.0145389281939200E-003  -1.5543432567490571E-002   3.8698402263846000E-002
   3.7285592418316998E-003  -2.4210866538727949E-002   4.6357630105422432E-002
   6.5858592704127195E-003  -4.1636252256666006E-003   2.9591966871564179E-002
   6.0572171838961797E-003  -6.1448951566825949E-003   3.4070957969929982E-002
   5.5285750973796399E-003  -1.0895868011124604E-002   3.9234917046357121E-002
   4.9999330108631973E-003  -1.8416543788992594E-002   4.5083844100844345E-002
   4.4712909243466159E-003  -2.8706922490286502E-002   5.1617739133392515E-002
   8.1114041606401899E-002  -2.2518955846588640E-002   4.6358624718771724E-002
   7.7378751716213279E-002  -2.1915501173011942E-002   4.1014262656561551E-002
   7.3643461826024659E-002  -2.1263453929504406E-002   3.7040109126614817E-002
   6.9908171935836039E-002  -2.0562814116066155E-002   3.4436164128931912E-002
   6.6172882045647391E-002  -1.9813581732696872E-002   3.3202427663512557E-002
   7.0273810915843615E-002  -2.0613003214592751E-002   4.5533854612407887E-002
   6.7708364768686718E-002  -2.0045730417786345E-002   4.1944781788624041E-002
   6.5142918621529822E-002  -1.9442872550687815E-002   3.9325187918640286E-002
   6.2577472474372980E-002  -1.8804429613297365E-002   3.7675073002456538E-002
   6.0012026327216056E-002  -1.8130401605614743E-002   3.6994437040072214E-002
   6.1347145432832317E-002  -1.8707050582596807E-002   4.4679406379092679E-002
   5.9550813450243392E-002  -1.8175959662560734E-002   4.2832615294097279E-002
   5.7754481467654481E-002  -1.7622291171871279E-002   4.1554573584437454E-002
   5.5958149485065514E-002  -1.7046045110528575E-002   4.0845281250113705E-002
   5.4161817502476610E-002  -1.6447221478532559E-002   4.0704738291126044E-002
   5.4334045157368269E-002  -1.6801097950600891E-002   4.3795280018827085E-002
   5.2906097760883411E-002  -1.6306188907335144E-002   4.3677763172980416E-002
   5.1478150364398560E-002  -1.5801709793054772E-002   4.3728266124006050E-002
   5.0050202967913737E-002  -1.5287660607759868E-002   4.3946788871903897E-002
   4.8622255571428852E-002  -1.4764041351450374E-002   4.4333331416673859E-002
   4.9234510089451400E-002  -1.4895145318604974E-002   4.2881475531610092E-002
   4.7774217700606747E-002  -1.4436418152109526E-002   4.4480225425274023E-002
   4.6313925311762177E-002  -1.3981128414238195E-002   4.5846265537346248E-002
   4.4853632922917608E-002  -1.3529276104991047E-002   4.6979595867826754E-002
   4.3393340534073011E-002  -1.3080861224368190E-002   4.7880216416715748E-002
   6.6172882045647391E-002  -1.9813581732696872E-002   3.3202427663512557E-002
   6.3845667864852990E-002  -1.9056502875991449E-002   3.2116872364721355E-002
   6.1518453684058602E-002  -1.8332323642543669E-002   3.1350344277986719E-002
   5.9191239503264263E-002  -1.7641044032353864E-002   3.0902843403308844E-002
   5.6864025322469813E-002  -1.6982664045421980E-002   3.0774369740688146E-002
   6.0012026327216056E-002  -1.8130401605614743E-002   3.6994437040072214E-002
   5.7978600998420352E-002  -1.7448114020404359E-002   3.6168307505667241E-002
   5.5945175669624633E-002  -1.6784892350430763E-002   3.5610728463202526E-002
   5.3911750340828922E-002  -1.6140736595693490E-002   3.5321699912678355E-002
   5.1878325012033211E-002  -1.5515646756192991E-002   3.5301221854094483E-002
   5.4161817502476610E-002  -1.6447221478532559E-002   4.0704738291126044E-002
   5.2371704305563087E-002  -1.5839725164817506E-002   4.0151868229128543E-002
   5.0581591108649598E-002  -1.5237461058317692E-002   3.9817071938955090E-002
   4.8791477911736061E-002  -1.4640429159033116E-002   3.9700349420605616E-002
   4.7001364714822566E-002  -1.4048629466963919E-002   3.9801700674080148E-002
   4.8622255571428852E-002  -1.4764041351450374E-002   4.4333331416673859E-002
   4.7024977786281147E-002  -1.4231336309230506E-002   4.4067554535105233E-002
   4.5427700001133421E-002  -1.3690029766204731E-002   4.3969374705244257E-002
   4.3830422215985682E-002  -1.3140121722372743E-002   4.4038791927091044E-002
   4.2233144430837928E-002  -1.2581612177734888E-002   4.4275806200645050E-002
   4.3393340534073011E-002  -1.3080861224368190E-002   4.7880216416715748E-002
   4.1938421440574594E-002  -1.2622947453643563E-002   4.7915366423597672E-002
   4.0483502347076178E-002  -1.2142598474091590E-002   4.8067636762070237E-002
   3.9028583253577762E-002  -1.1639814285712393E-002   4.8337027432134333E-002
   3.7573664160079345E-002  -1.1114594888505858E-002   4.8723538433789237E-002
   5.6864025322469813E-002  -1.6982664045421980E-002   3.0774369740688146E-002
   5.4381409440277001E-002  -1.6321679434420616E-002   3.0080149793416944E-002
   5.1898793558084216E-002  -1.5622585952022511E-002   2.9617967988235488E-002
   4.9416177675891404E-002  -1.4885383598227699E-002   2.9387824325143974E-002
   4.6933561793698619E-002  -1.4110072373035798E-002   2.9389718804142262E-002
   5.1878325012033211E-002  -1.5515646756192991E-002   3.5301221854094483E-002
   4.9620119787488551E-002  -1.4885437422816367E-002   3.4741821322800320E-002
   4.7361914562943919E-002  -1.4225923186451217E-002   3.4399203964712508E-002
   4.5103709338399259E-002  -1.3537104047097459E-002   3.4273369779831399E-002
   4.2845504113854627E-002  -1.2818980004754899E-002   3.4364318768156710E-002
   4.7001364714822566E-002  -1.4048629466963919E-002   3.9801700674080148E-002
   4.4952315179042766E-002  -1.3449195411212131E-002   3.9368315590354780E-002
   4.2903265643262883E-002  -1.2829260420879965E-002   3.9136458710952643E-002
   4.0854216107483063E-002  -1.2188824495967272E-002   3.9106130035873508E-002
   3.8805166571703256E-002  -1.1527887636474027E-002   3.9277329565117550E-002
   4.2233144430837928E-002  -1.2581612177734888E-002   4.4275806200645050E-002
   4.0377995614939585E-002  -1.2012953399607916E-002   4.3959632596080517E-002
   3.8522846799041249E-002  -1.1432597655308498E-002   4.3829732226955576E-002
   3.6667697983142872E-002  -1.0840544944837114E-002   4.3886105093270497E-002
   3.4812549167244508E-002  -1.0236795268193141E-002   4.4128751195025212E-002
   3.7573664160079345E-002  -1.1114594888505858E-002   4.8723538433789237E-002
   3.5897161095179098E-002  -1.0576711388003618E-002   4.8515772339977170E-002
   3.4220658030278850E-002  -1.0035934889737419E-002   4.8479024512721403E-002
   3.2544154965378602E-002  -9.4922653937069279E-003   4.8613294952022323E-002
   3.0867651900478382E-002  -8.9457028999122556E-003   4.8918583657879378E-002
   4.6933561793698619E-002  -1.4110072373035798E-002   2.9389718804142262E-002
   4.4646645669135121E-002  -1.3320938198739474E-002   2.8882791960852083E-002
   4.2359729544571650E-002  -1.2542266997630905E-002   2.8489341545979291E-002
   4.0072813420008166E-002  -1.1774058769710261E-002   2.8209367559523482E-002
   3.7785897295444681E-002  -1.1016313514977227E-002   2.8042870001484754E-002
   4.2845504113854627E-002  -1.2818980004754899E-002   3.4364318768156710E-002
   4.0682069642715896E-002  -1.2088801078616956E-002   3.3907288233274130E-002
   3.8518635171577165E-002  -1.1363817287876693E-002   3.3583744576823837E-002
   3.6355200700438461E-002  -1.0644028632534046E-002   3.3393687798806276E-002
   3.4191766229299703E-002  -9.9294351125889246E-003   3.3337117899220559E-002
   3.8805166571703256E-002  -1.1527887636474027E-002   3.9277329565117550E-002
   3.6785224204004527E-002  -1.0856663958494439E-002   3.8875463176432784E-002
   3.4765281836305777E-002  -1.0185367578122252E-002   3.8627094116195464E-002
   3.2745339468607082E-002  -9.5139984953576621E-003   3.8532222384406081E-002
   3.0725397100908283E-002  -8.8425567102005109E-003   3.8590847981063853E-002
   3.4812549167244508E-002  -1.0236795268193141E-002   4.4128751195025212E-002
   3.2956109353001015E-002  -9.6245268383718663E-003   4.3787316790328205E-002
   3.1099669538757514E-002  -9.0069178683680369E-003   4.3619390164094100E-002
   2.9243229724514010E-002  -8.3839683581813061E-003   4.3624971316322696E-002
   2.7386789910270458E-002  -7.7556783078119862E-003   4.3804060247014338E-002
   3.0867651900478382E-002  -8.9457028999122556E-003   4.8918583657879378E-002
   2.9194725089705331E-002  -8.3923897182494600E-003   4.8642849074960359E-002
   2.7521798278932322E-002  -7.8284681586136551E-003   4.8560632720519414E-002
   2.5848871468159305E-002  -7.2539382210049935E-003   4.8671934594556626E-002
   2.4175944657386261E-002  -6.6687999054236835E-003   4.8976754697071745E-002
   3.7785897295444681E-002  -1.1016313514977227E-002   2.8042870001484754E-002
   3.5360664653327212E-002  -1.0269016571613387E-002   2.7319740595049935E-002
   3.2935432011209770E-002  -9.5321532778002982E-003   2.6773381502473714E-002
   3.0510199369092328E-002  -8.8057236335372033E-003   2.6403792723755620E-002
   2.8084966726974858E-002  -8.0897276388252060E-003   2.6210974258895736E-002
   3.4191766229299703E-002  -9.9294351125889246E-003   3.3337117899220559E-002
   3.1939845431292718E-002  -9.2207350945491817E-003   3.2729779201809639E-002
   2.9687924633285678E-002  -8.5186269449225860E-003   3.2292293878761286E-002
   2.7436003835278666E-002  -7.8231106637087836E-003   3.2024661930075748E-002
   2.5184083037271654E-002  -7.1341862509082254E-003   3.1926883355752389E-002
   3.0725397100908283E-002  -8.8425567102005109E-003   3.8590847981063853E-002
   2.8639871207515932E-002  -8.1724536174848095E-003   3.8103141773814492E-002
   2.6554345314123526E-002  -7.5051006120447766E-003   3.7778372001431693E-002
   2.4468819420731161E-002  -6.8404976938802563E-003   3.7616538663915476E-002
   2.2383293527338782E-002  -6.1786448629912449E-003   3.7617641761266085E-002
   2.7386789910270458E-002  -7.7556783078119862E-003   4.3804060247014338E-002
   2.5460741981996896E-002  -7.1241721404204095E-003   4.3439828311063598E-002
   2.3534694053723337E-002  -6.4915742791671269E-003   4.3231615870483936E-002
   2.1608646125449757E-002  -5.8578847240515607E-003   4.3179422925275074E-002
   1.9682598197176163E-002  -5.2231034750743199E-003   4.3283249475437220E-002
   2.4175944657386261E-002  -6.6687999054236835E-003   4.8976754697071745E-002
   2.2402457754735677E-002  -6.0758906633562315E-003   4.8739838813557590E-002
   2.0628970852085093E-002  -5.4780479462893106E-003   4.8652025485918349E-002
   1.8855483949434496E-002  -4.8752717542232121E-003   4.8713314714154354E-002
   1.7081997046783842E-002  -4.2675620871572839E-003   4.8923706498265274E-002
   2.8084966726974858E-002  -8.0897276388252060E-003   2.6210974258895736E-002
   2.5731973509440786E-002  -7.3522527085086997E-003   2.5636405701706999E-002
   2.3378980291906742E-002  -6.5613862574334381E-003   2.5005914682262487E-002
   2.1025987074372685E-002  -5.7171282855990671E-003   2.4319501200562699E-002
   1.8672993856838627E-002  -4.8194787930060379E-003   2.3577165256607802E-002
   2.5184083037271654E-002  -7.1341862509082254E-003   3.1926883355752389E-002
   2.2814634324109240E-002  -6.4425898572627038E-003   3.1524539620391756E-002
   2.0445185610946826E-002  -5.7390576335150933E-003   3.1145207356029991E-002
   1.8075736897784356E-002  -5.0235895796643046E-003   3.0788886562666623E-002
   1.5706288184621997E-002  -4.2961856957111078E-003   3.0455577240302290E-002
   2.2383293527338782E-002  -6.1786448629912449E-003   3.7617641761266085E-002
   2.0076323251802211E-002  -5.5329270060168745E-003   3.7346067157077417E-002
   1.7769352976265730E-002  -4.9167290095965127E-003   3.7176437957141581E-002
   1.5462382700729218E-002  -4.3300508737295386E-003   3.7108754161459083E-002
   1.3155412425192692E-002  -3.7728925984165107E-003   3.7143015770029014E-002
   1.9682598197176163E-002  -5.2231034750743199E-003   4.3283249475437220E-002
   1.7517040292519746E-002  -4.6232641547710729E-003   4.3100988311763712E-002
   1.5351482387863430E-002  -4.0944003856778280E-003   4.3099606485597797E-002
   1.3185924483207011E-002  -3.6365121677948854E-003   4.3279103996939079E-002
   1.1020366578550638E-002  -3.2495995011220247E-003   4.3639480845787774E-002
   1.7081997046783842E-002  -4.2675620871572839E-003   4.8923706498265274E-002
   1.5136785446261902E-002  -3.7136013035251048E-003   4.8789303084450841E-002
   1.3191573845739948E-002  -3.2720717617595041E-003   4.8914712941398486E-002
   1.1246362245218001E-002  -2.9429734618597672E-003   4.9299936069107236E-002
   9.3011506446960546E-003  -2.7263064038269835E-003   4.9944972467578008E-002
   1.8672993856838627E-002  -4.8194787930060379E-003   2.3577165256607802E-002
   1.5651210210232136E-002  -4.0852290053177698E-003   2.4371356903799879E-002
   1.2629426563625673E-002  -3.7311701481985426E-003   2.5638554388690060E-002
   9.6076429170191685E-003  -3.7573022216482663E-003   2.7378757711278068E-002
   6.5858592704127195E-003  -4.1636252256666006E-003   2.9591966871564179E-002
   1.5706288184621997E-002  -4.2961856957111078E-003   3.0455577240302290E-002
   1.3139132660690694E-002  -3.7814005311809784E-003   3.1238538985500774E-002
   1.0571977136759364E-002  -3.7037886355991423E-003   3.2457751138351837E-002
   8.0048216128280891E-003  -4.0633500089660365E-003   3.4113213698855352E-002
   5.4376660888967865E-003  -4.8600846512812934E-003   3.6204926667011361E-002
   1.3155412425192692E-002  -3.7728925984165107E-003   3.7143015770029014E-002
   1.1006129593891259E-002  -3.4775720570443813E-003   3.7857765274854044E-002
   8.8568467625898262E-003  -3.6764071230001999E-003   3.8972009757286055E-002
   6.7075639312884246E-003  -4.3693977962841433E-003   4.0485749217325596E-002
   4.5582810999869605E-003  -5.5565440768961527E-003   4.2398983654972106E-002
   1.1020366578550638E-002  -3.2495995011220247E-003   4.3639480845787774E-002
   9.2522010098338887E-003  -3.1737435829076316E-003   4.4229035771859472E-002
   7.4840354411170578E-003  -3.6490256104013061E-003   4.5181330245493034E-002
   5.7158698724002694E-003  -4.6754455836020819E-003   4.6496364266688524E-002
   3.9477043036834775E-003  -6.2530035025111508E-003   4.8174137835446044E-002
   9.3011506446960546E-003  -2.7263064038269835E-003   4.9944972467578008E-002
   7.8773469085185177E-003  -2.8699151087709374E-003   5.0352350476516983E-002
   6.4535431723410364E-003  -3.6216440978016073E-003   5.1085712602972511E-002
   5.0297394361635550E-003  -4.9814933709202355E-003   5.2145058846944842E-002
   3.6059356999860737E-003  -6.9494629281255937E-003   5.3530389208433449E-002
   6.5858592704127195E-003  -4.1636252256666006E-003   2.9591966871564179E-002
   6.0572171838961797E-003  -6.1448951566825949E-003   3.4070957969929982E-002
   5.5285750973796399E-003  -1.0895868011124604E-002   3.9234917046357121E-002
   4.9999330108631973E-003  -1.8416543788992594E-002   4.5083844100844345E-002
   4.4712909243466159E-003  -2.8706922490286502E-002   5.1617739133392515E-002
   5.4376660888967865E-003  -4.8600846512812934E-003   3.6204926667011361E-002
   5.4902336951220820E-003  -6.9935754097917857E-003   3.8345946729231195E-002
   5.5428013013473776E-003  -1.1363405131742804E-002   4.0964418198874197E-002
   5.5953689075726870E-003  -1.7969573817135813E-002   4.4060341075940007E-002
   5.6479365137979687E-003  -2.6812081465970028E-002   4.7633715360429152E-002
   4.5582810999869605E-003  -5.5565440768961527E-003   4.2398983654972106E-002
   4.9845418283165494E-003  -7.8422556629005880E-003   4.2735396641030210E-002
   5.4108025566461104E-003  -1.1830942252361351E-002   4.3341744463873969E-002
   5.8370632849756819E-003  -1.7522603845279091E-002   4.4218027123502861E-002
   6.2633240133052048E-003  -2.4917240441653332E-002   4.5364244619917726E-002
   3.9477043036834775E-003  -6.2530035025111508E-003   4.8174137835446044E-002
   4.5401415834796233E-003  -8.6909359160091404E-003   4.7239307705327437E-002
   5.1325788632757188E-003  -1.2298479372980058E-002   4.6366895841356712E-002
   5.7250161430719973E-003  -1.7075633873422452E-002   4.5556902243533599E-002
   6.3174534228679635E-003  -2.3022399417336636E-002   4.4809326911858793E-002
   3.6059356999860737E-003  -6.9494629281255937E-003   5.3530389208433449E-002
   4.1570329606112344E-003  -9.5396161691186920E-003   5.1857679922122868E-002
   4.7081302212363674E-003  -1.2766016493598181E-002   5.0039872331322066E-002
   5.2592274818615559E-003  -1.6628663901565720E-002   4.8076966436031626E-002
   5.8103247424866611E-003  -2.1127558393020163E-002   4.5968962236251798E-002
   4.9234510089451400E-002  -1.4895145318604974E-002   4.2881475531610092E-002
   4.7774217700606747E-002  -1.4436418152109526E-002   4.4480225425274023E-002
   4.6313925311762177E-002  -1.3981128414238195E-002   4.5846265537346248E-002
   4.4853632922917608E-002  -1.3529276104991047E-002   4.6979595867826754E-002
   4.3393340534073011E-002  -1.3080861224368190E-002   4.7880216416715748E-002
   4.4663692106420017E-002  -1.3006502148781296E-002   4.8741877897857389E-002
   4.3059160985250089E-002  -1.2624865560459192E-002   4.9573629047602569E-002
   4.1454629864080120E-002  -1.2238469054330722E-002   5.0349612514288766E-002
   3.9850098742910171E-002  -1.1847312630396092E-002   5.1069828297916023E-002
   3.8245567621740209E-002  -1.1451396288655213E-002   5.1734276398484047E-002
   3.9236743085612660E-002  -1.1117858978957618E-002   5.4521091012716169E-002
   3.7664915330649945E-002  -1.0813312968808844E-002   5.4594040764973220E-002
   3.6093087575687251E-002  -1.0495809694423340E-002   5.4788164932703755E-002
   3.4521259820724556E-002  -1.0165349155801221E-002   5.5103463515907947E-002
   3.2949432065761869E-002  -9.8219313529423202E-003   5.5539936514585567E-002
   3.2953663027029276E-002  -9.2292158091339255E-003   6.0219114876186239E-002
   3.1591480736806461E-002  -9.0017603771585311E-003   5.9541460577385658E-002
   3.0229298446583619E-002  -8.7531503345159127E-003   5.9161922792590943E-002
   2.8867116156360787E-002  -8.4833856812062264E-003   5.9080501521802581E-002
   2.7504933866137931E-002  -8.1924664172294132E-003   5.9297196765020405E-002
   2.5814451930669891E-002  -7.3405726393102610E-003   6.5835949488267986E-002
   2.4838857203719533E-002  -7.1902077855081625E-003   6.4415888484839867E-002
   2.3863262476769176E-002  -7.0104909746084854E-003   6.3470886093950574E-002
   2.2887667749818812E-002  -6.8014222066112989E-003   6.3000942315599995E-002
   2.1912073022868461E-002  -6.5630014815165061E-003   6.3006057149788242E-002
   4.3393340534073011E-002  -1.3080861224368190E-002   4.7880216416715748E-002
   4.1938421440574594E-002  -1.2622947453643563E-002   4.7915366423597672E-002
   4.0483502347076178E-002  -1.2142598474091590E-002   4.8067636762070237E-002
   3.9028583253577762E-002  -1.1639814285712393E-002   4.8337027432134333E-002
   3.7573664160079345E-002  -1.1114594888505858E-002   4.8723538433789237E-002
   3.8245567621740209E-002  -1.1451396288655213E-002   5.1734276398484047E-002
   3.6920978162753276E-002  -1.1044456228035571E-002   5.1654134429029969E-002
   3.5596388703766309E-002  -1.0620228647464716E-002   5.1717531397007549E-002
   3.4271799244779355E-002  -1.0178713546942459E-002   5.1924467302416968E-002
   3.2947209785792408E-002  -9.7199109264692329E-003   5.2274942145258158E-002
   3.2949432065761869E-002  -9.8219313529423202E-003   5.5539936514585567E-002
   3.1781590847127089E-002  -9.4659650024275233E-003   5.5339354879919408E-002
   3.0613749628492316E-002  -9.0978588208376274E-003   5.5308730788525752E-002
   2.9445908409857547E-002  -8.7176128081725267E-003   5.5448064240404576E-002
   2.8278067191222764E-002  -8.3252269644324972E-003   5.5757355235555944E-002
   2.7504933866137931E-002  -8.1924664172294132E-003   5.9297196765020405E-002
   2.6520259493696074E-002  -7.8874737768195313E-003   5.8971027776266005E-002
   2.5535585121254187E-002  -7.5754889942106461E-003   5.8841234936624881E-002
   2.4550910748812309E-002  -7.2565120694025936E-003   5.8907818246096928E-002
   2.3566236376370436E-002  -6.9305430023958448E-003   5.9170777704682390E-002
   2.1912073022868461E-002  -6.5630014815165061E-003   6.3006057149788242E-002
   2.1136984102460191E-002  -6.3089825512115116E-003   6.2549153118069661E-002
   2.0361895182051920E-002  -6.0531191675835261E-003   6.2315043841304929E-002
   1.9586806261643656E-002  -5.7954113306327368E-003   6.2303729319494155E-002
   1.8811717341235393E-002  -5.5358590403590813E-003   6.2515209552637507E-002
   3.7573664160079345E-002  -1.1114594888505858E-002   4.8723538433789237E-002
   3.5897161095179098E-002  -1.0576711388003618E-002   4.8515772339977170E-002
   3.4220658030278850E-002  -1.0035934889737419E-002   4.8479024512721403E-002
   3.2544154965378602E-002  -9.4922653937069279E-003   4.8613294952022323E-002
   3.0867651900478382E-002  -8.9457028999122556E-003   4.8918583657879378E-002
   3.2947209785792408E-002  -9.7199109264692329E-003   5.2274942145258158E-002
   3.1448811784473105E-002  -9.2498030419337351E-003   5.2035682631156488E-002
   2.9950413783153829E-002  -8.7743721492254123E-003   5.1981614977660087E-002
   2.8452015781834573E-002  -8.2936182483439660E-003   5.2112739184769462E-002
   2.6953617780515249E-002  -7.8075413392896253E-003   5.2429055252483925E-002
   2.8278067191222764E-002  -8.3252269644324972E-003   5.5757355235555944E-002
   2.6971947847533484E-002  -7.9228946958637553E-003   5.5489032311573455E-002
   2.5665828503844211E-002  -7.5128094087133501E-003   5.5420074842245398E-002
   2.4359709160154949E-002  -7.0949711029808932E-003   5.5550482827571940E-002
   2.3053589816465624E-002  -6.6693797786667730E-003   5.5880256267552997E-002
   2.3566236376370436E-002  -6.9305430023958448E-003   5.9170777704682390E-002
   2.2466569284360204E-002  -6.5959863497939628E-003   5.8875821381227787E-002
   2.1366902192349942E-002  -6.2512466682013157E-003   5.8794404106477099E-002
   2.0267235100339721E-002  -5.8963239576180423E-003   5.8926525880429868E-002
   1.9167568008329444E-002  -5.5312182180439207E-003   5.9272186703086163E-002
   1.8811717341235393E-002  -5.5358590403590813E-003   6.2515209552637507E-002
   1.7932676094953234E-002  -5.2690780037239204E-003   6.2196049840120171E-002
   1.7053634848671069E-002  -4.9896839276894339E-003   6.2104602770355399E-002
   1.6174593602388914E-002  -4.6976768122549244E-003   6.2240868343343289E-002
   1.5295552356106759E-002  -4.3930566574211793E-003   6.2604846559083827E-002
   3.0867651900478382E-002  -8.9457028999122556E-003   4.8918583657879378E-002
   2.9194725089705331E-002  -8.3923897182494600E-003   4.8642849074960359E-002
   2.7521798278932322E-002  -7.8284681586136551E-003   4.8560632720519414E-002
   2.5848871468159305E-002  -7.2539382210049935E-003   4.8671934594556626E-002
   2.4175944657386261E-002  -6.6687999054236835E-003   4.8976754697071745E-002
   2.6953617780515249E-002  -7.8075413392896253E-003   5.2429055252483925E-002
   2.5475668698597298E-002  -7.3141645373309139E-003   5.2178728903659655E-002
   2.3997719616679333E-002  -6.8115109577363692E-003   5.2124839784067262E-002
   2.2519770534761376E-002  -6.2995806005061473E-003   5.2267387893706982E-002
   2.1041821452843446E-002  -5.7783734656404184E-003   5.2606373232578607E-002
   2.3053589816465624E-002  -6.6693797786667730E-003   5.5880256267552997E-002
   2.1773537464156625E-002  -6.2359393564122290E-003   5.5654006552486188E-002
   2.0493485111847603E-002  -5.7945537568591388E-003   5.5627113067405254E-002
   1.9213432759538580E-002  -5.3452229800073567E-003   5.5799575812310265E-002
   1.7933380407229582E-002  -4.8879470258569868E-003   5.6171394787201290E-002
   1.9167568008329444E-002  -5.5312182180439207E-003   5.9272186703086163E-002
   1.8088331386383306E-002  -5.1577141754936690E-003   5.9068682021439778E-002
   1.7009094764437137E-002  -4.7775965559818806E-003   5.9067452570533356E-002
   1.5929858142490969E-002  -4.3908653595084828E-003   5.9268498350366849E-002
   1.4850621520544831E-002  -3.9975205860736385E-003   5.9671819360939668E-002
   1.5295552356106759E-002  -4.3930566574211793E-003   6.2604846559083827E-002
   1.4420050465277334E-002  -4.0794889945750534E-003   6.2422755310520772E-002
   1.3544548574447944E-002  -3.7606393551045669E-003   6.2445858293451728E-002
   1.2669046683618537E-002  -3.4365077390096505E-003   6.2674155507876167E-002
   1.1793544792789129E-002  -3.1070941462902901E-003   6.3107646953794450E-002
   2.4175944657386261E-002  -6.6687999054236835E-003   4.8976754697071745E-002
   2.2402457754735677E-002  -6.0758906633562315E-003   4.8739838813557590E-002
   2.0628970852085093E-002  -5.4780479462893106E-003   4.8652025485918349E-002
   1.8855483949434496E-002  -4.8752717542232121E-003   4.8713314714154354E-002
   1.7081997046783842E-002  -4.2675620871572839E-003   4.8923706498265274E-002
   2.1041821452843446E-002  -5.7783734656404184E-003   5.2606373232578607E-002
   1.9430055996211212E-002  -5.2525987442124111E-003   5.2410154333380810E-002
   1.7818290539579035E-002  -4.7269656272952848E-003   5.2388275770344772E-002
   1.6206525082946829E-002  -4.2014741148901184E-003   5.2540737543470051E-002
   1.4594759626314624E-002  -3.6761242069959232E-003   5.2867539652757922E-002
   1.7933380407229582E-002  -4.8879470258569868E-003   5.6171394787201290E-002
   1.6508574176902491E-002  -4.4293068250683687E-003   5.6010797792809194E-002
   1.5083767946575427E-002  -3.9758833083017031E-003   5.6049778914865400E-002
   1.3658961716248353E-002  -3.5276764755570247E-003   5.6288338153370296E-002
   1.2234155485921279E-002  -3.0846863268343405E-003   5.6726475508323354E-002
   1.4850621520544831E-002  -3.9975205860736385E-003   5.9671819360939668E-002
   1.3638012296809533E-002  -3.6060149059244373E-003   5.9541769191842800E-002
   1.2425403073074253E-002  -3.2248009893078994E-003   5.9636534919480906E-002
   1.1212793849338959E-002  -2.8538788362239866E-003   5.9956116543854160E-002
   1.0000184625603677E-002  -2.4932484466727023E-003   6.0500514064962672E-002
   1.1793544792789129E-002  -3.1070941462902901E-003   6.3107646953794450E-002
   1.0818370355932319E-002  -2.7827229867803949E-003   6.3003068530481654E-002
   9.8431959190755369E-003  -2.4737186703141234E-003   6.3148543784190769E-002
   8.8680214822187409E-003  -2.1800811968908998E-003   6.3544072714921518E-002
   7.8928470453619448E-003  -1.9018105665112861E-003   6.4189655322674621E-002
   1.7081997046783842E-002  -4.2675620871572839E-003   4.8923706498265274E-002
   1.5136785446261902E-002  -3.7136013035251048E-003   4.8789303084450841E-002
   1.3191573845739948E-002  -3.2720717617595041E-003   4.8914712941398486E-002
   1.1246362245218001E-002  -2.9429734618597672E-003   4.9299936069107236E-002
   9.3011506446960546E-003  -2.7263064038269835E-003   4.9944972467578008E-002
   1.4594759626314624E-002  -3.6761242069959232E-003   5.2867539652757922E-002
   1.2907736369602366E-002  -3.2069927679328480E-003   5.2745781304559092E-002
   1.1220713112890079E-002  -2.8501566620205421E-003   5.2880586373218214E-002
   9.5336898561777794E-003  -2.6056158892586584E-003   5.3271954858735107E-002
   7.8466665994655349E-003  -2.4733704496476827E-003   5.3919886761109870E-002
   1.2234155485921279E-002  -3.0846863268343405E-003   5.6726475508323354E-002
   1.0802070719114924E-002  -2.7003842323403415E-003   5.6617498134455907E-002
   9.3699859523086078E-003  -2.4282415622812331E-003   5.6761834323542440E-002
   7.9379011855022653E-003  -2.2682583166572130E-003   5.7159484075583140E-002
   6.5058164186959366E-003  -2.2204344954682709E-003   5.7810447390577918E-002
   1.0000184625603677E-002  -2.4932484466727023E-003   6.0500514064962672E-002
   8.8197884947996234E-003  -2.1937756967477379E-003   6.0404453574141592E-002
   7.6393923639955447E-003  -2.0063264625420976E-003   6.0558456792371179E-002
   6.4589962331914486E-003  -1.9309007440559359E-003   6.0962523719651183E-002
   5.2786001023874124E-003  -1.9674985412889145E-003   6.1616654355981217E-002
   7.8928470453619448E-003  -1.9018105665112861E-003   6.4189655322674621E-002
   6.9608896966564110E-003  -1.6871671611555228E-003   6.4106647623615953E-002
   6.0289323479508772E-003  -1.5844113628029899E-003   6.4270453779704251E-002
   5.0969749992453434E-003  -1.5935431714543327E-003   6.4681073790939181E-002
   4.1650176505398095E-003  -1.7145625871094472E-003   6.5338507657320855E-002
   9.3011506446960546E-003  -2.7263064038269835E-003   4.9944972467578008E-002
   7.8773469085185177E-003  -2.8699151087709374E-003   5.0352350476516983E-002
   6.4535431723410364E-003  -3.6216440978016073E-003   5.1085712602972511E-002
   5.0297394361635550E-003  -4.9814933709202355E-003   5.2145058846944842E-002
   3.6059356999860737E-003  -6.9494629281255937E-003   5.3530389208433449E-002
   7.8466665994655349E-003  -2.4733704496476827E-003   5.3919886761109870E-002
   6.7231201045498262E-003  -2.6543258820748705E-003   5.3854058410748640E-002
   5.5995736096340898E-003  -3.3493877254266724E-003   5.4062760425394513E-002
   4.4760271147183672E-003  -4.5585559797037753E-003   5.4545992805047142E-002
   3.3524806198026447E-003  -6.2818306449062833E-003   5.5303755549706679E-002
   6.5058164186959366E-003  -2.2204344954682709E-003   5.7810447390577918E-002
   5.6310734125322101E-003  -2.4387366553784984E-003   5.7365426554078669E-002
   4.7563304063684766E-003  -3.0771313530515293E-003   5.7143482330076503E-002
   3.8815874002047432E-003  -4.1356185884876516E-003   5.7144614718571567E-002
   3.0068443940409889E-003  -5.6141983616868063E-003   5.7368823719563172E-002
   5.2786001023874124E-003  -1.9674985412889145E-003   6.1616654355981217E-002
   4.6012068324658342E-003  -2.2231474286819458E-003   6.0886454906506397E-002
   3.9238135625442126E-003  -2.8048749806764903E-003   6.0327878317018552E-002
   3.2464202926226326E-003  -3.7126811972715817E-003   5.9940924587518041E-002
   2.5690270227010127E-003  -4.9465660784670795E-003   5.9725593718005017E-002
   4.1650176505398095E-003  -1.7145625871094472E-003   6.5338507657320855E-002
   3.6335203643505509E-003  -2.0075582019860594E-003   6.4417143468031957E-002
   3.1020230781613062E-003  -2.5326186083013957E-003   6.3615948386220422E-002
   2.5705257919720545E-003  -3.2897438060549428E-003   6.2934922411886696E-002
   2.0390285057828028E-003  -4.2789337952479078E-003   6.2374065545030333E-002
   3.6059356999860737E-003  -6.9494629281255937E-003   5.3530389208433449E-002
   4.1570329606112344E-003  -9.5396161691186920E-003   5.1857679922122868E-002
   4.7081302212363674E-003  -1.2766016493598181E-002   5.0039872331322066E-002
   5.2592274818615559E-003  -1.6628663901565720E-002   4.8076966436031626E-002
   5.8103247424866611E-003  -2.1127558393020163E-002   4.5968962236251798E-002
   3.3524806198026447E-003  -6.2818306449062833E-003   5.5303755549706679E-002
   3.7758996258066002E-003  -8.5499117478656239E-003   5.2950408393647563E-002
   4.1993186318105141E-003  -1.1393499315414501E-002   5.0486803032835981E-002
   4.6227376378144003E-003  -1.4812593347552402E-002   4.7912939467272236E-002
   5.0461566438183558E-003  -1.8807193844279535E-002   4.5228817696954637E-002
   3.0068443940409889E-003  -5.6141983616868063E-003   5.7368823719563172E-002
   3.3374252451607786E-003  -7.5602073266128333E-003   5.4395579312654596E-002
   3.6680060962805336E-003  -1.0020982137230391E-002   5.1346916800730460E-002
   3.9985869474003025E-003  -1.2996522793538755E-002   4.8222836183790092E-002
   4.3291677985200783E-003  -1.6486829295538685E-002   4.5023337461835400E-002
   2.5690270227010127E-003  -4.9465660784670795E-003   5.9725593718005017E-002
   2.8416098186737470E-003  -6.5705029053603481E-003   5.6193192679143952E-002
   3.1141926146464795E-003  -8.6484649590463855E-003   5.2620213635004756E-002
   3.3867754106191705E-003  -1.1180452239525273E-002   4.9006656585587373E-002
   3.6593582065919464E-003  -1.4166464746798058E-002   4.5352521530890810E-002
   2.0390285057828028E-003  -4.2789337952479078E-003   6.2374065545030333E-002
   2.2884533463455869E-003  -5.5807984841071967E-003   5.8343248493115563E-002
   2.5378781869083711E-003  -7.2759477808621853E-003   5.4306693535660033E-002
   2.7873030274711552E-003  -9.3643816855118536E-003   5.0264400672662551E-002
   3.0367278680339393E-003  -1.1846100198057208E-002   4.6216369904123589E-002
   2.5814451930669891E-002  -7.3405726393102610E-003   6.5835949488267986E-002
   2.4838857203719533E-002  -7.1902077855081625E-003   6.4415888484839867E-002
   2.3863262476769176E-002  -7.0104909746084854E-003   6.3470886093950574E-002
   2.2887667749818812E-002  -6.8014222066112989E-003   6.3000942315599995E-002
   2.1912073022868461E-002  -6.5630014815165061E-003   6.3006057149788242E-002
   1.8525591007491404E-002  -5.5054292738650479E-003   6.5150249581117647E-002
   1.7967264968959035E-002  -5.3926556893695576E-003   6.4254912992975061E-002
   1.7408938930426644E-002  -5.2578681514342945E-003   6.3719055169129762E-002
   1.6850612891894257E-002  -5.1010666600594355E-003   6.3542676109581572E-002
   1.6292286853361884E-002  -4.9222512152448383E-003   6.3725775814330615E-002
   1.1793561468450738E-002  -3.6702859084198625E-003   6.4430627406489471E-002
   1.1536924270094728E-002  -3.5951035932308417E-003   6.4052677229974778E-002
   1.1280287071738709E-002  -3.5052453282600760E-003   6.3918625969515516E-002
   1.1023649873382677E-002  -3.4007111135074888E-003   6.4028473625111909E-002
   1.0767012675026666E-002  -3.2815009489731983E-003   6.4382220196763762E-002
   5.6183633135478677E-003  -1.8351425429746493E-003   6.3677082964383916E-002
   5.5478351071266072E-003  -1.7975514970921813E-003   6.3809181195839088E-002
   5.4773069007053527E-003  -1.7526225050857880E-003   6.4069598495107960E-002
   5.4067786942840947E-003  -1.7003555669556393E-003   6.4458334862190964E-002
   5.3362504878628376E-003  -1.6407506827015167E-003   6.4975390297087710E-002
  -3.4572172069591289E-009   8.2247053612150012E-010   6.2889616254800662E-002
  -2.5199453149160611E-009   5.9904645133279644E-010   6.3524424890567699E-002
  -1.5826734124646524E-009   3.1808837508418009E-010   6.4171972745906997E-002
  -6.4540151868686113E-010  -2.0403751604947118E-011   6.4832259820818597E-002
   2.9187037856037712E-010  -4.1642989057066870E-010   6.5505286115302597E-002
   2.1912073022868461E-002  -6.5630014815165061E-003   6.3006057149788242E-002
   2.1136984102460191E-002  -6.3089825512115116E-003   6.2549153118069661E-002
   2.0361895182051920E-002  -6.0531191675835261E-003   6.2315043841304929E-002
   1.9586806261643656E-002  -5.7954113306327368E-003   6.2303729319494155E-002
   1.8811717341235393E-002  -5.5358590403590813E-003   6.2515209552637507E-002
   1.6292286853361884E-002  -4.9222512152448383E-003   6.3725775814330615E-002
   1.5732737051557907E-002  -4.7317371039383022E-003   6.3357742053867253E-002
   1.5173187249753944E-002  -4.5398396130874111E-003   6.3197991775658643E-002
   1.4613637447949961E-002  -4.3465587426921599E-003   6.3246524979704566E-002
   1.4054087646145991E-002  -4.1518944927523838E-003   6.3503341666005270E-002
   1.0767012675026666E-002  -3.2815009489731983E-003   6.4382220196763762E-002
   1.0408490719127649E-002  -3.1544916566651066E-003   6.4102595633777237E-002
   1.0049968763228612E-002  -3.0265600585911850E-003   6.4016743280346025E-002
   9.6914468073295897E-003  -2.8977061547514164E-003   6.4124663136470139E-002
   9.3329248514305609E-003  -2.7679299451458250E-003   6.4426355202149413E-002
   5.3362504878628376E-003  -1.6407506827015167E-003   6.4975390297087710E-002
   5.1642451051693997E-003  -1.5772462093919040E-003   6.4783713857799533E-002
   4.9922397224759652E-003  -1.5132805040949590E-003   6.4771298355367310E-002
   4.8202343397825238E-003  -1.4488535668107563E-003   6.4938143789790806E-002
   4.6482289570890867E-003  -1.3839653975391691E-003   6.5284250161070423E-002
   2.9187037856037712E-010  -4.1642989057066870E-010   6.5505286115302597E-002
   2.0968318401037855E-010  -7.6211872923614976E-010   6.5401096725934083E-002
   1.2749598772565651E-010  -9.4959877461331388E-010   6.5461657000722068E-002
   4.5308791440934471E-011  -9.7887005098828972E-010   6.5686966939666705E-002
  -3.6878403109064095E-011  -8.4993262428056937E-010   6.6077026542767980E-002
   1.8811717341235393E-002  -5.5358590403590813E-003   6.2515209552637507E-002
   1.7932676094953234E-002  -5.2690780037239204E-003   6.2196049840120171E-002
   1.7053634848671069E-002  -4.9896839276894339E-003   6.2104602770355399E-002
   1.6174593602388914E-002  -4.6976768122549244E-003   6.2240868343343289E-002
   1.5295552356106759E-002  -4.3930566574211793E-003   6.2604846559083827E-002
   1.4054087646145991E-002  -4.1518944927523838E-003   6.3503341666005270E-002
   1.3400770962519119E-002  -3.9518086675133790E-003   6.3229697178991379E-002
   1.2747454278892234E-002  -3.7422630712203586E-003   6.3179789174535608E-002
   1.2094137595265345E-002  -3.5232577038729548E-003   6.3353617652637667E-002
   1.1440820911638477E-002  -3.2947925654713273E-003   6.3751182613297763E-002
   9.3329248514305609E-003  -2.7679299451458250E-003   6.4426355202149413E-002
   8.9013565702643314E-003  -2.6345393313029347E-003   6.4195072672293768E-002
   8.4697882890980864E-003  -2.4948422147512347E-003   6.4183550464801481E-002
   8.0382200079318518E-003  -2.3488385954907650E-003   6.4391788579672565E-002
   7.6066517267656154E-003  -2.1965284735215307E-003   6.4819787016906938E-002
   4.6482289570890867E-003  -1.3839653975391691E-003   6.5284250161070423E-002
   4.4344329181888629E-003  -1.3172699950924974E-003   6.5092176320027423E-002
   4.2206368792886226E-003  -1.2474213582820796E-003   6.5115886641153212E-002
   4.0068408403883937E-003  -1.1744194871085743E-003   6.5355381124447637E-002
   3.7930448014881586E-003  -1.0982643815717064E-003   6.5810659769910837E-002
  -3.6878403109064095E-011  -8.4993262428056937E-010   6.6077026542767980E-002
   6.2927302257875795E-012  -6.5888192124496925E-010   6.5921008122192315E-002
   4.9463856621745350E-011  -5.0181302169161057E-010   6.5976797703590689E-002
   9.2634986487150073E-011  -3.7872649114034651E-010   6.6244395286963173E-002
   1.3580611635255480E-010  -2.8962199305482272E-010   6.6723800872309558E-002
   1.5295552356106759E-002  -4.3930566574211793E-003   6.2604846559083827E-002
   1.4420050465277334E-002  -4.0794889945750534E-003   6.2422755310520772E-002
   1.3544548574447944E-002  -3.7606393551045669E-003   6.2445858293451728E-002
   1.2669046683618537E-002  -3.4365077390096505E-003   6.2674155507876167E-002
   1.1793544792789129E-002  -3.1070941462902901E-003   6.3107646953794450E-002
   1.1440820911638477E-002  -3.2947925654713273E-003   6.3751182613297763E-002
   1.0773933561381621E-002  -3.0596168010897651E-003   6.3597695662174242E-002
   1.0107046211124772E-002  -2.8204795558023493E-003   6.3656243560702125E-002
   9.4401588608679192E-003  -2.5773808296095137E-003   6.3926826308881454E-002
   8.7732715106110665E-003  -2.3303206225109285E-003   6.4409443906711994E-002
   7.6066517267656154E-003  -2.1965284735215307E-003   6.4819787016906938E-002
   7.1552195352390276E-003  -2.0397446076045045E-003   6.4693583867503804E-002
   6.7037873437124380E-003  -1.8803197565003538E-003   6.4786256185910079E-002
   6.2523551521858406E-003  -1.7182539202093769E-003   6.5097803972125237E-002
   5.8009229606592466E-003  -1.5535470987314559E-003   6.5628227226149471E-002
   3.7930448014881586E-003  -1.0982643815717064E-003   6.5810659769910837E-002
   3.5639083868495404E-003  -1.0198724141192300E-003   6.5710419926509667E-002
   3.3347719722109158E-003  -9.4015995719824719E-004   6.5835896169075231E-002
   3.1056355575722946E-003  -8.5912701080929563E-004   6.6187088497607779E-002
   2.8764991429336730E-003  -7.7677357495203880E-004   6.6763996912107104E-002
   1.3580611635255480E-010  -2.8962199305482272E-010   6.6723800872309558E-002
   1.1621316756138533E-010  -2.2063401106109382E-010   6.6648203839191567E-002
   9.6620222239662823E-011  -1.5789622387352154E-010   6.6805163510197940E-002
   7.7027273448493361E-011  -1.0140909639799744E-010   6.7194679885328928E-002
   5.7434328126770851E-011  -5.1172621695627640E-011   6.7816752964584448E-002
   1.1793544792789129E-002  -3.1070941462902901E-003   6.3107646953794450E-002
   1.0818370355932319E-002  -2.7827229867803949E-003   6.3003068530481654E-002
   9.8431959190755369E-003  -2.4737186703141234E-003   6.3148543784190769E-002
   8.8680214822187409E-003  -2.1800811968908998E-003   6.3544072714921518E-002
   7.8928470453619448E-003  -1.9018105665112861E-003   6.4189655322674621E-002
   8.7732715106110665E-003  -2.3303206225109285E-003   6.4409443906711994E-002
   8.0465857325814835E-003  -2.0870422429976609E-003   6.4337779207871149E-002
   7.3198999545518728E-003  -1.8552889995604172E-003   6.4513038149662638E-002
   6.5932141765222795E-003  -1.6350608921999119E-003   6.4935220732086740E-002
   5.8665283984926792E-003  -1.4263579209153887E-003   6.5604326955143566E-002
   5.8009229606592466E-003  -1.5535470987314559E-003   6.5628227226149471E-002
   5.3195958050675750E-003  -1.3913614992146495E-003   6.5593317958747566E-002
   4.8382686494758999E-003  -1.2368593288072521E-003   6.5802202295588544E-002
   4.3569414938842248E-003  -1.0900405875088649E-003   6.6254880236672947E-002
   3.8756143382925531E-003  -9.5090527531976887E-004   6.6951351782000595E-002
   2.8764991429336730E-003  -7.7677357495203880E-004   6.6763996912107104E-002
   2.6374005733906360E-003  -6.9568075543177677E-004   6.6769684783110766E-002
   2.3983020038475999E-003  -6.1842965805370548E-004   6.7016036221968514E-002
   2.1592034343045777E-003  -5.4502028281784749E-004   6.7503051228680166E-002
   1.9201048647615408E-003  -4.7545262972389923E-004   6.8230729803246071E-002
   5.7434328126770851E-011  -5.1172621695627640E-011   6.7816752964584448E-002
   3.7550663967156339E-011  -1.1648959574728224E-011   6.7866879680961112E-002
   1.7666992868647924E-011   1.2699563622931009E-011   6.8154539928802660E-002
  -2.2166730256900635E-012   2.1873211575318408E-011   6.8679733708108953E-002
  -2.2100342389475003E-011   1.5871748360041238E-011   6.9442461018879964E-002
   7.8928470453619448E-003  -1.9018105665112861E-003   6.4189655322674621E-002
   6.9608896966564110E-003  -1.6871671611555228E-003   6.4106647623615953E-002
   6.0289323479508772E-003  -1.5844113628029899E-003   6.4270453779704251E-002
   5.0969749992453434E-003  -1.5935431714543327E-003   6.4681073790939181E-002
   4.1650176505398095E-003  -1.7145625871094472E-003   6.5338507657320855E-002
   5.8665283984926792E-003  -1.4263579209153887E-003   6.5604326955143566E-002
   5.1779287759958284E-003  -1.2653753698229631E-003   6.5455366058160380E-002
   4.4893291534989638E-003  -1.1883085230387780E-003   6.5546306758447886E-002
   3.8007295310021061E-003  -1.1951573805622853E-003   6.5877149056006376E-002
   3.1121299085052484E-003  -1.2859219423931867E-003   6.6447892950834753E-002
   3.8756143382925531E-003  -9.5090527531976887E-004   6.6951351782000595E-002
   3.4234601841283650E-003  -8.4358357849120824E-004   6.6764409589788826E-002
   2.9713060299641908E-003  -7.9220568327444119E-004   6.6810456736971599E-002
   2.5191518758000166E-003  -7.9677158966979036E-004   6.7089493223549207E-002
   2.0669977216358285E-003  -8.5728129767687067E-004   6.7601519049521275E-002
   1.9201048647615408E-003  -4.7545262972389923E-004   6.8230729803246071E-002
   1.6974839210540313E-003  -4.2179178715932852E-004   6.8033778218501456E-002
   1.4748629773465340E-003  -3.9610284351022235E-004   6.8062903715275541E-002
   1.2522420336390375E-003  -3.9838579877785225E-004   6.8318106293568381E-002
   1.0296210899315272E-003  -4.2864065296052689E-004   6.8799385953379935E-002
  -2.2100342389475003E-011   1.5871748360041238E-011   6.9442461018879964E-002
  -1.3227169359808499E-011   4.1729952826585759E-012   6.9263471944298272E-002
  -4.3539963301419959E-012  -3.7460035073877407E-012   6.9303647693359616E-002
   4.5191766995245075E-012  -7.8851647433708649E-012   6.9562988266063414E-002
   1.3392349729191011E-011  -8.2441831139590249E-012   7.0041493662409859E-002
   4.1650176505398095E-003  -1.7145625871094472E-003   6.5338507657320855E-002
   3.6335203643505509E-003  -2.0075582019860594E-003   6.4417143468031957E-002
   3.1020230781613062E-003  -2.5326186083013957E-003   6.3615948386220422E-002
   2.5705257919720545E-003  -3.2897438060549428E-003   6.2934922411886696E-002
   2.0390285057828028E-003  -4.2789337952479078E-003   6.2374065545030333E-002
   3.1121299085052484E-003  -1.2859219423931867E-003   6.6447892950834753E-002
   2.7039780330774948E-003  -1.5056686531856323E-003   6.5334403927468976E-002
   2.2958261576497274E-003  -1.8994639575920513E-003   6.4347436618148401E-002
   1.8876742822219635E-003  -2.4673078556129019E-003   6.3486991022873335E-002
   1.4795224067942064E-003  -3.2092003472480313E-003   6.2753067141643637E-002
   2.0669977216358285E-003  -8.5728129767687067E-004   6.7601519049521275E-002
   1.7885438635376408E-003  -1.0037791043848721E-003   6.6353921389902260E-002
   1.5100900054394566E-003  -1.2663093068828457E-003   6.5239198050896952E-002
   1.2316361473412706E-003  -1.6448719051704239E-003   6.4257349032505143E-002
   9.5318228924308468E-004  -2.1394668992482102E-003   6.3408374334727041E-002
   1.0296210899315272E-003  -4.2864065296052689E-004   6.8799385953379935E-002
   8.8721785573101473E-004  -5.0188955558427839E-004   6.7475695855332266E-002
   7.4481462153051705E-004  -6.3315465617345967E-004   6.6291232684466295E-002
   6.0241138733001199E-004  -8.2243595472827544E-004   6.5245996440782092E-002
   4.6000815312950694E-004  -1.0697334512483614E-003   6.4339987124279935E-002
   1.3392349729191011E-011  -8.2441831139590249E-012   7.0041493662409859E-002
   9.6576219243971195E-012  -6.7837957473670940E-012   6.8699727323758286E-002
   5.9228941196032281E-012  -5.4642956826000955E-012   6.7503540518856708E-002
   2.1881628453623847E-012  -4.2857939419604918E-012   6.6452933247704737E-002
  -1.5465614899845548E-012  -3.2486235923556706E-012   6.5547905510302651E-002
   2.0390285057828028E-003  -4.2789337952479078E-003   6.2374065545030333E-002
   2.2884533463455869E-003  -5.5807984841071967E-003   5.8343248493115563E-002
   2.5378781869083711E-003  -7.2759477808621853E-003   5.4306693535660033E-002
   2.7873030274711552E-003  -9.3643816855118536E-003   5.0264400672662551E-002
   3.0367278680339393E-003  -1.1846100198057208E-002   4.6216369904123589E-002
   1.4795224067942064E-003  -3.2092003472480313E-003   6.2753067141643637E-002
   1.7090547657386268E-003  -4.1855988637490849E-003   5.8397137463083393E-002
   1.9385871246830472E-003  -5.4569608363675692E-003   5.4007160726827874E-002
   2.1681194836274814E-003  -7.0232862651031999E-003   4.9583136932876443E-002
   2.3976518425719018E-003  -8.8845751499568859E-003   4.5125066081231013E-002
   9.5318228924308468E-004  -2.1394668992482102E-003   6.3408374334727041E-002
   1.1345130144152331E-003  -2.7903992433905289E-003   5.8825653181298454E-002
   1.3158437395874092E-003  -3.6379738918728283E-003   5.4180575818020757E-002
   1.4971744647595681E-003  -4.6821908446945983E-003   4.9473142244894179E-002
   1.6785051899317199E-003  -5.9230501018563420E-003   4.4703352461918144E-002
   4.6000815312950694E-004  -1.0697334512483614E-003   6.4339987124279935E-002
   5.6482809237547605E-004  -1.3951996230321950E-003   5.9628795647761267E-002
   6.6964803162144516E-004  -1.8189869473779277E-003   5.4826938809239556E-002
   7.7446797086741515E-004  -2.3410954242859706E-003   4.9934416608714061E-002
   8.7928791011335564E-004  -2.9615250537559090E-003   4.4951229046186175E-002
  -1.5465614899845548E-012  -3.2486235923556706E-012   6.5547905510302651E-002
  -3.8070935293177399E-013  -2.6738611325072270E-012   6.0806564862471157E-002
   7.8514278412100680E-013  -2.8835545062833035E-012   5.5946249700482842E-002
   1.9510105336850714E-012  -3.8771416632776834E-012   5.0966960024337343E-002
   3.1168539971204723E-012  -5.6554760874405474E-012   4.5868695834034856E-002
  -3.4572172069591289E-009   8.2247053612150012E-010   6.2889616254800662E-002
  -2.5199453149160611E-009   5.9904645133279644E-010   6.3524424890567699E-002
  -1.5826734124646524E-009   3.1808837508418009E-010   6.4171972745906997E-002
  -6.4540151868686113E-010  -2.0403751604947118E-011   6.4832259820818597E-002
   2.9187037856037712E-010  -4.1642989057066870E-010   6.5505286115302597E-002
  -5.6183689660178893E-003   1.8351444263701167E-003   6.3677078323949754E-002
  -5.5478392118747388E-003   1.7975523176801400E-003   6.3809178813371920E-002
  -5.4773094577315693E-003   1.7526224996549100E-003   6.4069597716964299E-002
  -5.4067797035884076E-003   1.7003549722944961E-003   6.4458335034726824E-002
  -5.3362499494452494E-003   1.6407497355990230E-003   6.4975390766659480E-002
  -1.1793563335027629E-002   3.6702880302696694E-003   6.4430617333733356E-002
  -1.1536925569415362E-002   3.5951040363137732E-003   6.4052672025009610E-002
  -1.1280287803803100E-002   3.5052446812214519E-003   6.3918624325053935E-002
  -1.1023650038190837E-002   3.4007099649928287E-003   6.4028474233866192E-002
  -1.0767012272578574E-002   3.2814998876278811E-003   6.4382221751446603E-002
  -1.8525586564246414E-002   5.5054316341692361E-003   6.5150233284151607E-002
  -1.7967261592567212E-002   5.3926557549473925E-003   6.4254904525480813E-002
  -1.7408936620888014E-002   5.2578668627880180E-003   6.3719052570175794E-002
  -1.6850611649208806E-002   5.1010649576911744E-003   6.3542677418236784E-002
  -1.6292286677529608E-002   4.9222500396567115E-003   6.3725779069663535E-002
  -2.5814438653674249E-002   7.3405752380688027E-003   6.5835926175204562E-002
  -2.4838847281330283E-002   7.1902074735810395E-003   6.4415876314785459E-002
  -2.3863255908986303E-002   7.0104890443545703E-003   6.3470882452330152E-002
  -2.2887664536642316E-002   6.8014199503894195E-003   6.3000944587838489E-002
  -2.1912073164298339E-002   6.5630001916856529E-003   6.3006062721310485E-002
   2.9187037856037712E-010  -4.1642989057066870E-010   6.5505286115302597E-002
   2.0968318401037855E-010  -7.6211872923614976E-010   6.5401096725934083E-002
   1.2749598772565651E-010  -9.4959877461331388E-010   6.5461657000722068E-002
   4.5308791440934471E-011  -9.7887005098828972E-010   6.5686966939666705E-002
  -3.6878403109064095E-011  -8.4993262428056937E-010   6.6077026542767980E-002
  -5.3362499494452494E-003   1.6407497355990230E-003   6.4975390766659480E-002
  -5.1642447426567539E-003   1.5772450880193190E-003   6.4783714443180374E-002
  -4.9922395358682620E-003   1.5132793280067947E-003   6.4771299033496002E-002
  -4.8202343290797709E-003   1.4488524555612073E-003   6.4938144537606407E-002
  -4.6482291222912746E-003   1.3839644706828413E-003   6.5284250955511741E-002
  -1.0767012272578574E-002   3.2814998876278811E-003   6.4382221751446603E-002
  -1.0408490527176142E-002   3.1544909381573810E-003   6.4102597223215055E-002
  -1.0049968781773722E-002   3.0265596056122460E-003   6.4016744858416519E-002
  -9.6914470363712920E-003   2.8977058899925193E-003   6.4124664657051078E-002
  -9.3329252909688763E-003   2.7679297912982237E-003   6.4426356619118733E-002
  -1.6292286677529608E-002   4.9222500396567115E-003   6.3725779069663535E-002
  -1.5732737143874999E-002   4.7317367882953806E-003   6.3357745066037918E-002
  -1.5173187610220396E-002   4.5398398832177840E-003   6.3197994475483646E-002
  -1.4613638076565790E-002   4.3465593244238600E-003   6.3246527298000760E-002
  -1.4054088542911179E-002   4.1518951119136477E-003   6.3503343533589079E-002
  -2.1912073164298339E-002   6.5630001916856529E-003   6.3006062721310485E-002
  -2.1136984592753302E-002   6.3089826384335190E-003   6.2549157971649255E-002
  -2.0361896021208283E-002   6.0531201608232388E-003   6.2315047884697494E-002
  -1.9586807449663245E-002   5.7954127588551660E-003   6.2303732460455258E-002
  -1.8811718878118222E-002   5.5358604325290717E-003   6.2515211698922601E-002
  -3.6878403109064095E-011  -8.4993262428056937E-010   6.6077026542767980E-002
   6.2927302257875795E-012  -6.5888192124496925E-010   6.5921008122192315E-002
   4.9463856621745350E-011  -5.0181302169161057E-010   6.5976797703590689E-002
   9.2634986487150073E-011  -3.7872649114034651E-010   6.6244395286963173E-002
   1.3580611635255480E-010  -2.8962199305482272E-010   6.6723800872309558E-002
  -4.6482291222912746E-003   1.3839644706828413E-003   6.5284250955511741E-002
  -4.4344329773850031E-003   1.3172692894255766E-003   6.5092176894279180E-002
  -4.2206368324787229E-003   1.2474208278440285E-003   6.5115887034542866E-002
  -4.0068406875724567E-003   1.1744190859378535E-003   6.5355381376302757E-002
  -3.7930445426661782E-003   1.0982640637073326E-003   6.5810659919558867E-002
  -9.3329252909688763E-003   2.7679297912982237E-003   6.4426356619118733E-002
  -8.9013568448052579E-003   2.6345392377331162E-003   6.4195073670886962E-002
  -8.4697883986416360E-003   2.4948421575012938E-003   6.4183551123673549E-002
  -8.0382199524780176E-003   2.3488385506024740E-003   6.4391788977478548E-002
  -7.6066515063144009E-003   2.1965284170368249E-003   6.4819787232302140E-002
  -1.4054088542911179E-002   4.1518951119136477E-003   6.3503343533589079E-002
  -1.3400771595968031E-002   3.9518091860407181E-003   6.3229698452015592E-002
  -1.2747454649024860E-002   3.7422634871584516E-003   6.3179789970982711E-002
  -1.2094137702081701E-002   3.5232580152669566E-003   6.3353618090490532E-002
  -1.1440820755138539E-002   3.2947927703662894E-003   6.3751182810538987E-002
  -1.8811718878118222E-002   5.5358604325290717E-003   6.2515211698922601E-002
  -1.7932677230873325E-002   5.2690791343480980E-003   6.2196051237665029E-002
  -1.7053635583628414E-002   4.9896848168155816E-003   6.2104603576470435E-002
  -1.6174593936383517E-002   4.6976774799314322E-003   6.2240868715338515E-002
  -1.5295552289138613E-002   4.3930571236956428E-003   6.2604846654269575E-002
   1.3580611635255480E-010  -2.8962199305482272E-010   6.6723800872309558E-002
   1.1621316756138533E-010  -2.2063401106109382E-010   6.6648203839191567E-002
   9.6620222239662823E-011  -1.5789622387352154E-010   6.6805163510197940E-002
   7.7027273448493361E-011  -1.0140909639799744E-010   6.7194679885328928E-002
   5.7434328126770851E-011  -5.1172621695627640E-011   6.7816752964584448E-002
  -3.7930445426661782E-003   1.0982640637073326E-003   6.5810659919558867E-002
  -3.5639081641831733E-003   1.0198721573003444E-003   6.5710420048076951E-002
  -3.3347717857001736E-003   9.4015976286490610E-004   6.5835896268622129E-002
  -3.1056354072171782E-003   8.5912688040071933E-004   6.6187088581194861E-002
  -2.8764990287341620E-003   7.7677350990817962E-004   6.6763996985794716E-002
  -7.6066515063144009E-003   2.1965284170368249E-003   6.4819787232302140E-002
  -7.1552193418526078E-003   2.0397445352344501E-003   6.4693584040678070E-002
  -6.7037871773908044E-003   1.8803196836257446E-003   6.4786256328984076E-002
  -6.2523550129290027E-003   1.7182538622105871E-003   6.5097804097220352E-002
  -5.8009228484672080E-003   1.5535470709889809E-003   6.5628227345386925E-002
  -1.1440820755138539E-002   3.2947927703662894E-003   6.3751182810538987E-002
  -1.0773933416795098E-002   3.0596169131687362E-003   6.3597695816994870E-002
  -1.0107046078451655E-002   2.8204796043868399E-003   6.3656243691283962E-002
  -9.4401587401082183E-003   2.5773808440205399E-003   6.3926826433406081E-002
  -8.7732714017647716E-003   2.3303206320697267E-003   6.4409444043361366E-002
  -1.5295552289138613E-002   4.3930571236956428E-003   6.2604846654269575E-002
  -1.4420050389010678E-002   4.0794892911029113E-003   6.2422755377027628E-002
  -1.3544548488882736E-002   3.7606395251477964E-003   6.2445858355521688E-002
  -1.2669046588754812E-002   3.4365078258303469E-003   6.2674155589751590E-002
  -1.1793544688626867E-002   3.1070941931505835E-003   6.3107647079717610E-002
   5.7434328126770851E-011  -5.1172621695627640E-011   6.7816752964584448E-002
   3.7550663967156339E-011  -1.1648959574728224E-011   6.7866879680961112E-002
   1.7666992868647924E-011   1.2699563622931009E-011   6.8154539928802660E-002
  -2.2166730256900635E-012   2.1873211575318408E-011   6.8679733708108953E-002
  -2.2100342389475003E-011   1.5871748360041238E-011   6.9442461018879964E-002
  -2.8764990287341620E-003   7.7677350990817962E-004   6.6763996985794716E-002
  -2.6374004983328418E-003   6.9568074532128099E-004   6.6769684829759757E-002
  -2.3983019679315286E-003   6.1842968057469749E-004   6.7016036242830063E-002
  -2.1592034375302093E-003   5.4502031566775258E-004   6.7503051225005509E-002
  -1.9201049071288813E-003   4.7545265060089381E-004   6.8230729776286303E-002
  -5.8009228484672080E-003   1.5535470709889809E-003   6.5628227345386925E-002
  -5.3195957301403682E-003   1.3913615022917714E-003   6.5593318031955325E-002
  -4.8382686118135275E-003   1.2368593484493873E-003   6.5802202325269371E-002
  -4.3569414934866903E-003   1.0900406094622936E-003   6.6254880225329077E-002
  -3.8756143751598610E-003   9.5090528533003926E-004   6.6951351732134734E-002
  -8.7732714017647716E-003   2.3303206320697267E-003   6.4409444043361366E-002
  -8.0465856578718908E-003   2.0870422592616927E-003   6.4337779287547872E-002
  -7.3198999139790230E-003   1.8552890163243546E-003   6.4513038176120752E-002
  -6.5932141700861526E-003   1.6350609032566125E-003   6.4935220709079797E-002
  -5.8665284261932744E-003   1.4263579200593512E-003   6.5604326886425299E-002
  -1.1793544688626867E-002   3.1070941931505835E-003   6.3107647079717610E-002
  -1.0818370281527427E-002   2.7827230162325023E-003   6.3003068596537481E-002
  -9.8431958744279978E-003   2.4737186841991832E-003   6.3148543795384204E-002
  -8.8680214673285632E-003   2.1800811970512021E-003   6.3544072676257890E-002
  -7.8928470602291287E-003   1.9018105547882191E-003   6.4189655239158205E-002
  -2.2100342389475003E-011   1.5871748360041238E-011   6.9442461018879964E-002
  -1.3227169359808499E-011   4.1729952826585759E-012   6.9263471944298272E-002
  -4.3539963301419959E-012  -3.7460035073877407E-012   6.9303647693359616E-002
   4.5191766995245075E-012  -7.8851647433708649E-012   6.9562988266063414E-002
   1.3392349729191011E-011  -8.2441831139590249E-012   7.0041493662409859E-002
  -1.9201049071288813E-003   4.7545265060089381E-004   6.8230729776286303E-002
  -1.6974839463028413E-003   4.2179178837770115E-004   6.8033778201826101E-002
  -1.4748629854768030E-003   3.9610283200189333E-004   6.8062903707628852E-002
  -1.2522420246507560E-003   3.9838578147300546E-004   6.8318106293694725E-002
  -1.0296210638247247E-003   4.2864063679082243E-004   6.8799385960023662E-002
  -3.8756143751598610E-003   9.5090528533003926E-004   6.6951351732134734E-002
  -3.4234602057605507E-003   8.4358357258268457E-004   6.6764409559863042E-002
  -2.9713060363612551E-003   7.9220566774956813E-004   6.6810456724474665E-002
  -2.5191518669619665E-003   7.9677157083050953E-004   6.7089493225969840E-002
  -2.0669976975626631E-003   8.5728128182599450E-004   6.7601519064348303E-002
  -5.8665284261932744E-003   1.4263579200593512E-003   6.5604326886425299E-002
  -5.1779287916003391E-003   1.2653753567876957E-003   6.5455366018409122E-002
  -4.4893291570073969E-003   1.1883085034972984E-003   6.5546306743896818E-002
  -3.8007295224144551E-003   1.1951573601885132E-003   6.5877149062888329E-002
  -3.1121298878215198E-003   1.2859219268610833E-003   6.6447892975383629E-002
  -7.8928470602291287E-003   1.9018105547882191E-003   6.4189655239158205E-002
  -6.9608897038221512E-003   1.6871671409923739E-003   6.4106647577464870E-002
  -6.0289323474151842E-003   1.5844113392450565E-003   6.4270453765895685E-002
  -5.0969749910082084E-003   1.5935431495461075E-003   6.4681073804450678E-002
  -4.1650176346012396E-003   1.7145625718961721E-003   6.5338507693129988E-002
   1.3392349729191011E-011  -8.2441831139590249E-012   7.0041493662409859E-002
   9.6576219243971195E-012  -6.7837957473670940E-012   6.8699727323758286E-002
   5.9228941196032281E-012  -5.4642956826000955E-012   6.7503540518856708E-002
   2.1881628453623847E-012  -4.2857939419604918E-012   6.6452933247704737E-002
  -1.5465614899845548E-012  -3.2486235923556706E-012   6.5547905510302651E-002
  -1.0296210638247247E-003   4.2864063679082243E-004   6.8799385960023662E-002
  -8.8721783687253572E-004   5.0188954348950876E-004   6.7475695860174767E-002
  -7.4481460992035543E-004   6.3315464710222980E-004   6.6291232687950008E-002
  -6.0241138296817254E-004   8.2243594762890226E-004   6.5245996443349052E-002
  -4.6000815601598619E-004   1.0697334450695539E-003   6.4339987126372011E-002
  -2.0669976975626631E-003   8.5728128182599450E-004   6.7601519064348303E-002
  -1.7885438460494233E-003   1.0037790937629798E-003   6.6353921400357174E-002
  -1.5100899945361826E-003   1.2663092996688663E-003   6.5239198057863990E-002
  -1.2316361430229428E-003   1.6448718995437095E-003   6.4257349036869194E-002
  -9.5318229150970213E-004   2.1394668933875649E-003   6.3408374337372425E-002
  -3.1121298878215198E-003   1.2859219268610833E-003   6.6447892975383629E-002
  -2.7039780178730408E-003   1.5056686440359790E-003   6.5334403944305217E-002
  -2.2958261479245831E-003   1.8994639522352252E-003   6.4347436628598820E-002
  -1.8876742779761221E-003   2.4673078514586833E-003   6.3486991028265077E-002
  -1.4795224080276469E-003   3.2092003417055481E-003   6.2753067143303282E-002
  -4.1650176346012396E-003   1.7145625718961721E-003   6.5338507693129988E-002
  -3.6335203523433987E-003   2.0075581943098109E-003   6.4417143492018880E-002
  -3.1020230700855612E-003   2.5326186048019728E-003   6.3615948400154498E-002
  -2.5705257878277238E-003   3.2897438033733656E-003   6.2934922417536399E-002
  -2.0390285055698829E-003   4.2789337900235314E-003   6.2374065544164470E-002
  -1.5465614899845548E-012  -3.2486235923556706E-012   6.5547905510302651E-002
  -3.8070935293177399E-013  -2.6738611325072270E-012   6.0806564862471157E-002
   7.8514278412100680E-013  -2.8835545062833035E-012   5.5946249700482842E-002
   1.9510105336850714E-012  -3.8771416632776834E-012   5.0966960024337343E-002
   3.1168539971204723E-012  -5.6554760874405474E-012   4.5868695834034856E-002
  -4.6000815601598619E-004   1.0697334450695539E-003   6.4339987126372011E-002
  -5.6482809303938855E-004   1.3951996169693781E-003   5.9628795649094235E-002
  -6.6964803006278224E-004   1.8189869408728465E-003   5.4826938809595049E-002
  -7.7446796708618374E-004   2.3410954167805004E-003   4.9934416607873816E-002
  -8.7928790410959218E-004   2.9615250446926034E-003   4.4951229043931784E-002
  -9.5318229150970213E-004   2.1394668933875649E-003   6.3408374337372425E-002
  -1.1345130147866790E-003   2.7903992366120622E-003   5.8825653183435994E-002
  -1.3158437380636646E-003   3.6379738846290116E-003   5.4180575819214302E-002
  -1.4971744613406566E-003   4.6821908374386940E-003   4.9473142244706829E-002
  -1.6785051846176270E-003   5.9230500950406828E-003   4.4703352459913415E-002
  -1.4795224080276469E-003   3.2092003417055481E-003   6.2753067143303282E-002
  -1.7090547656225747E-003   4.1855988562549129E-003   5.8397137465497392E-002
  -1.9385871232175098E-003   5.4569608283854057E-003   5.4007160729341516E-002
  -2.1681194808124242E-003   7.0232862580967229E-003   4.9583136934835535E-002
  -2.3976518384073589E-003   8.8845751453888733E-003   4.5125066081979220E-002
  -2.0390285055698829E-003   4.2789337900235314E-003   6.2374065544164470E-002
  -2.2884533455470868E-003   5.5807984758977636E-003   5.8343248495277611E-002
  -2.5378781855242803E-003   7.2759477721413557E-003   5.4306693539976081E-002
  -2.7873030255014565E-003   9.3643816787545853E-003   5.0264400678260046E-002
  -3.0367278654786778E-003   1.1846100195736842E-002   4.6216369910129895E-002
  -2.5814438653674249E-002   7.3405752380688027E-003   6.5835926175204562E-002
  -2.4838847281330283E-002   7.1902074735810395E-003   6.4415876314785459E-002
  -2.3863255908986303E-002   7.0104890443545703E-003   6.3470882452330152E-002
  -2.2887664536642316E-002   6.8014199503894195E-003   6.3000944587838489E-002
  -2.1912073164298339E-002   6.5630001916856529E-003   6.3006062721310485E-002
  -3.2953642896343893E-002   9.2292169497315557E-003   6.0219098751151529E-002
  -3.1591465734408367E-002   9.0017601327538055E-003   5.9541450943860763E-002
  -3.0229288572472861E-002   8.7531493960645856E-003   5.9161918717789433E-002
  -2.8867111410537331E-002   8.4833847396637921E-003   5.9080502072937378E-002
  -2.7504934248601821E-002   8.1924661635515428E-003   5.9297201009304717E-002
  -3.9236722585287973E-002   1.1117858661394281E-002   5.4521083902094966E-002
  -3.7664900050505191E-002   1.0813312791926530E-002   5.4594034892959636E-002
  -3.6093077515722480E-002   1.0495809747774497E-002   5.4788161048299470E-002
  -3.4521254980939754E-002   1.0165349528938166E-002   5.5103462368114253E-002
  -3.2949432446156994E-002   9.8219321354175437E-003   5.5539938852404172E-002
  -4.4663677720506577E-002   1.3006500373056992E-002   4.8741881628034792E-002
  -4.3059150229620896E-002   1.2624865451099247E-002   4.9573628162082155E-002
  -4.1454622738735299E-002   1.2238470099484405E-002   5.0349609443860376E-002
  -3.9850095247849653E-002   1.1847314318212541E-002   5.1069825473369232E-002
  -3.8245567756964013E-002   1.1451398107283489E-002   5.1734276250608842E-002
  -4.9234508301999630E-002   1.4895142084719759E-002   4.2881491928971061E-002
  -4.7774216271755376E-002   1.4436418110272020E-002   4.4480230751228367E-002
  -4.6313924241511178E-002   1.3981130451194368E-002   4.5846263904471996E-002
  -4.4853632211266953E-002   1.3529279107486927E-002   4.6979591388702058E-002
  -4.3393340181022741E-002   1.3080864079149490E-002   4.7880213203918665E-002
  -2.1912073164298339E-002   6.5630001916856529E-003   6.3006062721310485E-002
  -2.1136984592753302E-002   6.3089826384335190E-003   6.2549157971649255E-002
  -2.0361896021208283E-002   6.0531201608232388E-003   6.2315047884697494E-002
  -1.9586807449663245E-002   5.7954127588551660E-003   6.2303732460455258E-002
  -1.8811718878118222E-002   5.5358604325290717E-003   6.2515211698922601E-002
  -2.7504934248601821E-002   8.1924661635515428E-003   5.9297201009304717E-002
  -2.6520260290235430E-002   7.8874743910509332E-003   5.8971031171791741E-002
  -2.5535586331869049E-002   7.5754901454846493E-003   5.8841237445211927E-002
  -2.4550912373502667E-002   7.2565134268529636E-003   5.8907819829565160E-002
  -2.3566238415136272E-002   6.9305442351557112E-003   5.9170778324851792E-002
  -3.2949432446156994E-002   9.8219321354175437E-003   5.5539938852404172E-002
  -3.1781591652745682E-002   9.4659661436683612E-003   5.5339356378331948E-002
  -3.0613750859334338E-002   9.0978601301460044E-003   5.5308731463416569E-002
  -2.9445910065923026E-002   8.7176140948508167E-003   5.5448064107657867E-002
  -2.8278069272511652E-002   8.3252280377825172E-003   5.5757354311055912E-002
  -3.8245567756964013E-002   1.1451398107283489E-002   5.1734276250608842E-002
  -3.6920978680284114E-002   1.1044457896285755E-002   5.1654133591269913E-002
  -3.5596389603604194E-002   1.0620230114807415E-002   5.1717529939311363E-002
  -3.4271800526924280E-002   1.0178714762848642E-002   5.1924465294733192E-002
  -3.2947211450244367E-002   9.7199118404092677E-003   5.2274939657535359E-002
  -4.3393340181022741E-002   1.3080864079149490E-002   4.7880213203918665E-002
  -4.1938421372850671E-002   1.2622949648903259E-002   4.7915362810605461E-002
  -4.0483502564678565E-002   1.2142600099468728E-002   4.8067632872896365E-002
  -3.9028583756506474E-002   1.1639815430846485E-002   4.8337023390791198E-002
  -3.7573664948334390E-002   1.1114595643035963E-002   4.8723534364290000E-002
  -1.8811718878118222E-002   5.5358604325290717E-003   6.2515211698922601E-002
  -1.7932677230873325E-002   5.2690791343480980E-003   6.2196051237665029E-002
  -1.7053635583628414E-002   4.9896848168155816E-003   6.2104603576470435E-002
  -1.6174593936383517E-002   4.6976774799314322E-003   6.2240868715338515E-002
  -1.5295552289138613E-002   4.3930571236956428E-003   6.2604846654269575E-002
  -2.3566238415136272E-002   6.9305442351557112E-003   5.9170778324851792E-002
  -2.2466570813572305E-002   6.5959873082016007E-003   5.8875821689093027E-002
  -2.1366903212008327E-002   6.2512473837987581E-003   5.8794404161909564E-002
  -2.0267235610444339E-002   5.8963244619474262E-003   5.8926525743301456E-002
  -1.9167568008880378E-002   5.5312185426475979E-003   5.9272186433268648E-002
  -2.8278069272511652E-002   8.3252280377825172E-003   5.5757354311055912E-002
  -2.6971949408116126E-002   7.9228954820549646E-003   5.5489031522699184E-002
  -2.5665829543720639E-002   7.5128099507820040E-003   5.5420074151430132E-002
  -2.4359709679325114E-002   7.0949714439635346E-003   5.5550482197248834E-002
  -2.3053589814929620E-002   6.6693799615996641E-003   5.5880255660155337E-002
  -3.2947211450244367E-002   9.7199118404092677E-003   5.2274939657535359E-002
  -3.1448813014504848E-002   9.2498036559084257E-003   5.2035680738483490E-002
  -2.9950414578765329E-002   8.7743725177651874E-003   5.1981613545031918E-002
  -2.8452016143025807E-002   8.2936184259798634E-003   5.2112738077180622E-002
  -2.6953617707286288E-002   7.8075413805516747E-003   5.2429054334929441E-002
  -3.7573664948334390E-002   1.1114595643035963E-002   4.8723534364290000E-002
  -3.5897161632738400E-002   1.0576711829761831E-002   4.8515769336446246E-002
  -3.4220658317142411E-002   1.0035935084748426E-002   4.8479022342715061E-002
  -3.2544155001546442E-002   9.4922654079956370E-003   4.8613293383096667E-002
  -3.0867651685950431E-002   8.9457027995036853E-003   4.8918582457591064E-002
  -1.5295552289138613E-002   4.3930571236956428E-003   6.2604846654269575E-002
  -1.4420050389010678E-002   4.0794892911029113E-003   6.2422755377027628E-002
  -1.3544548488882736E-002   3.7606395251477964E-003   6.2445858355521688E-002
  -1.2669046588754812E-002   3.4365078258303469E-003   6.2674155589751590E-002
  -1.1793544688626867E-002   3.1070941931505835E-003   6.3107647079717610E-002
  -1.9167568008880378E-002   5.5312185426475979E-003   5.9272186433268648E-002
  -1.8088331359118078E-002   5.1577143568808104E-003   5.9068681829193864E-002
  -1.7009094709355813E-002   4.7775966356283783E-003   5.9067452468651693E-002
  -1.5929858059593547E-002   4.3908653788902741E-003   5.9268498351642357E-002
  -1.4850621409831247E-002   3.9975205866668029E-003   5.9671819478165911E-002
  -2.3053589814929620E-002   6.6693799615996641E-003   5.5880255660155337E-002
  -2.1773537427736127E-002   6.2359394226586540E-003   5.5654006127124261E-002
  -2.0493485040542658E-002   5.7945537461088631E-003   5.5627112825422875E-002
  -1.9213432653349197E-002   5.3452229319503157E-003   5.5799575755051060E-002
  -1.7933380266155728E-002   4.8879469801830222E-003   5.6171394916008976E-002
  -2.6953617707286288E-002   7.8075413805516747E-003   5.2429054334929441E-002
  -2.5475668594864762E-002   7.3141644884366919E-003   5.2178728270819000E-002
  -2.3997719482443246E-002   6.8115108565894519E-003   5.2124839425835054E-002
  -2.2519770370021709E-002   6.2995804850104666E-003   5.2267387799977513E-002
  -2.1041821257600207E-002   5.7783733736992415E-003   5.2606373393246454E-002
  -3.0867651685950431E-002   8.9457027995036853E-003   4.8918582457591064E-002
  -2.9194724860504007E-002   8.3923895542143412E-003   4.8642848260278038E-002
  -2.7521798035057596E-002   7.8284679670699298E-003   4.8560632269888271E-002
  -2.5848871209611192E-002   7.2539380380702290E-003   4.8671934486421986E-002
  -2.4175944384164760E-002   6.6687997672154609E-003   4.8976754909878961E-002
  -1.1793544688626867E-002   3.1070941931505835E-003   6.3107647079717610E-002
  -1.0818370281527427E-002   2.7827230162325023E-003   6.3003068596537481E-002
  -9.8431958744279978E-003   2.4737186841991832E-003   6.3148543795384204E-002
  -8.8680214673285632E-003   2.1800811970512021E-003   6.3544072676257890E-002
  -7.8928470602291287E-003   1.9018105547882191E-003   6.4189655239158205E-002
  -1.4850621409831247E-002   3.9975205866668029E-003   5.9671819478165911E-002
  -1.3638012215566687E-002   3.6060149073557368E-003   5.9541769268101841E-002
  -1.2425403021302125E-002   3.2248009893549867E-003   5.9636534950341269E-002
  -1.1212793827037548E-002   2.8538788326647538E-003   5.9956116524884195E-002
  -1.0000184632772975E-002   2.4932484372846009E-003   6.0500513991730454E-002
  -1.7933380266155728E-002   4.8879469801830222E-003   5.6171394916008976E-002
  -1.6508574074449382E-002   4.4293067984791934E-003   5.6010797895486131E-002
  -1.5083767882743078E-002   3.9758832945110262E-003   5.6049778977543471E-002
  -1.3658961691036753E-002   3.5276764682782534E-003   5.6288338162180783E-002
  -1.2234155499330426E-002   3.0846863197810381E-003   5.6726475449398239E-002
  -2.1041821257600207E-002   5.7783733736992415E-003   5.2606373393246454E-002
  -1.9430055858175525E-002   5.2525986896027610E-003   5.2410154478690234E-002
  -1.7818290458750812E-002   4.7269655996668922E-003   5.2388275876990631E-002
  -1.6206525059326144E-002   4.2014741038918346E-003   5.2540737588147597E-002
  -1.4594759659901422E-002   3.6761242022776697E-003   5.2867539612161348E-002
  -2.4175944384164760E-002   6.6687997672154609E-003   4.8976754909878961E-002
  -2.2402457566745054E-002   6.0758905807259955E-003   4.8739839017714115E-002
  -2.0628970749325404E-002   5.4780479048228692E-003   4.8652025648682817E-002
  -1.8855483931905725E-002   4.8752717395054157E-003   4.8713314802784791E-002
  -1.7081997114486047E-002   4.2675620847737461E-003   4.8923706480019979E-002
  -7.8928470602291287E-003   1.9018105547882191E-003   6.4189655239158205E-002
  -6.9608897038221512E-003   1.6871671409923739E-003   6.4106647577464870E-002
  -6.0289323474151842E-003   1.5844113392450565E-003   6.4270453765895685E-002
  -5.0969749910082084E-003   1.5935431495461075E-003   6.4681073804450678E-002
  -4.1650176346012396E-003   1.7145625718961721E-003   6.5338507693129988E-002
  -1.0000184632772975E-002   2.4932484372846009E-003   6.0500513991730454E-002
  -8.8197884971520958E-003   2.1937756819234711E-003   6.0404453530501112E-002
  -7.6393923615312442E-003   2.0063264452901963E-003   6.0558456777575542E-002
  -6.4589962259103996E-003   1.9309007273842216E-003   6.0962523732953355E-002
  -5.2786000902895133E-003   1.9674985282056578E-003   6.1616654396634718E-002
  -1.2234155499330426E-002   3.0846863197810381E-003   5.6726475449398239E-002
  -1.0802070726316303E-002   2.7003842228549013E-003   5.6617498095312052E-002
  -9.3699859533022192E-003   2.4282415513353223E-003   5.6761834307708661E-002
  -7.9379011802881098E-003   2.2682583052222212E-003   5.7159484086588309E-002
  -6.5058164072740142E-003   2.2204344845155877E-003   5.7810447431950795E-002
  -1.4594759659901422E-002   3.6761242022776697E-003   5.2867539612161348E-002
  -1.2907736391314753E-002   3.2069927637863316E-003   5.2745781271897149E-002
  -1.1220713122728069E-002   2.8501566573807327E-003   5.2880586356295292E-002
  -9.5336898541414205E-003   2.6056158830601115E-003   5.3271954865355554E-002
  -7.8466665855547180E-003   2.4733704408252954E-003   5.3919886799078373E-002
  -1.7081997114486047E-002   4.2675620847737461E-003   4.8923706480019979E-002
  -1.5136785492147434E-002   3.7136013047174288E-003   4.8789303060256750E-002
  -1.3191573869808848E-002   3.2720717634255880E-003   4.8914712923335268E-002
  -1.1246362247470242E-002   2.9429734608983349E-003   4.9299936069255174E-002
  -9.3011506251316489E-003   2.7263063971351142E-003   4.9944972498016882E-002
  -4.1650176346012396E-003   1.7145625718961721E-003   6.5338507693129988E-002
  -3.6335203523433987E-003   2.0075581943098109E-003   6.4417143492018880E-002
  -3.1020230700855612E-003   2.5326186048019728E-003   6.3615948400154498E-002
  -2.5705257878277238E-003   3.2897438033733656E-003   6.2934922417536399E-002
  -2.0390285055698829E-003   4.2789337900235314E-003   6.2374065544164470E-002
  -5.2786000902895133E-003   1.9674985282056578E-003   6.1616654396634718E-002
  -4.6012068231186219E-003   2.2231474199110868E-003   6.0886454935453471E-002
  -3.9238135559477409E-003   2.8048749746556467E-003   6.0327878334851842E-002
  -3.2464202887768547E-003   3.7126811924399483E-003   5.9940924594829512E-002
  -2.5690270216059685E-003   4.9465660732639360E-003   5.9725593715387215E-002
  -6.5058164072740142E-003   2.2204344845155877E-003   5.7810447431950795E-002
  -5.6310734038568667E-003   2.4387366455124460E-003   5.7365426585659907E-002
  -4.7563304004397469E-003   3.0771313445093484E-003   5.7143482351281666E-002
  -3.8815873970226150E-003   4.1356185815067600E-003   5.7144614728816254E-002
  -3.0068443936054796E-003   5.6141983565044518E-003   5.7368823718264017E-002
  -7.8466665855547180E-003   2.4733704408252954E-003   5.3919886799078373E-002
  -6.7231200945581278E-003   2.6543258711139855E-003   5.3854058442638353E-002
  -5.5995736035615810E-003   3.3493877143632028E-003   5.4062760449444490E-002
  -4.4760271125649995E-003   4.5585559705735683E-003   5.4545992819496472E-002
  -3.3524806215684448E-003   6.2818306397450230E-003   5.5303755552794681E-002
  -9.3011506251316489E-003   2.7263063971351142E-003   4.9944972498016882E-002
  -7.8773468952224451E-003   2.8699150967150810E-003   5.0352350506388532E-002
  -6.4535431653132413E-003   3.6216440842166964E-003   5.1085712629339808E-002
  -5.0297394354040376E-003   4.9814933596402031E-003   5.2145058866870070E-002
  -3.6059357054948338E-003   6.9494629229853722E-003   5.3530389218979790E-002
  -2.0390285055698829E-003   4.2789337900235314E-003   6.2374065544164470E-002
  -2.2884533455470868E-003   5.5807984758977636E-003   5.8343248495277611E-002
  -2.5378781855242803E-003   7.2759477721413557E-003   5.4306693539976081E-002
  -2.7873030255014565E-003   9.3643816787545853E-003   5.0264400678260046E-002
  -3.0367278654786778E-003   1.1846100195736842E-002   4.6216369910129895E-002
  -2.5690270216059685E-003   4.9465660732639360E-003   5.9725593715387215E-002
  -2.8416098175642092E-003   6.5705028994260672E-003   5.6193192679973303E-002
  -3.1141926135224637E-003   8.6484649532249658E-003   5.2620213639011260E-002
  -3.3867754094806975E-003   1.1180452234660784E-002   4.9006656592501752E-002
  -3.6593582054389867E-003   1.4166464743733398E-002   4.5352521540444446E-002
  -3.0068443936054796E-003   5.6141983565044518E-003   5.7368823718264017E-002
  -3.3374252446780051E-003   7.5602073229544819E-003   5.4395579313590348E-002
  -3.6680060957505287E-003   1.0020982134308798E-002   5.1346916804236031E-002
  -3.9985869468231227E-003   1.2996522790567094E-002   4.8222836190200499E-002
  -4.3291677978955986E-003   1.6486829291729954E-002   4.5023337471484570E-002
  -3.3524806215684448E-003   6.2818306397450230E-003   5.5303755552794681E-002
  -3.7758996268884362E-003   8.5499117464828411E-003   5.2950408396128773E-002
  -4.1993186322084684E-003   1.1393499315392408E-002   5.0486803035648939E-002
  -4.6227376375284571E-003   1.4812593346473571E-002   4.7912939471355498E-002
  -5.0461566428485196E-003   1.8807193839726510E-002   4.5228817703246882E-002
  -3.6059357054948338E-003   6.9494629229853722E-003   5.3530389218979790E-002
  -4.1570329641955617E-003   9.5396161700112003E-003   5.1857679927589495E-002
  -4.7081302228962896E-003   1.2766016496476074E-002   5.0039872333251467E-002
  -5.2592274815970314E-003   1.6628663902379673E-002   4.8076966435966428E-002
  -5.8103247402977454E-003   2.1127558387723067E-002   4.5968962235734434E-002
  -4.9234508301999630E-002   1.4895142084719759E-002   4.2881491928971061E-002
  -4.7774216271755376E-002   1.4436418110272020E-002   4.4480230751228367E-002
  -4.6313924241511178E-002   1.3981130451194368E-002   4.5846263904471996E-002
  -4.4853632211266953E-002   1.3529279107486927E-002   4.6979591388702058E-002
  -4.3393340181022741E-002   1.3080864079149490E-002   4.7880213203918665E-002
  -5.4334056129452413E-002   1.6801094038649489E-002   4.3795291451137197E-002
  -5.2906105803855213E-002   1.6306188608333883E-002   4.3677767617577523E-002
  -5.1478155478258070E-002   1.5801711713570907E-002   4.3728266043737252E-002
  -5.0050205152660912E-002   1.5287663354360489E-002   4.3946786729616508E-002
  -4.8622254827063734E-002   1.4764043530702819E-002   4.4333329675215111E-002
  -6.1347163002549998E-002   1.8707045992579246E-002   4.4679413407344354E-002
  -5.9550826452866891E-002   1.8175959106395717E-002   4.2832619138150133E-002
  -5.7754489903183756E-002   1.7622292975947390E-002   4.1554575057408463E-002
  -5.5958153353500580E-002   1.7046047601234189E-002   4.0845281165119263E-002
  -5.4161816803817472E-002   1.6447222982256177E-002   4.0704737461282489E-002
  -7.0273828921292525E-002   2.0612997946509004E-002   4.5533857797592128E-002
  -6.7708378218790402E-002   2.0045729604457482E-002   4.1944785312946042E-002
  -6.5142927516288293E-002   1.9442874238323846E-002   3.9325190945485568E-002
  -6.2577476813786129E-002   1.8804431848107876E-002   3.7675074695210531E-002
  -6.0012026111284034E-002   1.8130402433809492E-002   3.6994436562120980E-002
  -8.1114053885679938E-002   2.2518949900438734E-002   4.6358624621880895E-002
  -7.7378761101625754E-002   2.1915500102519414E-002   4.1014266141965516E-002
  -7.3643468317571598E-002   2.1263455500700384E-002   3.7040113707968503E-002
  -6.9908175533517386E-002   2.0562816094981486E-002   3.4436167319890132E-002
  -6.6172882749463230E-002   1.9813581885362863E-002   3.3202426977730237E-002
  -4.3393340181022741E-002   1.3080864079149490E-002   4.7880213203918665E-002
  -4.1938421372850671E-002   1.2622949648903259E-002   4.7915362810605461E-002
  -4.0483502564678565E-002   1.2142600099468728E-002   4.8067632872896365E-002
  -3.9028583756506474E-002   1.1639815430846485E-002   4.8337023390791198E-002
  -3.7573664948334390E-002   1.1114595643035963E-002   4.8723534364290000E-002
  -4.8622254827063734E-002   1.4764043530702819E-002   4.4333329675215111E-002
  -4.7024977167372847E-002   1.4231337386099135E-002   4.4067552198787802E-002
  -4.5427699507681912E-002   1.3690030064051228E-002   4.3969371969794224E-002
  -4.3830421847991012E-002   1.3140121564558779E-002   4.4038788988234226E-002
  -4.2233144188300098E-002   1.2581611887621857E-002   4.4275803254107848E-002
  -5.4161816803817472E-002   1.6447222982256177E-002   4.0704737461282489E-002
  -5.2371703500778112E-002   1.5839725123295262E-002   4.0151866843484665E-002
  -5.0581590197738717E-002   1.5237460028633666E-002   3.9817070264950134E-002
  -4.8791476894699315E-002   1.4640427698271072E-002   3.9700347725678917E-002
  -4.7001363591659968E-002   1.4048628132207752E-002   3.9801699225671033E-002
  -6.0012026111284034E-002   1.8130402433809492E-002   3.6994436562120980E-002
  -5.7978600373066437E-002   1.7448112860491430E-002   3.6168306744696087E-002
  -5.5945174634848910E-002   1.6784889993216135E-002   3.5610727758364262E-002
  -5.3911748896631376E-002   1.6140733831983587E-002   3.5321699603125395E-002
  -5.1878323158413842E-002   1.5515644376793591E-002   3.5301222278979569E-002
  -6.6172882749463230E-002   1.9813581885362863E-002   3.3202426977730237E-002
  -6.3845667784237906E-002   1.9056500597687376E-002   3.2116871902422128E-002
  -6.1518452819012553E-002   1.8332319957798549E-002   3.1350344450036483E-002
  -5.9191237853787215E-002   1.7641039965695784E-002   3.0902844620573605E-002
  -5.6864022888561877E-002   1.6982660621379542E-002   3.0774372414033357E-002
  -3.7573664948334390E-002   1.1114595643035963E-002   4.8723534364290000E-002
  -3.5897161632738400E-002   1.0576711829761831E-002   4.8515769336446246E-002
  -3.4220658317142411E-002   1.0035935084748426E-002   4.8479022342715061E-002
  -3.2544155001546442E-002   9.4922654079956370E-003   4.8613293383096667E-002
  -3.0867651685950431E-002   8.9457027995036853E-003   4.8918582457591064E-002
  -4.2233144188300098E-002   1.2581611887621857E-002   4.4275803254107848E-002
  -4.0377995357328805E-002   1.2012953146222471E-002   4.3959630602522642E-002
  -3.8522846526357492E-002   1.1432597453342352E-002   4.3829730947575363E-002
  -3.6667697695386178E-002   1.0840544808981945E-002   4.3886104289266106E-002
  -3.4812548864414899E-002   1.0236795213140804E-002   4.4128750627594637E-002
  -4.7001363591659968E-002   1.4048628132207752E-002   3.9801699225671033E-002
  -4.4952314282788057E-002   1.3449194462683056E-002   3.9368314930603082E-002
  -4.2903264973916208E-002   1.2829259821936501E-002   3.9136458594698442E-002
  -4.0854215665044352E-002   1.2188824209968141E-002   3.9106130217956933E-002
  -3.8805166356172448E-002   1.1527887626777922E-002   3.9277329800378569E-002
  -5.1878323158413842E-002   1.5515644376793591E-002   3.5301222278979569E-002
  -4.9620118409116204E-002   1.4885435779143641E-002   3.4741822320687635E-002
  -4.7361913659818476E-002   1.4225922190530427E-002   3.4399205284084300E-002
  -4.5103708910520797E-002   1.3537103610954393E-002   3.4273371169169453E-002
  -4.2845504161223166E-002   1.2818980040415040E-002   3.4364319975942692E-002
  -5.6864022888561877E-002   1.6982660621379542E-002   3.0774372414033357E-002
  -5.4381407736313170E-002   1.6321677095604253E-002   3.0080152772776314E-002
  -5.1898792584064421E-002   1.5622584559124492E-002   2.9617971015732908E-002
  -4.9416177431815707E-002   1.4885383011940569E-002   2.9387827142903292E-002
  -4.6933562279566965E-002   1.4110072454052158E-002   2.9389721154287285E-002
  -3.0867651685950431E-002   8.9457027995036853E-003   4.8918582457591064E-002
  -2.9194724860504007E-002   8.3923895542143412E-003   4.8642848260278038E-002
  -2.7521798035057596E-002   7.8284679670699298E-003   4.8560632269888271E-002
  -2.5848871209611192E-002   7.2539380380702290E-003   4.8671934486421986E-002
  -2.4175944384164760E-002   6.6687997672154609E-003   4.8976754909878961E-002
  -3.4812548864414899E-002   1.0236795213140804E-002   4.4128750627594637E-002
  -3.2956109048954546E-002   9.6245268527971328E-003   4.3787316440389384E-002
  -3.1099669233494200E-002   9.0069179149294132E-003   4.3619390026288618E-002
  -2.9243229418033850E-002   8.3839683995374920E-003   4.3624971385292505E-002
  -2.7386789602573555E-002   7.7556783066212720E-003   4.3804060517400822E-002
  -3.8805166356172448E-002   1.1527887626777922E-002   3.9277329800378569E-002
  -3.6785223984517022E-002   1.0856664151380063E-002   3.8875463387612025E-002
  -3.4765281612861534E-002   1.0185367862789119E-002   3.8627094314131194E-002
  -3.2745339241206116E-002   9.5139987610046439E-003   3.8532222579936104E-002
  -3.0725396869550628E-002   8.8425568460270831E-003   3.8590848185026672E-002
  -4.2845504161223166E-002   1.2818980040415040E-002   3.4364319975942692E-002
  -4.0682069667191387E-002   1.2088801449962980E-002   3.3907289101945848E-002
  -3.8518635173159642E-002   1.1363817810648602E-002   3.3583745133415888E-002
  -3.6355200679127904E-002   1.0644029122471907E-002   3.3393688070352825E-002
  -3.4191766185096104E-002   9.9294353854328943E-003   3.3337117912756620E-002
  -4.6933562279566965E-002   1.4110072454052158E-002   2.9389721154287285E-002
  -4.4646646096977716E-002   1.3320938748545730E-002   2.8882793583390909E-002
  -4.2359729914388466E-002   1.2542267758508363E-002   2.8489342484142810E-002
  -4.0072813731799245E-002   1.1774059483939101E-002   2.8209367856542739E-002
  -3.7785897549209968E-002   1.1016313924838705E-002   2.8042869700590556E-002
  -2.4175944384164760E-002   6.6687997672154609E-003   4.8976754909878961E-002
  -2.2402457566745054E-002   6.0758905807259955E-003   4.8739839017714115E-002
  -2.0628970749325404E-002   5.4780479048228692E-003   4.8652025648682817E-002
  -1.8855483931905725E-002   4.8752717395054157E-003   4.8713314802784791E-002
  -1.7081997114486047E-002   4.2675620847737461E-003   4.8923706480019979E-002
  -2.7386789602573555E-002   7.7556783066212720E-003   4.3804060517400822E-002
  -2.5460741771909920E-002   7.1241720903205685E-003   4.3439828487448817E-002
  -2.3534693941246285E-002   6.4915742047750857E-003   4.3231615960851760E-002
  -2.1608646110582590E-002   5.8578846499848514E-003   4.3179422937609124E-002
  -1.9682598279919014E-002   5.2231034259496711E-003   4.3283249417721270E-002
  -3.0725396869550628E-002   8.8425568460270831E-003   3.8590848185026672E-002
  -2.8639871045421737E-002   8.1724535999150860E-003   3.8103141837457027E-002
  -2.6554345221292845E-002   7.5051005047275243E-003   3.7778371973463315E-002
  -2.4468819397163926E-002   6.8404975604643981E-003   3.7616538593045507E-002
  -2.2383293573035055E-002   6.1786447671258737E-003   3.7617641696203519E-002
  -3.4191766185096104E-002   9.9294353854328943E-003   3.3337117912756620E-002
  -3.1939845387280702E-002   9.2207351095095202E-003   3.2729779067738385E-002
  -2.9687924589465231E-002   8.5186268046797964E-003   3.2292293686517426E-002
  -2.7436003791649760E-002   7.8231104709438337E-003   3.2024661769093576E-002
  -2.5184082993834352E-002   7.1341861083019376E-003   3.1926883315466933E-002
  -3.7785897549209968E-002   1.1016313924838705E-002   2.8042869700590556E-002
  -3.5360664797486618E-002   1.0269016619104121E-002   2.7319740178293139E-002
  -3.2935432045763324E-002   9.5321531046322350E-003   2.6773381100013982E-002
  -3.0510199294040002E-002   8.8057233814234498E-003   2.6403792465753528E-002
  -2.8084966542316653E-002   8.0897274494778904E-003   2.6210974275511556E-002
  -1.7081997114486047E-002   4.2675620847737461E-003   4.8923706480019979E-002
  -1.5136785492147434E-002   3.7136013047174288E-003   4.8789303060256750E-002
  -1.3191573869808848E-002   3.2720717634255880E-003   4.8914712923335268E-002
  -1.1246362247470242E-002   2.9429734608983349E-003   4.9299936069255174E-002
  -9.3011506251316489E-003   2.7263063971351142E-003   4.9944972498016882E-002
  -1.9682598279919014E-002   5.2231034259496711E-003   4.3283249417721270E-002
  -1.7517040349832542E-002   4.6232641369053362E-003   4.3100988284176411E-002
  -1.5351482419746106E-002   4.0944003870875267E-003   4.3099606483285730E-002
  -1.3185924489659613E-002   3.6365121764952435E-003   4.3279104015049447E-002
  -1.1020366559573197E-002   3.2495995051290416E-003   4.3639480879466896E-002
  -2.2383293573035055E-002   6.1786447671258737E-003   3.7617641696203519E-002
  -2.0076323285388234E-002   5.5329269690933547E-003   3.7346067149338968E-002
  -1.7769352997741409E-002   4.9167290107487993E-003   3.7176437984940719E-002
  -1.5462382710094568E-002   4.3300508920919301E-003   3.7108754203009353E-002
  -1.3155412422447763E-002   3.7728926131229135E-003   3.7143015803544482E-002
  -2.5184082993834352E-002   7.1341861083019376E-003   3.1926883315466933E-002
  -2.2814634298814574E-002   6.4425898012814842E-003   3.1524539655744130E-002
  -2.0445185603794828E-002   5.7390576344104050E-003   3.1145207428300306E-002
  -1.8075736908775019E-002   5.0235896076888942E-003   3.0788886633135872E-002
  -1.5706288213755356E-002   4.2961857211168686E-003   3.0455577270250243E-002
  -2.8084966542316653E-002   8.0897274494778904E-003   2.6210974275511556E-002
  -2.5731973390111434E-002   7.3522526334692251E-003   2.5636405803392104E-002
  -2.3378980237906286E-002   6.5613862580719551E-003   2.5005914813364172E-002
  -2.1025987085701102E-002   5.7171283232855669E-003   2.4319501305428287E-002
  -1.8672993933495918E-002   4.8194788291107127E-003   2.3577165279583978E-002
  -9.3011506251316489E-003   2.7263063971351142E-003   4.9944972498016882E-002
  -7.8773468952224451E-003   2.8699150967150810E-003   5.0352350506388532E-002
  -6.4535431653132413E-003   3.6216440842166964E-003   5.1085712629339808E-002
  -5.0297394354040376E-003   4.9814933596402031E-003   5.2145058866870070E-002
  -3.6059357054948338E-003   6.9494629229853722E-003   5.3530389218979790E-002
  -1.1020366559573197E-002   3.2495995051290416E-003   4.3639480879466896E-002
  -9.2522009973675934E-003   3.1737435783154022E-003   4.4229035796022997E-002
  -7.4840354351619690E-003   3.6490256013807232E-003   4.5181330262592856E-002
  -5.7158698729563133E-003   4.6754455743241788E-003   4.6496364279176500E-002
  -3.9477043107507409E-003   6.2530034971475246E-003   4.8174137845773291E-002
  -1.3155412422447763E-002   3.7728926131229135E-003   3.7143015803544482E-002
  -1.1006129592511432E-002   3.4775720599156124E-003   3.7857765290242262E-002
  -8.8568467625750533E-003   3.6764071185443198E-003   3.8972009762388141E-002
  -6.7075639326386396E-003   4.3693977890087131E-003   4.0485749219981680E-002
  -4.5582811027023440E-003   5.5565440713090108E-003   4.2398983663023471E-002
  -1.5706288213755356E-002   4.2961857211168686E-003   3.0455577270250243E-002
  -1.3139132680653944E-002   3.7814005415160445E-003   3.1238538989046306E-002
  -1.0571977147552416E-002   3.7037886357080760E-003   3.2457751128725024E-002
  -8.0048216144509732E-003   4.0633500036927461E-003   3.4113213689285840E-002
  -5.4376660813494765E-003   4.8600846454706081E-003   3.6204926670728971E-002
  -1.8672993933495918E-002   4.8194788291107127E-003   2.3577165279583978E-002
  -1.5651210261795029E-002   4.0852290231161992E-003   2.4371356892435747E-002
  -1.2629426590094139E-002   3.7311701528719710E-003   2.5638554361604116E-002
  -9.6076429183932222E-003   3.7573022183772301E-003   2.7378757687089278E-002
  -6.5858592466923604E-003   4.1636252196325385E-003   2.9591966868890762E-002
  -3.6059357054948338E-003   6.9494629229853722E-003   5.3530389218979790E-002
  -4.1570329641955617E-003   9.5396161700112003E-003   5.1857679927589495E-002
  -4.7081302228962896E-003   1.2766016496476074E-002   5.0039872333251467E-002
  -5.2592274815970314E-003   1.6628663902379673E-002   4.8076966435966428E-002
  -5.8103247402977454E-003   2.1127558387723067E-002   4.5968962235734434E-002
  -3.9477043107507409E-003   6.2530034971475246E-003   4.8174137845773291E-002
  -4.5401415881264201E-003   8.6909359153108379E-003   4.7239307712080625E-002
  -5.1325788655019952E-003   1.2298479374277083E-002   4.6366895843985734E-002
  -5.7250161428776362E-003   1.7075633874046203E-002   4.5556902241487951E-002
  -6.3174534202533050E-003   2.3022399414617922E-002   4.4809326904588165E-002
  -4.5582811027023440E-003   5.5565440713090108E-003   4.2398983663023471E-002
  -4.9845418302080884E-003   7.8422556606103644E-003   4.2735396648392016E-002
  -5.4108025577137980E-003   1.1830942252078286E-002   4.3341744467903037E-002
  -5.8370632852195355E-003   1.7522603845712394E-002   4.4218027121555981E-002
  -6.2633240127251966E-003   2.4917240441513000E-002   4.5364244609351734E-002
  -5.4376660813494765E-003   4.8600846454706081E-003   3.6204926670728971E-002
  -5.4902336904405795E-003   6.9935754059099464E-003   3.8345946736522724E-002
  -5.5428012995315142E-003   1.1363405129879392E-002   4.0964418205003857E-002
  -5.5953689086224766E-003   1.7969573817378643E-002   4.4060341076171808E-002
  -5.6479365177135518E-003   2.6812081468407967E-002   4.7633715350027139E-002
  -6.5858592466923604E-003   4.1636252196325385E-003   2.9591966868890762E-002
  -6.0572171688238197E-003   6.1448951512097505E-003   3.4070957976473193E-002
  -5.5285750909552234E-003   1.0895868007680526E-002   3.9234917055287533E-002
  -4.9999330130867103E-003   1.8416543789044844E-002   4.5083844105333754E-002
  -4.4712909352181418E-003   2.8706922495302933E-002   5.1617739126612161E-002
  -8.1114053885679938E-002   2.2518949900438734E-002   4.6358624621880895E-002
  -7.7378761101625754E-002   2.1915500102519414E-002   4.1014266141965516E-002
  -7.3643468317571598E-002   2.1263455500700384E-002   3.7040113707968503E-002
  -6.9908175533517386E-002   2.0562816094981486E-002   3.4436167319890132E-002
  -6.6172882749463230E-002   1.9813581885362863E-002   3.3202426977730237E-002
  -8.9652334138103223E-002   2.4250236043136086E-002   1.9388546246645599E-002
  -8.5228871781452442E-002   2.3586751829130503E-002   1.9835002370788224E-002
  -8.0805409424801564E-002   2.2882667634638643E-002   2.0287591594205623E-002
  -7.6381947068150824E-002   2.2137983459660657E-002   2.0746313916897893E-002
  -7.1958484711499876E-002   2.1352699304196421E-002   2.1211169338864633E-002
  -9.1673165920953703E-002   2.5981522185833439E-002  -7.6455639563828559E-003
  -8.7925606938349971E-002   2.5258003555741426E-002  -1.4002984047685324E-003
  -8.4178047955746196E-002   2.4501879768576804E-002   3.4870272994767110E-003
  -8.0430488973142450E-002   2.3713150824339575E-002   7.0164131563529644E-003
  -7.6682929990538787E-002   2.2891816723029923E-002   9.1878591658603875E-003
  -8.7176549234231154E-002   2.7712808328530764E-002  -3.4743705987204464E-002
  -8.5468966572318367E-002   2.6929255282352432E-002  -2.2691636184704843E-002
  -8.3761383910405413E-002   2.6121091902515096E-002  -1.3361579176218063E-002
  -8.2053801248492486E-002   2.5288318189018867E-002  -6.7535349617440614E-003
  -8.0346218586579601E-002   2.4430934141863397E-002  -2.8675035412827760E-003
  -7.6162484077935799E-002   2.9444094471228088E-002  -6.1905879845819189E-002
  -7.7858950683357464E-002   2.8600507008963549E-002  -4.4039010969020798E-002
  -7.9555417288779129E-002   2.7740304036453306E-002  -3.0258227832878959E-002
  -8.1251883894200905E-002   2.6863485553697768E-002  -2.0563530437393521E-002
  -8.2948350499622570E-002   2.5970051560697094E-002  -1.4954918782564608E-002
  -6.6172882749463230E-002   1.9813581885362863E-002   3.3202426977730237E-002
  -6.3845667784237906E-002   1.9056500597687376E-002   3.2116871902422128E-002
  -6.1518452819012553E-002   1.8332319957798549E-002   3.1350344450036483E-002
  -5.9191237853787215E-002   1.7641039965695784E-002   3.0902844620573605E-002
  -5.6864022888561877E-002   1.6982660621379542E-002   3.0774372414033357E-002
  -7.1958484711499876E-002   2.1352699304196421E-002   2.1211169338864633E-002
  -6.9396375693730097E-002   2.0559896621721127E-002   2.1131869163301328E-002
  -6.6834266675960277E-002   1.9792656865709732E-002   2.1203329469904345E-002
  -6.4272157658190471E-002   1.9050980036162356E-002   2.1425550258673660E-002
  -6.1710048640420678E-002   1.8334866133078831E-002   2.1798531529609116E-002
  -7.6682929990538787E-002   2.2891816723029923E-002   9.1878591658603875E-003
  -7.4054194060980794E-002   2.2063292645754851E-002   1.0107476168719404E-002
  -7.1425458131422870E-002   2.1252993773621026E-002   1.1009586512988508E-002
  -6.8796722201864849E-002   2.0460920106628762E-002   1.1894190198667554E-002
  -6.6167986272306939E-002   1.9687071644778065E-002   1.2761287225756604E-002
  -8.0346218586579601E-002   2.4430934141863397E-002  -2.8675035412827760E-003
  -7.7819122885989800E-002   2.3566688669788227E-002  -9.5630708132351389E-004
  -7.5292027185400151E-002   2.2713330681532265E-002   7.6911557928930827E-004
  -7.2764931484810405E-002   2.1870860177095251E-002   2.3087644405556810E-003
  -7.0237835784220728E-002   2.1039277156477271E-002   3.6626395024757091E-003
  -8.2948350499622570E-002   2.5970051560697094E-002  -1.4954918782564608E-002
  -8.0691162168757380E-002   2.5070084693822270E-002  -1.2059480586827764E-002
  -7.8433973837892246E-002   2.4173667589443532E-002  -9.5180833311934721E-003
  -7.6176785507027084E-002   2.3280800247561857E-002  -7.3307270156625498E-003
  -7.3919597176161922E-002   2.2391482668176588E-002  -5.4974116402337625E-003
  -5.6864022888561877E-002   1.6982660621379542E-002   3.0774372414033357E-002
  -5.4381407736313170E-002   1.6321677095604253E-002   3.0080152772776314E-002
  -5.1898792584064421E-002   1.5622584559124492E-002   2.9617971015732908E-002
  -4.9416177431815707E-002   1.4885383011940569E-002   2.9387827142903292E-002
  -4.6933562279566965E-002   1.4110072454052158E-002   2.9389721154287285E-002
  -6.1710048640420678E-002   1.8334866133078831E-002   2.1798531529609116E-002
  -5.9024263786253930E-002   1.7614374311723219E-002   2.1427317939172824E-002
  -5.6338478932087183E-002   1.6859563727359639E-002   2.1230405868358879E-002
  -5.3652694077920442E-002   1.6070434379987619E-002   2.1207795317167370E-002
  -5.0966909223753687E-002   1.5246986269608076E-002   2.1359486285598139E-002
  -6.6167986272306939E-002   1.9687071644778065E-002   1.2761287225756604E-002
  -6.3336768080813413E-002   1.8907071527842198E-002   1.2716869933837124E-002
  -6.0505549889319873E-002   1.8096542895594495E-002   1.2789017796948965E-002
  -5.7674331697826327E-002   1.7255485748035111E-002   1.2977730815091640E-002
  -5.4843113506332822E-002   1.6383900085164105E-002   1.3283008988265704E-002
  -7.0237835784220728E-002   2.1039277156477271E-002   3.6626395024757091E-003
  -6.7318920619991757E-002   2.0199768743961254E-002   3.9488087567695479E-003
  -6.4400005455762729E-002   1.9333522063829607E-002   4.2938068015031354E-003
  -6.1481090291533674E-002   1.8440537116082657E-002   4.6976336366768567E-003
  -5.8562175127304730E-002   1.7520813900719800E-002   5.1602892622899937E-003
  -7.3919597176161922E-002   2.2391482668176588E-002  -5.4974116402337625E-003
  -7.0970721403788684E-002   2.1492465960080087E-002  -4.8768655920301551E-003
  -6.8021845631415501E-002   2.0570501232064525E-002  -4.2552271179784884E-003
  -6.5072969859042318E-002   1.9625588484129548E-002  -3.6324962180779435E-003
  -6.2124094086669079E-002   1.8657727716275940E-002  -3.0086728923290895E-003
  -4.6933562279566965E-002   1.4110072454052158E-002   2.9389721154287285E-002
  -4.4646646096977716E-002   1.3320938748545730E-002   2.8882793583390909E-002
  -4.2359729914388466E-002   1.2542267758508363E-002   2.8489342484142810E-002
  -4.0072813731799245E-002   1.1774059483939101E-002   2.8209367856542739E-002
  -3.7785897549209968E-002   1.1016313924838705E-002   2.8042869700590556E-002
  -5.0966909223753687E-002   1.5246986269608076E-002   2.1359486285598139E-002
  -4.8551325011295388E-002   1.4418421598446141E-002   2.1042167112986593E-002
  -4.6135740798837130E-002   1.3613942568728402E-002   2.0868707528465064E-002
  -4.3720156586378851E-002   1.2833549180455126E-002   2.0839107532033288E-002
  -4.1304572373920573E-002   1.2077241433625818E-002   2.0953367123691613E-002
  -5.4843113506332822E-002   1.6383900085164105E-002   1.3283008988265704E-002
  -5.2268478147563774E-002   1.5515904448346468E-002   1.3168921139914525E-002
  -4.9693842788794629E-002   1.4685617378948829E-002   1.3229075996094963E-002
  -4.7119207430025505E-002   1.3893038876971041E-002   1.3463473556807326E-002
  -4.4544572071256380E-002   1.3138168942413042E-002   1.3872113822051363E-002
  -5.8562175127304730E-002   1.7520813900719800E-002   5.1602892622899937E-003
  -5.5798105505782881E-002   1.6613387298246893E-002   5.2630556641747352E-003
  -5.3034035884261005E-002   1.5757292189169839E-002   5.5704478870325855E-003
  -5.0269966262739170E-002   1.4952528573487178E-002   6.0824659308646549E-003
  -4.7505896641217280E-002   1.4199096451200099E-002   6.7991097956699373E-003
  -6.2124094086669079E-002   1.8657727716275940E-002  -3.0086728923290895E-003
  -5.9140207085952690E-002   1.7710870148147539E-002  -2.6754293142329244E-003
  -5.6156320085236244E-002   1.6828966999389378E-002  -2.1071767987215773E-003
  -5.3172433084519855E-002   1.6012018270003113E-002  -1.3039153457947844E-003
  -5.0188546083803409E-002   1.5260023959987379E-002  -2.6564495545233768E-004
  -3.7785897549209968E-002   1.1016313924838705E-002   2.8042869700590556E-002
  -3.5360664797486618E-002   1.0269016619104121E-002   2.7319740178293139E-002
  -3.2935432045763324E-002   9.5321531046322350E-003   2.6773381100013982E-002
  -3.0510199294040002E-002   8.8057233814234498E-003   2.6403792465753528E-002
  -2.8084966542316653E-002   8.0897274494778904E-003   2.6210974275511556E-002
  -4.1304572373920573E-002   1.2077241433625818E-002   2.0953367123691613E-002
  -3.8736129479775339E-002   1.1330445324310434E-002   2.0478038139595534E-002
  -3.6167686585630146E-002   1.0578586848578694E-002   2.0112358996324714E-002
  -3.3599243691484988E-002   9.8216660064308590E-003   1.9856329693879196E-002
  -3.1030800797339775E-002   9.0596827978669525E-003   1.9709950232258799E-002
  -4.4544572071256380E-002   1.3138168942413042E-002   1.3872113822051363E-002
  -4.1900039637882622E-002   1.2391874029517108E-002   1.3629089218477761E-002
  -3.9255507204508842E-002   1.1625020592525376E-002   1.3428593852535781E-002
  -3.6610974771135119E-002   1.0837608631438379E-002   1.3270627724225915E-002
  -3.3966442337761298E-002   1.0029638146255848E-002   1.3155190833547936E-002
  -4.7505896641217280E-002   1.4199096451200099E-002   6.7991097956699373E-003
  -4.4852395271808322E-002   1.3453302734723324E-002   6.7728934149394703E-003
  -4.2198893902399268E-002   1.2671454336471835E-002   6.7220856686473450E-003
  -3.9545392532990262E-002   1.1853551256445456E-002   6.6466865567939432E-003
  -3.6891891163581256E-002   1.0999593494645049E-002   6.5466960793791190E-003
  -5.0188546083803409E-002   1.5260023959987379E-002  -2.6564495545233768E-004
  -4.7593196381552461E-002   1.4514731439929873E-002  -9.0549271018869337E-005
  -4.4997846679301512E-002   1.3717888080418239E-002  -7.1655553404159633E-006
  -4.2402496977050591E-002   1.2869493881453184E-002  -1.5493808416311428E-005
  -3.9807147274799615E-002   1.1969548843033806E-002  -1.1553403024733289E-004
  -2.8084966542316653E-002   8.0897274494778904E-003   2.6210974275511556E-002
  -2.5731973390111434E-002   7.3522526334692251E-003   2.5636405803392104E-002
  -2.3378980237906286E-002   6.5613862580719551E-003   2.5005914813364172E-002
  -2.1025987085701102E-002   5.7171283232855669E-003   2.4319501305428287E-002
  -1.8672993933495918E-002   4.8194788291107127E-003   2.3577165279583978E-002
  -3.1030800797339775E-002   9.0596827978669525E-003   1.9709950232258799E-002
  -2.8716850322961451E-002   8.2959191864004356E-003   1.9136509315433814E-002
  -2.6402899848583183E-002   7.5336571355457682E-003   1.8540905560863297E-002
  -2.4088949374204846E-002   6.7728966453029227E-003   1.7923138968547483E-002
  -2.1774998899826592E-002   6.0136377156718712E-003   1.7283209538486111E-002
  -3.3966442337761298E-002   1.0029638146255848E-002   1.3155190833547936E-002
  -3.1657774861046990E-002   9.2395857393318959E-003   1.2637770592018038E-002
  -2.9349107384332714E-002   8.5059280130198311E-003   1.2131947192905321E-002
  -2.7040439907618452E-002   7.8286649673205075E-003   1.1637720636210477E-002
  -2.4731772430904131E-002   7.2077966022326967E-003   1.1155090921932453E-002
  -3.6891891163581256E-002   1.0999593494645049E-002   6.5466960793791190E-003
  -3.4554747004368155E-002   1.0183252292263620E-002   6.1401896331447492E-003
  -3.2217602845155034E-002   9.4781988904936582E-003   5.7790397094907922E-003
  -2.9880458685941844E-002   8.8844332893378668E-003   5.4632463084167138E-003
  -2.7543314526728813E-002   8.4019554887937997E-003   5.1928094299227845E-003
  -3.9807147274799615E-002   1.1969548843033806E-002  -1.1553403024733289E-004
  -3.7407766752924787E-002   1.1126918845194456E-002  -3.5623356118552607E-004
  -3.5008386231050015E-002   1.0450469767967763E-002  -5.1781688938123960E-004
  -3.2609005709175271E-002   9.9402016113556840E-003  -6.0028401483355753E-004
  -3.0209625187300415E-002   9.5961143753546807E-003  -6.0363493754278519E-004
  -1.8672993933495918E-002   4.8194788291107127E-003   2.3577165279583978E-002
  -1.5651210261795029E-002   4.0852290231161992E-003   2.4371356892435747E-002
  -1.2629426590094139E-002   3.7311701528719710E-003   2.5638554361604116E-002
  -9.6076429183932222E-003   3.7573022183772301E-003   2.7378757687089278E-002
  -6.5858592466923604E-003   4.1636252196325385E-003   2.9591966868890762E-002
  -2.1774998899826592E-002   6.0136377156718712E-003   1.7283209538486111E-002
  -1.8549368663316593E-002   5.3466775668580269E-003   1.8235116763470061E-002
  -1.5323738426806718E-002   4.8628134190678296E-003   1.9121711261755131E-002
  -1.2098108190296816E-002   4.5620452723007035E-003   1.9942993033341808E-002
  -8.8724779537868448E-003   4.4443731265569886E-003   2.0698962078229854E-002
  -2.4731772430904131E-002   7.2077966022326967E-003   1.1155090921932453E-002
  -2.1840614212600432E-002   6.6081261106001599E-003   1.2067618824321585E-002
  -1.8949455994296718E-002   5.9944566852636744E-003   1.2376515416997205E-002
  -1.6058297775992977E-002   5.3667883262245066E-003   1.2081780699959167E-002
  -1.3167139557689306E-002   4.7251210334814941E-003   1.1183414673206854E-002
  -2.7543314526728813E-002   8.4019554887937997E-003   5.1928094299227845E-003
  -2.5524946909646410E-002   7.8695746543420292E-003   5.8688630749909668E-003
  -2.3506579292564118E-002   7.1260999514599146E-003   5.4029668273297866E-003
  -2.1488211675481806E-002   6.1715313801483668E-003   3.7951206869403457E-003
  -1.9469844058399431E-002   5.0058689404066381E-003   1.0453246538213931E-003
  -3.0209625187300415E-002   9.5961143753546807E-003  -6.0363493754278519E-004
  -2.9602366754454601E-002   9.1310231980838985E-003  -3.6115048452250997E-004
  -2.8995108321608953E-002   8.2577432176555443E-003  -1.7989345072461915E-003
  -2.8387849888763167E-002   6.9762744340719357E-003  -4.9169870057136286E-003
  -2.7780591455917492E-002   5.2866168473306718E-003  -9.7153079799260356E-003
  -6.5858592466923604E-003   4.1636252196325385E-003   2.9591966868890762E-002
  -6.0572171688238197E-003   6.1448951512097505E-003   3.4070957976473193E-002
  -5.5285750909552234E-003   1.0895868007680526E-002   3.9234917055287533E-002
  -4.9999330130867103E-003   1.8416543789044844E-002   4.5083844105333754E-002
  -4.4712909352181418E-003   2.8706922495302933E-002   5.1617739126612161E-002
  -8.8724779537868448E-003   4.4443731265569886E-003   2.0698962078229854E-002
  -7.5864982795205566E-003   5.6601858563943841E-003   2.5869068251686167E-002
  -6.3005186052541712E-003   9.3598723363697844E-003   3.1868881646706648E-002
  -5.0145389309876609E-003   1.5543432566483349E-002   3.8698402263290771E-002
  -3.7285592567213866E-003   2.4210866546735765E-002   4.6357630101438341E-002
  -1.3167139557689306E-002   4.7251210334814941E-003   1.1183414673206854E-002
  -1.0979083036693198E-002   5.1754765615786846E-003   1.6758806737781823E-002
  -8.7910265156970896E-003   7.8238766650593622E-003   2.3308645274252818E-002
  -6.6029699947010995E-003   1.2670321343922406E-002   3.0832930282619360E-002
  -4.4149134737049844E-003   1.9714810598168597E-002   3.9331661762881054E-002
  -1.9469844058399431E-002   5.0058689404066381E-003   1.0453246538213931E-003
  -1.6234971440342024E-002   4.6907672667641509E-003   6.7401734347598344E-003
  -1.3000098822284426E-002   6.2878809937487803E-003   1.3554207937926038E-002
  -9.7652262042268421E-003   9.7972101213611874E-003   2.1487428163319514E-002
  -6.5303535861694212E-003   1.5218754649601429E-002   3.0539834110940051E-002
  -2.7780591455917492E-002   5.2866168473306718E-003  -9.7153079799260356E-003
  -2.3354163490466595E-002   4.2060579719487290E-003  -4.1868316573795417E-003
  -1.8927735525015921E-002   4.7518853224386981E-003   2.6055696377260684E-003
  -1.4501307559564969E-002   6.9240988988004265E-003   1.0661895905391350E-002
  -1.0074879594114350E-002   1.0722698701034261E-002   1.9982147145614970E-002
 </DataArray>
 </PointData>
 </Piece>
 </UnstructuredGrid>
 </VTKFile>
