 <VTKFile type="UnstructuredGrid"  version="0.1"   >
 <UnstructuredGrid>
 <Piece  NumberOfPoints="          1600 "  NumberOfCells="         1024 ">
 <Points>
 <DataArray  type="Float64" NumberOfComponents="3"  format="ascii" >
   0.0000000000000000        0.0000000000000000        0.0000000000000000     
   3.1250000000000000E-002   0.0000000000000000        0.0000000000000000     
   6.2500000000000000E-002   0.0000000000000000        0.0000000000000000     
   9.3750000000000000E-002   0.0000000000000000        0.0000000000000000     
  0.12500000000000000        0.0000000000000000        0.0000000000000000     
   0.0000000000000000        3.1250000000000000E-002   0.0000000000000000     
   3.1250000000000000E-002   3.1250000000000000E-002   0.0000000000000000     
   6.2500000000000000E-002   3.1250000000000000E-002   0.0000000000000000     
   9.3750000000000000E-002   3.1250000000000000E-002   0.0000000000000000     
  0.12500000000000000        3.1250000000000000E-002   0.0000000000000000     
   0.0000000000000000        6.2500000000000000E-002   0.0000000000000000     
   3.1250000000000000E-002   6.2500000000000000E-002   0.0000000000000000     
   6.2500000000000000E-002   6.2500000000000000E-002   0.0000000000000000     
   9.3750000000000000E-002   6.2500000000000000E-002   0.0000000000000000     
  0.12500000000000000        6.2500000000000000E-002   0.0000000000000000     
   0.0000000000000000        9.3750000000000000E-002   0.0000000000000000     
   3.1250000000000000E-002   9.3750000000000000E-002   0.0000000000000000     
   6.2500000000000000E-002   9.3750000000000000E-002   0.0000000000000000     
   9.3750000000000000E-002   9.3750000000000000E-002   0.0000000000000000     
  0.12500000000000000        9.3750000000000000E-002   0.0000000000000000     
   0.0000000000000000       0.12500000000000000        0.0000000000000000     
   3.1250000000000000E-002  0.12500000000000000        0.0000000000000000     
   6.2500000000000000E-002  0.12500000000000000        0.0000000000000000     
   9.3750000000000000E-002  0.12500000000000000        0.0000000000000000     
  0.12500000000000000       0.12500000000000000        0.0000000000000000     
  0.12500000000000000        0.0000000000000000        0.0000000000000000     
  0.15625000000000000        0.0000000000000000        0.0000000000000000     
  0.18750000000000000        0.0000000000000000        0.0000000000000000     
  0.21875000000000000        0.0000000000000000        0.0000000000000000     
  0.25000000000000000        0.0000000000000000        0.0000000000000000     
  0.12500000000000000        3.1250000000000000E-002   0.0000000000000000     
  0.15625000000000000        3.1250000000000000E-002   0.0000000000000000     
  0.18750000000000000        3.1250000000000000E-002   0.0000000000000000     
  0.21875000000000000        3.1250000000000000E-002   0.0000000000000000     
  0.25000000000000000        3.1250000000000000E-002   0.0000000000000000     
  0.12500000000000000        6.2500000000000000E-002   0.0000000000000000     
  0.15625000000000000        6.2500000000000000E-002   0.0000000000000000     
  0.18750000000000000        6.2500000000000000E-002   0.0000000000000000     
  0.21875000000000000        6.2500000000000000E-002   0.0000000000000000     
  0.25000000000000000        6.2500000000000000E-002   0.0000000000000000     
  0.12500000000000000        9.3750000000000000E-002   0.0000000000000000     
  0.15625000000000000        9.3750000000000000E-002   0.0000000000000000     
  0.18750000000000000        9.3750000000000000E-002   0.0000000000000000     
  0.21875000000000000        9.3750000000000000E-002   0.0000000000000000     
  0.25000000000000000        9.3750000000000000E-002   0.0000000000000000     
  0.12500000000000000       0.12500000000000000        0.0000000000000000     
  0.15625000000000000       0.12500000000000000        0.0000000000000000     
  0.18750000000000000       0.12500000000000000        0.0000000000000000     
  0.21875000000000000       0.12500000000000000        0.0000000000000000     
  0.25000000000000000       0.12500000000000000        0.0000000000000000     
  0.25000000000000000        0.0000000000000000        0.0000000000000000     
  0.28125000000000000        0.0000000000000000        0.0000000000000000     
  0.31250000000000000        0.0000000000000000        0.0000000000000000     
  0.34375000000000000        0.0000000000000000        0.0000000000000000     
  0.37500000000000000        0.0000000000000000        0.0000000000000000     
  0.25000000000000000        3.1250000000000000E-002   0.0000000000000000     
  0.28125000000000000        3.1250000000000000E-002   0.0000000000000000     
  0.31250000000000000        3.1250000000000000E-002   0.0000000000000000     
  0.34375000000000000        3.1250000000000000E-002   0.0000000000000000     
  0.37500000000000000        3.1250000000000000E-002   0.0000000000000000     
  0.25000000000000000        6.2500000000000000E-002   0.0000000000000000     
  0.28125000000000000        6.2500000000000000E-002   0.0000000000000000     
  0.31250000000000000        6.2500000000000000E-002   0.0000000000000000     
  0.34375000000000000        6.2500000000000000E-002   0.0000000000000000     
  0.37500000000000000        6.2500000000000000E-002   0.0000000000000000     
  0.25000000000000000        9.3750000000000000E-002   0.0000000000000000     
  0.28125000000000000        9.3750000000000000E-002   0.0000000000000000     
  0.31250000000000000        9.3750000000000000E-002   0.0000000000000000     
  0.34375000000000000        9.3750000000000000E-002   0.0000000000000000     
  0.37500000000000000        9.3750000000000000E-002   0.0000000000000000     
  0.25000000000000000       0.12500000000000000        0.0000000000000000     
  0.28125000000000000       0.12500000000000000        0.0000000000000000     
  0.31250000000000000       0.12500000000000000        0.0000000000000000     
  0.34375000000000000       0.12500000000000000        0.0000000000000000     
  0.37500000000000000       0.12500000000000000        0.0000000000000000     
  0.37500000000000000        0.0000000000000000        0.0000000000000000     
  0.40625000000000000        0.0000000000000000        0.0000000000000000     
  0.43750000000000000        0.0000000000000000        0.0000000000000000     
  0.46875000000000000        0.0000000000000000        0.0000000000000000     
  0.50000000000000000        0.0000000000000000        0.0000000000000000     
  0.37500000000000000        3.1250000000000000E-002   0.0000000000000000     
  0.40625000000000000        3.1250000000000000E-002   0.0000000000000000     
  0.43750000000000000        3.1250000000000000E-002   0.0000000000000000     
  0.46875000000000000        3.1250000000000000E-002   0.0000000000000000     
  0.50000000000000000        3.1250000000000000E-002   0.0000000000000000     
  0.37500000000000000        6.2500000000000000E-002   0.0000000000000000     
  0.40625000000000000        6.2500000000000000E-002   0.0000000000000000     
  0.43750000000000000        6.2500000000000000E-002   0.0000000000000000     
  0.46875000000000000        6.2500000000000000E-002   0.0000000000000000     
  0.50000000000000000        6.2500000000000000E-002   0.0000000000000000     
  0.37500000000000000        9.3750000000000000E-002   0.0000000000000000     
  0.40625000000000000        9.3750000000000000E-002   0.0000000000000000     
  0.43750000000000000        9.3750000000000000E-002   0.0000000000000000     
  0.46875000000000000        9.3750000000000000E-002   0.0000000000000000     
  0.50000000000000000        9.3750000000000000E-002   0.0000000000000000     
  0.37500000000000000       0.12500000000000000        0.0000000000000000     
  0.40625000000000000       0.12500000000000000        0.0000000000000000     
  0.43750000000000000       0.12500000000000000        0.0000000000000000     
  0.46875000000000000       0.12500000000000000        0.0000000000000000     
  0.50000000000000000       0.12500000000000000        0.0000000000000000     
  0.50000000000000000        0.0000000000000000        0.0000000000000000     
  0.53125000000000000        0.0000000000000000        0.0000000000000000     
  0.56250000000000000        0.0000000000000000        0.0000000000000000     
  0.59375000000000000        0.0000000000000000        0.0000000000000000     
  0.62500000000000000        0.0000000000000000        0.0000000000000000     
  0.50000000000000000        3.1250000000000000E-002   0.0000000000000000     
  0.53125000000000000        3.1250000000000000E-002   0.0000000000000000     
  0.56250000000000000        3.1250000000000000E-002   0.0000000000000000     
  0.59375000000000000        3.1250000000000000E-002   0.0000000000000000     
  0.62500000000000000        3.1250000000000000E-002   0.0000000000000000     
  0.50000000000000000        6.2500000000000000E-002   0.0000000000000000     
  0.53125000000000000        6.2500000000000000E-002   0.0000000000000000     
  0.56250000000000000        6.2500000000000000E-002   0.0000000000000000     
  0.59375000000000000        6.2500000000000000E-002   0.0000000000000000     
  0.62500000000000000        6.2500000000000000E-002   0.0000000000000000     
  0.50000000000000000        9.3750000000000000E-002   0.0000000000000000     
  0.53125000000000000        9.3750000000000000E-002   0.0000000000000000     
  0.56250000000000000        9.3750000000000000E-002   0.0000000000000000     
  0.59375000000000000        9.3750000000000000E-002   0.0000000000000000     
  0.62500000000000000        9.3750000000000000E-002   0.0000000000000000     
  0.50000000000000000       0.12500000000000000        0.0000000000000000     
  0.53125000000000000       0.12500000000000000        0.0000000000000000     
  0.56250000000000000       0.12500000000000000        0.0000000000000000     
  0.59375000000000000       0.12500000000000000        0.0000000000000000     
  0.62500000000000000       0.12500000000000000        0.0000000000000000     
  0.62500000000000000        0.0000000000000000        0.0000000000000000     
  0.65625000000000000        0.0000000000000000        0.0000000000000000     
  0.68750000000000000        0.0000000000000000        0.0000000000000000     
  0.71875000000000000        0.0000000000000000        0.0000000000000000     
  0.75000000000000000        0.0000000000000000        0.0000000000000000     
  0.62500000000000000        3.1250000000000000E-002   0.0000000000000000     
  0.65625000000000000        3.1250000000000000E-002   0.0000000000000000     
  0.68750000000000000        3.1250000000000000E-002   0.0000000000000000     
  0.71875000000000000        3.1250000000000000E-002   0.0000000000000000     
  0.75000000000000000        3.1250000000000000E-002   0.0000000000000000     
  0.62500000000000000        6.2500000000000000E-002   0.0000000000000000     
  0.65625000000000000        6.2500000000000000E-002   0.0000000000000000     
  0.68750000000000000        6.2500000000000000E-002   0.0000000000000000     
  0.71875000000000000        6.2500000000000000E-002   0.0000000000000000     
  0.75000000000000000        6.2500000000000000E-002   0.0000000000000000     
  0.62500000000000000        9.3750000000000000E-002   0.0000000000000000     
  0.65625000000000000        9.3750000000000000E-002   0.0000000000000000     
  0.68750000000000000        9.3750000000000000E-002   0.0000000000000000     
  0.71875000000000000        9.3750000000000000E-002   0.0000000000000000     
  0.75000000000000000        9.3750000000000000E-002   0.0000000000000000     
  0.62500000000000000       0.12500000000000000        0.0000000000000000     
  0.65625000000000000       0.12500000000000000        0.0000000000000000     
  0.68750000000000000       0.12500000000000000        0.0000000000000000     
  0.71875000000000000       0.12500000000000000        0.0000000000000000     
  0.75000000000000000       0.12500000000000000        0.0000000000000000     
  0.75000000000000000        0.0000000000000000        0.0000000000000000     
  0.78125000000000000        0.0000000000000000        0.0000000000000000     
  0.81250000000000000        0.0000000000000000        0.0000000000000000     
  0.84375000000000000        0.0000000000000000        0.0000000000000000     
  0.87500000000000000        0.0000000000000000        0.0000000000000000     
  0.75000000000000000        3.1250000000000000E-002   0.0000000000000000     
  0.78125000000000000        3.1250000000000000E-002   0.0000000000000000     
  0.81250000000000000        3.1250000000000000E-002   0.0000000000000000     
  0.84375000000000000        3.1250000000000000E-002   0.0000000000000000     
  0.87500000000000000        3.1250000000000000E-002   0.0000000000000000     
  0.75000000000000000        6.2500000000000000E-002   0.0000000000000000     
  0.78125000000000000        6.2500000000000000E-002   0.0000000000000000     
  0.81250000000000000        6.2500000000000000E-002   0.0000000000000000     
  0.84375000000000000        6.2500000000000000E-002   0.0000000000000000     
  0.87500000000000000        6.2500000000000000E-002   0.0000000000000000     
  0.75000000000000000        9.3750000000000000E-002   0.0000000000000000     
  0.78125000000000000        9.3750000000000000E-002   0.0000000000000000     
  0.81250000000000000        9.3750000000000000E-002   0.0000000000000000     
  0.84375000000000000        9.3750000000000000E-002   0.0000000000000000     
  0.87500000000000000        9.3750000000000000E-002   0.0000000000000000     
  0.75000000000000000       0.12500000000000000        0.0000000000000000     
  0.78125000000000000       0.12500000000000000        0.0000000000000000     
  0.81250000000000000       0.12500000000000000        0.0000000000000000     
  0.84375000000000000       0.12500000000000000        0.0000000000000000     
  0.87500000000000000       0.12500000000000000        0.0000000000000000     
  0.87500000000000000        0.0000000000000000        0.0000000000000000     
  0.90625000000000000        0.0000000000000000        0.0000000000000000     
  0.93750000000000000        0.0000000000000000        0.0000000000000000     
  0.96875000000000000        0.0000000000000000        0.0000000000000000     
   1.0000000000000000        0.0000000000000000        0.0000000000000000     
  0.87500000000000000        3.1250000000000000E-002   0.0000000000000000     
  0.90625000000000000        3.1250000000000000E-002   0.0000000000000000     
  0.93750000000000000        3.1250000000000000E-002   0.0000000000000000     
  0.96875000000000000        3.1250000000000000E-002   0.0000000000000000     
   1.0000000000000000        3.1250000000000000E-002   0.0000000000000000     
  0.87500000000000000        6.2500000000000000E-002   0.0000000000000000     
  0.90625000000000000        6.2500000000000000E-002   0.0000000000000000     
  0.93750000000000000        6.2500000000000000E-002   0.0000000000000000     
  0.96875000000000000        6.2500000000000000E-002   0.0000000000000000     
   1.0000000000000000        6.2500000000000000E-002   0.0000000000000000     
  0.87500000000000000        9.3750000000000000E-002   0.0000000000000000     
  0.90625000000000000        9.3750000000000000E-002   0.0000000000000000     
  0.93750000000000000        9.3750000000000000E-002   0.0000000000000000     
  0.96875000000000000        9.3750000000000000E-002   0.0000000000000000     
   1.0000000000000000        9.3750000000000000E-002   0.0000000000000000     
  0.87500000000000000       0.12500000000000000        0.0000000000000000     
  0.90625000000000000       0.12500000000000000        0.0000000000000000     
  0.93750000000000000       0.12500000000000000        0.0000000000000000     
  0.96875000000000000       0.12500000000000000        0.0000000000000000     
   1.0000000000000000       0.12500000000000000        0.0000000000000000     
   0.0000000000000000       0.12500000000000000        0.0000000000000000     
   3.1250000000000000E-002  0.12500000000000000        0.0000000000000000     
   6.2500000000000000E-002  0.12500000000000000        0.0000000000000000     
   9.3750000000000000E-002  0.12500000000000000        0.0000000000000000     
  0.12500000000000000       0.12500000000000000        0.0000000000000000     
   0.0000000000000000       0.15625000000000000        0.0000000000000000     
   3.1250000000000000E-002  0.15625000000000000        0.0000000000000000     
   6.2500000000000000E-002  0.15625000000000000        0.0000000000000000     
   9.3750000000000000E-002  0.15625000000000000        0.0000000000000000     
  0.12500000000000000       0.15625000000000000        0.0000000000000000     
   0.0000000000000000       0.18750000000000000        0.0000000000000000     
   3.1250000000000000E-002  0.18750000000000000        0.0000000000000000     
   6.2500000000000000E-002  0.18750000000000000        0.0000000000000000     
   9.3750000000000000E-002  0.18750000000000000        0.0000000000000000     
  0.12500000000000000       0.18750000000000000        0.0000000000000000     
   0.0000000000000000       0.21875000000000000        0.0000000000000000     
   3.1250000000000000E-002  0.21875000000000000        0.0000000000000000     
   6.2500000000000000E-002  0.21875000000000000        0.0000000000000000     
   9.3750000000000000E-002  0.21875000000000000        0.0000000000000000     
  0.12500000000000000       0.21875000000000000        0.0000000000000000     
   0.0000000000000000       0.25000000000000000        0.0000000000000000     
   3.1250000000000000E-002  0.25000000000000000        0.0000000000000000     
   6.2500000000000000E-002  0.25000000000000000        0.0000000000000000     
   9.3750000000000000E-002  0.25000000000000000        0.0000000000000000     
  0.12500000000000000       0.25000000000000000        0.0000000000000000     
  0.12500000000000000       0.12500000000000000        0.0000000000000000     
  0.15625000000000000       0.12500000000000000        0.0000000000000000     
  0.18750000000000000       0.12500000000000000        0.0000000000000000     
  0.21875000000000000       0.12500000000000000        0.0000000000000000     
  0.25000000000000000       0.12500000000000000        0.0000000000000000     
  0.12500000000000000       0.15625000000000000        0.0000000000000000     
  0.15625000000000000       0.15625000000000000        0.0000000000000000     
  0.18750000000000000       0.15625000000000000        0.0000000000000000     
  0.21875000000000000       0.15625000000000000        0.0000000000000000     
  0.25000000000000000       0.15625000000000000        0.0000000000000000     
  0.12500000000000000       0.18750000000000000        0.0000000000000000     
  0.15625000000000000       0.18750000000000000        0.0000000000000000     
  0.18750000000000000       0.18750000000000000        0.0000000000000000     
  0.21875000000000000       0.18750000000000000        0.0000000000000000     
  0.25000000000000000       0.18750000000000000        0.0000000000000000     
  0.12500000000000000       0.21875000000000000        0.0000000000000000     
  0.15625000000000000       0.21875000000000000        0.0000000000000000     
  0.18750000000000000       0.21875000000000000        0.0000000000000000     
  0.21875000000000000       0.21875000000000000        0.0000000000000000     
  0.25000000000000000       0.21875000000000000        0.0000000000000000     
  0.12500000000000000       0.25000000000000000        0.0000000000000000     
  0.15625000000000000       0.25000000000000000        0.0000000000000000     
  0.18750000000000000       0.25000000000000000        0.0000000000000000     
  0.21875000000000000       0.25000000000000000        0.0000000000000000     
  0.25000000000000000       0.25000000000000000        0.0000000000000000     
  0.25000000000000000       0.12500000000000000        0.0000000000000000     
  0.28125000000000000       0.12500000000000000        0.0000000000000000     
  0.31250000000000000       0.12500000000000000        0.0000000000000000     
  0.34375000000000000       0.12500000000000000        0.0000000000000000     
  0.37500000000000000       0.12500000000000000        0.0000000000000000     
  0.25000000000000000       0.15625000000000000        0.0000000000000000     
  0.28125000000000000       0.15625000000000000        0.0000000000000000     
  0.31250000000000000       0.15625000000000000        0.0000000000000000     
  0.34375000000000000       0.15625000000000000        0.0000000000000000     
  0.37500000000000000       0.15625000000000000        0.0000000000000000     
  0.25000000000000000       0.18750000000000000        0.0000000000000000     
  0.28125000000000000       0.18750000000000000        0.0000000000000000     
  0.31250000000000000       0.18750000000000000        0.0000000000000000     
  0.34375000000000000       0.18750000000000000        0.0000000000000000     
  0.37500000000000000       0.18750000000000000        0.0000000000000000     
  0.25000000000000000       0.21875000000000000        0.0000000000000000     
  0.28125000000000000       0.21875000000000000        0.0000000000000000     
  0.31250000000000000       0.21875000000000000        0.0000000000000000     
  0.34375000000000000       0.21875000000000000        0.0000000000000000     
  0.37500000000000000       0.21875000000000000        0.0000000000000000     
  0.25000000000000000       0.25000000000000000        0.0000000000000000     
  0.28125000000000000       0.25000000000000000        0.0000000000000000     
  0.31250000000000000       0.25000000000000000        0.0000000000000000     
  0.34375000000000000       0.25000000000000000        0.0000000000000000     
  0.37500000000000000       0.25000000000000000        0.0000000000000000     
  0.37500000000000000       0.12500000000000000        0.0000000000000000     
  0.40625000000000000       0.12500000000000000        0.0000000000000000     
  0.43750000000000000       0.12500000000000000        0.0000000000000000     
  0.46875000000000000       0.12500000000000000        0.0000000000000000     
  0.50000000000000000       0.12500000000000000        0.0000000000000000     
  0.37500000000000000       0.15625000000000000        0.0000000000000000     
  0.40625000000000000       0.15625000000000000        0.0000000000000000     
  0.43750000000000000       0.15625000000000000        0.0000000000000000     
  0.46875000000000000       0.15625000000000000        0.0000000000000000     
  0.50000000000000000       0.15625000000000000        0.0000000000000000     
  0.37500000000000000       0.18750000000000000        0.0000000000000000     
  0.40625000000000000       0.18750000000000000        0.0000000000000000     
  0.43750000000000000       0.18750000000000000        0.0000000000000000     
  0.46875000000000000       0.18750000000000000        0.0000000000000000     
  0.50000000000000000       0.18750000000000000        0.0000000000000000     
  0.37500000000000000       0.21875000000000000        0.0000000000000000     
  0.40625000000000000       0.21875000000000000        0.0000000000000000     
  0.43750000000000000       0.21875000000000000        0.0000000000000000     
  0.46875000000000000       0.21875000000000000        0.0000000000000000     
  0.50000000000000000       0.21875000000000000        0.0000000000000000     
  0.37500000000000000       0.25000000000000000        0.0000000000000000     
  0.40625000000000000       0.25000000000000000        0.0000000000000000     
  0.43750000000000000       0.25000000000000000        0.0000000000000000     
  0.46875000000000000       0.25000000000000000        0.0000000000000000     
  0.50000000000000000       0.25000000000000000        0.0000000000000000     
  0.50000000000000000       0.12500000000000000        0.0000000000000000     
  0.53125000000000000       0.12500000000000000        0.0000000000000000     
  0.56250000000000000       0.12500000000000000        0.0000000000000000     
  0.59375000000000000       0.12500000000000000        0.0000000000000000     
  0.62500000000000000       0.12500000000000000        0.0000000000000000     
  0.50000000000000000       0.15625000000000000        0.0000000000000000     
  0.53125000000000000       0.15625000000000000        0.0000000000000000     
  0.56250000000000000       0.15625000000000000        0.0000000000000000     
  0.59375000000000000       0.15625000000000000        0.0000000000000000     
  0.62500000000000000       0.15625000000000000        0.0000000000000000     
  0.50000000000000000       0.18750000000000000        0.0000000000000000     
  0.53125000000000000       0.18750000000000000        0.0000000000000000     
  0.56250000000000000       0.18750000000000000        0.0000000000000000     
  0.59375000000000000       0.18750000000000000        0.0000000000000000     
  0.62500000000000000       0.18750000000000000        0.0000000000000000     
  0.50000000000000000       0.21875000000000000        0.0000000000000000     
  0.53125000000000000       0.21875000000000000        0.0000000000000000     
  0.56250000000000000       0.21875000000000000        0.0000000000000000     
  0.59375000000000000       0.21875000000000000        0.0000000000000000     
  0.62500000000000000       0.21875000000000000        0.0000000000000000     
  0.50000000000000000       0.25000000000000000        0.0000000000000000     
  0.53125000000000000       0.25000000000000000        0.0000000000000000     
  0.56250000000000000       0.25000000000000000        0.0000000000000000     
  0.59375000000000000       0.25000000000000000        0.0000000000000000     
  0.62500000000000000       0.25000000000000000        0.0000000000000000     
  0.62500000000000000       0.12500000000000000        0.0000000000000000     
  0.65625000000000000       0.12500000000000000        0.0000000000000000     
  0.68750000000000000       0.12500000000000000        0.0000000000000000     
  0.71875000000000000       0.12500000000000000        0.0000000000000000     
  0.75000000000000000       0.12500000000000000        0.0000000000000000     
  0.62500000000000000       0.15625000000000000        0.0000000000000000     
  0.65625000000000000       0.15625000000000000        0.0000000000000000     
  0.68750000000000000       0.15625000000000000        0.0000000000000000     
  0.71875000000000000       0.15625000000000000        0.0000000000000000     
  0.75000000000000000       0.15625000000000000        0.0000000000000000     
  0.62500000000000000       0.18750000000000000        0.0000000000000000     
  0.65625000000000000       0.18750000000000000        0.0000000000000000     
  0.68750000000000000       0.18750000000000000        0.0000000000000000     
  0.71875000000000000       0.18750000000000000        0.0000000000000000     
  0.75000000000000000       0.18750000000000000        0.0000000000000000     
  0.62500000000000000       0.21875000000000000        0.0000000000000000     
  0.65625000000000000       0.21875000000000000        0.0000000000000000     
  0.68750000000000000       0.21875000000000000        0.0000000000000000     
  0.71875000000000000       0.21875000000000000        0.0000000000000000     
  0.75000000000000000       0.21875000000000000        0.0000000000000000     
  0.62500000000000000       0.25000000000000000        0.0000000000000000     
  0.65625000000000000       0.25000000000000000        0.0000000000000000     
  0.68750000000000000       0.25000000000000000        0.0000000000000000     
  0.71875000000000000       0.25000000000000000        0.0000000000000000     
  0.75000000000000000       0.25000000000000000        0.0000000000000000     
  0.75000000000000000       0.12500000000000000        0.0000000000000000     
  0.78125000000000000       0.12500000000000000        0.0000000000000000     
  0.81250000000000000       0.12500000000000000        0.0000000000000000     
  0.84375000000000000       0.12500000000000000        0.0000000000000000     
  0.87500000000000000       0.12500000000000000        0.0000000000000000     
  0.75000000000000000       0.15625000000000000        0.0000000000000000     
  0.78125000000000000       0.15625000000000000        0.0000000000000000     
  0.81250000000000000       0.15625000000000000        0.0000000000000000     
  0.84375000000000000       0.15625000000000000        0.0000000000000000     
  0.87500000000000000       0.15625000000000000        0.0000000000000000     
  0.75000000000000000       0.18750000000000000        0.0000000000000000     
  0.78125000000000000       0.18750000000000000        0.0000000000000000     
  0.81250000000000000       0.18750000000000000        0.0000000000000000     
  0.84375000000000000       0.18750000000000000        0.0000000000000000     
  0.87500000000000000       0.18750000000000000        0.0000000000000000     
  0.75000000000000000       0.21875000000000000        0.0000000000000000     
  0.78125000000000000       0.21875000000000000        0.0000000000000000     
  0.81250000000000000       0.21875000000000000        0.0000000000000000     
  0.84375000000000000       0.21875000000000000        0.0000000000000000     
  0.87500000000000000       0.21875000000000000        0.0000000000000000     
  0.75000000000000000       0.25000000000000000        0.0000000000000000     
  0.78125000000000000       0.25000000000000000        0.0000000000000000     
  0.81250000000000000       0.25000000000000000        0.0000000000000000     
  0.84375000000000000       0.25000000000000000        0.0000000000000000     
  0.87500000000000000       0.25000000000000000        0.0000000000000000     
  0.87500000000000000       0.12500000000000000        0.0000000000000000     
  0.90625000000000000       0.12500000000000000        0.0000000000000000     
  0.93750000000000000       0.12500000000000000        0.0000000000000000     
  0.96875000000000000       0.12500000000000000        0.0000000000000000     
   1.0000000000000000       0.12500000000000000        0.0000000000000000     
  0.87500000000000000       0.15625000000000000        0.0000000000000000     
  0.90625000000000000       0.15625000000000000        0.0000000000000000     
  0.93750000000000000       0.15625000000000000        0.0000000000000000     
  0.96875000000000000       0.15625000000000000        0.0000000000000000     
   1.0000000000000000       0.15625000000000000        0.0000000000000000     
  0.87500000000000000       0.18750000000000000        0.0000000000000000     
  0.90625000000000000       0.18750000000000000        0.0000000000000000     
  0.93750000000000000       0.18750000000000000        0.0000000000000000     
  0.96875000000000000       0.18750000000000000        0.0000000000000000     
   1.0000000000000000       0.18750000000000000        0.0000000000000000     
  0.87500000000000000       0.21875000000000000        0.0000000000000000     
  0.90625000000000000       0.21875000000000000        0.0000000000000000     
  0.93750000000000000       0.21875000000000000        0.0000000000000000     
  0.96875000000000000       0.21875000000000000        0.0000000000000000     
   1.0000000000000000       0.21875000000000000        0.0000000000000000     
  0.87500000000000000       0.25000000000000000        0.0000000000000000     
  0.90625000000000000       0.25000000000000000        0.0000000000000000     
  0.93750000000000000       0.25000000000000000        0.0000000000000000     
  0.96875000000000000       0.25000000000000000        0.0000000000000000     
   1.0000000000000000       0.25000000000000000        0.0000000000000000     
   0.0000000000000000       0.25000000000000000        0.0000000000000000     
   3.1250000000000000E-002  0.25000000000000000        0.0000000000000000     
   6.2500000000000000E-002  0.25000000000000000        0.0000000000000000     
   9.3750000000000000E-002  0.25000000000000000        0.0000000000000000     
  0.12500000000000000       0.25000000000000000        0.0000000000000000     
   0.0000000000000000       0.28125000000000000        0.0000000000000000     
   3.1250000000000000E-002  0.28125000000000000        0.0000000000000000     
   6.2500000000000000E-002  0.28125000000000000        0.0000000000000000     
   9.3750000000000000E-002  0.28125000000000000        0.0000000000000000     
  0.12500000000000000       0.28125000000000000        0.0000000000000000     
   0.0000000000000000       0.31250000000000000        0.0000000000000000     
   3.1250000000000000E-002  0.31250000000000000        0.0000000000000000     
   6.2500000000000000E-002  0.31250000000000000        0.0000000000000000     
   9.3750000000000000E-002  0.31250000000000000        0.0000000000000000     
  0.12500000000000000       0.31250000000000000        0.0000000000000000     
   0.0000000000000000       0.34375000000000000        0.0000000000000000     
   3.1250000000000000E-002  0.34375000000000000        0.0000000000000000     
   6.2500000000000000E-002  0.34375000000000000        0.0000000000000000     
   9.3750000000000000E-002  0.34375000000000000        0.0000000000000000     
  0.12500000000000000       0.34375000000000000        0.0000000000000000     
   0.0000000000000000       0.37500000000000000        0.0000000000000000     
   3.1250000000000000E-002  0.37500000000000000        0.0000000000000000     
   6.2500000000000000E-002  0.37500000000000000        0.0000000000000000     
   9.3750000000000000E-002  0.37500000000000000        0.0000000000000000     
  0.12500000000000000       0.37500000000000000        0.0000000000000000     
  0.12500000000000000       0.25000000000000000        0.0000000000000000     
  0.15625000000000000       0.25000000000000000        0.0000000000000000     
  0.18750000000000000       0.25000000000000000        0.0000000000000000     
  0.21875000000000000       0.25000000000000000        0.0000000000000000     
  0.25000000000000000       0.25000000000000000        0.0000000000000000     
  0.12500000000000000       0.28125000000000000        0.0000000000000000     
  0.15625000000000000       0.28125000000000000        0.0000000000000000     
  0.18750000000000000       0.28125000000000000        0.0000000000000000     
  0.21875000000000000       0.28125000000000000        0.0000000000000000     
  0.25000000000000000       0.28125000000000000        0.0000000000000000     
  0.12500000000000000       0.31250000000000000        0.0000000000000000     
  0.15625000000000000       0.31250000000000000        0.0000000000000000     
  0.18750000000000000       0.31250000000000000        0.0000000000000000     
  0.21875000000000000       0.31250000000000000        0.0000000000000000     
  0.25000000000000000       0.31250000000000000        0.0000000000000000     
  0.12500000000000000       0.34375000000000000        0.0000000000000000     
  0.15625000000000000       0.34375000000000000        0.0000000000000000     
  0.18750000000000000       0.34375000000000000        0.0000000000000000     
  0.21875000000000000       0.34375000000000000        0.0000000000000000     
  0.25000000000000000       0.34375000000000000        0.0000000000000000     
  0.12500000000000000       0.37500000000000000        0.0000000000000000     
  0.15625000000000000       0.37500000000000000        0.0000000000000000     
  0.18750000000000000       0.37500000000000000        0.0000000000000000     
  0.21875000000000000       0.37500000000000000        0.0000000000000000     
  0.25000000000000000       0.37500000000000000        0.0000000000000000     
  0.25000000000000000       0.25000000000000000        0.0000000000000000     
  0.28125000000000000       0.25000000000000000        0.0000000000000000     
  0.31250000000000000       0.25000000000000000        0.0000000000000000     
  0.34375000000000000       0.25000000000000000        0.0000000000000000     
  0.37500000000000000       0.25000000000000000        0.0000000000000000     
  0.25000000000000000       0.28125000000000000        0.0000000000000000     
  0.28125000000000000       0.28125000000000000        0.0000000000000000     
  0.31250000000000000       0.28125000000000000        0.0000000000000000     
  0.34375000000000000       0.28125000000000000        0.0000000000000000     
  0.37500000000000000       0.28125000000000000        0.0000000000000000     
  0.25000000000000000       0.31250000000000000        0.0000000000000000     
  0.28125000000000000       0.31250000000000000        0.0000000000000000     
  0.31250000000000000       0.31250000000000000        0.0000000000000000     
  0.34375000000000000       0.31250000000000000        0.0000000000000000     
  0.37500000000000000       0.31250000000000000        0.0000000000000000     
  0.25000000000000000       0.34375000000000000        0.0000000000000000     
  0.28125000000000000       0.34375000000000000        0.0000000000000000     
  0.31250000000000000       0.34375000000000000        0.0000000000000000     
  0.34375000000000000       0.34375000000000000        0.0000000000000000     
  0.37500000000000000       0.34375000000000000        0.0000000000000000     
  0.25000000000000000       0.37500000000000000        0.0000000000000000     
  0.28125000000000000       0.37500000000000000        0.0000000000000000     
  0.31250000000000000       0.37500000000000000        0.0000000000000000     
  0.34375000000000000       0.37500000000000000        0.0000000000000000     
  0.37500000000000000       0.37500000000000000        0.0000000000000000     
  0.37500000000000000       0.25000000000000000        0.0000000000000000     
  0.40625000000000000       0.25000000000000000        0.0000000000000000     
  0.43750000000000000       0.25000000000000000        0.0000000000000000     
  0.46875000000000000       0.25000000000000000        0.0000000000000000     
  0.50000000000000000       0.25000000000000000        0.0000000000000000     
  0.37500000000000000       0.28125000000000000        0.0000000000000000     
  0.40625000000000000       0.28125000000000000        0.0000000000000000     
  0.43750000000000000       0.28125000000000000        0.0000000000000000     
  0.46875000000000000       0.28125000000000000        0.0000000000000000     
  0.50000000000000000       0.28125000000000000        0.0000000000000000     
  0.37500000000000000       0.31250000000000000        0.0000000000000000     
  0.40625000000000000       0.31250000000000000        0.0000000000000000     
  0.43750000000000000       0.31250000000000000        0.0000000000000000     
  0.46875000000000000       0.31250000000000000        0.0000000000000000     
  0.50000000000000000       0.31250000000000000        0.0000000000000000     
  0.37500000000000000       0.34375000000000000        0.0000000000000000     
  0.40625000000000000       0.34375000000000000        0.0000000000000000     
  0.43750000000000000       0.34375000000000000        0.0000000000000000     
  0.46875000000000000       0.34375000000000000        0.0000000000000000     
  0.50000000000000000       0.34375000000000000        0.0000000000000000     
  0.37500000000000000       0.37500000000000000        0.0000000000000000     
  0.40625000000000000       0.37500000000000000        0.0000000000000000     
  0.43750000000000000       0.37500000000000000        0.0000000000000000     
  0.46875000000000000       0.37500000000000000        0.0000000000000000     
  0.50000000000000000       0.37500000000000000        0.0000000000000000     
  0.50000000000000000       0.25000000000000000        0.0000000000000000     
  0.53125000000000000       0.25000000000000000        0.0000000000000000     
  0.56250000000000000       0.25000000000000000        0.0000000000000000     
  0.59375000000000000       0.25000000000000000        0.0000000000000000     
  0.62500000000000000       0.25000000000000000        0.0000000000000000     
  0.50000000000000000       0.28125000000000000        0.0000000000000000     
  0.53125000000000000       0.28125000000000000        0.0000000000000000     
  0.56250000000000000       0.28125000000000000        0.0000000000000000     
  0.59375000000000000       0.28125000000000000        0.0000000000000000     
  0.62500000000000000       0.28125000000000000        0.0000000000000000     
  0.50000000000000000       0.31250000000000000        0.0000000000000000     
  0.53125000000000000       0.31250000000000000        0.0000000000000000     
  0.56250000000000000       0.31250000000000000        0.0000000000000000     
  0.59375000000000000       0.31250000000000000        0.0000000000000000     
  0.62500000000000000       0.31250000000000000        0.0000000000000000     
  0.50000000000000000       0.34375000000000000        0.0000000000000000     
  0.53125000000000000       0.34375000000000000        0.0000000000000000     
  0.56250000000000000       0.34375000000000000        0.0000000000000000     
  0.59375000000000000       0.34375000000000000        0.0000000000000000     
  0.62500000000000000       0.34375000000000000        0.0000000000000000     
  0.50000000000000000       0.37500000000000000        0.0000000000000000     
  0.53125000000000000       0.37500000000000000        0.0000000000000000     
  0.56250000000000000       0.37500000000000000        0.0000000000000000     
  0.59375000000000000       0.37500000000000000        0.0000000000000000     
  0.62500000000000000       0.37500000000000000        0.0000000000000000     
  0.62500000000000000       0.25000000000000000        0.0000000000000000     
  0.65625000000000000       0.25000000000000000        0.0000000000000000     
  0.68750000000000000       0.25000000000000000        0.0000000000000000     
  0.71875000000000000       0.25000000000000000        0.0000000000000000     
  0.75000000000000000       0.25000000000000000        0.0000000000000000     
  0.62500000000000000       0.28125000000000000        0.0000000000000000     
  0.65625000000000000       0.28125000000000000        0.0000000000000000     
  0.68750000000000000       0.28125000000000000        0.0000000000000000     
  0.71875000000000000       0.28125000000000000        0.0000000000000000     
  0.75000000000000000       0.28125000000000000        0.0000000000000000     
  0.62500000000000000       0.31250000000000000        0.0000000000000000     
  0.65625000000000000       0.31250000000000000        0.0000000000000000     
  0.68750000000000000       0.31250000000000000        0.0000000000000000     
  0.71875000000000000       0.31250000000000000        0.0000000000000000     
  0.75000000000000000       0.31250000000000000        0.0000000000000000     
  0.62500000000000000       0.34375000000000000        0.0000000000000000     
  0.65625000000000000       0.34375000000000000        0.0000000000000000     
  0.68750000000000000       0.34375000000000000        0.0000000000000000     
  0.71875000000000000       0.34375000000000000        0.0000000000000000     
  0.75000000000000000       0.34375000000000000        0.0000000000000000     
  0.62500000000000000       0.37500000000000000        0.0000000000000000     
  0.65625000000000000       0.37500000000000000        0.0000000000000000     
  0.68750000000000000       0.37500000000000000        0.0000000000000000     
  0.71875000000000000       0.37500000000000000        0.0000000000000000     
  0.75000000000000000       0.37500000000000000        0.0000000000000000     
  0.75000000000000000       0.25000000000000000        0.0000000000000000     
  0.78125000000000000       0.25000000000000000        0.0000000000000000     
  0.81250000000000000       0.25000000000000000        0.0000000000000000     
  0.84375000000000000       0.25000000000000000        0.0000000000000000     
  0.87500000000000000       0.25000000000000000        0.0000000000000000     
  0.75000000000000000       0.28125000000000000        0.0000000000000000     
  0.78125000000000000       0.28125000000000000        0.0000000000000000     
  0.81250000000000000       0.28125000000000000        0.0000000000000000     
  0.84375000000000000       0.28125000000000000        0.0000000000000000     
  0.87500000000000000       0.28125000000000000        0.0000000000000000     
  0.75000000000000000       0.31250000000000000        0.0000000000000000     
  0.78125000000000000       0.31250000000000000        0.0000000000000000     
  0.81250000000000000       0.31250000000000000        0.0000000000000000     
  0.84375000000000000       0.31250000000000000        0.0000000000000000     
  0.87500000000000000       0.31250000000000000        0.0000000000000000     
  0.75000000000000000       0.34375000000000000        0.0000000000000000     
  0.78125000000000000       0.34375000000000000        0.0000000000000000     
  0.81250000000000000       0.34375000000000000        0.0000000000000000     
  0.84375000000000000       0.34375000000000000        0.0000000000000000     
  0.87500000000000000       0.34375000000000000        0.0000000000000000     
  0.75000000000000000       0.37500000000000000        0.0000000000000000     
  0.78125000000000000       0.37500000000000000        0.0000000000000000     
  0.81250000000000000       0.37500000000000000        0.0000000000000000     
  0.84375000000000000       0.37500000000000000        0.0000000000000000     
  0.87500000000000000       0.37500000000000000        0.0000000000000000     
  0.87500000000000000       0.25000000000000000        0.0000000000000000     
  0.90625000000000000       0.25000000000000000        0.0000000000000000     
  0.93750000000000000       0.25000000000000000        0.0000000000000000     
  0.96875000000000000       0.25000000000000000        0.0000000000000000     
   1.0000000000000000       0.25000000000000000        0.0000000000000000     
  0.87500000000000000       0.28125000000000000        0.0000000000000000     
  0.90625000000000000       0.28125000000000000        0.0000000000000000     
  0.93750000000000000       0.28125000000000000        0.0000000000000000     
  0.96875000000000000       0.28125000000000000        0.0000000000000000     
   1.0000000000000000       0.28125000000000000        0.0000000000000000     
  0.87500000000000000       0.31250000000000000        0.0000000000000000     
  0.90625000000000000       0.31250000000000000        0.0000000000000000     
  0.93750000000000000       0.31250000000000000        0.0000000000000000     
  0.96875000000000000       0.31250000000000000        0.0000000000000000     
   1.0000000000000000       0.31250000000000000        0.0000000000000000     
  0.87500000000000000       0.34375000000000000        0.0000000000000000     
  0.90625000000000000       0.34375000000000000        0.0000000000000000     
  0.93750000000000000       0.34375000000000000        0.0000000000000000     
  0.96875000000000000       0.34375000000000000        0.0000000000000000     
   1.0000000000000000       0.34375000000000000        0.0000000000000000     
  0.87500000000000000       0.37500000000000000        0.0000000000000000     
  0.90625000000000000       0.37500000000000000        0.0000000000000000     
  0.93750000000000000       0.37500000000000000        0.0000000000000000     
  0.96875000000000000       0.37500000000000000        0.0000000000000000     
   1.0000000000000000       0.37500000000000000        0.0000000000000000     
   0.0000000000000000       0.37500000000000000        0.0000000000000000     
   3.1250000000000000E-002  0.37500000000000000        0.0000000000000000     
   6.2500000000000000E-002  0.37500000000000000        0.0000000000000000     
   9.3750000000000000E-002  0.37500000000000000        0.0000000000000000     
  0.12500000000000000       0.37500000000000000        0.0000000000000000     
   0.0000000000000000       0.40625000000000000        0.0000000000000000     
   3.1250000000000000E-002  0.40625000000000000        0.0000000000000000     
   6.2500000000000000E-002  0.40625000000000000        0.0000000000000000     
   9.3750000000000000E-002  0.40625000000000000        0.0000000000000000     
  0.12500000000000000       0.40625000000000000        0.0000000000000000     
   0.0000000000000000       0.43750000000000000        0.0000000000000000     
   3.1250000000000000E-002  0.43750000000000000        0.0000000000000000     
   6.2500000000000000E-002  0.43750000000000000        0.0000000000000000     
   9.3750000000000000E-002  0.43750000000000000        0.0000000000000000     
  0.12500000000000000       0.43750000000000000        0.0000000000000000     
   0.0000000000000000       0.46875000000000000        0.0000000000000000     
   3.1250000000000000E-002  0.46875000000000000        0.0000000000000000     
   6.2500000000000000E-002  0.46875000000000000        0.0000000000000000     
   9.3750000000000000E-002  0.46875000000000000        0.0000000000000000     
  0.12500000000000000       0.46875000000000000        0.0000000000000000     
   0.0000000000000000       0.50000000000000000        0.0000000000000000     
   3.1250000000000000E-002  0.50000000000000000        0.0000000000000000     
   6.2500000000000000E-002  0.50000000000000000        0.0000000000000000     
   9.3750000000000000E-002  0.50000000000000000        0.0000000000000000     
  0.12500000000000000       0.50000000000000000        0.0000000000000000     
  0.12500000000000000       0.37500000000000000        0.0000000000000000     
  0.15625000000000000       0.37500000000000000        0.0000000000000000     
  0.18750000000000000       0.37500000000000000        0.0000000000000000     
  0.21875000000000000       0.37500000000000000        0.0000000000000000     
  0.25000000000000000       0.37500000000000000        0.0000000000000000     
  0.12500000000000000       0.40625000000000000        0.0000000000000000     
  0.15625000000000000       0.40625000000000000        0.0000000000000000     
  0.18750000000000000       0.40625000000000000        0.0000000000000000     
  0.21875000000000000       0.40625000000000000        0.0000000000000000     
  0.25000000000000000       0.40625000000000000        0.0000000000000000     
  0.12500000000000000       0.43750000000000000        0.0000000000000000     
  0.15625000000000000       0.43750000000000000        0.0000000000000000     
  0.18750000000000000       0.43750000000000000        0.0000000000000000     
  0.21875000000000000       0.43750000000000000        0.0000000000000000     
  0.25000000000000000       0.43750000000000000        0.0000000000000000     
  0.12500000000000000       0.46875000000000000        0.0000000000000000     
  0.15625000000000000       0.46875000000000000        0.0000000000000000     
  0.18750000000000000       0.46875000000000000        0.0000000000000000     
  0.21875000000000000       0.46875000000000000        0.0000000000000000     
  0.25000000000000000       0.46875000000000000        0.0000000000000000     
  0.12500000000000000       0.50000000000000000        0.0000000000000000     
  0.15625000000000000       0.50000000000000000        0.0000000000000000     
  0.18750000000000000       0.50000000000000000        0.0000000000000000     
  0.21875000000000000       0.50000000000000000        0.0000000000000000     
  0.25000000000000000       0.50000000000000000        0.0000000000000000     
  0.25000000000000000       0.37500000000000000        0.0000000000000000     
  0.28125000000000000       0.37500000000000000        0.0000000000000000     
  0.31250000000000000       0.37500000000000000        0.0000000000000000     
  0.34375000000000000       0.37500000000000000        0.0000000000000000     
  0.37500000000000000       0.37500000000000000        0.0000000000000000     
  0.25000000000000000       0.40625000000000000        0.0000000000000000     
  0.28125000000000000       0.40625000000000000        0.0000000000000000     
  0.31250000000000000       0.40625000000000000        0.0000000000000000     
  0.34375000000000000       0.40625000000000000        0.0000000000000000     
  0.37500000000000000       0.40625000000000000        0.0000000000000000     
  0.25000000000000000       0.43750000000000000        0.0000000000000000     
  0.28125000000000000       0.43750000000000000        0.0000000000000000     
  0.31250000000000000       0.43750000000000000        0.0000000000000000     
  0.34375000000000000       0.43750000000000000        0.0000000000000000     
  0.37500000000000000       0.43750000000000000        0.0000000000000000     
  0.25000000000000000       0.46875000000000000        0.0000000000000000     
  0.28125000000000000       0.46875000000000000        0.0000000000000000     
  0.31250000000000000       0.46875000000000000        0.0000000000000000     
  0.34375000000000000       0.46875000000000000        0.0000000000000000     
  0.37500000000000000       0.46875000000000000        0.0000000000000000     
  0.25000000000000000       0.50000000000000000        0.0000000000000000     
  0.28125000000000000       0.50000000000000000        0.0000000000000000     
  0.31250000000000000       0.50000000000000000        0.0000000000000000     
  0.34375000000000000       0.50000000000000000        0.0000000000000000     
  0.37500000000000000       0.50000000000000000        0.0000000000000000     
  0.37500000000000000       0.37500000000000000        0.0000000000000000     
  0.40625000000000000       0.37500000000000000        0.0000000000000000     
  0.43750000000000000       0.37500000000000000        0.0000000000000000     
  0.46875000000000000       0.37500000000000000        0.0000000000000000     
  0.50000000000000000       0.37500000000000000        0.0000000000000000     
  0.37500000000000000       0.40625000000000000        0.0000000000000000     
  0.40625000000000000       0.40625000000000000        0.0000000000000000     
  0.43750000000000000       0.40625000000000000        0.0000000000000000     
  0.46875000000000000       0.40625000000000000        0.0000000000000000     
  0.50000000000000000       0.40625000000000000        0.0000000000000000     
  0.37500000000000000       0.43750000000000000        0.0000000000000000     
  0.40625000000000000       0.43750000000000000        0.0000000000000000     
  0.43750000000000000       0.43750000000000000        0.0000000000000000     
  0.46875000000000000       0.43750000000000000        0.0000000000000000     
  0.50000000000000000       0.43750000000000000        0.0000000000000000     
  0.37500000000000000       0.46875000000000000        0.0000000000000000     
  0.40625000000000000       0.46875000000000000        0.0000000000000000     
  0.43750000000000000       0.46875000000000000        0.0000000000000000     
  0.46875000000000000       0.46875000000000000        0.0000000000000000     
  0.50000000000000000       0.46875000000000000        0.0000000000000000     
  0.37500000000000000       0.50000000000000000        0.0000000000000000     
  0.40625000000000000       0.50000000000000000        0.0000000000000000     
  0.43750000000000000       0.50000000000000000        0.0000000000000000     
  0.46875000000000000       0.50000000000000000        0.0000000000000000     
  0.50000000000000000       0.50000000000000000        0.0000000000000000     
  0.50000000000000000       0.37500000000000000        0.0000000000000000     
  0.53125000000000000       0.37500000000000000        0.0000000000000000     
  0.56250000000000000       0.37500000000000000        0.0000000000000000     
  0.59375000000000000       0.37500000000000000        0.0000000000000000     
  0.62500000000000000       0.37500000000000000        0.0000000000000000     
  0.50000000000000000       0.40625000000000000        0.0000000000000000     
  0.53125000000000000       0.40625000000000000        0.0000000000000000     
  0.56250000000000000       0.40625000000000000        0.0000000000000000     
  0.59375000000000000       0.40625000000000000        0.0000000000000000     
  0.62500000000000000       0.40625000000000000        0.0000000000000000     
  0.50000000000000000       0.43750000000000000        0.0000000000000000     
  0.53125000000000000       0.43750000000000000        0.0000000000000000     
  0.56250000000000000       0.43750000000000000        0.0000000000000000     
  0.59375000000000000       0.43750000000000000        0.0000000000000000     
  0.62500000000000000       0.43750000000000000        0.0000000000000000     
  0.50000000000000000       0.46875000000000000        0.0000000000000000     
  0.53125000000000000       0.46875000000000000        0.0000000000000000     
  0.56250000000000000       0.46875000000000000        0.0000000000000000     
  0.59375000000000000       0.46875000000000000        0.0000000000000000     
  0.62500000000000000       0.46875000000000000        0.0000000000000000     
  0.50000000000000000       0.50000000000000000        0.0000000000000000     
  0.53125000000000000       0.50000000000000000        0.0000000000000000     
  0.56250000000000000       0.50000000000000000        0.0000000000000000     
  0.59375000000000000       0.50000000000000000        0.0000000000000000     
  0.62500000000000000       0.50000000000000000        0.0000000000000000     
  0.62500000000000000       0.37500000000000000        0.0000000000000000     
  0.65625000000000000       0.37500000000000000        0.0000000000000000     
  0.68750000000000000       0.37500000000000000        0.0000000000000000     
  0.71875000000000000       0.37500000000000000        0.0000000000000000     
  0.75000000000000000       0.37500000000000000        0.0000000000000000     
  0.62500000000000000       0.40625000000000000        0.0000000000000000     
  0.65625000000000000       0.40625000000000000        0.0000000000000000     
  0.68750000000000000       0.40625000000000000        0.0000000000000000     
  0.71875000000000000       0.40625000000000000        0.0000000000000000     
  0.75000000000000000       0.40625000000000000        0.0000000000000000     
  0.62500000000000000       0.43750000000000000        0.0000000000000000     
  0.65625000000000000       0.43750000000000000        0.0000000000000000     
  0.68750000000000000       0.43750000000000000        0.0000000000000000     
  0.71875000000000000       0.43750000000000000        0.0000000000000000     
  0.75000000000000000       0.43750000000000000        0.0000000000000000     
  0.62500000000000000       0.46875000000000000        0.0000000000000000     
  0.65625000000000000       0.46875000000000000        0.0000000000000000     
  0.68750000000000000       0.46875000000000000        0.0000000000000000     
  0.71875000000000000       0.46875000000000000        0.0000000000000000     
  0.75000000000000000       0.46875000000000000        0.0000000000000000     
  0.62500000000000000       0.50000000000000000        0.0000000000000000     
  0.65625000000000000       0.50000000000000000        0.0000000000000000     
  0.68750000000000000       0.50000000000000000        0.0000000000000000     
  0.71875000000000000       0.50000000000000000        0.0000000000000000     
  0.75000000000000000       0.50000000000000000        0.0000000000000000     
  0.75000000000000000       0.37500000000000000        0.0000000000000000     
  0.78125000000000000       0.37500000000000000        0.0000000000000000     
  0.81250000000000000       0.37500000000000000        0.0000000000000000     
  0.84375000000000000       0.37500000000000000        0.0000000000000000     
  0.87500000000000000       0.37500000000000000        0.0000000000000000     
  0.75000000000000000       0.40625000000000000        0.0000000000000000     
  0.78125000000000000       0.40625000000000000        0.0000000000000000     
  0.81250000000000000       0.40625000000000000        0.0000000000000000     
  0.84375000000000000       0.40625000000000000        0.0000000000000000     
  0.87500000000000000       0.40625000000000000        0.0000000000000000     
  0.75000000000000000       0.43750000000000000        0.0000000000000000     
  0.78125000000000000       0.43750000000000000        0.0000000000000000     
  0.81250000000000000       0.43750000000000000        0.0000000000000000     
  0.84375000000000000       0.43750000000000000        0.0000000000000000     
  0.87500000000000000       0.43750000000000000        0.0000000000000000     
  0.75000000000000000       0.46875000000000000        0.0000000000000000     
  0.78125000000000000       0.46875000000000000        0.0000000000000000     
  0.81250000000000000       0.46875000000000000        0.0000000000000000     
  0.84375000000000000       0.46875000000000000        0.0000000000000000     
  0.87500000000000000       0.46875000000000000        0.0000000000000000     
  0.75000000000000000       0.50000000000000000        0.0000000000000000     
  0.78125000000000000       0.50000000000000000        0.0000000000000000     
  0.81250000000000000       0.50000000000000000        0.0000000000000000     
  0.84375000000000000       0.50000000000000000        0.0000000000000000     
  0.87500000000000000       0.50000000000000000        0.0000000000000000     
  0.87500000000000000       0.37500000000000000        0.0000000000000000     
  0.90625000000000000       0.37500000000000000        0.0000000000000000     
  0.93750000000000000       0.37500000000000000        0.0000000000000000     
  0.96875000000000000       0.37500000000000000        0.0000000000000000     
   1.0000000000000000       0.37500000000000000        0.0000000000000000     
  0.87500000000000000       0.40625000000000000        0.0000000000000000     
  0.90625000000000000       0.40625000000000000        0.0000000000000000     
  0.93750000000000000       0.40625000000000000        0.0000000000000000     
  0.96875000000000000       0.40625000000000000        0.0000000000000000     
   1.0000000000000000       0.40625000000000000        0.0000000000000000     
  0.87500000000000000       0.43750000000000000        0.0000000000000000     
  0.90625000000000000       0.43750000000000000        0.0000000000000000     
  0.93750000000000000       0.43750000000000000        0.0000000000000000     
  0.96875000000000000       0.43750000000000000        0.0000000000000000     
   1.0000000000000000       0.43750000000000000        0.0000000000000000     
  0.87500000000000000       0.46875000000000000        0.0000000000000000     
  0.90625000000000000       0.46875000000000000        0.0000000000000000     
  0.93750000000000000       0.46875000000000000        0.0000000000000000     
  0.96875000000000000       0.46875000000000000        0.0000000000000000     
   1.0000000000000000       0.46875000000000000        0.0000000000000000     
  0.87500000000000000       0.50000000000000000        0.0000000000000000     
  0.90625000000000000       0.50000000000000000        0.0000000000000000     
  0.93750000000000000       0.50000000000000000        0.0000000000000000     
  0.96875000000000000       0.50000000000000000        0.0000000000000000     
   1.0000000000000000       0.50000000000000000        0.0000000000000000     
   0.0000000000000000       0.50000000000000000        0.0000000000000000     
   3.1250000000000000E-002  0.50000000000000000        0.0000000000000000     
   6.2500000000000000E-002  0.50000000000000000        0.0000000000000000     
   9.3750000000000000E-002  0.50000000000000000        0.0000000000000000     
  0.12500000000000000       0.50000000000000000        0.0000000000000000     
   0.0000000000000000       0.53125000000000000        0.0000000000000000     
   3.1250000000000000E-002  0.53125000000000000        0.0000000000000000     
   6.2500000000000000E-002  0.53125000000000000        0.0000000000000000     
   9.3750000000000000E-002  0.53125000000000000        0.0000000000000000     
  0.12500000000000000       0.53125000000000000        0.0000000000000000     
   0.0000000000000000       0.56250000000000000        0.0000000000000000     
   3.1250000000000000E-002  0.56250000000000000        0.0000000000000000     
   6.2500000000000000E-002  0.56250000000000000        0.0000000000000000     
   9.3750000000000000E-002  0.56250000000000000        0.0000000000000000     
  0.12500000000000000       0.56250000000000000        0.0000000000000000     
   0.0000000000000000       0.59375000000000000        0.0000000000000000     
   3.1250000000000000E-002  0.59375000000000000        0.0000000000000000     
   6.2500000000000000E-002  0.59375000000000000        0.0000000000000000     
   9.3750000000000000E-002  0.59375000000000000        0.0000000000000000     
  0.12500000000000000       0.59375000000000000        0.0000000000000000     
   0.0000000000000000       0.62500000000000000        0.0000000000000000     
   3.1250000000000000E-002  0.62500000000000000        0.0000000000000000     
   6.2500000000000000E-002  0.62500000000000000        0.0000000000000000     
   9.3750000000000000E-002  0.62500000000000000        0.0000000000000000     
  0.12500000000000000       0.62500000000000000        0.0000000000000000     
  0.12500000000000000       0.50000000000000000        0.0000000000000000     
  0.15625000000000000       0.50000000000000000        0.0000000000000000     
  0.18750000000000000       0.50000000000000000        0.0000000000000000     
  0.21875000000000000       0.50000000000000000        0.0000000000000000     
  0.25000000000000000       0.50000000000000000        0.0000000000000000     
  0.12500000000000000       0.53125000000000000        0.0000000000000000     
  0.15625000000000000       0.53125000000000000        0.0000000000000000     
  0.18750000000000000       0.53125000000000000        0.0000000000000000     
  0.21875000000000000       0.53125000000000000        0.0000000000000000     
  0.25000000000000000       0.53125000000000000        0.0000000000000000     
  0.12500000000000000       0.56250000000000000        0.0000000000000000     
  0.15625000000000000       0.56250000000000000        0.0000000000000000     
  0.18750000000000000       0.56250000000000000        0.0000000000000000     
  0.21875000000000000       0.56250000000000000        0.0000000000000000     
  0.25000000000000000       0.56250000000000000        0.0000000000000000     
  0.12500000000000000       0.59375000000000000        0.0000000000000000     
  0.15625000000000000       0.59375000000000000        0.0000000000000000     
  0.18750000000000000       0.59375000000000000        0.0000000000000000     
  0.21875000000000000       0.59375000000000000        0.0000000000000000     
  0.25000000000000000       0.59375000000000000        0.0000000000000000     
  0.12500000000000000       0.62500000000000000        0.0000000000000000     
  0.15625000000000000       0.62500000000000000        0.0000000000000000     
  0.18750000000000000       0.62500000000000000        0.0000000000000000     
  0.21875000000000000       0.62500000000000000        0.0000000000000000     
  0.25000000000000000       0.62500000000000000        0.0000000000000000     
  0.25000000000000000       0.50000000000000000        0.0000000000000000     
  0.28125000000000000       0.50000000000000000        0.0000000000000000     
  0.31250000000000000       0.50000000000000000        0.0000000000000000     
  0.34375000000000000       0.50000000000000000        0.0000000000000000     
  0.37500000000000000       0.50000000000000000        0.0000000000000000     
  0.25000000000000000       0.53125000000000000        0.0000000000000000     
  0.28125000000000000       0.53125000000000000        0.0000000000000000     
  0.31250000000000000       0.53125000000000000        0.0000000000000000     
  0.34375000000000000       0.53125000000000000        0.0000000000000000     
  0.37500000000000000       0.53125000000000000        0.0000000000000000     
  0.25000000000000000       0.56250000000000000        0.0000000000000000     
  0.28125000000000000       0.56250000000000000        0.0000000000000000     
  0.31250000000000000       0.56250000000000000        0.0000000000000000     
  0.34375000000000000       0.56250000000000000        0.0000000000000000     
  0.37500000000000000       0.56250000000000000        0.0000000000000000     
  0.25000000000000000       0.59375000000000000        0.0000000000000000     
  0.28125000000000000       0.59375000000000000        0.0000000000000000     
  0.31250000000000000       0.59375000000000000        0.0000000000000000     
  0.34375000000000000       0.59375000000000000        0.0000000000000000     
  0.37500000000000000       0.59375000000000000        0.0000000000000000     
  0.25000000000000000       0.62500000000000000        0.0000000000000000     
  0.28125000000000000       0.62500000000000000        0.0000000000000000     
  0.31250000000000000       0.62500000000000000        0.0000000000000000     
  0.34375000000000000       0.62500000000000000        0.0000000000000000     
  0.37500000000000000       0.62500000000000000        0.0000000000000000     
  0.37500000000000000       0.50000000000000000        0.0000000000000000     
  0.40625000000000000       0.50000000000000000        0.0000000000000000     
  0.43750000000000000       0.50000000000000000        0.0000000000000000     
  0.46875000000000000       0.50000000000000000        0.0000000000000000     
  0.50000000000000000       0.50000000000000000        0.0000000000000000     
  0.37500000000000000       0.53125000000000000        0.0000000000000000     
  0.40625000000000000       0.53125000000000000        0.0000000000000000     
  0.43750000000000000       0.53125000000000000        0.0000000000000000     
  0.46875000000000000       0.53125000000000000        0.0000000000000000     
  0.50000000000000000       0.53125000000000000        0.0000000000000000     
  0.37500000000000000       0.56250000000000000        0.0000000000000000     
  0.40625000000000000       0.56250000000000000        0.0000000000000000     
  0.43750000000000000       0.56250000000000000        0.0000000000000000     
  0.46875000000000000       0.56250000000000000        0.0000000000000000     
  0.50000000000000000       0.56250000000000000        0.0000000000000000     
  0.37500000000000000       0.59375000000000000        0.0000000000000000     
  0.40625000000000000       0.59375000000000000        0.0000000000000000     
  0.43750000000000000       0.59375000000000000        0.0000000000000000     
  0.46875000000000000       0.59375000000000000        0.0000000000000000     
  0.50000000000000000       0.59375000000000000        0.0000000000000000     
  0.37500000000000000       0.62500000000000000        0.0000000000000000     
  0.40625000000000000       0.62500000000000000        0.0000000000000000     
  0.43750000000000000       0.62500000000000000        0.0000000000000000     
  0.46875000000000000       0.62500000000000000        0.0000000000000000     
  0.50000000000000000       0.62500000000000000        0.0000000000000000     
  0.50000000000000000       0.50000000000000000        0.0000000000000000     
  0.53125000000000000       0.50000000000000000        0.0000000000000000     
  0.56250000000000000       0.50000000000000000        0.0000000000000000     
  0.59375000000000000       0.50000000000000000        0.0000000000000000     
  0.62500000000000000       0.50000000000000000        0.0000000000000000     
  0.50000000000000000       0.53125000000000000        0.0000000000000000     
  0.53125000000000000       0.53125000000000000        0.0000000000000000     
  0.56250000000000000       0.53125000000000000        0.0000000000000000     
  0.59375000000000000       0.53125000000000000        0.0000000000000000     
  0.62500000000000000       0.53125000000000000        0.0000000000000000     
  0.50000000000000000       0.56250000000000000        0.0000000000000000     
  0.53125000000000000       0.56250000000000000        0.0000000000000000     
  0.56250000000000000       0.56250000000000000        0.0000000000000000     
  0.59375000000000000       0.56250000000000000        0.0000000000000000     
  0.62500000000000000       0.56250000000000000        0.0000000000000000     
  0.50000000000000000       0.59375000000000000        0.0000000000000000     
  0.53125000000000000       0.59375000000000000        0.0000000000000000     
  0.56250000000000000       0.59375000000000000        0.0000000000000000     
  0.59375000000000000       0.59375000000000000        0.0000000000000000     
  0.62500000000000000       0.59375000000000000        0.0000000000000000     
  0.50000000000000000       0.62500000000000000        0.0000000000000000     
  0.53125000000000000       0.62500000000000000        0.0000000000000000     
  0.56250000000000000       0.62500000000000000        0.0000000000000000     
  0.59375000000000000       0.62500000000000000        0.0000000000000000     
  0.62500000000000000       0.62500000000000000        0.0000000000000000     
  0.62500000000000000       0.50000000000000000        0.0000000000000000     
  0.65625000000000000       0.50000000000000000        0.0000000000000000     
  0.68750000000000000       0.50000000000000000        0.0000000000000000     
  0.71875000000000000       0.50000000000000000        0.0000000000000000     
  0.75000000000000000       0.50000000000000000        0.0000000000000000     
  0.62500000000000000       0.53125000000000000        0.0000000000000000     
  0.65625000000000000       0.53125000000000000        0.0000000000000000     
  0.68750000000000000       0.53125000000000000        0.0000000000000000     
  0.71875000000000000       0.53125000000000000        0.0000000000000000     
  0.75000000000000000       0.53125000000000000        0.0000000000000000     
  0.62500000000000000       0.56250000000000000        0.0000000000000000     
  0.65625000000000000       0.56250000000000000        0.0000000000000000     
  0.68750000000000000       0.56250000000000000        0.0000000000000000     
  0.71875000000000000       0.56250000000000000        0.0000000000000000     
  0.75000000000000000       0.56250000000000000        0.0000000000000000     
  0.62500000000000000       0.59375000000000000        0.0000000000000000     
  0.65625000000000000       0.59375000000000000        0.0000000000000000     
  0.68750000000000000       0.59375000000000000        0.0000000000000000     
  0.71875000000000000       0.59375000000000000        0.0000000000000000     
  0.75000000000000000       0.59375000000000000        0.0000000000000000     
  0.62500000000000000       0.62500000000000000        0.0000000000000000     
  0.65625000000000000       0.62500000000000000        0.0000000000000000     
  0.68750000000000000       0.62500000000000000        0.0000000000000000     
  0.71875000000000000       0.62500000000000000        0.0000000000000000     
  0.75000000000000000       0.62500000000000000        0.0000000000000000     
  0.75000000000000000       0.50000000000000000        0.0000000000000000     
  0.78125000000000000       0.50000000000000000        0.0000000000000000     
  0.81250000000000000       0.50000000000000000        0.0000000000000000     
  0.84375000000000000       0.50000000000000000        0.0000000000000000     
  0.87500000000000000       0.50000000000000000        0.0000000000000000     
  0.75000000000000000       0.53125000000000000        0.0000000000000000     
  0.78125000000000000       0.53125000000000000        0.0000000000000000     
  0.81250000000000000       0.53125000000000000        0.0000000000000000     
  0.84375000000000000       0.53125000000000000        0.0000000000000000     
  0.87500000000000000       0.53125000000000000        0.0000000000000000     
  0.75000000000000000       0.56250000000000000        0.0000000000000000     
  0.78125000000000000       0.56250000000000000        0.0000000000000000     
  0.81250000000000000       0.56250000000000000        0.0000000000000000     
  0.84375000000000000       0.56250000000000000        0.0000000000000000     
  0.87500000000000000       0.56250000000000000        0.0000000000000000     
  0.75000000000000000       0.59375000000000000        0.0000000000000000     
  0.78125000000000000       0.59375000000000000        0.0000000000000000     
  0.81250000000000000       0.59375000000000000        0.0000000000000000     
  0.84375000000000000       0.59375000000000000        0.0000000000000000     
  0.87500000000000000       0.59375000000000000        0.0000000000000000     
  0.75000000000000000       0.62500000000000000        0.0000000000000000     
  0.78125000000000000       0.62500000000000000        0.0000000000000000     
  0.81250000000000000       0.62500000000000000        0.0000000000000000     
  0.84375000000000000       0.62500000000000000        0.0000000000000000     
  0.87500000000000000       0.62500000000000000        0.0000000000000000     
  0.87500000000000000       0.50000000000000000        0.0000000000000000     
  0.90625000000000000       0.50000000000000000        0.0000000000000000     
  0.93750000000000000       0.50000000000000000        0.0000000000000000     
  0.96875000000000000       0.50000000000000000        0.0000000000000000     
   1.0000000000000000       0.50000000000000000        0.0000000000000000     
  0.87500000000000000       0.53125000000000000        0.0000000000000000     
  0.90625000000000000       0.53125000000000000        0.0000000000000000     
  0.93750000000000000       0.53125000000000000        0.0000000000000000     
  0.96875000000000000       0.53125000000000000        0.0000000000000000     
   1.0000000000000000       0.53125000000000000        0.0000000000000000     
  0.87500000000000000       0.56250000000000000        0.0000000000000000     
  0.90625000000000000       0.56250000000000000        0.0000000000000000     
  0.93750000000000000       0.56250000000000000        0.0000000000000000     
  0.96875000000000000       0.56250000000000000        0.0000000000000000     
   1.0000000000000000       0.56250000000000000        0.0000000000000000     
  0.87500000000000000       0.59375000000000000        0.0000000000000000     
  0.90625000000000000       0.59375000000000000        0.0000000000000000     
  0.93750000000000000       0.59375000000000000        0.0000000000000000     
  0.96875000000000000       0.59375000000000000        0.0000000000000000     
   1.0000000000000000       0.59375000000000000        0.0000000000000000     
  0.87500000000000000       0.62500000000000000        0.0000000000000000     
  0.90625000000000000       0.62500000000000000        0.0000000000000000     
  0.93750000000000000       0.62500000000000000        0.0000000000000000     
  0.96875000000000000       0.62500000000000000        0.0000000000000000     
   1.0000000000000000       0.62500000000000000        0.0000000000000000     
   0.0000000000000000       0.62500000000000000        0.0000000000000000     
   3.1250000000000000E-002  0.62500000000000000        0.0000000000000000     
   6.2500000000000000E-002  0.62500000000000000        0.0000000000000000     
   9.3750000000000000E-002  0.62500000000000000        0.0000000000000000     
  0.12500000000000000       0.62500000000000000        0.0000000000000000     
   0.0000000000000000       0.65625000000000000        0.0000000000000000     
   3.1250000000000000E-002  0.65625000000000000        0.0000000000000000     
   6.2500000000000000E-002  0.65625000000000000        0.0000000000000000     
   9.3750000000000000E-002  0.65625000000000000        0.0000000000000000     
  0.12500000000000000       0.65625000000000000        0.0000000000000000     
   0.0000000000000000       0.68750000000000000        0.0000000000000000     
   3.1250000000000000E-002  0.68750000000000000        0.0000000000000000     
   6.2500000000000000E-002  0.68750000000000000        0.0000000000000000     
   9.3750000000000000E-002  0.68750000000000000        0.0000000000000000     
  0.12500000000000000       0.68750000000000000        0.0000000000000000     
   0.0000000000000000       0.71875000000000000        0.0000000000000000     
   3.1250000000000000E-002  0.71875000000000000        0.0000000000000000     
   6.2500000000000000E-002  0.71875000000000000        0.0000000000000000     
   9.3750000000000000E-002  0.71875000000000000        0.0000000000000000     
  0.12500000000000000       0.71875000000000000        0.0000000000000000     
   0.0000000000000000       0.75000000000000000        0.0000000000000000     
   3.1250000000000000E-002  0.75000000000000000        0.0000000000000000     
   6.2500000000000000E-002  0.75000000000000000        0.0000000000000000     
   9.3750000000000000E-002  0.75000000000000000        0.0000000000000000     
  0.12500000000000000       0.75000000000000000        0.0000000000000000     
  0.12500000000000000       0.62500000000000000        0.0000000000000000     
  0.15625000000000000       0.62500000000000000        0.0000000000000000     
  0.18750000000000000       0.62500000000000000        0.0000000000000000     
  0.21875000000000000       0.62500000000000000        0.0000000000000000     
  0.25000000000000000       0.62500000000000000        0.0000000000000000     
  0.12500000000000000       0.65625000000000000        0.0000000000000000     
  0.15625000000000000       0.65625000000000000        0.0000000000000000     
  0.18750000000000000       0.65625000000000000        0.0000000000000000     
  0.21875000000000000       0.65625000000000000        0.0000000000000000     
  0.25000000000000000       0.65625000000000000        0.0000000000000000     
  0.12500000000000000       0.68750000000000000        0.0000000000000000     
  0.15625000000000000       0.68750000000000000        0.0000000000000000     
  0.18750000000000000       0.68750000000000000        0.0000000000000000     
  0.21875000000000000       0.68750000000000000        0.0000000000000000     
  0.25000000000000000       0.68750000000000000        0.0000000000000000     
  0.12500000000000000       0.71875000000000000        0.0000000000000000     
  0.15625000000000000       0.71875000000000000        0.0000000000000000     
  0.18750000000000000       0.71875000000000000        0.0000000000000000     
  0.21875000000000000       0.71875000000000000        0.0000000000000000     
  0.25000000000000000       0.71875000000000000        0.0000000000000000     
  0.12500000000000000       0.75000000000000000        0.0000000000000000     
  0.15625000000000000       0.75000000000000000        0.0000000000000000     
  0.18750000000000000       0.75000000000000000        0.0000000000000000     
  0.21875000000000000       0.75000000000000000        0.0000000000000000     
  0.25000000000000000       0.75000000000000000        0.0000000000000000     
  0.25000000000000000       0.62500000000000000        0.0000000000000000     
  0.28125000000000000       0.62500000000000000        0.0000000000000000     
  0.31250000000000000       0.62500000000000000        0.0000000000000000     
  0.34375000000000000       0.62500000000000000        0.0000000000000000     
  0.37500000000000000       0.62500000000000000        0.0000000000000000     
  0.25000000000000000       0.65625000000000000        0.0000000000000000     
  0.28125000000000000       0.65625000000000000        0.0000000000000000     
  0.31250000000000000       0.65625000000000000        0.0000000000000000     
  0.34375000000000000       0.65625000000000000        0.0000000000000000     
  0.37500000000000000       0.65625000000000000        0.0000000000000000     
  0.25000000000000000       0.68750000000000000        0.0000000000000000     
  0.28125000000000000       0.68750000000000000        0.0000000000000000     
  0.31250000000000000       0.68750000000000000        0.0000000000000000     
  0.34375000000000000       0.68750000000000000        0.0000000000000000     
  0.37500000000000000       0.68750000000000000        0.0000000000000000     
  0.25000000000000000       0.71875000000000000        0.0000000000000000     
  0.28125000000000000       0.71875000000000000        0.0000000000000000     
  0.31250000000000000       0.71875000000000000        0.0000000000000000     
  0.34375000000000000       0.71875000000000000        0.0000000000000000     
  0.37500000000000000       0.71875000000000000        0.0000000000000000     
  0.25000000000000000       0.75000000000000000        0.0000000000000000     
  0.28125000000000000       0.75000000000000000        0.0000000000000000     
  0.31250000000000000       0.75000000000000000        0.0000000000000000     
  0.34375000000000000       0.75000000000000000        0.0000000000000000     
  0.37500000000000000       0.75000000000000000        0.0000000000000000     
  0.37500000000000000       0.62500000000000000        0.0000000000000000     
  0.40625000000000000       0.62500000000000000        0.0000000000000000     
  0.43750000000000000       0.62500000000000000        0.0000000000000000     
  0.46875000000000000       0.62500000000000000        0.0000000000000000     
  0.50000000000000000       0.62500000000000000        0.0000000000000000     
  0.37500000000000000       0.65625000000000000        0.0000000000000000     
  0.40625000000000000       0.65625000000000000        0.0000000000000000     
  0.43750000000000000       0.65625000000000000        0.0000000000000000     
  0.46875000000000000       0.65625000000000000        0.0000000000000000     
  0.50000000000000000       0.65625000000000000        0.0000000000000000     
  0.37500000000000000       0.68750000000000000        0.0000000000000000     
  0.40625000000000000       0.68750000000000000        0.0000000000000000     
  0.43750000000000000       0.68750000000000000        0.0000000000000000     
  0.46875000000000000       0.68750000000000000        0.0000000000000000     
  0.50000000000000000       0.68750000000000000        0.0000000000000000     
  0.37500000000000000       0.71875000000000000        0.0000000000000000     
  0.40625000000000000       0.71875000000000000        0.0000000000000000     
  0.43750000000000000       0.71875000000000000        0.0000000000000000     
  0.46875000000000000       0.71875000000000000        0.0000000000000000     
  0.50000000000000000       0.71875000000000000        0.0000000000000000     
  0.37500000000000000       0.75000000000000000        0.0000000000000000     
  0.40625000000000000       0.75000000000000000        0.0000000000000000     
  0.43750000000000000       0.75000000000000000        0.0000000000000000     
  0.46875000000000000       0.75000000000000000        0.0000000000000000     
  0.50000000000000000       0.75000000000000000        0.0000000000000000     
  0.50000000000000000       0.62500000000000000        0.0000000000000000     
  0.53125000000000000       0.62500000000000000        0.0000000000000000     
  0.56250000000000000       0.62500000000000000        0.0000000000000000     
  0.59375000000000000       0.62500000000000000        0.0000000000000000     
  0.62500000000000000       0.62500000000000000        0.0000000000000000     
  0.50000000000000000       0.65625000000000000        0.0000000000000000     
  0.53125000000000000       0.65625000000000000        0.0000000000000000     
  0.56250000000000000       0.65625000000000000        0.0000000000000000     
  0.59375000000000000       0.65625000000000000        0.0000000000000000     
  0.62500000000000000       0.65625000000000000        0.0000000000000000     
  0.50000000000000000       0.68750000000000000        0.0000000000000000     
  0.53125000000000000       0.68750000000000000        0.0000000000000000     
  0.56250000000000000       0.68750000000000000        0.0000000000000000     
  0.59375000000000000       0.68750000000000000        0.0000000000000000     
  0.62500000000000000       0.68750000000000000        0.0000000000000000     
  0.50000000000000000       0.71875000000000000        0.0000000000000000     
  0.53125000000000000       0.71875000000000000        0.0000000000000000     
  0.56250000000000000       0.71875000000000000        0.0000000000000000     
  0.59375000000000000       0.71875000000000000        0.0000000000000000     
  0.62500000000000000       0.71875000000000000        0.0000000000000000     
  0.50000000000000000       0.75000000000000000        0.0000000000000000     
  0.53125000000000000       0.75000000000000000        0.0000000000000000     
  0.56250000000000000       0.75000000000000000        0.0000000000000000     
  0.59375000000000000       0.75000000000000000        0.0000000000000000     
  0.62500000000000000       0.75000000000000000        0.0000000000000000     
  0.62500000000000000       0.62500000000000000        0.0000000000000000     
  0.65625000000000000       0.62500000000000000        0.0000000000000000     
  0.68750000000000000       0.62500000000000000        0.0000000000000000     
  0.71875000000000000       0.62500000000000000        0.0000000000000000     
  0.75000000000000000       0.62500000000000000        0.0000000000000000     
  0.62500000000000000       0.65625000000000000        0.0000000000000000     
  0.65625000000000000       0.65625000000000000        0.0000000000000000     
  0.68750000000000000       0.65625000000000000        0.0000000000000000     
  0.71875000000000000       0.65625000000000000        0.0000000000000000     
  0.75000000000000000       0.65625000000000000        0.0000000000000000     
  0.62500000000000000       0.68750000000000000        0.0000000000000000     
  0.65625000000000000       0.68750000000000000        0.0000000000000000     
  0.68750000000000000       0.68750000000000000        0.0000000000000000     
  0.71875000000000000       0.68750000000000000        0.0000000000000000     
  0.75000000000000000       0.68750000000000000        0.0000000000000000     
  0.62500000000000000       0.71875000000000000        0.0000000000000000     
  0.65625000000000000       0.71875000000000000        0.0000000000000000     
  0.68750000000000000       0.71875000000000000        0.0000000000000000     
  0.71875000000000000       0.71875000000000000        0.0000000000000000     
  0.75000000000000000       0.71875000000000000        0.0000000000000000     
  0.62500000000000000       0.75000000000000000        0.0000000000000000     
  0.65625000000000000       0.75000000000000000        0.0000000000000000     
  0.68750000000000000       0.75000000000000000        0.0000000000000000     
  0.71875000000000000       0.75000000000000000        0.0000000000000000     
  0.75000000000000000       0.75000000000000000        0.0000000000000000     
  0.75000000000000000       0.62500000000000000        0.0000000000000000     
  0.78125000000000000       0.62500000000000000        0.0000000000000000     
  0.81250000000000000       0.62500000000000000        0.0000000000000000     
  0.84375000000000000       0.62500000000000000        0.0000000000000000     
  0.87500000000000000       0.62500000000000000        0.0000000000000000     
  0.75000000000000000       0.65625000000000000        0.0000000000000000     
  0.78125000000000000       0.65625000000000000        0.0000000000000000     
  0.81250000000000000       0.65625000000000000        0.0000000000000000     
  0.84375000000000000       0.65625000000000000        0.0000000000000000     
  0.87500000000000000       0.65625000000000000        0.0000000000000000     
  0.75000000000000000       0.68750000000000000        0.0000000000000000     
  0.78125000000000000       0.68750000000000000        0.0000000000000000     
  0.81250000000000000       0.68750000000000000        0.0000000000000000     
  0.84375000000000000       0.68750000000000000        0.0000000000000000     
  0.87500000000000000       0.68750000000000000        0.0000000000000000     
  0.75000000000000000       0.71875000000000000        0.0000000000000000     
  0.78125000000000000       0.71875000000000000        0.0000000000000000     
  0.81250000000000000       0.71875000000000000        0.0000000000000000     
  0.84375000000000000       0.71875000000000000        0.0000000000000000     
  0.87500000000000000       0.71875000000000000        0.0000000000000000     
  0.75000000000000000       0.75000000000000000        0.0000000000000000     
  0.78125000000000000       0.75000000000000000        0.0000000000000000     
  0.81250000000000000       0.75000000000000000        0.0000000000000000     
  0.84375000000000000       0.75000000000000000        0.0000000000000000     
  0.87500000000000000       0.75000000000000000        0.0000000000000000     
  0.87500000000000000       0.62500000000000000        0.0000000000000000     
  0.90625000000000000       0.62500000000000000        0.0000000000000000     
  0.93750000000000000       0.62500000000000000        0.0000000000000000     
  0.96875000000000000       0.62500000000000000        0.0000000000000000     
   1.0000000000000000       0.62500000000000000        0.0000000000000000     
  0.87500000000000000       0.65625000000000000        0.0000000000000000     
  0.90625000000000000       0.65625000000000000        0.0000000000000000     
  0.93750000000000000       0.65625000000000000        0.0000000000000000     
  0.96875000000000000       0.65625000000000000        0.0000000000000000     
   1.0000000000000000       0.65625000000000000        0.0000000000000000     
  0.87500000000000000       0.68750000000000000        0.0000000000000000     
  0.90625000000000000       0.68750000000000000        0.0000000000000000     
  0.93750000000000000       0.68750000000000000        0.0000000000000000     
  0.96875000000000000       0.68750000000000000        0.0000000000000000     
   1.0000000000000000       0.68750000000000000        0.0000000000000000     
  0.87500000000000000       0.71875000000000000        0.0000000000000000     
  0.90625000000000000       0.71875000000000000        0.0000000000000000     
  0.93750000000000000       0.71875000000000000        0.0000000000000000     
  0.96875000000000000       0.71875000000000000        0.0000000000000000     
   1.0000000000000000       0.71875000000000000        0.0000000000000000     
  0.87500000000000000       0.75000000000000000        0.0000000000000000     
  0.90625000000000000       0.75000000000000000        0.0000000000000000     
  0.93750000000000000       0.75000000000000000        0.0000000000000000     
  0.96875000000000000       0.75000000000000000        0.0000000000000000     
   1.0000000000000000       0.75000000000000000        0.0000000000000000     
   0.0000000000000000       0.75000000000000000        0.0000000000000000     
   3.1250000000000000E-002  0.75000000000000000        0.0000000000000000     
   6.2500000000000000E-002  0.75000000000000000        0.0000000000000000     
   9.3750000000000000E-002  0.75000000000000000        0.0000000000000000     
  0.12500000000000000       0.75000000000000000        0.0000000000000000     
   0.0000000000000000       0.78125000000000000        0.0000000000000000     
   3.1250000000000000E-002  0.78125000000000000        0.0000000000000000     
   6.2500000000000000E-002  0.78125000000000000        0.0000000000000000     
   9.3750000000000000E-002  0.78125000000000000        0.0000000000000000     
  0.12500000000000000       0.78125000000000000        0.0000000000000000     
   0.0000000000000000       0.81250000000000000        0.0000000000000000     
   3.1250000000000000E-002  0.81250000000000000        0.0000000000000000     
   6.2500000000000000E-002  0.81250000000000000        0.0000000000000000     
   9.3750000000000000E-002  0.81250000000000000        0.0000000000000000     
  0.12500000000000000       0.81250000000000000        0.0000000000000000     
   0.0000000000000000       0.84375000000000000        0.0000000000000000     
   3.1250000000000000E-002  0.84375000000000000        0.0000000000000000     
   6.2500000000000000E-002  0.84375000000000000        0.0000000000000000     
   9.3750000000000000E-002  0.84375000000000000        0.0000000000000000     
  0.12500000000000000       0.84375000000000000        0.0000000000000000     
   0.0000000000000000       0.87500000000000000        0.0000000000000000     
   3.1250000000000000E-002  0.87500000000000000        0.0000000000000000     
   6.2500000000000000E-002  0.87500000000000000        0.0000000000000000     
   9.3750000000000000E-002  0.87500000000000000        0.0000000000000000     
  0.12500000000000000       0.87500000000000000        0.0000000000000000     
  0.12500000000000000       0.75000000000000000        0.0000000000000000     
  0.15625000000000000       0.75000000000000000        0.0000000000000000     
  0.18750000000000000       0.75000000000000000        0.0000000000000000     
  0.21875000000000000       0.75000000000000000        0.0000000000000000     
  0.25000000000000000       0.75000000000000000        0.0000000000000000     
  0.12500000000000000       0.78125000000000000        0.0000000000000000     
  0.15625000000000000       0.78125000000000000        0.0000000000000000     
  0.18750000000000000       0.78125000000000000        0.0000000000000000     
  0.21875000000000000       0.78125000000000000        0.0000000000000000     
  0.25000000000000000       0.78125000000000000        0.0000000000000000     
  0.12500000000000000       0.81250000000000000        0.0000000000000000     
  0.15625000000000000       0.81250000000000000        0.0000000000000000     
  0.18750000000000000       0.81250000000000000        0.0000000000000000     
  0.21875000000000000       0.81250000000000000        0.0000000000000000     
  0.25000000000000000       0.81250000000000000        0.0000000000000000     
  0.12500000000000000       0.84375000000000000        0.0000000000000000     
  0.15625000000000000       0.84375000000000000        0.0000000000000000     
  0.18750000000000000       0.84375000000000000        0.0000000000000000     
  0.21875000000000000       0.84375000000000000        0.0000000000000000     
  0.25000000000000000       0.84375000000000000        0.0000000000000000     
  0.12500000000000000       0.87500000000000000        0.0000000000000000     
  0.15625000000000000       0.87500000000000000        0.0000000000000000     
  0.18750000000000000       0.87500000000000000        0.0000000000000000     
  0.21875000000000000       0.87500000000000000        0.0000000000000000     
  0.25000000000000000       0.87500000000000000        0.0000000000000000     
  0.25000000000000000       0.75000000000000000        0.0000000000000000     
  0.28125000000000000       0.75000000000000000        0.0000000000000000     
  0.31250000000000000       0.75000000000000000        0.0000000000000000     
  0.34375000000000000       0.75000000000000000        0.0000000000000000     
  0.37500000000000000       0.75000000000000000        0.0000000000000000     
  0.25000000000000000       0.78125000000000000        0.0000000000000000     
  0.28125000000000000       0.78125000000000000        0.0000000000000000     
  0.31250000000000000       0.78125000000000000        0.0000000000000000     
  0.34375000000000000       0.78125000000000000        0.0000000000000000     
  0.37500000000000000       0.78125000000000000        0.0000000000000000     
  0.25000000000000000       0.81250000000000000        0.0000000000000000     
  0.28125000000000000       0.81250000000000000        0.0000000000000000     
  0.31250000000000000       0.81250000000000000        0.0000000000000000     
  0.34375000000000000       0.81250000000000000        0.0000000000000000     
  0.37500000000000000       0.81250000000000000        0.0000000000000000     
  0.25000000000000000       0.84375000000000000        0.0000000000000000     
  0.28125000000000000       0.84375000000000000        0.0000000000000000     
  0.31250000000000000       0.84375000000000000        0.0000000000000000     
  0.34375000000000000       0.84375000000000000        0.0000000000000000     
  0.37500000000000000       0.84375000000000000        0.0000000000000000     
  0.25000000000000000       0.87500000000000000        0.0000000000000000     
  0.28125000000000000       0.87500000000000000        0.0000000000000000     
  0.31250000000000000       0.87500000000000000        0.0000000000000000     
  0.34375000000000000       0.87500000000000000        0.0000000000000000     
  0.37500000000000000       0.87500000000000000        0.0000000000000000     
  0.37500000000000000       0.75000000000000000        0.0000000000000000     
  0.40625000000000000       0.75000000000000000        0.0000000000000000     
  0.43750000000000000       0.75000000000000000        0.0000000000000000     
  0.46875000000000000       0.75000000000000000        0.0000000000000000     
  0.50000000000000000       0.75000000000000000        0.0000000000000000     
  0.37500000000000000       0.78125000000000000        0.0000000000000000     
  0.40625000000000000       0.78125000000000000        0.0000000000000000     
  0.43750000000000000       0.78125000000000000        0.0000000000000000     
  0.46875000000000000       0.78125000000000000        0.0000000000000000     
  0.50000000000000000       0.78125000000000000        0.0000000000000000     
  0.37500000000000000       0.81250000000000000        0.0000000000000000     
  0.40625000000000000       0.81250000000000000        0.0000000000000000     
  0.43750000000000000       0.81250000000000000        0.0000000000000000     
  0.46875000000000000       0.81250000000000000        0.0000000000000000     
  0.50000000000000000       0.81250000000000000        0.0000000000000000     
  0.37500000000000000       0.84375000000000000        0.0000000000000000     
  0.40625000000000000       0.84375000000000000        0.0000000000000000     
  0.43750000000000000       0.84375000000000000        0.0000000000000000     
  0.46875000000000000       0.84375000000000000        0.0000000000000000     
  0.50000000000000000       0.84375000000000000        0.0000000000000000     
  0.37500000000000000       0.87500000000000000        0.0000000000000000     
  0.40625000000000000       0.87500000000000000        0.0000000000000000     
  0.43750000000000000       0.87500000000000000        0.0000000000000000     
  0.46875000000000000       0.87500000000000000        0.0000000000000000     
  0.50000000000000000       0.87500000000000000        0.0000000000000000     
  0.50000000000000000       0.75000000000000000        0.0000000000000000     
  0.53125000000000000       0.75000000000000000        0.0000000000000000     
  0.56250000000000000       0.75000000000000000        0.0000000000000000     
  0.59375000000000000       0.75000000000000000        0.0000000000000000     
  0.62500000000000000       0.75000000000000000        0.0000000000000000     
  0.50000000000000000       0.78125000000000000        0.0000000000000000     
  0.53125000000000000       0.78125000000000000        0.0000000000000000     
  0.56250000000000000       0.78125000000000000        0.0000000000000000     
  0.59375000000000000       0.78125000000000000        0.0000000000000000     
  0.62500000000000000       0.78125000000000000        0.0000000000000000     
  0.50000000000000000       0.81250000000000000        0.0000000000000000     
  0.53125000000000000       0.81250000000000000        0.0000000000000000     
  0.56250000000000000       0.81250000000000000        0.0000000000000000     
  0.59375000000000000       0.81250000000000000        0.0000000000000000     
  0.62500000000000000       0.81250000000000000        0.0000000000000000     
  0.50000000000000000       0.84375000000000000        0.0000000000000000     
  0.53125000000000000       0.84375000000000000        0.0000000000000000     
  0.56250000000000000       0.84375000000000000        0.0000000000000000     
  0.59375000000000000       0.84375000000000000        0.0000000000000000     
  0.62500000000000000       0.84375000000000000        0.0000000000000000     
  0.50000000000000000       0.87500000000000000        0.0000000000000000     
  0.53125000000000000       0.87500000000000000        0.0000000000000000     
  0.56250000000000000       0.87500000000000000        0.0000000000000000     
  0.59375000000000000       0.87500000000000000        0.0000000000000000     
  0.62500000000000000       0.87500000000000000        0.0000000000000000     
  0.62500000000000000       0.75000000000000000        0.0000000000000000     
  0.65625000000000000       0.75000000000000000        0.0000000000000000     
  0.68750000000000000       0.75000000000000000        0.0000000000000000     
  0.71875000000000000       0.75000000000000000        0.0000000000000000     
  0.75000000000000000       0.75000000000000000        0.0000000000000000     
  0.62500000000000000       0.78125000000000000        0.0000000000000000     
  0.65625000000000000       0.78125000000000000        0.0000000000000000     
  0.68750000000000000       0.78125000000000000        0.0000000000000000     
  0.71875000000000000       0.78125000000000000        0.0000000000000000     
  0.75000000000000000       0.78125000000000000        0.0000000000000000     
  0.62500000000000000       0.81250000000000000        0.0000000000000000     
  0.65625000000000000       0.81250000000000000        0.0000000000000000     
  0.68750000000000000       0.81250000000000000        0.0000000000000000     
  0.71875000000000000       0.81250000000000000        0.0000000000000000     
  0.75000000000000000       0.81250000000000000        0.0000000000000000     
  0.62500000000000000       0.84375000000000000        0.0000000000000000     
  0.65625000000000000       0.84375000000000000        0.0000000000000000     
  0.68750000000000000       0.84375000000000000        0.0000000000000000     
  0.71875000000000000       0.84375000000000000        0.0000000000000000     
  0.75000000000000000       0.84375000000000000        0.0000000000000000     
  0.62500000000000000       0.87500000000000000        0.0000000000000000     
  0.65625000000000000       0.87500000000000000        0.0000000000000000     
  0.68750000000000000       0.87500000000000000        0.0000000000000000     
  0.71875000000000000       0.87500000000000000        0.0000000000000000     
  0.75000000000000000       0.87500000000000000        0.0000000000000000     
  0.75000000000000000       0.75000000000000000        0.0000000000000000     
  0.78125000000000000       0.75000000000000000        0.0000000000000000     
  0.81250000000000000       0.75000000000000000        0.0000000000000000     
  0.84375000000000000       0.75000000000000000        0.0000000000000000     
  0.87500000000000000       0.75000000000000000        0.0000000000000000     
  0.75000000000000000       0.78125000000000000        0.0000000000000000     
  0.78125000000000000       0.78125000000000000        0.0000000000000000     
  0.81250000000000000       0.78125000000000000        0.0000000000000000     
  0.84375000000000000       0.78125000000000000        0.0000000000000000     
  0.87500000000000000       0.78125000000000000        0.0000000000000000     
  0.75000000000000000       0.81250000000000000        0.0000000000000000     
  0.78125000000000000       0.81250000000000000        0.0000000000000000     
  0.81250000000000000       0.81250000000000000        0.0000000000000000     
  0.84375000000000000       0.81250000000000000        0.0000000000000000     
  0.87500000000000000       0.81250000000000000        0.0000000000000000     
  0.75000000000000000       0.84375000000000000        0.0000000000000000     
  0.78125000000000000       0.84375000000000000        0.0000000000000000     
  0.81250000000000000       0.84375000000000000        0.0000000000000000     
  0.84375000000000000       0.84375000000000000        0.0000000000000000     
  0.87500000000000000       0.84375000000000000        0.0000000000000000     
  0.75000000000000000       0.87500000000000000        0.0000000000000000     
  0.78125000000000000       0.87500000000000000        0.0000000000000000     
  0.81250000000000000       0.87500000000000000        0.0000000000000000     
  0.84375000000000000       0.87500000000000000        0.0000000000000000     
  0.87500000000000000       0.87500000000000000        0.0000000000000000     
  0.87500000000000000       0.75000000000000000        0.0000000000000000     
  0.90625000000000000       0.75000000000000000        0.0000000000000000     
  0.93750000000000000       0.75000000000000000        0.0000000000000000     
  0.96875000000000000       0.75000000000000000        0.0000000000000000     
   1.0000000000000000       0.75000000000000000        0.0000000000000000     
  0.87500000000000000       0.78125000000000000        0.0000000000000000     
  0.90625000000000000       0.78125000000000000        0.0000000000000000     
  0.93750000000000000       0.78125000000000000        0.0000000000000000     
  0.96875000000000000       0.78125000000000000        0.0000000000000000     
   1.0000000000000000       0.78125000000000000        0.0000000000000000     
  0.87500000000000000       0.81250000000000000        0.0000000000000000     
  0.90625000000000000       0.81250000000000000        0.0000000000000000     
  0.93750000000000000       0.81250000000000000        0.0000000000000000     
  0.96875000000000000       0.81250000000000000        0.0000000000000000     
   1.0000000000000000       0.81250000000000000        0.0000000000000000     
  0.87500000000000000       0.84375000000000000        0.0000000000000000     
  0.90625000000000000       0.84375000000000000        0.0000000000000000     
  0.93750000000000000       0.84375000000000000        0.0000000000000000     
  0.96875000000000000       0.84375000000000000        0.0000000000000000     
   1.0000000000000000       0.84375000000000000        0.0000000000000000     
  0.87500000000000000       0.87500000000000000        0.0000000000000000     
  0.90625000000000000       0.87500000000000000        0.0000000000000000     
  0.93750000000000000       0.87500000000000000        0.0000000000000000     
  0.96875000000000000       0.87500000000000000        0.0000000000000000     
   1.0000000000000000       0.87500000000000000        0.0000000000000000     
   0.0000000000000000       0.87500000000000000        0.0000000000000000     
   3.1250000000000000E-002  0.87500000000000000        0.0000000000000000     
   6.2500000000000000E-002  0.87500000000000000        0.0000000000000000     
   9.3750000000000000E-002  0.87500000000000000        0.0000000000000000     
  0.12500000000000000       0.87500000000000000        0.0000000000000000     
   0.0000000000000000       0.90625000000000000        0.0000000000000000     
   3.1250000000000000E-002  0.90625000000000000        0.0000000000000000     
   6.2500000000000000E-002  0.90625000000000000        0.0000000000000000     
   9.3750000000000000E-002  0.90625000000000000        0.0000000000000000     
  0.12500000000000000       0.90625000000000000        0.0000000000000000     
   0.0000000000000000       0.93750000000000000        0.0000000000000000     
   3.1250000000000000E-002  0.93750000000000000        0.0000000000000000     
   6.2500000000000000E-002  0.93750000000000000        0.0000000000000000     
   9.3750000000000000E-002  0.93750000000000000        0.0000000000000000     
  0.12500000000000000       0.93750000000000000        0.0000000000000000     
   0.0000000000000000       0.96875000000000000        0.0000000000000000     
   3.1250000000000000E-002  0.96875000000000000        0.0000000000000000     
   6.2500000000000000E-002  0.96875000000000000        0.0000000000000000     
   9.3750000000000000E-002  0.96875000000000000        0.0000000000000000     
  0.12500000000000000       0.96875000000000000        0.0000000000000000     
   0.0000000000000000        1.0000000000000000        0.0000000000000000     
   3.1250000000000000E-002   1.0000000000000000        0.0000000000000000     
   6.2500000000000000E-002   1.0000000000000000        0.0000000000000000     
   9.3750000000000000E-002   1.0000000000000000        0.0000000000000000     
  0.12500000000000000        1.0000000000000000        0.0000000000000000     
  0.12500000000000000       0.87500000000000000        0.0000000000000000     
  0.15625000000000000       0.87500000000000000        0.0000000000000000     
  0.18750000000000000       0.87500000000000000        0.0000000000000000     
  0.21875000000000000       0.87500000000000000        0.0000000000000000     
  0.25000000000000000       0.87500000000000000        0.0000000000000000     
  0.12500000000000000       0.90625000000000000        0.0000000000000000     
  0.15625000000000000       0.90625000000000000        0.0000000000000000     
  0.18750000000000000       0.90625000000000000        0.0000000000000000     
  0.21875000000000000       0.90625000000000000        0.0000000000000000     
  0.25000000000000000       0.90625000000000000        0.0000000000000000     
  0.12500000000000000       0.93750000000000000        0.0000000000000000     
  0.15625000000000000       0.93750000000000000        0.0000000000000000     
  0.18750000000000000       0.93750000000000000        0.0000000000000000     
  0.21875000000000000       0.93750000000000000        0.0000000000000000     
  0.25000000000000000       0.93750000000000000        0.0000000000000000     
  0.12500000000000000       0.96875000000000000        0.0000000000000000     
  0.15625000000000000       0.96875000000000000        0.0000000000000000     
  0.18750000000000000       0.96875000000000000        0.0000000000000000     
  0.21875000000000000       0.96875000000000000        0.0000000000000000     
  0.25000000000000000       0.96875000000000000        0.0000000000000000     
  0.12500000000000000        1.0000000000000000        0.0000000000000000     
  0.15625000000000000        1.0000000000000000        0.0000000000000000     
  0.18750000000000000        1.0000000000000000        0.0000000000000000     
  0.21875000000000000        1.0000000000000000        0.0000000000000000     
  0.25000000000000000        1.0000000000000000        0.0000000000000000     
  0.25000000000000000       0.87500000000000000        0.0000000000000000     
  0.28125000000000000       0.87500000000000000        0.0000000000000000     
  0.31250000000000000       0.87500000000000000        0.0000000000000000     
  0.34375000000000000       0.87500000000000000        0.0000000000000000     
  0.37500000000000000       0.87500000000000000        0.0000000000000000     
  0.25000000000000000       0.90625000000000000        0.0000000000000000     
  0.28125000000000000       0.90625000000000000        0.0000000000000000     
  0.31250000000000000       0.90625000000000000        0.0000000000000000     
  0.34375000000000000       0.90625000000000000        0.0000000000000000     
  0.37500000000000000       0.90625000000000000        0.0000000000000000     
  0.25000000000000000       0.93750000000000000        0.0000000000000000     
  0.28125000000000000       0.93750000000000000        0.0000000000000000     
  0.31250000000000000       0.93750000000000000        0.0000000000000000     
  0.34375000000000000       0.93750000000000000        0.0000000000000000     
  0.37500000000000000       0.93750000000000000        0.0000000000000000     
  0.25000000000000000       0.96875000000000000        0.0000000000000000     
  0.28125000000000000       0.96875000000000000        0.0000000000000000     
  0.31250000000000000       0.96875000000000000        0.0000000000000000     
  0.34375000000000000       0.96875000000000000        0.0000000000000000     
  0.37500000000000000       0.96875000000000000        0.0000000000000000     
  0.25000000000000000        1.0000000000000000        0.0000000000000000     
  0.28125000000000000        1.0000000000000000        0.0000000000000000     
  0.31250000000000000        1.0000000000000000        0.0000000000000000     
  0.34375000000000000        1.0000000000000000        0.0000000000000000     
  0.37500000000000000        1.0000000000000000        0.0000000000000000     
  0.37500000000000000       0.87500000000000000        0.0000000000000000     
  0.40625000000000000       0.87500000000000000        0.0000000000000000     
  0.43750000000000000       0.87500000000000000        0.0000000000000000     
  0.46875000000000000       0.87500000000000000        0.0000000000000000     
  0.50000000000000000       0.87500000000000000        0.0000000000000000     
  0.37500000000000000       0.90625000000000000        0.0000000000000000     
  0.40625000000000000       0.90625000000000000        0.0000000000000000     
  0.43750000000000000       0.90625000000000000        0.0000000000000000     
  0.46875000000000000       0.90625000000000000        0.0000000000000000     
  0.50000000000000000       0.90625000000000000        0.0000000000000000     
  0.37500000000000000       0.93750000000000000        0.0000000000000000     
  0.40625000000000000       0.93750000000000000        0.0000000000000000     
  0.43750000000000000       0.93750000000000000        0.0000000000000000     
  0.46875000000000000       0.93750000000000000        0.0000000000000000     
  0.50000000000000000       0.93750000000000000        0.0000000000000000     
  0.37500000000000000       0.96875000000000000        0.0000000000000000     
  0.40625000000000000       0.96875000000000000        0.0000000000000000     
  0.43750000000000000       0.96875000000000000        0.0000000000000000     
  0.46875000000000000       0.96875000000000000        0.0000000000000000     
  0.50000000000000000       0.96875000000000000        0.0000000000000000     
  0.37500000000000000        1.0000000000000000        0.0000000000000000     
  0.40625000000000000        1.0000000000000000        0.0000000000000000     
  0.43750000000000000        1.0000000000000000        0.0000000000000000     
  0.46875000000000000        1.0000000000000000        0.0000000000000000     
  0.50000000000000000        1.0000000000000000        0.0000000000000000     
  0.50000000000000000       0.87500000000000000        0.0000000000000000     
  0.53125000000000000       0.87500000000000000        0.0000000000000000     
  0.56250000000000000       0.87500000000000000        0.0000000000000000     
  0.59375000000000000       0.87500000000000000        0.0000000000000000     
  0.62500000000000000       0.87500000000000000        0.0000000000000000     
  0.50000000000000000       0.90625000000000000        0.0000000000000000     
  0.53125000000000000       0.90625000000000000        0.0000000000000000     
  0.56250000000000000       0.90625000000000000        0.0000000000000000     
  0.59375000000000000       0.90625000000000000        0.0000000000000000     
  0.62500000000000000       0.90625000000000000        0.0000000000000000     
  0.50000000000000000       0.93750000000000000        0.0000000000000000     
  0.53125000000000000       0.93750000000000000        0.0000000000000000     
  0.56250000000000000       0.93750000000000000        0.0000000000000000     
  0.59375000000000000       0.93750000000000000        0.0000000000000000     
  0.62500000000000000       0.93750000000000000        0.0000000000000000     
  0.50000000000000000       0.96875000000000000        0.0000000000000000     
  0.53125000000000000       0.96875000000000000        0.0000000000000000     
  0.56250000000000000       0.96875000000000000        0.0000000000000000     
  0.59375000000000000       0.96875000000000000        0.0000000000000000     
  0.62500000000000000       0.96875000000000000        0.0000000000000000     
  0.50000000000000000        1.0000000000000000        0.0000000000000000     
  0.53125000000000000        1.0000000000000000        0.0000000000000000     
  0.56250000000000000        1.0000000000000000        0.0000000000000000     
  0.59375000000000000        1.0000000000000000        0.0000000000000000     
  0.62500000000000000        1.0000000000000000        0.0000000000000000     
  0.62500000000000000       0.87500000000000000        0.0000000000000000     
  0.65625000000000000       0.87500000000000000        0.0000000000000000     
  0.68750000000000000       0.87500000000000000        0.0000000000000000     
  0.71875000000000000       0.87500000000000000        0.0000000000000000     
  0.75000000000000000       0.87500000000000000        0.0000000000000000     
  0.62500000000000000       0.90625000000000000        0.0000000000000000     
  0.65625000000000000       0.90625000000000000        0.0000000000000000     
  0.68750000000000000       0.90625000000000000        0.0000000000000000     
  0.71875000000000000       0.90625000000000000        0.0000000000000000     
  0.75000000000000000       0.90625000000000000        0.0000000000000000     
  0.62500000000000000       0.93750000000000000        0.0000000000000000     
  0.65625000000000000       0.93750000000000000        0.0000000000000000     
  0.68750000000000000       0.93750000000000000        0.0000000000000000     
  0.71875000000000000       0.93750000000000000        0.0000000000000000     
  0.75000000000000000       0.93750000000000000        0.0000000000000000     
  0.62500000000000000       0.96875000000000000        0.0000000000000000     
  0.65625000000000000       0.96875000000000000        0.0000000000000000     
  0.68750000000000000       0.96875000000000000        0.0000000000000000     
  0.71875000000000000       0.96875000000000000        0.0000000000000000     
  0.75000000000000000       0.96875000000000000        0.0000000000000000     
  0.62500000000000000        1.0000000000000000        0.0000000000000000     
  0.65625000000000000        1.0000000000000000        0.0000000000000000     
  0.68750000000000000        1.0000000000000000        0.0000000000000000     
  0.71875000000000000        1.0000000000000000        0.0000000000000000     
  0.75000000000000000        1.0000000000000000        0.0000000000000000     
  0.75000000000000000       0.87500000000000000        0.0000000000000000     
  0.78125000000000000       0.87500000000000000        0.0000000000000000     
  0.81250000000000000       0.87500000000000000        0.0000000000000000     
  0.84375000000000000       0.87500000000000000        0.0000000000000000     
  0.87500000000000000       0.87500000000000000        0.0000000000000000     
  0.75000000000000000       0.90625000000000000        0.0000000000000000     
  0.78125000000000000       0.90625000000000000        0.0000000000000000     
  0.81250000000000000       0.90625000000000000        0.0000000000000000     
  0.84375000000000000       0.90625000000000000        0.0000000000000000     
  0.87500000000000000       0.90625000000000000        0.0000000000000000     
  0.75000000000000000       0.93750000000000000        0.0000000000000000     
  0.78125000000000000       0.93750000000000000        0.0000000000000000     
  0.81250000000000000       0.93750000000000000        0.0000000000000000     
  0.84375000000000000       0.93750000000000000        0.0000000000000000     
  0.87500000000000000       0.93750000000000000        0.0000000000000000     
  0.75000000000000000       0.96875000000000000        0.0000000000000000     
  0.78125000000000000       0.96875000000000000        0.0000000000000000     
  0.81250000000000000       0.96875000000000000        0.0000000000000000     
  0.84375000000000000       0.96875000000000000        0.0000000000000000     
  0.87500000000000000       0.96875000000000000        0.0000000000000000     
  0.75000000000000000        1.0000000000000000        0.0000000000000000     
  0.78125000000000000        1.0000000000000000        0.0000000000000000     
  0.81250000000000000        1.0000000000000000        0.0000000000000000     
  0.84375000000000000        1.0000000000000000        0.0000000000000000     
  0.87500000000000000        1.0000000000000000        0.0000000000000000     
  0.87500000000000000       0.87500000000000000        0.0000000000000000     
  0.90625000000000000       0.87500000000000000        0.0000000000000000     
  0.93750000000000000       0.87500000000000000        0.0000000000000000     
  0.96875000000000000       0.87500000000000000        0.0000000000000000     
   1.0000000000000000       0.87500000000000000        0.0000000000000000     
  0.87500000000000000       0.90625000000000000        0.0000000000000000     
  0.90625000000000000       0.90625000000000000        0.0000000000000000     
  0.93750000000000000       0.90625000000000000        0.0000000000000000     
  0.96875000000000000       0.90625000000000000        0.0000000000000000     
   1.0000000000000000       0.90625000000000000        0.0000000000000000     
  0.87500000000000000       0.93750000000000000        0.0000000000000000     
  0.90625000000000000       0.93750000000000000        0.0000000000000000     
  0.93750000000000000       0.93750000000000000        0.0000000000000000     
  0.96875000000000000       0.93750000000000000        0.0000000000000000     
   1.0000000000000000       0.93750000000000000        0.0000000000000000     
  0.87500000000000000       0.96875000000000000        0.0000000000000000     
  0.90625000000000000       0.96875000000000000        0.0000000000000000     
  0.93750000000000000       0.96875000000000000        0.0000000000000000     
  0.96875000000000000       0.96875000000000000        0.0000000000000000     
   1.0000000000000000       0.96875000000000000        0.0000000000000000     
  0.87500000000000000        1.0000000000000000        0.0000000000000000     
  0.90625000000000000        1.0000000000000000        0.0000000000000000     
  0.93750000000000000        1.0000000000000000        0.0000000000000000     
  0.96875000000000000        1.0000000000000000        0.0000000000000000     
   1.0000000000000000        1.0000000000000000        0.0000000000000000     
 </DataArray>
 </Points>
 <Cells>
 <DataArray  type="Int32"  Name="connectivity"  format="ascii">
           0           1           6           5
           1           2           7           6
           2           3           8           7
           3           4           9           8
           5           6          11          10
           6           7          12          11
           7           8          13          12
           8           9          14          13
          10          11          16          15
          11          12          17          16
          12          13          18          17
          13          14          19          18
          15          16          21          20
          16          17          22          21
          17          18          23          22
          18          19          24          23
          25          26          31          30
          26          27          32          31
          27          28          33          32
          28          29          34          33
          30          31          36          35
          31          32          37          36
          32          33          38          37
          33          34          39          38
          35          36          41          40
          36          37          42          41
          37          38          43          42
          38          39          44          43
          40          41          46          45
          41          42          47          46
          42          43          48          47
          43          44          49          48
          50          51          56          55
          51          52          57          56
          52          53          58          57
          53          54          59          58
          55          56          61          60
          56          57          62          61
          57          58          63          62
          58          59          64          63
          60          61          66          65
          61          62          67          66
          62          63          68          67
          63          64          69          68
          65          66          71          70
          66          67          72          71
          67          68          73          72
          68          69          74          73
          75          76          81          80
          76          77          82          81
          77          78          83          82
          78          79          84          83
          80          81          86          85
          81          82          87          86
          82          83          88          87
          83          84          89          88
          85          86          91          90
          86          87          92          91
          87          88          93          92
          88          89          94          93
          90          91          96          95
          91          92          97          96
          92          93          98          97
          93          94          99          98
         100         101         106         105
         101         102         107         106
         102         103         108         107
         103         104         109         108
         105         106         111         110
         106         107         112         111
         107         108         113         112
         108         109         114         113
         110         111         116         115
         111         112         117         116
         112         113         118         117
         113         114         119         118
         115         116         121         120
         116         117         122         121
         117         118         123         122
         118         119         124         123
         125         126         131         130
         126         127         132         131
         127         128         133         132
         128         129         134         133
         130         131         136         135
         131         132         137         136
         132         133         138         137
         133         134         139         138
         135         136         141         140
         136         137         142         141
         137         138         143         142
         138         139         144         143
         140         141         146         145
         141         142         147         146
         142         143         148         147
         143         144         149         148
         150         151         156         155
         151         152         157         156
         152         153         158         157
         153         154         159         158
         155         156         161         160
         156         157         162         161
         157         158         163         162
         158         159         164         163
         160         161         166         165
         161         162         167         166
         162         163         168         167
         163         164         169         168
         165         166         171         170
         166         167         172         171
         167         168         173         172
         168         169         174         173
         175         176         181         180
         176         177         182         181
         177         178         183         182
         178         179         184         183
         180         181         186         185
         181         182         187         186
         182         183         188         187
         183         184         189         188
         185         186         191         190
         186         187         192         191
         187         188         193         192
         188         189         194         193
         190         191         196         195
         191         192         197         196
         192         193         198         197
         193         194         199         198
         200         201         206         205
         201         202         207         206
         202         203         208         207
         203         204         209         208
         205         206         211         210
         206         207         212         211
         207         208         213         212
         208         209         214         213
         210         211         216         215
         211         212         217         216
         212         213         218         217
         213         214         219         218
         215         216         221         220
         216         217         222         221
         217         218         223         222
         218         219         224         223
         225         226         231         230
         226         227         232         231
         227         228         233         232
         228         229         234         233
         230         231         236         235
         231         232         237         236
         232         233         238         237
         233         234         239         238
         235         236         241         240
         236         237         242         241
         237         238         243         242
         238         239         244         243
         240         241         246         245
         241         242         247         246
         242         243         248         247
         243         244         249         248
         250         251         256         255
         251         252         257         256
         252         253         258         257
         253         254         259         258
         255         256         261         260
         256         257         262         261
         257         258         263         262
         258         259         264         263
         260         261         266         265
         261         262         267         266
         262         263         268         267
         263         264         269         268
         265         266         271         270
         266         267         272         271
         267         268         273         272
         268         269         274         273
         275         276         281         280
         276         277         282         281
         277         278         283         282
         278         279         284         283
         280         281         286         285
         281         282         287         286
         282         283         288         287
         283         284         289         288
         285         286         291         290
         286         287         292         291
         287         288         293         292
         288         289         294         293
         290         291         296         295
         291         292         297         296
         292         293         298         297
         293         294         299         298
         300         301         306         305
         301         302         307         306
         302         303         308         307
         303         304         309         308
         305         306         311         310
         306         307         312         311
         307         308         313         312
         308         309         314         313
         310         311         316         315
         311         312         317         316
         312         313         318         317
         313         314         319         318
         315         316         321         320
         316         317         322         321
         317         318         323         322
         318         319         324         323
         325         326         331         330
         326         327         332         331
         327         328         333         332
         328         329         334         333
         330         331         336         335
         331         332         337         336
         332         333         338         337
         333         334         339         338
         335         336         341         340
         336         337         342         341
         337         338         343         342
         338         339         344         343
         340         341         346         345
         341         342         347         346
         342         343         348         347
         343         344         349         348
         350         351         356         355
         351         352         357         356
         352         353         358         357
         353         354         359         358
         355         356         361         360
         356         357         362         361
         357         358         363         362
         358         359         364         363
         360         361         366         365
         361         362         367         366
         362         363         368         367
         363         364         369         368
         365         366         371         370
         366         367         372         371
         367         368         373         372
         368         369         374         373
         375         376         381         380
         376         377         382         381
         377         378         383         382
         378         379         384         383
         380         381         386         385
         381         382         387         386
         382         383         388         387
         383         384         389         388
         385         386         391         390
         386         387         392         391
         387         388         393         392
         388         389         394         393
         390         391         396         395
         391         392         397         396
         392         393         398         397
         393         394         399         398
         400         401         406         405
         401         402         407         406
         402         403         408         407
         403         404         409         408
         405         406         411         410
         406         407         412         411
         407         408         413         412
         408         409         414         413
         410         411         416         415
         411         412         417         416
         412         413         418         417
         413         414         419         418
         415         416         421         420
         416         417         422         421
         417         418         423         422
         418         419         424         423
         425         426         431         430
         426         427         432         431
         427         428         433         432
         428         429         434         433
         430         431         436         435
         431         432         437         436
         432         433         438         437
         433         434         439         438
         435         436         441         440
         436         437         442         441
         437         438         443         442
         438         439         444         443
         440         441         446         445
         441         442         447         446
         442         443         448         447
         443         444         449         448
         450         451         456         455
         451         452         457         456
         452         453         458         457
         453         454         459         458
         455         456         461         460
         456         457         462         461
         457         458         463         462
         458         459         464         463
         460         461         466         465
         461         462         467         466
         462         463         468         467
         463         464         469         468
         465         466         471         470
         466         467         472         471
         467         468         473         472
         468         469         474         473
         475         476         481         480
         476         477         482         481
         477         478         483         482
         478         479         484         483
         480         481         486         485
         481         482         487         486
         482         483         488         487
         483         484         489         488
         485         486         491         490
         486         487         492         491
         487         488         493         492
         488         489         494         493
         490         491         496         495
         491         492         497         496
         492         493         498         497
         493         494         499         498
         500         501         506         505
         501         502         507         506
         502         503         508         507
         503         504         509         508
         505         506         511         510
         506         507         512         511
         507         508         513         512
         508         509         514         513
         510         511         516         515
         511         512         517         516
         512         513         518         517
         513         514         519         518
         515         516         521         520
         516         517         522         521
         517         518         523         522
         518         519         524         523
         525         526         531         530
         526         527         532         531
         527         528         533         532
         528         529         534         533
         530         531         536         535
         531         532         537         536
         532         533         538         537
         533         534         539         538
         535         536         541         540
         536         537         542         541
         537         538         543         542
         538         539         544         543
         540         541         546         545
         541         542         547         546
         542         543         548         547
         543         544         549         548
         550         551         556         555
         551         552         557         556
         552         553         558         557
         553         554         559         558
         555         556         561         560
         556         557         562         561
         557         558         563         562
         558         559         564         563
         560         561         566         565
         561         562         567         566
         562         563         568         567
         563         564         569         568
         565         566         571         570
         566         567         572         571
         567         568         573         572
         568         569         574         573
         575         576         581         580
         576         577         582         581
         577         578         583         582
         578         579         584         583
         580         581         586         585
         581         582         587         586
         582         583         588         587
         583         584         589         588
         585         586         591         590
         586         587         592         591
         587         588         593         592
         588         589         594         593
         590         591         596         595
         591         592         597         596
         592         593         598         597
         593         594         599         598
         600         601         606         605
         601         602         607         606
         602         603         608         607
         603         604         609         608
         605         606         611         610
         606         607         612         611
         607         608         613         612
         608         609         614         613
         610         611         616         615
         611         612         617         616
         612         613         618         617
         613         614         619         618
         615         616         621         620
         616         617         622         621
         617         618         623         622
         618         619         624         623
         625         626         631         630
         626         627         632         631
         627         628         633         632
         628         629         634         633
         630         631         636         635
         631         632         637         636
         632         633         638         637
         633         634         639         638
         635         636         641         640
         636         637         642         641
         637         638         643         642
         638         639         644         643
         640         641         646         645
         641         642         647         646
         642         643         648         647
         643         644         649         648
         650         651         656         655
         651         652         657         656
         652         653         658         657
         653         654         659         658
         655         656         661         660
         656         657         662         661
         657         658         663         662
         658         659         664         663
         660         661         666         665
         661         662         667         666
         662         663         668         667
         663         664         669         668
         665         666         671         670
         666         667         672         671
         667         668         673         672
         668         669         674         673
         675         676         681         680
         676         677         682         681
         677         678         683         682
         678         679         684         683
         680         681         686         685
         681         682         687         686
         682         683         688         687
         683         684         689         688
         685         686         691         690
         686         687         692         691
         687         688         693         692
         688         689         694         693
         690         691         696         695
         691         692         697         696
         692         693         698         697
         693         694         699         698
         700         701         706         705
         701         702         707         706
         702         703         708         707
         703         704         709         708
         705         706         711         710
         706         707         712         711
         707         708         713         712
         708         709         714         713
         710         711         716         715
         711         712         717         716
         712         713         718         717
         713         714         719         718
         715         716         721         720
         716         717         722         721
         717         718         723         722
         718         719         724         723
         725         726         731         730
         726         727         732         731
         727         728         733         732
         728         729         734         733
         730         731         736         735
         731         732         737         736
         732         733         738         737
         733         734         739         738
         735         736         741         740
         736         737         742         741
         737         738         743         742
         738         739         744         743
         740         741         746         745
         741         742         747         746
         742         743         748         747
         743         744         749         748
         750         751         756         755
         751         752         757         756
         752         753         758         757
         753         754         759         758
         755         756         761         760
         756         757         762         761
         757         758         763         762
         758         759         764         763
         760         761         766         765
         761         762         767         766
         762         763         768         767
         763         764         769         768
         765         766         771         770
         766         767         772         771
         767         768         773         772
         768         769         774         773
         775         776         781         780
         776         777         782         781
         777         778         783         782
         778         779         784         783
         780         781         786         785
         781         782         787         786
         782         783         788         787
         783         784         789         788
         785         786         791         790
         786         787         792         791
         787         788         793         792
         788         789         794         793
         790         791         796         795
         791         792         797         796
         792         793         798         797
         793         794         799         798
         800         801         806         805
         801         802         807         806
         802         803         808         807
         803         804         809         808
         805         806         811         810
         806         807         812         811
         807         808         813         812
         808         809         814         813
         810         811         816         815
         811         812         817         816
         812         813         818         817
         813         814         819         818
         815         816         821         820
         816         817         822         821
         817         818         823         822
         818         819         824         823
         825         826         831         830
         826         827         832         831
         827         828         833         832
         828         829         834         833
         830         831         836         835
         831         832         837         836
         832         833         838         837
         833         834         839         838
         835         836         841         840
         836         837         842         841
         837         838         843         842
         838         839         844         843
         840         841         846         845
         841         842         847         846
         842         843         848         847
         843         844         849         848
         850         851         856         855
         851         852         857         856
         852         853         858         857
         853         854         859         858
         855         856         861         860
         856         857         862         861
         857         858         863         862
         858         859         864         863
         860         861         866         865
         861         862         867         866
         862         863         868         867
         863         864         869         868
         865         866         871         870
         866         867         872         871
         867         868         873         872
         868         869         874         873
         875         876         881         880
         876         877         882         881
         877         878         883         882
         878         879         884         883
         880         881         886         885
         881         882         887         886
         882         883         888         887
         883         884         889         888
         885         886         891         890
         886         887         892         891
         887         888         893         892
         888         889         894         893
         890         891         896         895
         891         892         897         896
         892         893         898         897
         893         894         899         898
         900         901         906         905
         901         902         907         906
         902         903         908         907
         903         904         909         908
         905         906         911         910
         906         907         912         911
         907         908         913         912
         908         909         914         913
         910         911         916         915
         911         912         917         916
         912         913         918         917
         913         914         919         918
         915         916         921         920
         916         917         922         921
         917         918         923         922
         918         919         924         923
         925         926         931         930
         926         927         932         931
         927         928         933         932
         928         929         934         933
         930         931         936         935
         931         932         937         936
         932         933         938         937
         933         934         939         938
         935         936         941         940
         936         937         942         941
         937         938         943         942
         938         939         944         943
         940         941         946         945
         941         942         947         946
         942         943         948         947
         943         944         949         948
         950         951         956         955
         951         952         957         956
         952         953         958         957
         953         954         959         958
         955         956         961         960
         956         957         962         961
         957         958         963         962
         958         959         964         963
         960         961         966         965
         961         962         967         966
         962         963         968         967
         963         964         969         968
         965         966         971         970
         966         967         972         971
         967         968         973         972
         968         969         974         973
         975         976         981         980
         976         977         982         981
         977         978         983         982
         978         979         984         983
         980         981         986         985
         981         982         987         986
         982         983         988         987
         983         984         989         988
         985         986         991         990
         986         987         992         991
         987         988         993         992
         988         989         994         993
         990         991         996         995
         991         992         997         996
         992         993         998         997
         993         994         999         998
        1000        1001        1006        1005
        1001        1002        1007        1006
        1002        1003        1008        1007
        1003        1004        1009        1008
        1005        1006        1011        1010
        1006        1007        1012        1011
        1007        1008        1013        1012
        1008        1009        1014        1013
        1010        1011        1016        1015
        1011        1012        1017        1016
        1012        1013        1018        1017
        1013        1014        1019        1018
        1015        1016        1021        1020
        1016        1017        1022        1021
        1017        1018        1023        1022
        1018        1019        1024        1023
        1025        1026        1031        1030
        1026        1027        1032        1031
        1027        1028        1033        1032
        1028        1029        1034        1033
        1030        1031        1036        1035
        1031        1032        1037        1036
        1032        1033        1038        1037
        1033        1034        1039        1038
        1035        1036        1041        1040
        1036        1037        1042        1041
        1037        1038        1043        1042
        1038        1039        1044        1043
        1040        1041        1046        1045
        1041        1042        1047        1046
        1042        1043        1048        1047
        1043        1044        1049        1048
        1050        1051        1056        1055
        1051        1052        1057        1056
        1052        1053        1058        1057
        1053        1054        1059        1058
        1055        1056        1061        1060
        1056        1057        1062        1061
        1057        1058        1063        1062
        1058        1059        1064        1063
        1060        1061        1066        1065
        1061        1062        1067        1066
        1062        1063        1068        1067
        1063        1064        1069        1068
        1065        1066        1071        1070
        1066        1067        1072        1071
        1067        1068        1073        1072
        1068        1069        1074        1073
        1075        1076        1081        1080
        1076        1077        1082        1081
        1077        1078        1083        1082
        1078        1079        1084        1083
        1080        1081        1086        1085
        1081        1082        1087        1086
        1082        1083        1088        1087
        1083        1084        1089        1088
        1085        1086        1091        1090
        1086        1087        1092        1091
        1087        1088        1093        1092
        1088        1089        1094        1093
        1090        1091        1096        1095
        1091        1092        1097        1096
        1092        1093        1098        1097
        1093        1094        1099        1098
        1100        1101        1106        1105
        1101        1102        1107        1106
        1102        1103        1108        1107
        1103        1104        1109        1108
        1105        1106        1111        1110
        1106        1107        1112        1111
        1107        1108        1113        1112
        1108        1109        1114        1113
        1110        1111        1116        1115
        1111        1112        1117        1116
        1112        1113        1118        1117
        1113        1114        1119        1118
        1115        1116        1121        1120
        1116        1117        1122        1121
        1117        1118        1123        1122
        1118        1119        1124        1123
        1125        1126        1131        1130
        1126        1127        1132        1131
        1127        1128        1133        1132
        1128        1129        1134        1133
        1130        1131        1136        1135
        1131        1132        1137        1136
        1132        1133        1138        1137
        1133        1134        1139        1138
        1135        1136        1141        1140
        1136        1137        1142        1141
        1137        1138        1143        1142
        1138        1139        1144        1143
        1140        1141        1146        1145
        1141        1142        1147        1146
        1142        1143        1148        1147
        1143        1144        1149        1148
        1150        1151        1156        1155
        1151        1152        1157        1156
        1152        1153        1158        1157
        1153        1154        1159        1158
        1155        1156        1161        1160
        1156        1157        1162        1161
        1157        1158        1163        1162
        1158        1159        1164        1163
        1160        1161        1166        1165
        1161        1162        1167        1166
        1162        1163        1168        1167
        1163        1164        1169        1168
        1165        1166        1171        1170
        1166        1167        1172        1171
        1167        1168        1173        1172
        1168        1169        1174        1173
        1175        1176        1181        1180
        1176        1177        1182        1181
        1177        1178        1183        1182
        1178        1179        1184        1183
        1180        1181        1186        1185
        1181        1182        1187        1186
        1182        1183        1188        1187
        1183        1184        1189        1188
        1185        1186        1191        1190
        1186        1187        1192        1191
        1187        1188        1193        1192
        1188        1189        1194        1193
        1190        1191        1196        1195
        1191        1192        1197        1196
        1192        1193        1198        1197
        1193        1194        1199        1198
        1200        1201        1206        1205
        1201        1202        1207        1206
        1202        1203        1208        1207
        1203        1204        1209        1208
        1205        1206        1211        1210
        1206        1207        1212        1211
        1207        1208        1213        1212
        1208        1209        1214        1213
        1210        1211        1216        1215
        1211        1212        1217        1216
        1212        1213        1218        1217
        1213        1214        1219        1218
        1215        1216        1221        1220
        1216        1217        1222        1221
        1217        1218        1223        1222
        1218        1219        1224        1223
        1225        1226        1231        1230
        1226        1227        1232        1231
        1227        1228        1233        1232
        1228        1229        1234        1233
        1230        1231        1236        1235
        1231        1232        1237        1236
        1232        1233        1238        1237
        1233        1234        1239        1238
        1235        1236        1241        1240
        1236        1237        1242        1241
        1237        1238        1243        1242
        1238        1239        1244        1243
        1240        1241        1246        1245
        1241        1242        1247        1246
        1242        1243        1248        1247
        1243        1244        1249        1248
        1250        1251        1256        1255
        1251        1252        1257        1256
        1252        1253        1258        1257
        1253        1254        1259        1258
        1255        1256        1261        1260
        1256        1257        1262        1261
        1257        1258        1263        1262
        1258        1259        1264        1263
        1260        1261        1266        1265
        1261        1262        1267        1266
        1262        1263        1268        1267
        1263        1264        1269        1268
        1265        1266        1271        1270
        1266        1267        1272        1271
        1267        1268        1273        1272
        1268        1269        1274        1273
        1275        1276        1281        1280
        1276        1277        1282        1281
        1277        1278        1283        1282
        1278        1279        1284        1283
        1280        1281        1286        1285
        1281        1282        1287        1286
        1282        1283        1288        1287
        1283        1284        1289        1288
        1285        1286        1291        1290
        1286        1287        1292        1291
        1287        1288        1293        1292
        1288        1289        1294        1293
        1290        1291        1296        1295
        1291        1292        1297        1296
        1292        1293        1298        1297
        1293        1294        1299        1298
        1300        1301        1306        1305
        1301        1302        1307        1306
        1302        1303        1308        1307
        1303        1304        1309        1308
        1305        1306        1311        1310
        1306        1307        1312        1311
        1307        1308        1313        1312
        1308        1309        1314        1313
        1310        1311        1316        1315
        1311        1312        1317        1316
        1312        1313        1318        1317
        1313        1314        1319        1318
        1315        1316        1321        1320
        1316        1317        1322        1321
        1317        1318        1323        1322
        1318        1319        1324        1323
        1325        1326        1331        1330
        1326        1327        1332        1331
        1327        1328        1333        1332
        1328        1329        1334        1333
        1330        1331        1336        1335
        1331        1332        1337        1336
        1332        1333        1338        1337
        1333        1334        1339        1338
        1335        1336        1341        1340
        1336        1337        1342        1341
        1337        1338        1343        1342
        1338        1339        1344        1343
        1340        1341        1346        1345
        1341        1342        1347        1346
        1342        1343        1348        1347
        1343        1344        1349        1348
        1350        1351        1356        1355
        1351        1352        1357        1356
        1352        1353        1358        1357
        1353        1354        1359        1358
        1355        1356        1361        1360
        1356        1357        1362        1361
        1357        1358        1363        1362
        1358        1359        1364        1363
        1360        1361        1366        1365
        1361        1362        1367        1366
        1362        1363        1368        1367
        1363        1364        1369        1368
        1365        1366        1371        1370
        1366        1367        1372        1371
        1367        1368        1373        1372
        1368        1369        1374        1373
        1375        1376        1381        1380
        1376        1377        1382        1381
        1377        1378        1383        1382
        1378        1379        1384        1383
        1380        1381        1386        1385
        1381        1382        1387        1386
        1382        1383        1388        1387
        1383        1384        1389        1388
        1385        1386        1391        1390
        1386        1387        1392        1391
        1387        1388        1393        1392
        1388        1389        1394        1393
        1390        1391        1396        1395
        1391        1392        1397        1396
        1392        1393        1398        1397
        1393        1394        1399        1398
        1400        1401        1406        1405
        1401        1402        1407        1406
        1402        1403        1408        1407
        1403        1404        1409        1408
        1405        1406        1411        1410
        1406        1407        1412        1411
        1407        1408        1413        1412
        1408        1409        1414        1413
        1410        1411        1416        1415
        1411        1412        1417        1416
        1412        1413        1418        1417
        1413        1414        1419        1418
        1415        1416        1421        1420
        1416        1417        1422        1421
        1417        1418        1423        1422
        1418        1419        1424        1423
        1425        1426        1431        1430
        1426        1427        1432        1431
        1427        1428        1433        1432
        1428        1429        1434        1433
        1430        1431        1436        1435
        1431        1432        1437        1436
        1432        1433        1438        1437
        1433        1434        1439        1438
        1435        1436        1441        1440
        1436        1437        1442        1441
        1437        1438        1443        1442
        1438        1439        1444        1443
        1440        1441        1446        1445
        1441        1442        1447        1446
        1442        1443        1448        1447
        1443        1444        1449        1448
        1450        1451        1456        1455
        1451        1452        1457        1456
        1452        1453        1458        1457
        1453        1454        1459        1458
        1455        1456        1461        1460
        1456        1457        1462        1461
        1457        1458        1463        1462
        1458        1459        1464        1463
        1460        1461        1466        1465
        1461        1462        1467        1466
        1462        1463        1468        1467
        1463        1464        1469        1468
        1465        1466        1471        1470
        1466        1467        1472        1471
        1467        1468        1473        1472
        1468        1469        1474        1473
        1475        1476        1481        1480
        1476        1477        1482        1481
        1477        1478        1483        1482
        1478        1479        1484        1483
        1480        1481        1486        1485
        1481        1482        1487        1486
        1482        1483        1488        1487
        1483        1484        1489        1488
        1485        1486        1491        1490
        1486        1487        1492        1491
        1487        1488        1493        1492
        1488        1489        1494        1493
        1490        1491        1496        1495
        1491        1492        1497        1496
        1492        1493        1498        1497
        1493        1494        1499        1498
        1500        1501        1506        1505
        1501        1502        1507        1506
        1502        1503        1508        1507
        1503        1504        1509        1508
        1505        1506        1511        1510
        1506        1507        1512        1511
        1507        1508        1513        1512
        1508        1509        1514        1513
        1510        1511        1516        1515
        1511        1512        1517        1516
        1512        1513        1518        1517
        1513        1514        1519        1518
        1515        1516        1521        1520
        1516        1517        1522        1521
        1517        1518        1523        1522
        1518        1519        1524        1523
        1525        1526        1531        1530
        1526        1527        1532        1531
        1527        1528        1533        1532
        1528        1529        1534        1533
        1530        1531        1536        1535
        1531        1532        1537        1536
        1532        1533        1538        1537
        1533        1534        1539        1538
        1535        1536        1541        1540
        1536        1537        1542        1541
        1537        1538        1543        1542
        1538        1539        1544        1543
        1540        1541        1546        1545
        1541        1542        1547        1546
        1542        1543        1548        1547
        1543        1544        1549        1548
        1550        1551        1556        1555
        1551        1552        1557        1556
        1552        1553        1558        1557
        1553        1554        1559        1558
        1555        1556        1561        1560
        1556        1557        1562        1561
        1557        1558        1563        1562
        1558        1559        1564        1563
        1560        1561        1566        1565
        1561        1562        1567        1566
        1562        1563        1568        1567
        1563        1564        1569        1568
        1565        1566        1571        1570
        1566        1567        1572        1571
        1567        1568        1573        1572
        1568        1569        1574        1573
        1575        1576        1581        1580
        1576        1577        1582        1581
        1577        1578        1583        1582
        1578        1579        1584        1583
        1580        1581        1586        1585
        1581        1582        1587        1586
        1582        1583        1588        1587
        1583        1584        1589        1588
        1585        1586        1591        1590
        1586        1587        1592        1591
        1587        1588        1593        1592
        1588        1589        1594        1593
        1590        1591        1596        1595
        1591        1592        1597        1596
        1592        1593        1598        1597
        1593        1594        1599        1598
 </DataArray>
 <DataArray  type="Int32"  Name="offsets"  format="ascii"> 
           4
           8
          12
          16
          20
          24
          28
          32
          36
          40
          44
          48
          52
          56
          60
          64
          68
          72
          76
          80
          84
          88
          92
          96
         100
         104
         108
         112
         116
         120
         124
         128
         132
         136
         140
         144
         148
         152
         156
         160
         164
         168
         172
         176
         180
         184
         188
         192
         196
         200
         204
         208
         212
         216
         220
         224
         228
         232
         236
         240
         244
         248
         252
         256
         260
         264
         268
         272
         276
         280
         284
         288
         292
         296
         300
         304
         308
         312
         316
         320
         324
         328
         332
         336
         340
         344
         348
         352
         356
         360
         364
         368
         372
         376
         380
         384
         388
         392
         396
         400
         404
         408
         412
         416
         420
         424
         428
         432
         436
         440
         444
         448
         452
         456
         460
         464
         468
         472
         476
         480
         484
         488
         492
         496
         500
         504
         508
         512
         516
         520
         524
         528
         532
         536
         540
         544
         548
         552
         556
         560
         564
         568
         572
         576
         580
         584
         588
         592
         596
         600
         604
         608
         612
         616
         620
         624
         628
         632
         636
         640
         644
         648
         652
         656
         660
         664
         668
         672
         676
         680
         684
         688
         692
         696
         700
         704
         708
         712
         716
         720
         724
         728
         732
         736
         740
         744
         748
         752
         756
         760
         764
         768
         772
         776
         780
         784
         788
         792
         796
         800
         804
         808
         812
         816
         820
         824
         828
         832
         836
         840
         844
         848
         852
         856
         860
         864
         868
         872
         876
         880
         884
         888
         892
         896
         900
         904
         908
         912
         916
         920
         924
         928
         932
         936
         940
         944
         948
         952
         956
         960
         964
         968
         972
         976
         980
         984
         988
         992
         996
        1000
        1004
        1008
        1012
        1016
        1020
        1024
        1028
        1032
        1036
        1040
        1044
        1048
        1052
        1056
        1060
        1064
        1068
        1072
        1076
        1080
        1084
        1088
        1092
        1096
        1100
        1104
        1108
        1112
        1116
        1120
        1124
        1128
        1132
        1136
        1140
        1144
        1148
        1152
        1156
        1160
        1164
        1168
        1172
        1176
        1180
        1184
        1188
        1192
        1196
        1200
        1204
        1208
        1212
        1216
        1220
        1224
        1228
        1232
        1236
        1240
        1244
        1248
        1252
        1256
        1260
        1264
        1268
        1272
        1276
        1280
        1284
        1288
        1292
        1296
        1300
        1304
        1308
        1312
        1316
        1320
        1324
        1328
        1332
        1336
        1340
        1344
        1348
        1352
        1356
        1360
        1364
        1368
        1372
        1376
        1380
        1384
        1388
        1392
        1396
        1400
        1404
        1408
        1412
        1416
        1420
        1424
        1428
        1432
        1436
        1440
        1444
        1448
        1452
        1456
        1460
        1464
        1468
        1472
        1476
        1480
        1484
        1488
        1492
        1496
        1500
        1504
        1508
        1512
        1516
        1520
        1524
        1528
        1532
        1536
        1540
        1544
        1548
        1552
        1556
        1560
        1564
        1568
        1572
        1576
        1580
        1584
        1588
        1592
        1596
        1600
        1604
        1608
        1612
        1616
        1620
        1624
        1628
        1632
        1636
        1640
        1644
        1648
        1652
        1656
        1660
        1664
        1668
        1672
        1676
        1680
        1684
        1688
        1692
        1696
        1700
        1704
        1708
        1712
        1716
        1720
        1724
        1728
        1732
        1736
        1740
        1744
        1748
        1752
        1756
        1760
        1764
        1768
        1772
        1776
        1780
        1784
        1788
        1792
        1796
        1800
        1804
        1808
        1812
        1816
        1820
        1824
        1828
        1832
        1836
        1840
        1844
        1848
        1852
        1856
        1860
        1864
        1868
        1872
        1876
        1880
        1884
        1888
        1892
        1896
        1900
        1904
        1908
        1912
        1916
        1920
        1924
        1928
        1932
        1936
        1940
        1944
        1948
        1952
        1956
        1960
        1964
        1968
        1972
        1976
        1980
        1984
        1988
        1992
        1996
        2000
        2004
        2008
        2012
        2016
        2020
        2024
        2028
        2032
        2036
        2040
        2044
        2048
        2052
        2056
        2060
        2064
        2068
        2072
        2076
        2080
        2084
        2088
        2092
        2096
        2100
        2104
        2108
        2112
        2116
        2120
        2124
        2128
        2132
        2136
        2140
        2144
        2148
        2152
        2156
        2160
        2164
        2168
        2172
        2176
        2180
        2184
        2188
        2192
        2196
        2200
        2204
        2208
        2212
        2216
        2220
        2224
        2228
        2232
        2236
        2240
        2244
        2248
        2252
        2256
        2260
        2264
        2268
        2272
        2276
        2280
        2284
        2288
        2292
        2296
        2300
        2304
        2308
        2312
        2316
        2320
        2324
        2328
        2332
        2336
        2340
        2344
        2348
        2352
        2356
        2360
        2364
        2368
        2372
        2376
        2380
        2384
        2388
        2392
        2396
        2400
        2404
        2408
        2412
        2416
        2420
        2424
        2428
        2432
        2436
        2440
        2444
        2448
        2452
        2456
        2460
        2464
        2468
        2472
        2476
        2480
        2484
        2488
        2492
        2496
        2500
        2504
        2508
        2512
        2516
        2520
        2524
        2528
        2532
        2536
        2540
        2544
        2548
        2552
        2556
        2560
        2564
        2568
        2572
        2576
        2580
        2584
        2588
        2592
        2596
        2600
        2604
        2608
        2612
        2616
        2620
        2624
        2628
        2632
        2636
        2640
        2644
        2648
        2652
        2656
        2660
        2664
        2668
        2672
        2676
        2680
        2684
        2688
        2692
        2696
        2700
        2704
        2708
        2712
        2716
        2720
        2724
        2728
        2732
        2736
        2740
        2744
        2748
        2752
        2756
        2760
        2764
        2768
        2772
        2776
        2780
        2784
        2788
        2792
        2796
        2800
        2804
        2808
        2812
        2816
        2820
        2824
        2828
        2832
        2836
        2840
        2844
        2848
        2852
        2856
        2860
        2864
        2868
        2872
        2876
        2880
        2884
        2888
        2892
        2896
        2900
        2904
        2908
        2912
        2916
        2920
        2924
        2928
        2932
        2936
        2940
        2944
        2948
        2952
        2956
        2960
        2964
        2968
        2972
        2976
        2980
        2984
        2988
        2992
        2996
        3000
        3004
        3008
        3012
        3016
        3020
        3024
        3028
        3032
        3036
        3040
        3044
        3048
        3052
        3056
        3060
        3064
        3068
        3072
        3076
        3080
        3084
        3088
        3092
        3096
        3100
        3104
        3108
        3112
        3116
        3120
        3124
        3128
        3132
        3136
        3140
        3144
        3148
        3152
        3156
        3160
        3164
        3168
        3172
        3176
        3180
        3184
        3188
        3192
        3196
        3200
        3204
        3208
        3212
        3216
        3220
        3224
        3228
        3232
        3236
        3240
        3244
        3248
        3252
        3256
        3260
        3264
        3268
        3272
        3276
        3280
        3284
        3288
        3292
        3296
        3300
        3304
        3308
        3312
        3316
        3320
        3324
        3328
        3332
        3336
        3340
        3344
        3348
        3352
        3356
        3360
        3364
        3368
        3372
        3376
        3380
        3384
        3388
        3392
        3396
        3400
        3404
        3408
        3412
        3416
        3420
        3424
        3428
        3432
        3436
        3440
        3444
        3448
        3452
        3456
        3460
        3464
        3468
        3472
        3476
        3480
        3484
        3488
        3492
        3496
        3500
        3504
        3508
        3512
        3516
        3520
        3524
        3528
        3532
        3536
        3540
        3544
        3548
        3552
        3556
        3560
        3564
        3568
        3572
        3576
        3580
        3584
        3588
        3592
        3596
        3600
        3604
        3608
        3612
        3616
        3620
        3624
        3628
        3632
        3636
        3640
        3644
        3648
        3652
        3656
        3660
        3664
        3668
        3672
        3676
        3680
        3684
        3688
        3692
        3696
        3700
        3704
        3708
        3712
        3716
        3720
        3724
        3728
        3732
        3736
        3740
        3744
        3748
        3752
        3756
        3760
        3764
        3768
        3772
        3776
        3780
        3784
        3788
        3792
        3796
        3800
        3804
        3808
        3812
        3816
        3820
        3824
        3828
        3832
        3836
        3840
        3844
        3848
        3852
        3856
        3860
        3864
        3868
        3872
        3876
        3880
        3884
        3888
        3892
        3896
        3900
        3904
        3908
        3912
        3916
        3920
        3924
        3928
        3932
        3936
        3940
        3944
        3948
        3952
        3956
        3960
        3964
        3968
        3972
        3976
        3980
        3984
        3988
        3992
        3996
        4000
        4004
        4008
        4012
        4016
        4020
        4024
        4028
        4032
        4036
        4040
        4044
        4048
        4052
        4056
        4060
        4064
        4068
        4072
        4076
        4080
        4084
        4088
        4092
        4096
 </DataArray>
 <DataArray  type="UInt8"  Name="types"  format="ascii">
 9
 9
 9
 9
 9
 9
 9
 9
 9
 9
 9
 9
 9
 9
 9
 9
 9
 9
 9
 9
 9
 9
 9
 9
 9
 9
 9
 9
 9
 9
 9
 9
 9
 9
 9
 9
 9
 9
 9
 9
 9
 9
 9
 9
 9
 9
 9
 9
 9
 9
 9
 9
 9
 9
 9
 9
 9
 9
 9
 9
 9
 9
 9
 9
 9
 9
 9
 9
 9
 9
 9
 9
 9
 9
 9
 9
 9
 9
 9
 9
 9
 9
 9
 9
 9
 9
 9
 9
 9
 9
 9
 9
 9
 9
 9
 9
 9
 9
 9
 9
 9
 9
 9
 9
 9
 9
 9
 9
 9
 9
 9
 9
 9
 9
 9
 9
 9
 9
 9
 9
 9
 9
 9
 9
 9
 9
 9
 9
 9
 9
 9
 9
 9
 9
 9
 9
 9
 9
 9
 9
 9
 9
 9
 9
 9
 9
 9
 9
 9
 9
 9
 9
 9
 9
 9
 9
 9
 9
 9
 9
 9
 9
 9
 9
 9
 9
 9
 9
 9
 9
 9
 9
 9
 9
 9
 9
 9
 9
 9
 9
 9
 9
 9
 9
 9
 9
 9
 9
 9
 9
 9
 9
 9
 9
 9
 9
 9
 9
 9
 9
 9
 9
 9
 9
 9
 9
 9
 9
 9
 9
 9
 9
 9
 9
 9
 9
 9
 9
 9
 9
 9
 9
 9
 9
 9
 9
 9
 9
 9
 9
 9
 9
 9
 9
 9
 9
 9
 9
 9
 9
 9
 9
 9
 9
 9
 9
 9
 9
 9
 9
 9
 9
 9
 9
 9
 9
 9
 9
 9
 9
 9
 9
 9
 9
 9
 9
 9
 9
 9
 9
 9
 9
 9
 9
 9
 9
 9
 9
 9
 9
 9
 9
 9
 9
 9
 9
 9
 9
 9
 9
 9
 9
 9
 9
 9
 9
 9
 9
 9
 9
 9
 9
 9
 9
 9
 9
 9
 9
 9
 9
 9
 9
 9
 9
 9
 9
 9
 9
 9
 9
 9
 9
 9
 9
 9
 9
 9
 9
 9
 9
 9
 9
 9
 9
 9
 9
 9
 9
 9
 9
 9
 9
 9
 9
 9
 9
 9
 9
 9
 9
 9
 9
 9
 9
 9
 9
 9
 9
 9
 9
 9
 9
 9
 9
 9
 9
 9
 9
 9
 9
 9
 9
 9
 9
 9
 9
 9
 9
 9
 9
 9
 9
 9
 9
 9
 9
 9
 9
 9
 9
 9
 9
 9
 9
 9
 9
 9
 9
 9
 9
 9
 9
 9
 9
 9
 9
 9
 9
 9
 9
 9
 9
 9
 9
 9
 9
 9
 9
 9
 9
 9
 9
 9
 9
 9
 9
 9
 9
 9
 9
 9
 9
 9
 9
 9
 9
 9
 9
 9
 9
 9
 9
 9
 9
 9
 9
 9
 9
 9
 9
 9
 9
 9
 9
 9
 9
 9
 9
 9
 9
 9
 9
 9
 9
 9
 9
 9
 9
 9
 9
 9
 9
 9
 9
 9
 9
 9
 9
 9
 9
 9
 9
 9
 9
 9
 9
 9
 9
 9
 9
 9
 9
 9
 9
 9
 9
 9
 9
 9
 9
 9
 9
 9
 9
 9
 9
 9
 9
 9
 9
 9
 9
 9
 9
 9
 9
 9
 9
 9
 9
 9
 9
 9
 9
 9
 9
 9
 9
 9
 9
 9
 9
 9
 9
 9
 9
 9
 9
 9
 9
 9
 9
 9
 9
 9
 9
 9
 9
 9
 9
 9
 9
 9
 9
 9
 9
 9
 9
 9
 9
 9
 9
 9
 9
 9
 9
 9
 9
 9
 9
 9
 9
 9
 9
 9
 9
 9
 9
 9
 9
 9
 9
 9
 9
 9
 9
 9
 9
 9
 9
 9
 9
 9
 9
 9
 9
 9
 9
 9
 9
 9
 9
 9
 9
 9
 9
 9
 9
 9
 9
 9
 9
 9
 9
 9
 9
 9
 9
 9
 9
 9
 9
 9
 9
 9
 9
 9
 9
 9
 9
 9
 9
 9
 9
 9
 9
 9
 9
 9
 9
 9
 9
 9
 9
 9
 9
 9
 9
 9
 9
 9
 9
 9
 9
 9
 9
 9
 9
 9
 9
 9
 9
 9
 9
 9
 9
 9
 9
 9
 9
 9
 9
 9
 9
 9
 9
 9
 9
 9
 9
 9
 9
 9
 9
 9
 9
 9
 9
 9
 9
 9
 9
 9
 9
 9
 9
 9
 9
 9
 9
 9
 9
 9
 9
 9
 9
 9
 9
 9
 9
 9
 9
 9
 9
 9
 9
 9
 9
 9
 9
 9
 9
 9
 9
 9
 9
 9
 9
 9
 9
 9
 9
 9
 9
 9
 9
 9
 9
 9
 9
 9
 9
 9
 9
 9
 9
 9
 9
 9
 9
 9
 9
 9
 9
 9
 9
 9
 9
 9
 9
 9
 9
 9
 9
 9
 9
 9
 9
 9
 9
 9
 9
 9
 9
 9
 9
 9
 9
 9
 9
 9
 9
 9
 9
 9
 9
 9
 9
 9
 9
 9
 9
 9
 9
 9
 9
 9
 9
 9
 9
 9
 9
 9
 9
 9
 9
 9
 9
 9
 9
 9
 9
 9
 9
 9
 9
 9
 9
 9
 9
 9
 9
 9
 9
 9
 9
 9
 9
 9
 9
 9
 9
 9
 9
 9
 9
 9
 9
 9
 9
 9
 9
 9
 9
 9
 9
 9
 9
 9
 9
 9
 9
 9
 9
 9
 9
 9
 9
 9
 9
 9
 9
 9
 9
 9
 9
 9
 9
 9
 9
 9
 9
 9
 9
 9
 9
 9
 9
 9
 9
 9
 9
 9
 9
 9
 9
 9
 9
 9
 9
 9
 9
 9
 9
 9
 9
 9
 9
 9
 9
 9
 9
 9
 9
 9
 9
 9
 9
 9
 9
 9
 9
 9
 9
 9
 9
 9
 9
 9
 9
 9
 9
 9
 9
 9
 9
 9
 9
 9
 9
 9
 9
 9
 9
 9
 9
 9
 9
 9
 9
 9
 9
 9
 9
 9
 9
 9
 9
 9
 9
 9
 9
 9
 9
 9
 9
 9
 9
 9
 9
 9
 9
 9
 9
 9
 9
 9
 9
 9
 9
 9
 9
 9
 9
 9
 9
 9
 9
 9
 9
 9
 9
 9
 9
 9
 9
 9
 9
 9
 9
 9
 9
 9
 9
 9
 9
 9
 9
 9
 9
 9
 9
 9
 9
 9
 9
 9
 9
 9
 9
 9
 9
 9
 9
 9
 9
 9
 9
 9
 9
 9
 9
 9
 9
 </DataArray>
 </Cells> 
 <PointData>
 <DataArray  type="Float64" Name="disp" NumberOfComponents="3" format="ascii">
   0.0000000000000000        0.0000000000000000        0.0000000000000000     
   6.0950111004779307E-003   3.7896430590690575E-003   0.0000000000000000     
   1.1665102326603788E-002   7.3206879036756684E-003   0.0000000000000000     
   1.6710273678377567E-002   1.0593134533819834E-002   0.0000000000000000     
   2.1230525155799269E-002   1.3606982949501552E-002   0.0000000000000000     
   0.0000000000000000        0.0000000000000000        0.0000000000000000     
   4.8911249661406746E-003   3.0199248775513183E-003   0.0000000000000000     
   9.5744895835575463E-003   6.0554931933750125E-003   0.0000000000000000     
   1.4050093852250613E-002   9.1067049474710827E-003   0.0000000000000000     
   1.8317937772219881E-002   1.2173560139839529E-002   0.0000000000000000     
   0.0000000000000000        0.0000000000000000        0.0000000000000000     
   3.9540871733299340E-003   2.4220401835471821E-003   0.0000000000000000     
   7.9123565896280709E-003   5.0568066293920251E-003   0.0000000000000000     
   1.1874808248894407E-002   7.9042993375345282E-003   0.0000000000000000     
   1.5841442151128947E-002   1.0964518307974694E-002   0.0000000000000000     
   0.0000000000000000        0.0000000000000000        0.0000000000000000     
   3.2838977220457123E-003   1.9959889770566489E-003   0.0000000000000000     
   6.6787033448153623E-003   4.3246282117267061E-003   0.0000000000000000     
   1.0184416868308946E-002   6.9859177040101717E-003   0.0000000000000000     
   1.3801038292526468E-002   9.9798574539070456E-003   0.0000000000000000     
   0.0000000000000000        0.0000000000000000        0.0000000000000000     
   2.8805566122880079E-003   1.7417712580797191E-003   0.0000000000000000     
   5.8735298491194177E-003   3.8589579403790564E-003   0.0000000000000000     
   8.9789197104942296E-003   6.3515600468980115E-003   0.0000000000000000     
   1.2196726196412443E-002   9.2195775776365840E-003   0.0000000000000000     
   2.1230525155799269E-002   1.3606982949501552E-002   0.0000000000000000     
   2.5438409157532912E-002   1.6593885545619122E-002   0.0000000000000000     
   2.9546478082242512E-002   1.9785494717070848E-002   0.0000000000000000     
   3.3554731929928062E-002   2.3181810463856721E-002   0.0000000000000000     
   3.7463170700589576E-002   2.6782832785976748E-002   0.0000000000000000     
   1.8317937772219881E-002   1.2173560139839529E-002   0.0000000000000000     
   2.2415687173048982E-002   1.5324077727598572E-002   0.0000000000000000     
   2.6381007884321565E-002   1.8626276667866426E-002   0.0000000000000000     
   3.0213899906037629E-002   2.2080156960643096E-002   0.0000000000000000     
   3.3914363238197159E-002   2.5685718605928585E-002   0.0000000000000000     
   1.5841442151128947E-002   1.0964518307974694E-002   0.0000000000000000     
   1.9739817394125631E-002   1.4195110968978297E-002   0.0000000000000000     
   2.3497493075678413E-002   1.7553724748811117E-002   0.0000000000000000     
   2.7114469195787277E-002   2.1040359647473153E-002   0.0000000000000000     
   3.0590745754452239E-002   2.4655015664964412E-002   0.0000000000000000     
   1.3801038292526468E-002   9.9798574539070456E-003   0.0000000000000000     
   1.7410799820762855E-002   1.3206985269758303E-002   0.0000000000000000     
   2.0895933656313041E-002   1.6567838959904921E-002   0.0000000000000000     
   2.4256439799177024E-002   2.0062418524346898E-002   0.0000000000000000     
   2.7492318249354809E-002   2.3690723963084234E-002   0.0000000000000000     
   1.2196726196412443E-002   9.2195775776365840E-003   0.0000000000000000     
   1.5428634452960655E-002   1.2359700629938589E-002   0.0000000000000000     
   1.8576329626225466E-002   1.5668619301147831E-002   0.0000000000000000     
   2.1639811716206870E-002   1.9146333591264320E-002   0.0000000000000000     
   2.4619080722904873E-002   2.2792843500288047E-002   0.0000000000000000     
   3.7463170700589576E-002   2.6782832785976748E-002   0.0000000000000000     
   4.1284107966083013E-002   3.0584162545625442E-002   0.0000000000000000     
   4.5029857298264371E-002   3.4581400604997335E-002   0.0000000000000000     
   4.8700418697133645E-002   3.8774546964092417E-002   0.0000000000000000     
   5.2295792162690827E-002   4.3163601622910691E-002   0.0000000000000000     
   3.3914363238197159E-002   2.5685718605928585E-002   0.0000000000000000     
   3.7512339244512957E-002   2.9473579594780853E-002   0.0000000000000000     
   4.1037769288697803E-002   3.3474357918257876E-002   0.0000000000000000     
   4.4490653370751691E-002   3.7688053576359647E-002   0.0000000000000000     
   4.7870991490674628E-002   4.2114666569086176E-002   0.0000000000000000     
   3.0590745754452239E-002   2.4655015664964412E-002   0.0000000000000000     
   3.3960708709941376E-002   2.8445153686164886E-002   0.0000000000000000     
   3.7258744020522767E-002   3.2458234595954587E-002   0.0000000000000000     
   4.0484851686196401E-002   3.6694258394333511E-002   0.0000000000000000     
   4.3639031706962310E-002   4.1153225081301655E-002   0.0000000000000000     
   2.7492318249354809E-002   2.3690723963084234E-002   0.0000000000000000     
   3.0629216362368261E-002   2.7498884819777553E-002   0.0000000000000000     
   3.3692781493739256E-002   3.1533030638087475E-002   0.0000000000000000     
   3.6683013643467786E-002   3.5793161418014002E-002   0.0000000000000000     
   3.9599912811553860E-002   4.0279277159557141E-002   0.0000000000000000     
   2.4619080722904873E-002   2.2792843500288047E-002   0.0000000000000000     
   2.7517862201793624E-002   2.6634772995618838E-002   0.0000000000000000     
   3.0339881708347283E-002   3.0698746044656527E-002   0.0000000000000000     
   3.3085139242565842E-002   3.4984762647401114E-002   0.0000000000000000     
   3.5753634804449305E-002   3.9492822803852606E-002   0.0000000000000000     
   5.2295792162690827E-002   4.3163601622910691E-002   0.0000000000000000     
   5.5798684186756320E-002   4.7761721357253407E-002   0.0000000000000000     
   5.9191801261150513E-002   5.2582062942921823E-002   0.0000000000000000     
   6.2475143385873413E-002   5.7624626379915951E-002   0.0000000000000000     
   6.5648710560925014E-002   6.2889411668235778E-002   0.0000000000000000     
   4.7870991490674628E-002   4.2114666569086176E-002   0.0000000000000000     
   5.1162018433670839E-002   4.6753859010338801E-002   0.0000000000000000     
   5.4346968984944552E-002   5.1605293014018887E-002   0.0000000000000000     
   5.7425843144495760E-002   5.6668968580126426E-002   0.0000000000000000     
   6.0398640912324469E-002   6.1944885708661399E-002   0.0000000000000000     
   4.3639031706962310E-002   4.1153225081301655E-002   0.0000000000000000     
   4.6705984584634333E-002   4.5825976924198056E-002   0.0000000000000000     
   4.9670410821026384E-002   5.0703356190361724E-002   0.0000000000000000     
   5.2532310416138456E-002   5.5785362879792667E-002   0.0000000000000000     
   5.5291683369970521E-002   6.1071996992490871E-002   0.0000000000000000     
   3.9599912811553860E-002   4.0279277159557141E-002   0.0000000000000000     
   4.2430582639646837E-002   4.4978075098831144E-002   0.0000000000000000     
   4.5162126769396030E-002   4.9876252471950336E-002   0.0000000000000000     
   4.7794545200801480E-002   5.4973809278914661E-002   0.0000000000000000     
   5.0327837933863154E-002   6.0270745519724174E-002   0.0000000000000000     
   3.5753634804449305E-002   3.9492822803852606E-002   0.0000000000000000     
   3.8335812598708309E-002   4.4210153534238100E-002   0.0000000000000000     
   4.0822116830053490E-002   4.9123981858784714E-002   0.0000000000000000     
   4.3212547498484848E-002   5.4234307777492448E-002   0.0000000000000000     
   4.5507104604002376E-002   5.9541131290361315E-002   0.0000000000000000     
   6.5648710560925014E-002   6.2889411668235778E-002   0.0000000000000000     
   6.8764341419071770E-002   6.8364461307206137E-002   0.0000000000000000     
   7.1873874593080173E-002   7.4037817796151872E-002   0.0000000000000000     
   7.4977310082950208E-002   7.9909481135072999E-002   0.0000000000000000     
   7.8074647888681875E-002   8.5979451323969502E-002   0.0000000000000000     
   6.0398640912324469E-002   6.1944885708661399E-002   0.0000000000000000     
   6.3317924097355940E-002   6.7425383291820601E-002   0.0000000000000000     
   6.6236254508515433E-002   7.3102800221800782E-002   0.0000000000000000     
   6.9153632145802932E-002   7.8977136498601955E-002   0.0000000000000000     
   7.2070057009218452E-002   8.5048392122224092E-002   0.0000000000000000     
   5.5291683369970521E-002   6.1071996992490871E-002   0.0000000000000000     
   5.7999349084117871E-002   6.6559882901305281E-002   0.0000000000000000     
   6.0706126960175751E-002   7.2245644979084783E-002   0.0000000000000000     
   6.3412016998144180E-002   7.8129283225829405E-002   0.0000000000000000     
   6.6117019198023125E-002   8.4210797641539159E-002   0.0000000000000000     
   5.0327837933863154E-002   6.0270745519724174E-002   0.0000000000000000     
   5.2808616379357548E-002   6.5767960135660150E-002   0.0000000000000000     
   5.5283491948061161E-002   7.1466352068003891E-002   0.0000000000000000     
   5.7752464639973938E-002   7.7365921316755404E-002   0.0000000000000000     
   6.0215534455095934E-002   8.3466667881914702E-002   0.0000000000000000     
   4.5507104604002376E-002   5.9541131290361315E-002   0.0000000000000000     
   4.7745725983074985E-002   6.5049614994885221E-002   0.0000000000000000     
   4.9968349472171603E-002   7.0764921488558091E-002   0.0000000000000000     
   5.2174975071292234E-002   7.6687050771379897E-002   0.0000000000000000     
   5.4365602780436853E-002   8.2816002843350722E-002   0.0000000000000000     
   7.8074647888681875E-002   8.5979451323969502E-002   0.0000000000000000     
   8.1092788773730731E-002   9.2210947412238994E-002   0.0000000000000000     
   8.3958633501552374E-002   9.8567188449279128E-002   0.0000000000000000     
   8.6672182072146761E-002  0.10504817443508986        0.0000000000000000     
   8.9233434485513921E-002  0.11165390536967124        0.0000000000000000     
   7.2070057009218452E-002   8.5048392122224092E-002   0.0000000000000000     
   7.4917469380168467E-002   9.1292726771519422E-002   0.0000000000000000     
   7.7627809540059475E-002   9.7686300125340159E-002   0.0000000000000000     
   8.0201077488891506E-002  0.10422911218368630        0.0000000000000000     
   8.2637273226664532E-002  0.11092116294655782        0.0000000000000000     
   6.6117019198023125E-002   8.4210797641539159E-002   0.0000000000000000     
   6.8759234021147142E-002   9.0473451440751002E-002   0.0000000000000000     
   7.1276761928850699E-002   9.6900507838001956E-002   0.0000000000000000     
   7.3669602921133809E-002  0.10349196683329201        0.0000000000000000     
   7.5937756997996500E-002  0.11024782842662117        0.0000000000000000     
   6.0215534455095934E-002   8.3466667881914702E-002   0.0000000000000000     
   6.2618082696666744E-002   8.9753121419933732E-002   0.0000000000000000     
   6.4905490667925989E-002   9.6209811587264535E-002   0.0000000000000000     
   6.7077758368873669E-002  0.10283673838390703        0.0000000000000000     
   6.9134885799509785E-002  0.10963390180986127        0.0000000000000000     
   5.4365602780436853E-002   8.2816002843350722E-002   0.0000000000000000     
   5.6494015406727285E-002   8.9131736709067627E-002   0.0000000000000000     
   5.8513995757285366E-002   9.5614211373127825E-002   0.0000000000000000     
   6.0425543832111073E-002  0.10226342683553134        0.0000000000000000     
   6.2228659631204414E-002  0.10907938309627813        0.0000000000000000     
   8.9233434485513921E-002  0.11165390536967124        0.0000000000000000     
   9.1607495163264274E-002  0.11839103354581106        0.0000000000000000     
   9.3759468527008213E-002  0.12526621125629714        0.0000000000000000     
   9.5689354576745753E-002  0.13227943850112953        0.0000000000000000     
   9.7397153312476892E-002  0.13943071528030820        0.0000000000000000     
   8.2637273226664532E-002  0.11092116294655782        0.0000000000000000     
   8.4881615380413847E-002  0.11774140940045121        0.0000000000000000     
   8.6879322577174706E-002  0.12466880853186287        0.0000000000000000     
   8.8630394816947150E-002  0.13170336034079286        0.0000000000000000     
   9.0134832099731124E-002  0.13884506482724113        0.0000000000000000     
   7.5937756997996500E-002  0.11024782842662117        0.0000000000000000     
   7.8019384008206891E-002  0.11712788046711958        0.0000000000000000     
   7.9852643800533155E-002  0.12409191080391740        0.0000000000000000     
   8.1437536374975292E-002  0.13113991943701458        0.0000000000000000     
   8.2774061731533302E-002  0.13827190636641118        0.0000000000000000     
   6.9134885799509785E-002  0.10963390180986127        0.0000000000000000     
   7.1020801046643392E-002  0.11655044674581619        0.0000000000000000     
   7.2679432197083546E-002  0.12353551807246067        0.0000000000000000     
   7.4110779250830219E-002  0.13058911578979476        0.0000000000000000     
   7.5314842207883440E-002  0.13771123989781844        0.0000000000000000     
   6.2228659631204414E-002  0.10907938309627813        0.0000000000000000     
   6.3885866495723365E-002  0.11600910823654104        0.0000000000000000     
   6.5359687766825866E-002  0.12299963033749277        0.0000000000000000     
   6.6650123444511905E-002  0.13005094939913336        0.0000000000000000     
   6.7757173528781522E-002  0.13716306542146284        0.0000000000000000     
   9.7397153312476892E-002  0.13943071528030820        0.0000000000000000     
   9.9145842988923663E-002  0.14681127610130273        0.0000000000000000     
  0.10119840186080811       0.15451235547158268        0.0000000000000000     
  0.10355482992813023       0.16253395339114809        0.0000000000000000     
  0.10621512719089002       0.17087606985999890        0.0000000000000000     
   9.0134832099731124E-002  0.13884506482724113        0.0000000000000000     
   9.1746824572475572E-002  0.14620100470984052        0.0000000000000000     
   9.3820562382129394E-002  0.15387826270722371        0.0000000000000000     
   9.6356045528692605E-002  0.16187683881939091        0.0000000000000000     
   9.9353274012165205E-002  0.17019673304634192        0.0000000000000000     
   8.2774061731533302E-002  0.13827190636641118        0.0000000000000000     
   8.4228785992353866E-002  0.14560224784825976        0.0000000000000000     
   8.6168275279583650E-002  0.15324532013871275        0.0000000000000000     
   8.8592529593222683E-002  0.16120112323777028        0.0000000000000000     
   9.1501548933270949E-002  0.16946965714543227        0.0000000000000000     
   7.5314842207883440E-002  0.13771123989781844        0.0000000000000000     
   7.6591727248558533E-002  0.14501500551656052        0.0000000000000000     
   7.8241540553170882E-002  0.15261352776604975        0.0000000000000000     
   8.0264282121720446E-002  0.16050680664628622        0.0000000000000000     
   8.2659951954207250E-002  0.16869484215726990        0.0000000000000000     
   6.7757173528781522E-002  0.13716306542146284        0.0000000000000000     
   6.8835648341089614E-002  0.14443927771474274        0.0000000000000000     
   7.0040358202891062E-002  0.15198288558923473        0.0000000000000000     
   7.1371303114185908E-002  0.15979388904493880        0.0000000000000000     
   7.2828483074974137E-002  0.16787228808185489        0.0000000000000000     
   0.0000000000000000        0.0000000000000000        0.0000000000000000     
   2.8805566122880079E-003   1.7417712580797191E-003   0.0000000000000000     
   5.8735298491194177E-003   3.8589579403790564E-003   0.0000000000000000     
   8.9789197104942296E-003   6.3515600468980115E-003   0.0000000000000000     
   1.2196726196412443E-002   9.2195775776365840E-003   0.0000000000000000     
   0.0000000000000000        0.0000000000000000        0.0000000000000000     
   2.6104320500719572E-003   1.5864530504438007E-003   0.0000000000000000     
   5.2894492951067974E-003   3.5521253523262148E-003   0.0000000000000000     
   8.0370517351045206E-003   5.8970169056472427E-003   0.0000000000000000     
   1.0853239370065128E-002   8.6211277104068854E-003   0.0000000000000000     
   0.0000000000000000        0.0000000000000000        0.0000000000000000     
   2.3398922414126968E-003   1.4571003779763009E-003   0.0000000000000000     
   4.7190748753440578E-003   3.2964599845453214E-003   0.0000000000000000     
   7.1375479017940823E-003   5.5180788197070610E-003   0.0000000000000000     
   9.5953113207627710E-003   8.1219568834615188E-003   0.0000000000000000     
   0.0000000000000000        0.0000000000000000        0.0000000000000000     
   2.0689371863102275E-003   1.3537132406772207E-003   0.0000000000000000     
   4.1624065898311991E-003   3.0919618370363763E-003   0.0000000000000000     
   6.2804082105629155E-003   5.2147457890774655E-003   0.0000000000000000     
   8.4229420485053743E-003   7.7220650968004888E-003   0.0000000000000000     
   0.0000000000000000        0.0000000000000000        0.0000000000000000     
   1.7975668847645483E-003   1.2762916385465600E-003   0.0000000000000000     
   3.6194444385682211E-003   2.9386309097993784E-003   0.0000000000000000     
   5.4656326614110178E-003   4.9870178137584563E-003   0.0000000000000000     
   7.3361315532929402E-003   7.4214523504237927E-003   0.0000000000000000     
   1.2196726196412443E-002   9.2195775776365840E-003   0.0000000000000000     
   1.5428634452960655E-002   1.2359700629938589E-002   0.0000000000000000     
   1.8576329626225466E-002   1.5668619301147831E-002   0.0000000000000000     
   2.1639811716206870E-002   1.9146333591264320E-002   0.0000000000000000     
   2.4619080722904873E-002   2.2792843500288047E-002   0.0000000000000000     
   1.0853239370065128E-002   8.6211277104068854E-003   0.0000000000000000     
   1.3684199139931590E-002   1.1641392461074840E-002   0.0000000000000000     
   1.6476117984646883E-002   1.4874745852120806E-002   0.0000000000000000     
   1.9228995904211014E-002   1.8321187883544785E-002   0.0000000000000000     
   2.1942832898623966E-002   2.1980718555346779E-002   0.0000000000000000     
   9.5953113207627710E-003   8.1219568834615188E-003   0.0000000000000000     
   1.2068371730888214E-002   1.1040196174722751E-002   0.0000000000000000     
   1.4532735730808504E-002   1.4204898692404801E-002   0.0000000000000000     
   1.6988403320523645E-002   1.7616064436507671E-002   0.0000000000000000     
   1.9435374500033631E-002   2.1273693407031363E-002   0.0000000000000000     
   8.4229420485053743E-003   7.7220650968004888E-003   0.0000000000000000     
   1.0581152225830530E-002   1.0556111770882315E-002   0.0000000000000000     
   1.2746182864710331E-002   1.3659077821999809E-002   0.0000000000000000     
   1.4918033965144770E-002   1.7030963250152964E-002   0.0000000000000000     
   1.7096705527133861E-002   2.0671768055341794E-002   0.0000000000000000     
   7.3361315532929402E-003   7.4214523504237927E-003   0.0000000000000000     
   9.2225406247585344E-003   1.0189139249553534E-002   0.0000000000000000     
   1.1116459386352353E-002   1.3237283240905831E-002   0.0000000000000000     
   1.3017887838074393E-002   1.6565884324480681E-002   0.0000000000000000     
   1.4926825979924657E-002   2.0174942500278077E-002   0.0000000000000000     
   2.4619080722904873E-002   2.2792843500288047E-002   0.0000000000000000     
   2.7517862201793624E-002   2.6634772995618838E-002   0.0000000000000000     
   3.0339881708347283E-002   3.0698746044656527E-002   0.0000000000000000     
   3.3085139242565842E-002   3.4984762647401114E-002   0.0000000000000000     
   3.5753634804449305E-002   3.9492822803852606E-002   0.0000000000000000     
   2.1942832898623966E-002   2.1980718555346779E-002   0.0000000000000000     
   2.4598191276008940E-002   2.5855323197543835E-002   0.0000000000000000     
   2.7175633344489105E-002   2.9946987140153015E-002   0.0000000000000000     
   2.9675159104064475E-002   3.4255710383174320E-002   0.0000000000000000     
   3.2096768554735033E-002   3.8781492926607750E-002   0.0000000000000000     
   1.9435374500033631E-002   2.1273693407031363E-002   0.0000000000000000     
   2.1841748632805677E-002   2.5163040409407617E-002   0.0000000000000000     
   2.4175625082306997E-002   2.9269360249068184E-002   0.0000000000000000     
   2.6437003848537591E-002   3.3592652926013065E-002   0.0000000000000000     
   2.8625884931497460E-002   3.8132918440242261E-002   0.0000000000000000     
   1.7096705527133861E-002   2.0671768055341794E-002   0.0000000000000000     
   1.9248534272183839E-002   2.4557924631210187E-002   0.0000000000000000     
   2.1339856921800949E-002   2.8665865371402036E-002   0.0000000000000000     
   2.3370673475985197E-002   3.2995590275917350E-002   0.0000000000000000     
   2.5340983934736581E-002   3.7547099344756127E-002   0.0000000000000000     
   1.4926825979924657E-002   2.0174942500278077E-002   0.0000000000000000     
   1.6818548194143419E-002   2.4039975862951545E-002   0.0000000000000000     
   1.8668328862970963E-002   2.8136502507154576E-002   0.0000000000000000     
   2.0476167986407289E-002   3.2464522432887180E-002   0.0000000000000000     
   2.2242065564452393E-002   3.7024035640149354E-002   0.0000000000000000     
   3.5753634804449305E-002   3.9492822803852606E-002   0.0000000000000000     
   3.8335812598708309E-002   4.4210153534238100E-002   0.0000000000000000     
   4.0822116830053490E-002   4.9123981858784714E-002   0.0000000000000000     
   4.3212547498484848E-002   5.4234307777492448E-002   0.0000000000000000     
   4.5507104604002376E-002   5.9541131290361315E-002   0.0000000000000000     
   3.2096768554735033E-002   3.8781492926607750E-002   0.0000000000000000     
   3.4433886441292888E-002   4.3513133362692170E-002   0.0000000000000000     
   3.6679937508530117E-002   4.8439430283666457E-002   0.0000000000000000     
   3.8834921756446740E-002   5.3560383689530595E-002   0.0000000000000000     
   4.0898839185042737E-002   5.8875993580284586E-002   0.0000000000000000     
   2.8625884931497460E-002   3.8132918440242261E-002   0.0000000000000000     
   3.0737016146874671E-002   4.2877935716466649E-002   0.0000000000000000     
   3.2765145310357312E-002   4.7815483679397128E-002   0.0000000000000000     
   3.4710272421945361E-002   5.2945562329033684E-002   0.0000000000000000     
   3.6572397481638826E-002   5.8268171665376324E-002   0.0000000000000000     
   2.5340983934736581E-002   3.7547099344756127E-002   0.0000000000000000     
   2.7245201715453672E-002   4.2304560595561529E-002   0.0000000000000000     
   2.9077740235535048E-002   4.7252142045976726E-002   0.0000000000000000     
   3.0838599494980700E-002   5.2389843696001706E-002   0.0000000000000000     
   3.2527779493790633E-002   5.7717665545636496E-002   0.0000000000000000     
   2.2242065564452393E-002   3.7024035640149354E-002   0.0000000000000000     
   2.3958443147029877E-002   4.1793007999976810E-002   0.0000000000000000     
   2.5617722284063334E-002   4.6749405383405246E-002   0.0000000000000000     
   2.7219902975552764E-002   5.1893227790434690E-002   0.0000000000000000     
   2.8764985221498160E-002   5.7224475221065121E-002   0.0000000000000000     
   4.5507104604002376E-002   5.9541131290361315E-002   0.0000000000000000     
   4.7745725983074985E-002   6.5049614994885221E-002   0.0000000000000000     
   4.9968349472171603E-002   7.0764921488558091E-002   0.0000000000000000     
   5.2174975071292234E-002   7.6687050771379897E-002   0.0000000000000000     
   5.4365602780436853E-002   8.2816002843350722E-002   0.0000000000000000     
   4.0898839185042737E-002   5.8875993580284586E-002   0.0000000000000000     
   4.2904878334296563E-002   6.4395817535764663E-002   0.0000000000000000     
   4.4886227744186637E-002   7.0129413135806964E-002   0.0000000000000000     
   4.6842887414712972E-002   7.6076780380411518E-002   0.0000000000000000     
   4.8774857345875555E-002   8.2237919269578352E-002   0.0000000000000000     
   3.6572397481638826E-002   5.8268171665376324E-002   0.0000000000000000     
   3.8380273872048641E-002   6.3797537815082614E-002   0.0000000000000000     
   4.0162654975785736E-002   6.9547886904810119E-002   0.0000000000000000     
   4.1919540792850103E-002   7.5519218934558846E-002   0.0000000000000000     
   4.3650931323241764E-002   8.1711533904328768E-002   0.0000000000000000     
   3.2527779493790633E-002   5.7717665545636496E-002   0.0000000000000000     
   3.4171912596331247E-002   6.3254775832839089E-002   0.0000000000000000     
   3.5797631166968907E-002   6.9020342795567541E-002   0.0000000000000000     
   3.7404935205703656E-002   7.5014366433821839E-002   0.0000000000000000     
   3.8993824712535458E-002   8.1236846747601968E-002   0.0000000000000000     
   2.8764985221498160E-002   5.7224475221065121E-002   0.0000000000000000     
   3.0279794507144353E-002   6.2767531589034115E-002   0.0000000000000000     
   3.1791156317736165E-002   6.8546780808079258E-002   0.0000000000000000     
   3.3299070653273595E-002   7.4562222878200538E-002   0.0000000000000000     
   3.4803537513756637E-002   8.0813857799397967E-002   0.0000000000000000     
   5.4365602780436853E-002   8.2816002843350722E-002   0.0000000000000000     
   5.6494015406727285E-002   8.9131736709067627E-002   0.0000000000000000     
   5.8513995757285366E-002   9.5614211373127825E-002   0.0000000000000000     
   6.0425543832111073E-002  0.10226342683553134        0.0000000000000000     
   6.2228659631204414E-002  0.10907938309627813        0.0000000000000000     
   4.8774857345875555E-002   8.2237919269578352E-002   0.0000000000000000     
   5.0643066799770708E-002   8.8585857453959069E-002   0.0000000000000000     
   5.2408445038494705E-002   9.5093622584205340E-002   0.0000000000000000     
   5.4070992062047567E-002  0.10176121466031715        0.0000000000000000     
   5.5630707870429279E-002  0.10858863368229450        0.0000000000000000     
   4.3650931323241764E-002   8.1711533904328768E-002   0.0000000000000000     
   4.5321271524238954E-002   8.8092043800414452E-002   0.0000000000000000     
   4.6895006353119925E-002   9.4627960609110412E-002   0.0000000000000000     
   4.8372135809884705E-002  0.10131928433041662        0.0000000000000000     
   4.9752659894533278E-002  0.10816601496433312        0.0000000000000000     
   3.8993824712535458E-002   8.1236846747601968E-002   0.0000000000000000     
   4.0528629580132015E-002   8.7650295748433776E-002   0.0000000000000000     
   4.1973679701161032E-002   9.4217225447843042E-002   0.0000000000000000     
   4.3328975075622493E-002  0.10093763584582978        0.0000000000000000     
   4.4594515703516406E-002  0.10781152694239400        0.0000000000000000     
   3.4803537513756637E-002   8.0813857799397967E-002   0.0000000000000000     
   3.6265140967449899E-002   8.7260613298017056E-002   0.0000000000000000     
   3.7644465082617991E-002   9.3861417100403272E-002   0.0000000000000000     
   3.8941509859260919E-002  0.10061626920655663        0.0000000000000000     
   4.0156275297378662E-002  0.10752516961647712        0.0000000000000000     
   6.2228659631204414E-002  0.10907938309627813        0.0000000000000000     
   6.3885866495723365E-002  0.11600910823654104        0.0000000000000000     
   6.5359687766825866E-002  0.12299963033749277        0.0000000000000000     
   6.6650123444511905E-002  0.13005094939913336        0.0000000000000000     
   6.7757173528781522E-002  0.13716306542146284        0.0000000000000000     
   5.5630707870429279E-002  0.10858863368229450        0.0000000000000000     
   5.7070001700337332E-002  0.11552333869355563        0.0000000000000000     
   5.8371282788469210E-002  0.12251278873751874        0.0000000000000000     
   5.9534551134824913E-002  0.12955698381418382        0.0000000000000000     
   6.0559806739404434E-002  0.13665592392355089        0.0000000000000000     
   4.9752659894533278E-002  0.10816601496433312        0.0000000000000000     
   5.1028628005375852E-002  0.11511261187112161        0.0000000000000000     
   5.2192089540722679E-002  0.12210353441104375        0.0000000000000000     
   5.3243044500573732E-002  0.12913878258409955        0.0000000000000000     
   5.4181492884929031E-002  0.13621835639028904        0.0000000000000000     
   4.4594515703516406E-002  0.10781152694239400        0.0000000000000000     
   4.5761745410838946E-002  0.11477692776923892        0.0000000000000000     
   4.6822108023586252E-002  0.12177186735806779        0.0000000000000000     
   4.7775603541758381E-002  0.12879634570888060        0.0000000000000000     
   4.8622231965355284E-002  0.13585036282167737        0.0000000000000000     
   4.0156275297378662E-002  0.10752516961647712        0.0000000000000000     
   4.1269353916726571E-002  0.11451628638790760        0.0000000000000000     
   4.2261338237059964E-002  0.12151778757859089        0.0000000000000000     
   4.3132228258378848E-002  0.12852967318852695        0.0000000000000000     
   4.3882023980683221E-002  0.13555194321771580        0.0000000000000000     
   6.7757173528781522E-002  0.13716306542146284        0.0000000000000000     
   6.8835648341089614E-002  0.14443927771474274        0.0000000000000000     
   7.0040358202891062E-002  0.15198288558923473        0.0000000000000000     
   7.1371303114185908E-002  0.15979388904493880        0.0000000000000000     
   7.2828483074974137E-002  0.16787228808185489        0.0000000000000000     
   6.0559806739404434E-002  0.13665592392355089        0.0000000000000000     
   6.1459852410747196E-002  0.14391151385281609        0.0000000000000000     
   6.2247490957392564E-002  0.15142565838917571        0.0000000000000000     
   6.2922722379340573E-002  0.15919835753262970        0.0000000000000000     
   6.3485546676591190E-002  0.16722961128317804        0.0000000000000000     
   5.4181492884929031E-002  0.13621835639028904        0.0000000000000000     
   5.4963642598331391E-002  0.14346816334079013        0.0000000000000000     
   5.5545701545323678E-002  0.15101411094678069        0.0000000000000000     
   5.5927669725905890E-002  0.15885619920826072        0.0000000000000000     
   5.6109547140078014E-002  0.16699442812523024        0.0000000000000000     
   4.8622231965355284E-002  0.13585036282167737        0.0000000000000000     
   4.9347018903842223E-002  0.14310922617866481        0.0000000000000000     
   4.9934989966684412E-002  0.15074824326204964        0.0000000000000000     
   5.0386145153881887E-002  0.15876741407183187        0.0000000000000000     
   5.0700484465434612E-002  0.16716673860801154        0.0000000000000000     
   4.3882023980683221E-002  0.13555194321771580        0.0000000000000000     
   4.4609981327279682E-002  0.14283470236644014        0.0000000000000000     
   4.5415356221474787E-002  0.15062805533498261        0.0000000000000000     
   4.6298148663268562E-002  0.15893200212334316        0.0000000000000000     
   4.7258358652660988E-002  0.16774654273152187        0.0000000000000000     
   0.0000000000000000        0.0000000000000000        0.0000000000000000     
   1.7975668847645483E-003   1.2762916385465600E-003   0.0000000000000000     
   3.6194444385682211E-003   2.9386309097993784E-003   0.0000000000000000     
   5.4656326614110178E-003   4.9870178137584563E-003   0.0000000000000000     
   7.3361315532929402E-003   7.4214523504237927E-003   0.0000000000000000     
   0.0000000000000000        0.0000000000000000        0.0000000000000000     
   1.5341048009221091E-003   1.2176665019313238E-003   0.0000000000000000     
   3.0974451575421702E-003   2.8217955770714113E-003   0.0000000000000000     
   4.6900210698601827E-003   4.8123872254202628E-003   0.0000000000000000     
   6.3118325378761463E-003   7.1894414469778761E-003   0.0000000000000000     
   0.0000000000000000        0.0000000000000000        0.0000000000000000     
   1.2868743989293591E-003   1.1706687611785194E-003   0.0000000000000000     
   2.6036654827400916E-003   2.7267842130895567E-003   0.0000000000000000     
   3.9503732514321963E-003   4.6683463557331125E-003   0.0000000000000000     
   5.3269977050056736E-003   6.9953551891091849E-003   0.0000000000000000     
   0.0000000000000000        0.0000000000000000        0.0000000000000000     
   1.0558756787862986E-003   1.1352984162881455E-003   0.0000000000000000     
   2.1381054141619850E-003   2.6535968178538144E-003   0.0000000000000000     
   3.2466892061270600E-003   4.5548952046970057E-003   0.0000000000000000     
   4.3816270546815222E-003   6.8391935768177198E-003   0.0000000000000000     
   0.0000000000000000        0.0000000000000000        0.0000000000000000     
   8.4110864049292727E-004   1.1115554672602034E-003   0.0000000000000000     
   1.7007649518078517E-003   2.6022333913641844E-003   0.0000000000000000     
   2.5789689339447731E-003   4.4720337723119430E-003   0.0000000000000000     
   3.4757205869036922E-003   6.7209566101034792E-003   0.0000000000000000     
   7.3361315532929402E-003   7.4214523504237927E-003   0.0000000000000000     
   9.2225406247585344E-003   1.0189139249553534E-002   0.0000000000000000     
   1.1116459386352353E-002   1.3237283240905831E-002   0.0000000000000000     
   1.3017887838074393E-002   1.6565884324480681E-002   0.0000000000000000     
   1.4926825979924657E-002   2.0174942500278077E-002   0.0000000000000000     
   6.3118325378761463E-003   7.1894414469778761E-003   0.0000000000000000     
   7.9493184704490915E-003   9.9029186653226426E-003   0.0000000000000000     
   9.5889177764380516E-003   1.2902779304032953E-002   0.0000000000000000     
   1.1230630455843025E-002   1.6189023363108807E-002   0.0000000000000000     
   1.2874456508664010E-002   1.9761650842550202E-002   0.0000000000000000     
   5.3269977050056736E-003   6.9953551891091849E-003   0.0000000000000000     
   6.7182673056790619E-003   9.6610900727758676E-003   0.0000000000000000     
   8.1089105156708953E-003   1.2618830366291257E-002   0.0000000000000000     
   9.4989273349811755E-003   1.5868576069655350E-002   0.0000000000000000     
   1.0888317763609904E-002   1.9410327182868142E-002   0.0000000000000000     
   4.3816270546815222E-003   6.8391935768177198E-003   0.0000000000000000     
   5.5293871304484404E-003   9.4636534719132123E-003   0.0000000000000000     
   6.6764376040508852E-003   1.2385436427680741E-002   0.0000000000000000     
   7.8227784754888504E-003   1.5604542444120307E-002   0.0000000000000000     
   8.9684097447623439E-003   1.9120971521231905E-002   0.0000000000000000     
   3.4757205869036922E-003   6.7209566101034792E-003   0.0000000000000000     
   4.3826779447572323E-003   9.3106088627346751E-003   0.0000000000000000     
   5.2914990415780187E-003   1.2202597488201411E-002   0.0000000000000000     
   6.2021838773660505E-003   1.5396922486503683E-002   0.0000000000000000     
   7.1147324521213268E-003   1.8893583857641495E-002   0.0000000000000000     
   1.4926825979924657E-002   2.0174942500278077E-002   0.0000000000000000     
   1.6818548194143419E-002   2.4039975862951545E-002   0.0000000000000000     
   1.8668328862970963E-002   2.8136502507154576E-002   0.0000000000000000     
   2.0476167986407289E-002   3.2464522432887180E-002   0.0000000000000000     
   2.2242065564452393E-002   3.7024035640149354E-002   0.0000000000000000     
   1.2874456508664010E-002   1.9761650842550202E-002   0.0000000000000000     
   1.4507649408478788E-002   2.3598652964213273E-002   0.0000000000000000     
   1.6117462628865150E-002   2.7678020949954169E-002   0.0000000000000000     
   1.7703896169823093E-002   3.1999754799772878E-002   0.0000000000000000     
   1.9266950031352613E-002   3.6563854513669398E-002   0.0000000000000000     
   1.0888317763609904E-002   1.9410327182868142E-002   0.0000000000000000     
   1.2271696924984307E-002   2.3223414794576971E-002   0.0000000000000000     
   1.3643679942531616E-002   2.7287169993429190E-002   0.0000000000000000     
   1.5004266816251822E-002   3.1601592779424773E-002   0.0000000000000000     
   1.6353457546144937E-002   3.6166683152563731E-002   0.0000000000000000     
   8.9684097447623439E-003   1.9120971521231905E-002   0.0000000000000000     
   1.0110690743659974E-002   2.2914261354042648E-002   0.0000000000000000     
   1.1246980803970352E-002   2.6963949637579629E-002   0.0000000000000000     
   1.2377279925693483E-002   3.1270036371842863E-002   0.0000000000000000     
   1.3501588108829364E-002   3.5832521556832329E-002   0.0000000000000000     
   7.1147324521213268E-003   1.8893583857641495E-002   0.0000000000000000     
   8.0246308645057877E-003   2.2671192642610291E-002   0.0000000000000000     
   8.9273652131813697E-003   2.6708359882405507E-002   0.0000000000000000     
   9.8229354981480728E-003   3.1005085577027153E-002   0.0000000000000000     
   1.0711341719405897E-002   3.5561369726475223E-002   0.0000000000000000     
   2.2242065564452393E-002   3.7024035640149354E-002   0.0000000000000000     
   2.3958443147029877E-002   4.1793007999976810E-002   0.0000000000000000     
   2.5617722284063334E-002   4.6749405383405246E-002   0.0000000000000000     
   2.7219902975552764E-002   5.1893227790434690E-002   0.0000000000000000     
   2.8764985221498160E-002   5.7224475221065121E-002   0.0000000000000000     
   1.9266950031352613E-002   3.6563854513669398E-002   0.0000000000000000     
   2.0796885035572737E-002   4.1341768504456242E-002   0.0000000000000000     
   2.2283962004602472E-002   4.6304945184945885E-002   0.0000000000000000     
   2.3728180938441840E-002   5.1453384555138364E-002   0.0000000000000000     
   2.5129541837090819E-002   5.6787086615033629E-002   0.0000000000000000     
   1.6353457546144937E-002   3.6166683152563731E-002   0.0000000000000000     
   1.7680671975051673E-002   4.0949332683743567E-002   0.0000000000000000     
   1.8975329945812771E-002   4.5916432943861815E-002   0.0000000000000000     
   2.0237431458428216E-002   5.1067983932918455E-002   0.0000000000000000     
   2.1466976512898025E-002   5.6403985650913507E-002   0.0000000000000000     
   1.3501588108829364E-002   3.5832521556832329E-002   0.0000000000000000     
   1.4609803965466706E-002   4.0615700537838806E-002   0.0000000000000000     
   1.5691826107694224E-002   4.5583868660153015E-002   0.0000000000000000     
   1.6747654535511917E-002   5.0737025923774992E-002   0.0000000000000000     
   1.7777289248919779E-002   5.6075172328704716E-002   0.0000000000000000     
   1.0711341719405897E-002   3.5561369726475223E-002   0.0000000000000000     
   1.1584281006817822E-002   4.0340872066741931E-002   0.0000000000000000     
   1.2433450490246830E-002   4.5307252333819513E-002   0.0000000000000000     
   1.3258850169692913E-002   5.0460510527707961E-002   0.0000000000000000     
   1.4060480045156080E-002   5.5800646648407268E-002   0.0000000000000000     
   2.8764985221498160E-002   5.7224475221065121E-002   0.0000000000000000     
   3.0279794507144353E-002   6.2767531589034115E-002   0.0000000000000000     
   3.1791156317736165E-002   6.8546780808079258E-002   0.0000000000000000     
   3.3299070653273595E-002   7.4562222878200538E-002   0.0000000000000000     
   3.4803537513756637E-002   8.0813857799397967E-002   0.0000000000000000     
   2.5129541837090819E-002   5.6787086615033629E-002   0.0000000000000000     
   2.6515060137445680E-002   6.2334996933387128E-002   0.0000000000000000     
   2.7911751276402694E-002   6.8126061078954275E-002   0.0000000000000000     
   2.9319615253961855E-002   7.4160279051735029E-002   0.0000000000000000     
   3.0738652070123169E-002   8.0437650851729450E-002   0.0000000000000000     
   2.1466976512898025E-002   5.6403985650913507E-002   0.0000000000000000     
   2.2688850020192938E-002   6.1956363715617663E-002   0.0000000000000000     
   2.3927936891283721E-002   6.7757043744801640E-002   0.0000000000000000     
   2.5184237126170378E-002   7.3806025738465453E-002   0.0000000000000000     
   2.6457750724852902E-002   8.0103309696609115E-002   0.0000000000000000     
   1.7777289248919779E-002   5.6075172328704716E-002   0.0000000000000000     
   1.8801164155386123E-002   6.1631631935725677E-002   0.0000000000000000     
   1.9839713162379244E-002   6.7439728805621366E-002   0.0000000000000000     
   2.0892936269899156E-002   7.3499462938391796E-002   0.0000000000000000     
   2.1960833477945856E-002   7.9810834334036962E-002   0.0000000000000000     
   1.4060480045156080E-002   5.5800646648407268E-002   0.0000000000000000     
   1.4852002543025234E-002   6.1360801593711198E-002   0.0000000000000000     
   1.5647080089689271E-002   6.7174116261413466E-002   0.0000000000000000     
   1.6445712685148196E-002   7.3240590651514059E-002   0.0000000000000000     
   1.7247900329402009E-002   7.9560224764013004E-002   0.0000000000000000     
   3.4803537513756637E-002   8.0813857799397967E-002   0.0000000000000000     
   3.6265140967449899E-002   8.7260613298017056E-002   0.0000000000000000     
   3.7644465082617991E-002   9.3861417100403272E-002   0.0000000000000000     
   3.8941509859260919E-002  0.10061626920655663        0.0000000000000000     
   4.0156275297378662E-002  0.10752516961647712        0.0000000000000000     
   3.0738652070123169E-002   8.0437650851729450E-002   0.0000000000000000     
   3.2126450374040792E-002   8.6914319591836528E-002   0.0000000000000000     
   3.3440598814868876E-002   9.3546428384955305E-002   0.0000000000000000     
   3.4681097392607420E-002  0.10033397723108581        0.0000000000000000     
   3.5847946107256438E-002  0.10727696613022797        0.0000000000000000     
   2.6457750724852902E-002   8.0103309696609115E-002   0.0000000000000000     
   2.7708202487752825E-002   8.6602737772564470E-002   0.0000000000000000     
   2.8895317215291670E-002   9.3258152119663415E-002   0.0000000000000000     
   3.0019094907469433E-002  0.10006955273790592        0.0000000000000000     
   3.1079535564286109E-002  0.10703693962729202        0.0000000000000000     
   2.1960833477945856E-002   7.9810834334036962E-002   0.0000000000000000     
   2.3010397308586030E-002   8.6325867840200896E-002   0.0000000000000000     
   2.4008620283886395E-002   9.2996588304527575E-002   0.0000000000000000     
   2.4955502403846939E-002   9.9822995727017055E-002   0.0000000000000000     
   2.5851043668467671E-002  0.10680509010766923        0.0000000000000000     
   1.7247900329402009E-002   7.9560224764013004E-002   0.0000000000000000     
   1.8033034836540396E-002   8.6083709794745777E-002   0.0000000000000000     
   1.8780508020653043E-002   9.2761736939547798E-002   0.0000000000000000     
   1.9490319881739954E-002   9.9594306198419094E-002   0.0000000000000000     
   2.0162470419801126E-002  0.10658141757135968        0.0000000000000000     
   4.0156275297378662E-002  0.10752516961647712        0.0000000000000000     
   4.1269353916726571E-002  0.11451628638790760        0.0000000000000000     
   4.2261338237059964E-002  0.12151778757859089        0.0000000000000000     
   4.3132228258378848E-002  0.12852967318852695        0.0000000000000000     
   4.3882023980683221E-002  0.13555194321771580        0.0000000000000000     
   3.5847946107256438E-002  0.10727696613022797        0.0000000000000000     
   3.6909730614889030E-002  0.11429400560086377        0.0000000000000000     
   3.7835036571578280E-002  0.12130370616147509        0.0000000000000000     
   3.8623863977324202E-002  0.12830606781206194        0.0000000000000000     
   3.9276212832126803E-002  0.13530109055262429        0.0000000000000000     
   3.1079535564286109E-002  0.10703693962729202        0.0000000000000000     
   3.2041152597176575E-002  0.11407340328184358        0.0000000000000000     
   3.2868459417575713E-002  0.12109203419558255        0.0000000000000000     
   3.3561456025483515E-002  0.12809283236850896        0.0000000000000000     
   3.4120142420899974E-002  0.13507579780062270        0.0000000000000000     
   2.5851043668467671E-002  0.10680509010766923        0.0000000000000000     
   2.6663619863589231E-002  0.11385447943084707        0.0000000000000000     
   2.7361606775052262E-002  0.12088277168091330        0.0000000000000000     
   2.7945004402856764E-002  0.12788996685786796        0.0000000000000000     
   2.8413812747002744E-002  0.13487606496171106        0.0000000000000000     
   2.0162470419801126E-002  0.10658141757135968        0.0000000000000000     
   2.0777132414126976E-002  0.11363723404787419        0.0000000000000000     
   2.1314478644007925E-002  0.12067591861746731        0.0000000000000000     
   2.1774509109443969E-002  0.12769747128013903        0.0000000000000000     
   2.2157223810435108E-002  0.13470189203588934        0.0000000000000000     
   4.3882023980683221E-002  0.13555194321771580        0.0000000000000000     
   4.4609981327279682E-002  0.14283470236644014        0.0000000000000000     
   4.5415356221474787E-002  0.15062805533498261        0.0000000000000000     
   4.6298148663268562E-002  0.15893200212334316        0.0000000000000000     
   4.7258358652660988E-002  0.16774654273152187        0.0000000000000000     
   3.9276212832126803E-002  0.13530109055262429        0.0000000000000000     
   4.0008417149315467E-002  0.14261201235546780        0.0000000000000000     
   4.1036810942219594E-002  0.15056207119289816        0.0000000000000000     
   4.2361394210839183E-002  0.15915126706491528        0.0000000000000000     
   4.3982166955174248E-002  0.16837959997151927        0.0000000000000000     
   3.4120142420899974E-002  0.13507579780062270        0.0000000000000000     
   3.4798213650621294E-002  0.14240857659709946        0.0000000000000000     
   3.5849364761443653E-002  0.15045881486311491        0.0000000000000000     
   3.7273595753367056E-002  0.15922651259866896        0.0000000000000000     
   3.9070906626391497E-002  0.16871166980376168        0.0000000000000000     
   2.8413812747002744E-002  0.13487606496171106        0.0000000000000000     
   2.8979370831197154E-002  0.14222439509133517        0.0000000000000000     
   2.9853017679146963E-002  0.15031828634563288        0.0000000000000000     
   3.1034753290852157E-002  0.15915773872460420        0.0000000000000000     
   3.2524577666312754E-002  0.16874275222824914        0.0000000000000000     
   2.2157223810435108E-002  0.13470189203588934        0.0000000000000000     
   2.2551888691043055E-002  0.14205946783817483        0.0000000000000000     
   2.3047769695329522E-002  0.15014048564045204        0.0000000000000000     
   2.3644866823294503E-002  0.15894494544272098        0.0000000000000000     
   2.4343180074937999E-002  0.16847284724498163        0.0000000000000000     
   0.0000000000000000        0.0000000000000000        0.0000000000000000     
   8.4110864049292727E-004   1.1115554672602034E-003   0.0000000000000000     
   1.7007649518078517E-003   2.6022333913641844E-003   0.0000000000000000     
   2.5789689339447731E-003   4.4720337723119430E-003   0.0000000000000000     
   3.4757205869036922E-003   6.7209566101034792E-003   0.0000000000000000     
   0.0000000000000000        0.0000000000000000        0.0000000000000000     
   6.3355095243347722E-004   1.0958673725520753E-003   0.0000000000000000     
   1.2770441478833015E-003   2.5668383795149886E-003   0.0000000000000000     
   1.9304795863494730E-003   4.4129130208887396E-003   0.0000000000000000     
   2.5938572678319925E-003   6.6340912966733291E-003   0.0000000000000000     
   0.0000000000000000        0.0000000000000000        0.0000000000000000     
   4.2418028299217984E-004   1.0846615906211444E-003   0.0000000000000000     
   8.5234305459394523E-004   2.5415562282005474E-003   0.0000000000000000     
   1.2844883148052965E-003   4.3706839127382099E-003   0.0000000000000000     
   1.7206160636262333E-003   6.5720446442341313E-003   0.0000000000000000     
   0.0000000000000000        0.0000000000000000        0.0000000000000000     
   2.1299663216903551E-004   1.0779381214674109E-003   0.0000000000000000     
   4.2666167193978317E-004   2.5263869374208621E-003   0.0000000000000000     
   6.4099511931224292E-004   4.3453464478603520E-003   0.0000000000000000     
   8.5599697428641460E-004   6.5348166527858832E-003   0.0000000000000000     
   0.0000000000000000        0.0000000000000000        0.0000000000000000     
  -3.5955857432060090E-014   1.0756969650908745E-003   0.0000000000000000     
  -7.9184922507913313E-014   2.5213305071759310E-003   0.0000000000000000     
  -1.2968754759326573E-013   4.3369006262551687E-003   0.0000000000000000     
  -1.8746340742746559E-013   6.5224073223285883E-003   0.0000000000000000     
   3.4757205869036922E-003   6.7209566101034792E-003   0.0000000000000000     
   4.3826779447572323E-003   9.3106088627346751E-003   0.0000000000000000     
   5.2914990415780187E-003   1.2202597488201411E-002   0.0000000000000000     
   6.2021838773660505E-003   1.5396922486503683E-002   0.0000000000000000     
   7.1147324521213268E-003   1.8893583857641495E-002   0.0000000000000000     
   2.5938572678319925E-003   6.6340912966733291E-003   0.0000000000000000     
   3.2645428050030205E-003   9.1961163260708342E-003   0.0000000000000000     
   3.9399018105347201E-003   1.2064731228283332E-002   0.0000000000000000     
   4.6199342844270904E-003   1.5239936003310821E-002   0.0000000000000000     
   5.3046402266801306E-003   1.8721730651153307E-002   0.0000000000000000     
   1.7206160636262333E-003   6.5720446442341313E-003   0.0000000000000000     
   2.1613847675833928E-003   9.1143359427522698E-003   0.0000000000000000     
   2.6074528932034120E-003   1.1966255328356584E-002   0.0000000000000000     
   3.0588204404862905E-003   1.5127802801047075E-002   0.0000000000000000     
   3.5154874094320294E-003   1.8598978360823741E-002   0.0000000000000000     
   8.5599697428641460E-004   6.5348166527858832E-003   0.0000000000000000     
   1.0732038324983487E-003   9.0652677127789783E-003   0.0000000000000000     
   1.2941522895840952E-003   1.1907169788421164E-002   0.0000000000000000     
   1.5188423455436532E-003   1.5060522879712438E-002   0.0000000000000000     
   1.7472740003770242E-003   1.8525326986652799E-002   0.0000000000000000     
  -1.8746340742746559E-013   6.5224073223285883E-003   0.0000000000000000     
  -2.5211159115218207E-013   9.0489116361509650E-003   0.0000000000000000     
  -3.2323128955303801E-013   1.1887474608477073E-002   0.0000000000000000     
  -4.0082239929201385E-013   1.5038096239306910E-002   0.0000000000000000     
  -4.8488524393569543E-013   1.8500776528640482E-002   0.0000000000000000     
   7.1147324521213268E-003   1.8893583857641495E-002   0.0000000000000000     
   8.0246308645057877E-003   2.2671192642610291E-002   0.0000000000000000     
   8.9273652131813697E-003   2.6708359882405507E-002   0.0000000000000000     
   9.8229354981480728E-003   3.1005085577027153E-002   0.0000000000000000     
   1.0711341719405897E-002   3.5561369726475223E-002   0.0000000000000000     
   5.3046402266801306E-003   1.8721730651153307E-002   0.0000000000000000     
   5.9866513893859028E-003   2.2487419589098615E-002   0.0000000000000000     
   6.6585995246364700E-003   2.6514307234434577E-002   0.0000000000000000     
   7.3204846324318304E-003   3.0802393587161195E-002   0.0000000000000000     
   7.9723067127719857E-003   3.5351678647278471E-002   0.0000000000000000     
   3.5154874094320294E-003   1.8598978360823741E-002   0.0000000000000000     
   3.9698864201644707E-003   2.2356153122326333E-002   0.0000000000000000     
   4.4144500928074600E-003   2.6375698200194597E-002   0.0000000000000000     
   4.8491784273609947E-003   3.0657613594428548E-002   0.0000000000000000     
   5.2740714238250766E-003   3.5201899305028171E-002   0.0000000000000000     
   1.7472740003770242E-003   1.8525326986652799E-002   0.0000000000000000     
   1.9743359568414908E-003   2.2277393242293449E-002   0.0000000000000000     
   2.1949169176943379E-003   2.6292532779685584E-002   0.0000000000000000     
   2.4090168829355640E-003   3.0570745598829212E-002   0.0000000000000000     
   2.6166358525651708E-003   3.5112031699724329E-002   0.0000000000000000     
  -4.8488524393569543E-013   1.8500776528640482E-002   0.0000000000000000     
  -5.8303687398841841E-013   2.2251139948999962E-002   0.0000000000000000     
  -7.0289550547185387E-013   2.6264810972907528E-002   0.0000000000000000     
  -8.4446042687832609E-013   3.0541789600363183E-002   0.0000000000000000     
  -1.0077325258983638E-012   3.5082075831366917E-002   0.0000000000000000     
   1.0711341719405897E-002   3.5561369726475223E-002   0.0000000000000000     
   1.1584281006817822E-002   4.0340872066741931E-002   0.0000000000000000     
   1.2433450490246830E-002   4.5307252333819513E-002   0.0000000000000000     
   1.3258850169692913E-002   5.0460510527707961E-002   0.0000000000000000     
   1.4060480045156080E-002   5.5800646648407268E-002   0.0000000000000000     
   7.9723067127719857E-003   3.5351678647278471E-002   0.0000000000000000     
   8.6081256189316554E-003   4.0126123762276630E-002   0.0000000000000000     
   9.2220012041855596E-003   4.5089690279645891E-002   0.0000000000000000     
   9.8139334685336983E-003   5.0242378199386262E-002   0.0000000000000000     
   1.0383922411976073E-002   5.5584187521497741E-002   0.0000000000000000     
   5.2740714238250766E-003   3.5201899305028171E-002   0.0000000000000000     
   5.6853603216348312E-003   3.9972732116266549E-002   0.0000000000000000     
   6.0792763602253858E-003   4.4934288812416755E-002   0.0000000000000000     
   6.4558195395967403E-003   5.0086569393478782E-002   0.0000000000000000     
   6.8149898597488941E-003   5.5429573859452651E-002   0.0000000000000000     
   2.6166358525651708E-003   3.5112031699724329E-002   0.0000000000000000     
   2.8159851149273545E-003   3.9880697128711680E-002   0.0000000000000000     
   3.0052759583663107E-003   4.4841047932132103E-002   0.0000000000000000     
   3.1845083828820411E-003   4.9993084109985535E-002   0.0000000000000000     
   3.3536823884745453E-003   5.5336805662272011E-002   0.0000000000000000     
  -1.0077325258983638E-012   3.5082075831366917E-002   0.0000000000000000     
  -1.1907783786790915E-012   3.9850018799612058E-002   0.0000000000000000     
  -1.3916677597640426E-012   4.4809967638791928E-002   0.0000000000000000     
  -1.6103994629783000E-012   4.9961922348906514E-002   0.0000000000000000     
  -1.8469743963411833E-012   5.5305882929955814E-002   0.0000000000000000     
   1.4060480045156080E-002   5.5800646648407268E-002   0.0000000000000000     
   1.4852002543025234E-002   6.1360801593711198E-002   0.0000000000000000     
   1.5647080089689271E-002   6.7174116261413466E-002   0.0000000000000000     
   1.6445712685148196E-002   7.3240590651514059E-002   0.0000000000000000     
   1.7247900329402009E-002   7.9560224764013004E-002   0.0000000000000000     
   1.0383922411976073E-002   5.5584187521497741E-002   0.0000000000000000     
   1.0938827769352302E-002   6.1147406923532696E-002   0.0000000000000000     
   1.1485509275502008E-002   6.6964325083043563E-002   0.0000000000000000     
   1.2023966930425187E-002   7.3034942000030328E-002   0.0000000000000000     
   1.2554200734121845E-002   7.9359257674492964E-002   0.0000000000000000     
   6.8149898597488941E-003   5.5429573859452651E-002   0.0000000000000000     
   7.1591024206093664E-003   6.0994982159148725E-002   0.0000000000000000     
   7.4904723221056830E-003   6.6814474241377389E-002   0.0000000000000000     
   7.8090995642378404E-003   7.2888050106138677E-002   0.0000000000000000     
   8.1149841470058368E-003   7.9215709753432534E-002   0.0000000000000000     
   3.3536823884745453E-003   5.5336805662272011E-002   0.0000000000000000     
   3.5128264967964284E-003   6.0903527300559229E-002   0.0000000000000000     
   3.6619692295002965E-003   6.6724563736414930E-002   0.0000000000000000     
   3.8011105865861498E-003   7.2799914969839091E-002   0.0000000000000000     
   3.9302505680539890E-003   7.9129581000831714E-002   0.0000000000000000     
  -1.8469743963411833E-012   5.5305882929955814E-002   0.0000000000000000     
  -2.0865170485481754E-012   6.0873042347764236E-002   0.0000000000000000     
  -2.3141522877655196E-012   6.6694593568156157E-002   0.0000000000000000     
  -2.5298812388529698E-012   7.2770536591131599E-002   0.0000000000000000     
  -2.7337032377366954E-012   7.9100871416690532E-002   0.0000000000000000     
   1.7247900329402009E-002   7.9560224764013004E-002   0.0000000000000000     
   1.8033034836540396E-002   8.6083709794745777E-002   0.0000000000000000     
   1.8780508020653043E-002   9.2761736939547798E-002   0.0000000000000000     
   1.9490319881739954E-002   9.9594306198419094E-002   0.0000000000000000     
   2.0162470419801126E-002  0.10658141757135968        0.0000000000000000     
   1.2554200734121845E-002   7.9359257674492964E-002   0.0000000000000000     
   1.3068114320207741E-002   8.5887007955506189E-002   0.0000000000000000     
   1.3557611322298652E-002   9.2567928692144696E-002   0.0000000000000000     
   1.4022691740394567E-002   9.9402019884408457E-002   0.0000000000000000     
   1.4463355574495495E-002  0.10638928153229750        0.0000000000000000     
   8.1149841470058368E-003   7.9215709753432534E-002   0.0000000000000000     
   8.4076350081798996E-003   8.5746506641789177E-002   0.0000000000000000     
   8.6865610855302467E-003   9.2429494229738798E-002   0.0000000000000000     
   8.9517623790568799E-003   9.9264672517281383E-002   0.0000000000000000     
   9.2032388887597957E-003  0.10625204150441693        0.0000000000000000     
   3.9302505680539890E-003   7.9129581000831714E-002   0.0000000000000000     
   4.0515969004568646E-003   8.5662205853594769E-002   0.0000000000000000     
   4.1673573103478308E-003   9.2346433552330159E-002   0.0000000000000000     
   4.2775317977268856E-003   9.9182264097037898E-002   0.0000000000000000     
   4.3821203625940310E-003  0.10616969748771797        0.0000000000000000     
  -2.7337032377366954E-012   7.9100871416690532E-002   0.0000000000000000     
  -2.9613607573086842E-012   8.5634105590922938E-002   0.0000000000000000     
  -3.2485968667721188E-012   9.2318746659918724E-002   0.0000000000000000     
  -3.5954096010105616E-012   9.9154794623677961E-002   0.0000000000000000     
  -4.0018014943465907E-012  0.10614224948220061        0.0000000000000000     
   2.0162470419801126E-002  0.10658141757135968        0.0000000000000000     
   2.0777132414126976E-002  0.11363723404787419        0.0000000000000000     
   2.1314478644007925E-002  0.12067591861746731        0.0000000000000000     
   2.1774509109443969E-002  0.12769747128013903        0.0000000000000000     
   2.2157223810435108E-002  0.13470189203588934        0.0000000000000000     
   1.4463355574495495E-002  0.10638928153229750        0.0000000000000000     
   1.4872838032414282E-002  0.11344787866754087        0.0000000000000000     
   1.5244374321963790E-002  0.12049597632186754        0.0000000000000000     
   1.5577964443144014E-002  0.12753357449527752        0.0000000000000000     
   1.5873608395954954E-002  0.13456067318777082        0.0000000000000000     
   9.2032388887597957E-003  0.10625204150441693        0.0000000000000000     
   9.4418845020756148E-003  0.11331262482446296        0.0000000000000000     
   9.6685931064409494E-003  0.12036744611073695        0.0000000000000000     
   9.8833647018558013E-003  0.12741650536323890        0.0000000000000000     
   1.0086199288320170E-002  0.13445980258196885        0.0000000000000000     
   4.3821203625940310E-003  0.10616969748771797        0.0000000000000000     
   4.4842718231109663E-003  0.11323147251864049        0.0000000000000000     
   4.5871349974393998E-003  0.12029032798407556        0.0000000000000000     
   4.6907098855793281E-003  0.12734626388402318        0.0000000000000000     
   4.7949964875307529E-003  0.13439928021848338        0.0000000000000000     
  -4.0018014943465907E-012  0.10614224948220061        0.0000000000000000     
  -4.4796555787735004E-012  0.11320442175007348        0.0000000000000000     
  -5.0408568378484953E-012  0.12026462194188337        0.0000000000000000     
  -5.6854036994784252E-012  0.12732285005763036        0.0000000000000000     
  -6.4132991452192645E-012  0.13437910609731435        0.0000000000000000     
   2.2157223810435108E-002  0.13470189203588934        0.0000000000000000     
   2.2551888691043055E-002  0.14205946783817483        0.0000000000000000     
   2.3047769695329522E-002  0.15014048564045204        0.0000000000000000     
   2.3644866823294503E-002  0.15894494544272098        0.0000000000000000     
   2.4343180074937999E-002  0.16847284724498163        0.0000000000000000     
   1.5873608395954954E-002  0.13456067318777082        0.0000000000000000     
   1.6093544296996897E-002  0.14192358022715421        0.0000000000000000     
   1.6200010262870119E-002  0.14996860344123433        0.0000000000000000     
   1.6193006293574619E-002  0.15869574283001125        0.0000000000000000     
   1.6072532389110404E-002  0.16810499839348492        0.0000000000000000     
   1.0086199288320170E-002  0.13445980258196885        0.0000000000000000     
   1.0182114715896577E-002  0.14182651764780904        0.0000000000000000     
   1.0076128834647539E-002  0.14984583044164176        0.0000000000000000     
   9.7682416445730568E-003  0.15851774096346699        0.0000000000000000     
   9.2584531456731314E-003  0.16784224921328486        0.0000000000000000     
   4.7949964875307529E-003  0.13439928021848338        0.0000000000000000     
   4.8175999477420954E-003  0.14176828010013925        0.0000000000000000     
   4.6761254106617812E-003  0.14977216664167428        0.0000000000000000     
   4.3705728762898095E-003  0.15841093984308832        0.0000000000000000     
   3.9009423446261810E-003  0.16768459970438138        0.0000000000000000     
  -6.4132991452192645E-012  0.13437910609731435        0.0000000000000000     
  -7.4665460446377008E-012  0.14174886758414501        0.0000000000000000     
  -9.0871546398751946E-012  0.14974761204133188        0.0000000000000000     
  -1.1275121786745446E-011  0.15837533946887505        0.0000000000000000     
  -1.4030447810509106E-011  0.16763204986677449        0.0000000000000000     
   0.0000000000000000        0.0000000000000000        0.0000000000000000     
  -3.5955857432060090E-014   1.0756969650908745E-003   0.0000000000000000     
  -7.9184922507913313E-014   2.5213305071759310E-003   0.0000000000000000     
  -1.2968754759326573E-013   4.3369006262551687E-003   0.0000000000000000     
  -1.8746340742746559E-013   6.5224073223285883E-003   0.0000000000000000     
   0.0000000000000000        0.0000000000000000        0.0000000000000000     
  -2.1299663223959598E-004   1.0779381214906462E-003   0.0000000000000000     
  -4.2666167209520848E-004   2.5263869374641712E-003   0.0000000000000000     
  -6.4099511956683722E-004   4.3453464479205764E-003   0.0000000000000000     
  -8.5599697465448292E-004   6.5348166528598596E-003   0.0000000000000000     
   0.0000000000000000        0.0000000000000000        0.0000000000000000     
  -4.2418028305868659E-004   1.0846615906658366E-003   0.0000000000000000     
  -8.5234305474053652E-004   2.5415562282840001E-003   0.0000000000000000     
  -1.2844883150455492E-003   4.3706839128544910E-003   0.0000000000000000     
  -1.7206160639737255E-003   6.5720446443773102E-003   0.0000000000000000     
   0.0000000000000000        0.0000000000000000        0.0000000000000000     
  -6.3355095249322782E-004   1.0958673726164450E-003   0.0000000000000000     
  -1.2770441480151691E-003   2.5668383796354165E-003   0.0000000000000000     
  -1.9304795865658238E-003   4.4129130210569158E-003   0.0000000000000000     
  -2.5938572681451920E-003   6.6340912968809408E-003   0.0000000000000000     
   0.0000000000000000        0.0000000000000000        0.0000000000000000     
  -8.4110864054321951E-004   1.1115554673424722E-003   0.0000000000000000     
  -1.7007649519191065E-003   2.6022333915184212E-003   0.0000000000000000     
  -2.5789689341276607E-003   4.4720337725278466E-003   0.0000000000000000     
  -3.4757205871688819E-003   6.7209566103707498E-003   0.0000000000000000     
  -1.8746340742746559E-013   6.5224073223285883E-003   0.0000000000000000     
  -2.5211159115218207E-013   9.0489116361509650E-003   0.0000000000000000     
  -3.2323128955303801E-013   1.1887474608477073E-002   0.0000000000000000     
  -4.0082239929201385E-013   1.5038096239306910E-002   0.0000000000000000     
  -4.8488524393569543E-013   1.8500776528640482E-002   0.0000000000000000     
  -8.5599697465448292E-004   6.5348166528598596E-003   0.0000000000000000     
  -1.0732038329933954E-003   9.0652677128654196E-003   0.0000000000000000     
  -1.2941522902188245E-003   1.1907169788520655E-002   0.0000000000000000     
  -1.5188423463307706E-003   1.5060522879825568E-002   0.0000000000000000     
  -1.7472740013292341E-003   1.8525326986780156E-002   0.0000000000000000     
  -1.7206160639737255E-003   6.5720446443773102E-003   0.0000000000000000     
  -2.1613847680509086E-003   9.1143359429195405E-003   0.0000000000000000     
  -2.6074528938029415E-003   1.1966255328548262E-002   0.0000000000000000     
  -3.0588204412298247E-003   1.5127802801263480E-002   0.0000000000000000     
  -3.5154874103315581E-003   1.8598978361065194E-002   0.0000000000000000     
  -2.5938572681451920E-003   6.6340912968809408E-003   0.0000000000000000     
  -3.2645428054246528E-003   9.1961163263133208E-003   0.0000000000000000     
  -3.9399018110755834E-003   1.2064731228559892E-002   0.0000000000000000     
  -4.6199342850979852E-003   1.5239936003620646E-002   0.0000000000000000     
  -5.3046402274918572E-003   1.8721730651495586E-002   0.0000000000000000     
  -3.4757205871688819E-003   6.7209566103707498E-003   0.0000000000000000     
  -4.3826779451146252E-003   9.3106088630467675E-003   0.0000000000000000     
  -5.2914990420367498E-003   1.2202597488555541E-002   0.0000000000000000     
  -6.2021838779352505E-003   1.5396922486897066E-002   0.0000000000000000     
  -7.1147324528101309E-003   1.8893583858071345E-002   0.0000000000000000     
  -4.8488524393569543E-013   1.8500776528640482E-002   0.0000000000000000     
  -5.8303687398841841E-013   2.2251139948999962E-002   0.0000000000000000     
  -7.0289550547185387E-013   2.6264810972907528E-002   0.0000000000000000     
  -8.4446042687832609E-013   3.0541789600363183E-002   0.0000000000000000     
  -1.0077325258983638E-012   3.5082075831366917E-002   0.0000000000000000     
  -1.7472740013292341E-003   1.8525326986780156E-002   0.0000000000000000     
  -1.9743359579857964E-003   2.2277393242437011E-002   0.0000000000000000     
  -2.1949169190720367E-003   2.6292532779848731E-002   0.0000000000000000     
  -2.4090168845879579E-003   3.0570745599015313E-002   0.0000000000000000     
  -2.6166358545335589E-003   3.5112031699936742E-002   0.0000000000000000     
  -3.5154874103315581E-003   1.8598978361065194E-002   0.0000000000000000     
  -3.9698864212434687E-003   2.2356153122595750E-002   0.0000000000000000     
  -4.4144500941008854E-003   2.6375698200497497E-002   0.0000000000000000     
  -4.8491784289038066E-003   3.0657613594770438E-002   0.0000000000000000     
  -5.2740714256522348E-003   3.5201899305414570E-002   0.0000000000000000     
  -5.3046402274918572E-003   1.8721730651495586E-002   0.0000000000000000     
  -5.9866513903560556E-003   2.2487419589476164E-002   0.0000000000000000     
  -6.6585995257894392E-003   2.6514307234853832E-002   0.0000000000000000     
  -7.3204846337920071E-003   3.0802393587628579E-002   0.0000000000000000     
  -7.9723067143637593E-003   3.5351678647800408E-002   0.0000000000000000     
  -7.1147324528101309E-003   1.8893583858071345E-002   0.0000000000000000     
  -8.0246308653235589E-003   2.2671192643078267E-002   0.0000000000000000     
  -8.9273652141377020E-003   2.6708359882917723E-002   0.0000000000000000     
  -9.8229354992525591E-003   3.1005085577589714E-002   0.0000000000000000     
  -1.0711341720668134E-002   3.5561369727094234E-002   0.0000000000000000     
  -1.0077325258983638E-012   3.5082075831366917E-002   0.0000000000000000     
  -1.1907783786790915E-012   3.9850018799612058E-002   0.0000000000000000     
  -1.3916677597640426E-012   4.4809967638791928E-002   0.0000000000000000     
  -1.6103994629783000E-012   4.9961922348906514E-002   0.0000000000000000     
  -1.8469743963411833E-012   5.5305882929955814E-002   0.0000000000000000     
  -2.6166358545335589E-003   3.5112031699936742E-002   0.0000000000000000     
  -2.8159851172493522E-003   3.9880697128945423E-002   0.0000000000000000     
  -3.0052759610758530E-003   4.4841047932373708E-002   0.0000000000000000     
  -3.1845083860130604E-003   4.9993084110221603E-002   0.0000000000000000     
  -3.3536823920609755E-003   5.5336805662489122E-002   0.0000000000000000     
  -5.2740714256522348E-003   3.5201899305414570E-002   0.0000000000000000     
  -5.6853603237781523E-003   3.9972732116689523E-002   0.0000000000000000     
  -6.0792763627135482E-003   4.4934288812854904E-002   0.0000000000000000     
  -6.4558195424584191E-003   5.0086569393910714E-002   0.0000000000000000     
  -6.8149898630127676E-003   5.5429573859856959E-002   0.0000000000000000     
  -7.9723067143637593E-003   3.5351678647800408E-002   0.0000000000000000     
  -8.6081256207771809E-003   4.0126123762844371E-002   0.0000000000000000     
  -9.2220012063047550E-003   4.5089690280235503E-002   0.0000000000000000     
  -9.8139334709464766E-003   5.0242378199973840E-002   0.0000000000000000     
  -1.0383922414702354E-002   5.5584187522059354E-002   0.0000000000000000     
  -1.0711341720668134E-002   3.5561369727094234E-002   0.0000000000000000     
  -1.1584281008246433E-002   4.0340872067409959E-002   0.0000000000000000     
  -1.2433450491849466E-002   4.5307252334515533E-002   0.0000000000000000     
  -1.3258850171477233E-002   5.0460510528410968E-002   0.0000000000000000     
  -1.4060480047129734E-002   5.5800646649096258E-002   0.0000000000000000     
  -1.8469743963411833E-012   5.5305882929955814E-002   0.0000000000000000     
  -2.0865170485481754E-012   6.0873042347764236E-002   0.0000000000000000     
  -2.3141522877655196E-012   6.6694593568156157E-002   0.0000000000000000     
  -2.5298812388529698E-012   7.2770536591131599E-002   0.0000000000000000     
  -2.7337032377366954E-012   7.9100871416690532E-002   0.0000000000000000     
  -3.3536823920609755E-003   5.5336805662489122E-002   0.0000000000000000     
  -3.5128265008441606E-003   6.0903527300753865E-002   0.0000000000000000     
  -3.6619692339871831E-003   6.6724563736593454E-002   0.0000000000000000     
  -3.8011105914900404E-003   7.2799914970007915E-002   0.0000000000000000     
  -3.9302505733527348E-003   7.9129581000997207E-002   0.0000000000000000     
  -6.8149898630127676E-003   5.5429573859856959E-002   0.0000000000000000     
  -7.1591024242811992E-003   6.0994982159518249E-002   0.0000000000000000     
  -7.4904723261683135E-003   6.6814474241719185E-002   0.0000000000000000     
  -7.8090995686741155E-003   7.2888050106459754E-002   0.0000000000000000     
  -8.1149841517986036E-003   7.9215709753739955E-002   0.0000000000000000     
  -1.0383922414702354E-002   5.5584187522059354E-002   0.0000000000000000     
  -1.0938827772397628E-002   6.1147406924057381E-002   0.0000000000000000     
  -1.1485509278857546E-002   6.6964325083533296E-002   0.0000000000000000     
  -1.2023966934082106E-002   7.3034942000487144E-002   0.0000000000000000     
  -1.2554200738071309E-002   7.9359257674918846E-002   0.0000000000000000     
  -1.4060480047129734E-002   5.5800646649096258E-002   0.0000000000000000     
  -1.4852002545193454E-002   6.1360801594371267E-002   0.0000000000000000     
  -1.5647080092054882E-002   6.7174116262035857E-002   0.0000000000000000     
  -1.6445712687714012E-002   7.3240590652090043E-002   0.0000000000000000     
  -1.7247900332170850E-002   7.9560224764533824E-002   0.0000000000000000     
  -2.7337032377366954E-012   7.9100871416690532E-002   0.0000000000000000     
  -2.9613607573086842E-012   8.5634105590922938E-002   0.0000000000000000     
  -3.2485968667721188E-012   9.2318746659918724E-002   0.0000000000000000     
  -3.5954096010105616E-012   9.9154794623677961E-002   0.0000000000000000     
  -4.0018014943465907E-012  0.10614224948220061        0.0000000000000000     
  -3.9302505733527348E-003   7.9129581000997207E-002   0.0000000000000000     
  -4.0515969061961634E-003   8.5662205853758056E-002   0.0000000000000000     
  -4.1673573166412254E-003   9.2346433552487145E-002   0.0000000000000000     
  -4.2775318046879215E-003   9.9182264097184503E-002   0.0000000000000000     
  -4.3821203703362493E-003  0.10616969748785011        0.0000000000000000     
  -8.1149841517986036E-003   7.9215709753739955E-002   0.0000000000000000     
  -8.4076350133689311E-003   8.5746506642084483E-002   0.0000000000000000     
  -8.6865610912122485E-003   9.2429494230017978E-002   0.0000000000000000     
  -8.9517623853285627E-003   9.9264672517540398E-002   0.0000000000000000     
  -9.2032388957178635E-003  0.10625204150465180        0.0000000000000000     
  -1.2554200738071309E-002   7.9359257674918846E-002   0.0000000000000000     
  -1.3068114324479659E-002   8.5887007955902261E-002   0.0000000000000000     
  -1.3557611326961667E-002   9.2567928692511223E-002   0.0000000000000000     
  -1.4022691745517329E-002   9.9402019884745701E-002   0.0000000000000000     
  -1.4463355580146645E-002  0.10638928153260570        0.0000000000000000     
  -1.7247900332170850E-002   7.9560224764533824E-002   0.0000000000000000     
  -1.8033034839528353E-002   8.6083709795211363E-002   0.0000000000000000     
  -1.8780508023889475E-002   9.2761736939966866E-002   0.0000000000000000     
  -1.9490319885254223E-002   9.9594306198800317E-002   0.0000000000000000     
  -2.0162470423622587E-002  0.10658141757171173        0.0000000000000000     
  -4.0018014943465907E-012  0.10614224948220061        0.0000000000000000     
  -4.4796555787735004E-012  0.11320442175007348        0.0000000000000000     
  -5.0408568378484953E-012  0.12026462194188337        0.0000000000000000     
  -5.6854036994784252E-012  0.12732285005763036        0.0000000000000000     
  -6.4132991452192645E-012  0.13437910609731435        0.0000000000000000     
  -4.3821203703362493E-003  0.10616969748785011        0.0000000000000000     
  -4.4842718317711257E-003  0.11323147251874813        0.0000000000000000     
  -4.5871350071774626E-003  0.12029032798414269        0.0000000000000000     
  -4.6907098965552653E-003  0.12734626388403381        0.0000000000000000     
  -4.7949964999045294E-003  0.13439928021842146        0.0000000000000000     
  -9.2032388957178635E-003  0.10625204150465180        0.0000000000000000     
  -9.4418845098383133E-003  0.11331262482465077        0.0000000000000000     
  -9.6685931151480678E-003  0.12036744611083579        0.0000000000000000     
  -9.8833647116471218E-003  0.12741650536320695        0.0000000000000000     
  -1.0086199299335481E-002  0.13445980258176418        0.0000000000000000     
  -1.4463355580146645E-002  0.10638928153260570        0.0000000000000000     
  -1.4872838038681219E-002  0.11344787866778132        0.0000000000000000     
  -1.5244374328952662E-002  0.12049597632196271        0.0000000000000000     
  -1.5577964450960975E-002  0.12753357449514982        0.0000000000000000     
  -1.5873608404706155E-002  0.13456067318734266        0.0000000000000000     
  -2.0162470423622587E-002  0.10658141757171173        0.0000000000000000     
  -2.0777132418299843E-002  0.11363723404813986        0.0000000000000000     
  -2.1314478648591258E-002  0.12067591861752340        0.0000000000000000     
  -2.1774509114496826E-002  0.12769747127986239        0.0000000000000000     
  -2.2157223816016550E-002  0.13470189203515684        0.0000000000000000     
  -6.4132991452192645E-012  0.13437910609731435        0.0000000000000000     
  -7.4665460446377008E-012  0.14174886758414501        0.0000000000000000     
  -9.0871546398751946E-012  0.14974761204133188        0.0000000000000000     
  -1.1275121786745446E-011  0.15837533946887505        0.0000000000000000     
  -1.4030447810509106E-011  0.16763204986677449        0.0000000000000000     
  -4.7949964999045294E-003  0.13439928021842146        0.0000000000000000     
  -4.8175999621239791E-003  0.14176828009978937        0.0000000000000000     
  -4.6761254281123448E-003  0.14977216664062135        0.0000000000000000     
  -4.3705728978696221E-003  0.15841093984091739        0.0000000000000000     
  -3.9009423713958148E-003  0.16768459970067751        0.0000000000000000     
  -1.0086199299335481E-002  0.13445980258176418        0.0000000000000000     
  -1.0182114728624831E-002  0.14182651764703566        0.0000000000000000     
  -1.0076128849926865E-002  0.14984583043954938        0.0000000000000000     
  -9.7682416632415819E-003  0.15851774095930538        0.0000000000000000     
  -9.2584531685689815E-003  0.16784224920630361        0.0000000000000000     
  -1.5873608404706155E-002  0.13456067318734266        0.0000000000000000     
  -1.6093544306969097E-002  0.14192358022588383        0.0000000000000000     
  -1.6200010274530711E-002  0.14996860343811594        0.0000000000000000     
  -1.6193006307390997E-002  0.15869574282403895        0.0000000000000000     
  -1.6072532405549945E-002  0.16810499838365289        0.0000000000000000     
  -2.2157223816016550E-002  0.13470189203515684        0.0000000000000000     
  -2.2551888697156793E-002  0.14205946783633397        0.0000000000000000     
  -2.3047769701923893E-002  0.15014048563632110        0.0000000000000000     
  -2.3644866830317867E-002  0.15894494543511817        0.0000000000000000     
  -2.4343180082338711E-002  0.16847284723272524        0.0000000000000000     
   0.0000000000000000        0.0000000000000000        0.0000000000000000     
  -8.4110864054321951E-004   1.1115554673424722E-003   0.0000000000000000     
  -1.7007649519191065E-003   2.6022333915184212E-003   0.0000000000000000     
  -2.5789689341276607E-003   4.4720337725278466E-003   0.0000000000000000     
  -3.4757205871688819E-003   6.7209566103707498E-003   0.0000000000000000     
   0.0000000000000000        0.0000000000000000        0.0000000000000000     
  -1.0558756788252670E-003   1.1352984163858382E-003   0.0000000000000000     
  -2.1381054142486232E-003   2.6535968180373209E-003   0.0000000000000000     
  -3.2466892062700688E-003   4.5548952049544490E-003   0.0000000000000000     
  -4.3816270548896032E-003   6.8391935771372203E-003   0.0000000000000000     
   0.0000000000000000        0.0000000000000000        0.0000000000000000     
  -1.2868743989559754E-003   1.1706687612884634E-003   0.0000000000000000     
  -2.6036654827999951E-003   2.7267842132964243E-003   0.0000000000000000     
  -3.9503732515320583E-003   4.6683463560238817E-003   0.0000000000000000     
  -5.3269977051521667E-003   6.9953551894708366E-003   0.0000000000000000     
   0.0000000000000000        0.0000000000000000        0.0000000000000000     
  -1.5341048009353451E-003   1.2176665020503480E-003   0.0000000000000000     
  -3.0974451575732217E-003   2.8217955772957301E-003   0.0000000000000000     
  -4.6900210699136304E-003   4.8123872257361455E-003   0.0000000000000000     
  -6.3118325379565689E-003   7.1894414473715950E-003   0.0000000000000000     
   0.0000000000000000        0.0000000000000000        0.0000000000000000     
  -1.7975668847633759E-003   1.2762916386714917E-003   0.0000000000000000     
  -3.6194444385683035E-003   2.9386309100352388E-003   0.0000000000000000     
  -5.4656326614147821E-003   4.9870178140912413E-003   0.0000000000000000     
  -7.3361315533028134E-003   7.4214523508394983E-003   0.0000000000000000     
  -3.4757205871688819E-003   6.7209566103707498E-003   0.0000000000000000     
  -4.3826779451146252E-003   9.3106088630467675E-003   0.0000000000000000     
  -5.2914990420367498E-003   1.2202597488555541E-002   0.0000000000000000     
  -6.2021838779352505E-003   1.5396922486897066E-002   0.0000000000000000     
  -7.1147324528101309E-003   1.8893583858071345E-002   0.0000000000000000     
  -4.3816270548896032E-003   6.8391935771372203E-003   0.0000000000000000     
  -5.5293871307296018E-003   9.4636534722862160E-003   0.0000000000000000     
  -6.6764376044124345E-003   1.2385436428102017E-002   0.0000000000000000     
  -7.8227784759381056E-003   1.5604542444584615E-002   0.0000000000000000     
  -8.9684097453066134E-003   1.9120971521734014E-002   0.0000000000000000     
  -5.3269977051521667E-003   6.9953551894708366E-003   0.0000000000000000     
  -6.7182673058783487E-003   9.6610900731980091E-003   0.0000000000000000     
  -8.1089105159286370E-003   1.2618830366766120E-002   0.0000000000000000     
  -9.4989273353030326E-003   1.5868576070175170E-002   0.0000000000000000     
  -1.0888317764001537E-002   1.9410327183425159E-002   0.0000000000000000     
  -6.3118325379565689E-003   7.1894414473715950E-003   0.0000000000000000     
  -7.9493184705608701E-003   9.9029186657821414E-003   0.0000000000000000     
  -9.5889177765853574E-003   1.2902779304547855E-002   0.0000000000000000     
  -1.1230630456030037E-002   1.6189023363668738E-002   0.0000000000000000     
  -1.2874456508894905E-002   1.9761650843144775E-002   0.0000000000000000     
  -7.3361315533028134E-003   7.4214523508394983E-003   0.0000000000000000     
  -9.2225406247771619E-003   1.0189139250038622E-002   0.0000000000000000     
  -1.1116459386382596E-002   1.3237283241447228E-002   0.0000000000000000     
  -1.3017887838119113E-002   1.6565884325065304E-002   0.0000000000000000     
  -1.4926825979986713E-002   2.0174942500892863E-002   0.0000000000000000     
  -7.1147324528101309E-003   1.8893583858071345E-002   0.0000000000000000     
  -8.0246308653235589E-003   2.2671192643078267E-002   0.0000000000000000     
  -8.9273652141377020E-003   2.6708359882917723E-002   0.0000000000000000     
  -9.8229354992525591E-003   3.1005085577589714E-002   0.0000000000000000     
  -1.0711341720668134E-002   3.5561369727094234E-002   0.0000000000000000     
  -8.9684097453066134E-003   1.9120971521734014E-002   0.0000000000000000     
  -1.0110690744300557E-002   2.2914261354582119E-002   0.0000000000000000     
  -1.1246980804702537E-002   2.6963949638160806E-002   0.0000000000000000     
  -1.2377279926512554E-002   3.1270036372470084E-002   0.0000000000000000     
  -1.3501588109730608E-002   3.5832521557509961E-002   0.0000000000000000     
  -1.0888317764001537E-002   1.9410327183425159E-002   0.0000000000000000     
  -1.2271696925441633E-002   2.3223414795167773E-002   0.0000000000000000     
  -1.3643679943040816E-002   2.7287169994054696E-002   0.0000000000000000     
  -1.5004266816799080E-002   3.1601592780085924E-002   0.0000000000000000     
  -1.6353457546716431E-002   3.6166683153261471E-002   0.0000000000000000     
  -1.2874456508894905E-002   1.9761650843144775E-002   0.0000000000000000     
  -1.4507649408746793E-002   2.3598652964835244E-002   0.0000000000000000     
  -1.6117462629152542E-002   2.7678020950599399E-002   0.0000000000000000     
  -1.7703896170112140E-002   3.1999754800437229E-002   0.0000000000000000     
  -1.9266950031625599E-002   3.6563854514348758E-002   0.0000000000000000     
  -1.4926825979986713E-002   2.0174942500892863E-002   0.0000000000000000     
  -1.6818548194216031E-002   2.4039975863584525E-002   0.0000000000000000     
  -1.8668328863037705E-002   2.8136502507794904E-002   0.0000000000000000     
  -2.0476167986451733E-002   3.2464522433524011E-002   0.0000000000000000     
  -2.2242065564458114E-002   3.7024035640771842E-002   0.0000000000000000     
  -1.0711341720668134E-002   3.5561369727094234E-002   0.0000000000000000     
  -1.1584281008246433E-002   4.0340872067409959E-002   0.0000000000000000     
  -1.2433450491849466E-002   4.5307252334515533E-002   0.0000000000000000     
  -1.3258850171477233E-002   5.0460510528410968E-002   0.0000000000000000     
  -1.4060480047129734E-002   5.5800646649096258E-002   0.0000000000000000     
  -1.3501588109730608E-002   3.5832521557509961E-002   0.0000000000000000     
  -1.4609803966445163E-002   4.0615700538561145E-002   0.0000000000000000     
  -1.5691826108744682E-002   4.5583868660904373E-002   0.0000000000000000     
  -1.6747654536629158E-002   5.0737025924539630E-002   0.0000000000000000     
  -1.7777289250098607E-002   5.6075172329466919E-002   0.0000000000000000     
  -1.6353457546716431E-002   3.6166683153261471E-002   0.0000000000000000     
  -1.7680671975632611E-002   4.0949332684472803E-002   0.0000000000000000     
  -1.8975329946387377E-002   4.5916432944611431E-002   0.0000000000000000     
  -2.0237431458980729E-002   5.1067983933677341E-002   0.0000000000000000     
  -2.1466976513412658E-002   5.6403985651670541E-002   0.0000000000000000     
  -1.9266950031625599E-002   3.6563854514348758E-002   0.0000000000000000     
  -2.0796885035808781E-002   4.1341768505144941E-002   0.0000000000000000     
  -2.2283962004777561E-002   4.6304945185636714E-002   0.0000000000000000     
  -2.3728180938531931E-002   5.1453384555824121E-002   0.0000000000000000     
  -2.5129541837071903E-002   5.6787086615707118E-002   0.0000000000000000     
  -2.2242065564458114E-002   3.7024035640771842E-002   0.0000000000000000     
  -2.3958443146973672E-002   4.1793008000577538E-002   0.0000000000000000     
  -2.5617722283915227E-002   4.6749405383980223E-002   0.0000000000000000     
  -2.7219902975282779E-002   5.1893227790979934E-002   0.0000000000000000     
  -2.8764985221076324E-002   5.7224475221576643E-002   0.0000000000000000     
  -1.4060480047129734E-002   5.5800646649096258E-002   0.0000000000000000     
  -1.4852002545193454E-002   6.1360801594371267E-002   0.0000000000000000     
  -1.5647080092054882E-002   6.7174116262035857E-002   0.0000000000000000     
  -1.6445712687714012E-002   7.3240590652090043E-002   0.0000000000000000     
  -1.7247900332170850E-002   7.9560224764533824E-002   0.0000000000000000     
  -1.7777289250098607E-002   5.6075172329466919E-002   0.0000000000000000     
  -1.8801164156630187E-002   6.1631631936467826E-002   0.0000000000000000     
  -1.9839713163701079E-002   6.7439728806323970E-002   0.0000000000000000     
  -2.0892936271311290E-002   7.3499462939035295E-002   0.0000000000000000     
  -2.1960833479460814E-002   7.9810834334601830E-002   0.0000000000000000     
  -2.1466976513412658E-002   5.6403985651670541E-002   0.0000000000000000     
  -2.2688850020669338E-002   6.1956363716354997E-002   0.0000000000000000     
  -2.3927936891736914E-002   6.7757043745494697E-002   0.0000000000000000     
  -2.5184237126615393E-002   7.3806025739089662E-002   0.0000000000000000     
  -2.6457750725304780E-002   8.0103309697139871E-002   0.0000000000000000     
  -2.5129541837071903E-002   5.6787086615707118E-002   0.0000000000000000     
  -2.6515060137310906E-002   6.2334996934032764E-002   0.0000000000000000     
  -2.7911751276162383E-002   6.8126061079548106E-002   0.0000000000000000     
  -2.9319615253626335E-002   7.4160279052253156E-002   0.0000000000000000     
  -3.0738652069702756E-002   8.0437650852147893E-002   0.0000000000000000     
  -2.8764985221076324E-002   5.7224475221576643E-002   0.0000000000000000     
  -3.0279794506554894E-002   6.2767531589501130E-002   0.0000000000000000     
  -3.1791156316977480E-002   6.8546780808484184E-002   0.0000000000000000     
  -3.3299070652344089E-002   7.4562222878525763E-002   0.0000000000000000     
  -3.4803537512654734E-002   8.0813857799625910E-002   0.0000000000000000     
  -1.7247900332170850E-002   7.9560224764533824E-002   0.0000000000000000     
  -1.8033034839528353E-002   8.6083709795211363E-002   0.0000000000000000     
  -1.8780508023889475E-002   9.2761736939966866E-002   0.0000000000000000     
  -1.9490319885254223E-002   9.9594306198800317E-002   0.0000000000000000     
  -2.0162470423622587E-002  0.10658141757171173        0.0000000000000000     
  -2.1960833479460814E-002   7.9810834334601830E-002   0.0000000000000000     
  -2.3010397310205655E-002   8.6325867840686493E-002   0.0000000000000000     
  -2.4008620285601825E-002   9.2996588304952152E-002   0.0000000000000000     
  -2.4955502405649328E-002   9.9822995727398861E-002   0.0000000000000000     
  -2.5851043670348156E-002  0.10680509010802652        0.0000000000000000     
  -2.6457750725304780E-002   8.0103309697139871E-002   0.0000000000000000     
  -2.7708202488202219E-002   8.6602737773002397E-002   0.0000000000000000     
  -2.8895317215704871E-002   9.3258152120034396E-002   0.0000000000000000     
  -3.0019094907812724E-002  0.10006955273823580        0.0000000000000000     
  -3.1079535564525786E-002  0.10703693962760667        0.0000000000000000     
  -3.0738652069702756E-002   8.0437650852147893E-002   0.0000000000000000     
  -3.2126450373518044E-002   8.6914319592159103E-002   0.0000000000000000     
  -3.3440598814198606E-002   9.3546428385213529E-002   0.0000000000000000     
  -3.4681097391744416E-002  0.10033397723131122        0.0000000000000000     
  -3.5847946106155500E-002  0.10727696613045212        0.0000000000000000     
  -3.4803537512654734E-002   8.0813857799625910E-002   0.0000000000000000     
  -3.6265140966153131E-002   8.7260613298156542E-002   0.0000000000000000     
  -3.7644465081083024E-002   9.3861417100489591E-002   0.0000000000000000     
  -3.8941509857444399E-002  0.10061626920662506        0.0000000000000000     
  -4.0156275295237270E-002  0.10752516961656293        0.0000000000000000     
  -2.0162470423622587E-002  0.10658141757171173        0.0000000000000000     
  -2.0777132418299843E-002  0.11363723404813986        0.0000000000000000     
  -2.1314478648591258E-002  0.12067591861752340        0.0000000000000000     
  -2.1774509114496826E-002  0.12769747127986239        0.0000000000000000     
  -2.2157223816016550E-002  0.13470189203515684        0.0000000000000000     
  -2.5851043670348156E-002  0.10680509010802652        0.0000000000000000     
  -2.6663619865549267E-002  0.11385447943110967        0.0000000000000000     
  -2.7361606777103621E-002  0.12088277168092271        0.0000000000000000     
  -2.7945004405011208E-002  0.12788996685746559        0.0000000000000000     
  -2.8413812749272044E-002  0.13487606496073842        0.0000000000000000     
  -3.1079535564525786E-002  0.10703693962760667        0.0000000000000000     
  -3.2041152597284552E-002  0.11407340328207413        0.0000000000000000     
  -3.2868459417529507E-002  0.12109203419556537        0.0000000000000000     
  -3.3561456025260658E-002  0.12809283236808042        0.0000000000000000     
  -3.4120142420477999E-002  0.13507579779961917        0.0000000000000000     
  -3.5847946106155500E-002  0.10727696613045212        0.0000000000000000     
  -3.6909730613505699E-002  0.11429400560103323        0.0000000000000000     
  -3.7835036569868939E-002  0.12130370616145141        0.0000000000000000     
  -3.8623863975245164E-002  0.12830606781170673        0.0000000000000000     
  -3.9276212829634422E-002  0.13530109055179915        0.0000000000000000     
  -4.0156275295237270E-002  0.10752516961656293        0.0000000000000000     
  -4.1269353914212735E-002  0.11451628638798694        0.0000000000000000     
  -4.2261338234121891E-002  0.12151778757858087        0.0000000000000000     
  -4.3132228254964745E-002  0.12852967318834466        0.0000000000000000     
  -4.3882023976741291E-002  0.13555194321727831        0.0000000000000000     
  -2.2157223816016550E-002  0.13470189203515684        0.0000000000000000     
  -2.2551888697156793E-002  0.14205946783633397        0.0000000000000000     
  -2.3047769701923893E-002  0.15014048563632110        0.0000000000000000     
  -2.3644866830317867E-002  0.15894494543511817        0.0000000000000000     
  -2.4343180082338711E-002  0.16847284723272524        0.0000000000000000     
  -2.8413812749272044E-002  0.13487606496073842        0.0000000000000000     
  -2.8979370833338531E-002  0.14222439508906984        0.0000000000000000     
  -2.9853017680663087E-002  0.15031828634078864        0.0000000000000000     
  -3.1034753291245713E-002  0.15915773871589481        0.0000000000000000     
  -3.2524577665086402E-002  0.16874275221438839        0.0000000000000000     
  -3.4120142420477999E-002  0.13507579779961917        0.0000000000000000     
  -3.4798213649664962E-002  0.14240857659477538        0.0000000000000000     
  -3.5849364759304975E-002  0.15045881485814258        0.0000000000000000     
  -3.7273595749398043E-002  0.15922651258972076        0.0000000000000000     
  -3.9070906619944161E-002  0.16871166978950991        0.0000000000000000     
  -3.9276212829634422E-002  0.13530109055179915        0.0000000000000000     
  -4.0008417146136073E-002  0.14261201235345058        0.0000000000000000     
  -4.1036810937849555E-002  0.15056207118838283        0.0000000000000000     
  -4.2361394204774860E-002  0.15915126705659594        0.0000000000000000     
  -4.3982166946911969E-002  0.16837959995808985        0.0000000000000000     
  -4.3882023976741291E-002  0.13555194321727831        0.0000000000000000     
  -4.4609981322751874E-002  0.14283470236509541        0.0000000000000000     
  -4.5415356216296825E-002  0.15062805533150941        0.0000000000000000     
  -4.6298148657376151E-002  0.15893200211652034        0.0000000000000000     
  -4.7258358645989845E-002  0.16774654272012821        0.0000000000000000     
   0.0000000000000000        0.0000000000000000        0.0000000000000000     
  -1.7975668847633759E-003   1.2762916386714917E-003   0.0000000000000000     
  -3.6194444385683035E-003   2.9386309100352388E-003   0.0000000000000000     
  -5.4656326614147821E-003   4.9870178140912413E-003   0.0000000000000000     
  -7.3361315533028134E-003   7.4214523508394983E-003   0.0000000000000000     
   0.0000000000000000        0.0000000000000000        0.0000000000000000     
  -2.0689371862943270E-003   1.3537132408045708E-003   0.0000000000000000     
  -4.1624065897996939E-003   3.0919618372773827E-003   0.0000000000000000     
  -6.2804082105161014E-003   5.2147457894184367E-003   0.0000000000000000     
  -8.4229420484435488E-003   7.7220650972277295E-003   0.0000000000000000     
   0.0000000000000000        0.0000000000000000        0.0000000000000000     
  -2.3398922413824593E-003   1.4571003781022615E-003   0.0000000000000000     
  -4.7190748752818498E-003   3.2964599847845949E-003   0.0000000000000000     
  -7.1375479016981720E-003   5.5180788200470000E-003   0.0000000000000000     
  -9.5953113206314264E-003   8.1219568838894769E-003   0.0000000000000000     
   0.0000000000000000        0.0000000000000000        0.0000000000000000     
  -2.6104320500277716E-003   1.5864530505645636E-003   0.0000000000000000     
  -5.2894492950147703E-003   3.5521253525568740E-003   0.0000000000000000     
  -8.0370517349609930E-003   5.8970169059769312E-003   0.0000000000000000     
  -1.0853239369866444E-002   8.6211277108247369E-003   0.0000000000000000     
   0.0000000000000000        0.0000000000000000        0.0000000000000000     
  -2.8805566122302650E-003   1.7417712581914773E-003   0.0000000000000000     
  -5.8735298489984546E-003   3.8589579405942211E-003   0.0000000000000000     
  -8.9789197103045670E-003   6.3515600472082321E-003   0.0000000000000000     
  -1.2196726196148606E-002   9.2195775780335096E-003   0.0000000000000000     
  -7.3361315533028134E-003   7.4214523508394983E-003   0.0000000000000000     
  -9.2225406247771619E-003   1.0189139250038622E-002   0.0000000000000000     
  -1.1116459386382596E-002   1.3237283241447228E-002   0.0000000000000000     
  -1.3017887838119113E-002   1.6565884325065304E-002   0.0000000000000000     
  -1.4926825979986713E-002   2.0174942500892863E-002   0.0000000000000000     
  -8.4229420484435488E-003   7.7220650972277295E-003   0.0000000000000000     
  -1.0581152225754594E-002   1.0556111771381355E-002   0.0000000000000000     
  -1.2746182864621796E-002   1.3659077822555396E-002   0.0000000000000000     
  -1.4918033965045152E-002   1.7030963250749851E-002   0.0000000000000000     
  -1.7096705527024664E-002   2.0671768055964726E-002   0.0000000000000000     
  -9.5953113206314264E-003   8.1219568838894769E-003   0.0000000000000000     
  -1.2068371730720531E-002   1.1040196175224249E-002   0.0000000000000000     
  -1.4532735730604405E-002   1.4204898692963534E-002   0.0000000000000000     
  -1.6988403320283046E-002   1.7616064437107341E-002   0.0000000000000000     
  -1.9435374499756457E-002   2.1273693407655659E-002   0.0000000000000000     
  -1.0853239369866444E-002   8.6211277108247369E-003   0.0000000000000000     
  -1.3684199139674971E-002   1.1641392461567302E-002   0.0000000000000000     
  -1.6476117984330418E-002   1.4874745852671647E-002   0.0000000000000000     
  -1.9228995903832799E-002   1.8321187884137773E-002   0.0000000000000000     
  -2.1942832898182097E-002   2.1980718555965673E-002   0.0000000000000000     
  -1.2196726196148606E-002   9.2195775780335096E-003   0.0000000000000000     
  -1.5428634452617919E-002   1.2359700630410518E-002   0.0000000000000000     
  -1.8576329625799852E-002   1.5668619301679731E-002   0.0000000000000000     
  -2.1639811715694405E-002   1.9146333591841140E-002   0.0000000000000000     
  -2.4619080722301578E-002   2.2792843500894760E-002   0.0000000000000000     
  -1.4926825979986713E-002   2.0174942500892863E-002   0.0000000000000000     
  -1.6818548194216031E-002   2.4039975863584525E-002   0.0000000000000000     
  -1.8668328863037705E-002   2.8136502507794904E-002   0.0000000000000000     
  -2.0476167986451733E-002   3.2464522433524011E-002   0.0000000000000000     
  -2.2242065564458114E-002   3.7024035640771842E-002   0.0000000000000000     
  -1.7096705527024664E-002   2.0671768055964726E-002   0.0000000000000000     
  -1.9248534272059296E-002   2.4557924631842087E-002   0.0000000000000000     
  -2.1339856921648026E-002   2.8665865372024001E-002   0.0000000000000000     
  -2.3370673475790835E-002   3.2995590276510466E-002   0.0000000000000000     
  -2.5340983934487749E-002   3.7547099345301489E-002   0.0000000000000000     
  -1.9435374499756457E-002   2.1273693407655659E-002   0.0000000000000000     
  -2.1841748632486543E-002   2.5163040410034400E-002   0.0000000000000000     
  -2.4175625081935204E-002   2.9269360249669450E-002   0.0000000000000000     
  -2.6437003848102443E-002   3.3592652926560808E-002   0.0000000000000000     
  -2.8625884930988259E-002   3.8132918440708492E-002   0.0000000000000000     
  -2.1942832898182097E-002   2.1980718555965673E-002   0.0000000000000000     
  -2.4598191275497758E-002   2.5855323198161459E-002   0.0000000000000000     
  -2.7175633343899247E-002   2.9946987140731261E-002   0.0000000000000000     
  -2.9675159103386538E-002   3.4255710383675059E-002   0.0000000000000000     
  -3.2096768553959661E-002   3.8781492926992844E-002   0.0000000000000000     
  -2.4619080722301578E-002   2.2792843500894760E-002   0.0000000000000000     
  -2.7517862201092959E-002   2.6634772996223282E-002   0.0000000000000000     
  -3.0339881707540147E-002   3.0698746045209422E-002   0.0000000000000000     
  -3.3085139241643136E-002   3.4984762647853183E-002   0.0000000000000000     
  -3.5753634803401935E-002   3.9492822804154559E-002   0.0000000000000000     
  -2.2242065564458114E-002   3.7024035640771842E-002   0.0000000000000000     
  -2.3958443146973672E-002   4.1793008000577538E-002   0.0000000000000000     
  -2.5617722283915227E-002   4.6749405383980223E-002   0.0000000000000000     
  -2.7219902975282779E-002   5.1893227790979934E-002   0.0000000000000000     
  -2.8764985221076324E-002   5.7224475221576643E-002   0.0000000000000000     
  -2.5340983934487749E-002   3.7547099345301489E-002   0.0000000000000000     
  -2.7245201715126757E-002   4.2304560596047931E-002   0.0000000000000000     
  -2.9077740235095875E-002   4.7252142046400651E-002   0.0000000000000000     
  -3.0838599494395123E-002   5.2389843696359642E-002   0.0000000000000000     
  -3.2527779493024482E-002   5.7717665545924918E-002   0.0000000000000000     
  -2.8625884930988259E-002   3.8132918440708492E-002   0.0000000000000000     
  -3.0737016146267497E-002   4.2877935716833453E-002   0.0000000000000000     
  -3.2765145309615024E-002   4.7815483679656635E-002   0.0000000000000000     
  -3.4710272421030822E-002   5.2945562329178061E-002   0.0000000000000000     
  -3.6572397480514891E-002   5.8268171665397731E-002   0.0000000000000000     
  -3.2096768553959661E-002   3.8781492926992844E-002   0.0000000000000000     
  -3.4433886440395918E-002   4.3513133362934081E-002   0.0000000000000000     
  -3.6679937507472643E-002   4.8439430283748197E-002   0.0000000000000000     
  -3.8834921755189863E-002   5.3560383689435179E-002   0.0000000000000000     
  -4.0898839183547558E-002   5.8875993579995040E-002   0.0000000000000000     
  -3.5753634803401935E-002   3.9492822804154559E-002   0.0000000000000000     
  -3.8335812597511988E-002   4.4210153534349844E-002   0.0000000000000000     
  -4.0822116828668771E-002   4.9123981858675329E-002   0.0000000000000000     
  -4.3212547496872263E-002   5.4234307777131001E-002   0.0000000000000000     
  -4.5507104602122483E-002   5.9541131289716887E-002   0.0000000000000000     
  -2.8764985221076324E-002   5.7224475221576643E-002   0.0000000000000000     
  -3.0279794506554894E-002   6.2767531589501130E-002   0.0000000000000000     
  -3.1791156316977480E-002   6.8546780808484184E-002   0.0000000000000000     
  -3.3299070652344089E-002   7.4562222878525763E-002   0.0000000000000000     
  -3.4803537512654734E-002   8.0813857799625910E-002   0.0000000000000000     
  -3.2527779493024482E-002   5.7717665545924918E-002   0.0000000000000000     
  -3.4171912595360322E-002   6.3254775833054666E-002   0.0000000000000000     
  -3.5797631165779019E-002   6.9020342795707054E-002   0.0000000000000000     
  -3.7404935204280565E-002   7.5014366433882110E-002   0.0000000000000000     
  -3.8993824710864967E-002   8.1236846747579791E-002   0.0000000000000000     
  -3.6572397480514891E-002   5.8268171665397731E-002   0.0000000000000000     
  -3.8380273870686224E-002   6.3797537814987912E-002   0.0000000000000000     
  -4.0162654974163811E-002   6.9547886904620909E-002   0.0000000000000000     
  -4.1919540790947646E-002   7.5519218934296722E-002   0.0000000000000000     
  -4.3650931321037721E-002   8.1711533904015365E-002   0.0000000000000000     
  -4.0898839183547558E-002   5.8875993579995040E-002   0.0000000000000000     
  -4.2904878332532585E-002   6.4395817535300881E-002   0.0000000000000000     
  -4.4886227742131836E-002   7.0129413135225735E-002   0.0000000000000000     
  -4.6842887412345310E-002   7.6076780379769657E-002   0.0000000000000000     
  -4.8774857343172981E-002   8.2237919268932647E-002   0.0000000000000000     
  -4.5507104602122483E-002   5.9541131289716887E-002   0.0000000000000000     
  -4.7745725980899434E-002   6.5049614993993546E-002   0.0000000000000000     
  -4.9968349469683128E-002   7.0764921487521545E-002   0.0000000000000000     
  -5.2174975068473572E-002   7.6687050770300899E-002   0.0000000000000000     
  -5.4365602777270761E-002   8.2816002842331607E-002   0.0000000000000000     
  -3.4803537512654734E-002   8.0813857799625910E-002   0.0000000000000000     
  -3.6265140966153131E-002   8.7260613298156542E-002   0.0000000000000000     
  -3.7644465081083024E-002   9.3861417100489591E-002   0.0000000000000000     
  -3.8941509857444399E-002  0.10061626920662506        0.0000000000000000     
  -4.0156275295237270E-002  0.10752516961656293        0.0000000000000000     
  -3.8993824710864967E-002   8.1236846747579791E-002   0.0000000000000000     
  -4.0528629578189701E-002   8.7650295748345361E-002   0.0000000000000000     
  -4.1973679698912247E-002   9.4217225447724012E-002   0.0000000000000000     
  -4.3328975073032586E-002  0.10093763584571579        0.0000000000000000     
  -4.4594515700550737E-002  0.10781152694232063        0.0000000000000000     
  -4.3650931321037721E-002   8.1711533904015365E-002   0.0000000000000000     
  -4.5321271521709991E-002   8.8092043800076111E-002   0.0000000000000000     
  -4.6895006350240374E-002   9.4627960608778289E-002   0.0000000000000000     
  -4.8372135806628892E-002  0.10131928433012186        0.0000000000000000     
  -4.9752659890875524E-002  0.10816601496410684        0.0000000000000000     
  -4.8774857343172981E-002   8.2237919268932647E-002   0.0000000000000000     
  -5.0643066796713987E-002   8.8585857453348821E-002   0.0000000000000000     
  -5.2408445035067426E-002   9.5093622583652365E-002   0.0000000000000000     
  -5.4070992058233312E-002  0.10176121465984327        0.0000000000000000     
  -5.5630707866211646E-002  0.10858863368192155        0.0000000000000000     
  -5.4365602777270761E-002   8.2816002842331607E-002   0.0000000000000000     
  -5.6494015403201703E-002   8.9131736708163462E-002   0.0000000000000000     
  -5.8513995753393395E-002   9.5614211372346283E-002   0.0000000000000000     
  -6.0425543827845860E-002  0.10226342683488003        0.0000000000000000     
  -6.2228659626559074E-002  0.10907938309576475        0.0000000000000000     
  -4.0156275295237270E-002  0.10752516961656293        0.0000000000000000     
  -4.1269353914212735E-002  0.11451628638798694        0.0000000000000000     
  -4.2261338234121891E-002  0.12151778757858087        0.0000000000000000     
  -4.3132228254964745E-002  0.12852967318834466        0.0000000000000000     
  -4.3882023976741291E-002  0.13555194321727831        0.0000000000000000     
  -4.4594515700550737E-002  0.10781152694232063        0.0000000000000000     
  -4.5761745407451072E-002  0.11477692776921852        0.0000000000000000     
  -4.6822108019717965E-002  0.12177186735808943        0.0000000000000000     
  -4.7775603537351413E-002  0.12879634570893328        0.0000000000000000     
  -4.8622231960351411E-002  0.13585036282175011        0.0000000000000000     
  -4.9752659890875524E-002  0.10816601496410684        0.0000000000000000     
  -5.1028628001266181E-002  0.11511261187101120        0.0000000000000000     
  -5.2192089536086742E-002  0.12210353441111278        0.0000000000000000     
  -5.3243044495337177E-002  0.12913878258441172        0.0000000000000000     
  -5.4181492879017530E-002  0.13621835639090787        0.0000000000000000     
  -5.5630707866211646E-002  0.10858863368192155        0.0000000000000000     
  -5.7070001695658054E-002  0.11552333869336490        0.0000000000000000     
  -5.8371282783228201E-002  0.12251278873765103        0.0000000000000000     
  -5.9534551128922066E-002  0.12955698381477995        0.0000000000000000     
  -6.0559806732739668E-002  0.13665592392475165        0.0000000000000000     
  -6.2228659626559074E-002  0.10907938309576475        0.0000000000000000     
  -6.3885866490626692E-002  0.11600910823627966        0.0000000000000000     
  -6.5359687761142371E-002  0.12299963033770410        0.0000000000000000     
  -6.6650123438106057E-002  0.13005094940003806        0.0000000000000000     
  -6.7757173521517805E-002  0.13716306542328147        0.0000000000000000     
  -4.3882023976741291E-002  0.13555194321727831        0.0000000000000000     
  -4.4609981322751874E-002  0.14283470236509541        0.0000000000000000     
  -4.5415356216296825E-002  0.15062805533150941        0.0000000000000000     
  -4.6298148657376151E-002  0.15893200211652034        0.0000000000000000     
  -4.7258358645989845E-002  0.16774654272012821        0.0000000000000000     
  -4.8622231960351411E-002  0.13585036282175011        0.0000000000000000     
  -4.9347018898409700E-002  0.14310922617826263        0.0000000000000000     
  -4.9934989961217986E-002  0.15074824326019365        0.0000000000000000     
  -5.0386145148776311E-002  0.15876741406754316        0.0000000000000000     
  -5.0700484461084626E-002  0.16716673860031109        0.0000000000000000     
  -5.4181492879017530E-002  0.13621835639090787        0.0000000000000000     
  -5.4963642592006860E-002  0.14346816334150503        0.0000000000000000     
  -5.5545701539184242E-002  0.15101411094710687        0.0000000000000000     
  -5.5927669720549668E-002  0.15885619920771341        0.0000000000000000     
  -5.6109547136103145E-002  0.16699442812332457        0.0000000000000000     
  -6.0559806732739668E-002  0.13665592392475165        0.0000000000000000     
  -6.1459852403543375E-002  0.14391151385482259        0.0000000000000000     
  -6.2247490950195564E-002  0.15142565839224903        0.0000000000000000     
  -6.2922722372696249E-002  0.15919835753703113        0.0000000000000000     
  -6.3485546671045417E-002  0.16722961128916874        0.0000000000000000     
  -6.7757173521517805E-002  0.13716306542328147        0.0000000000000000     
  -6.8835648333019236E-002  0.14443927771821524        0.0000000000000000     
  -7.0040358194251987E-002  0.15198288559562018        0.0000000000000000     
  -7.1371303105216041E-002  0.15979388905549627        0.0000000000000000     
  -7.2828483065911429E-002  0.16787228809784349        0.0000000000000000     
   0.0000000000000000        0.0000000000000000        0.0000000000000000     
  -2.8805566122302650E-003   1.7417712581914773E-003   0.0000000000000000     
  -5.8735298489984546E-003   3.8589579405942211E-003   0.0000000000000000     
  -8.9789197103045670E-003   6.3515600472082321E-003   0.0000000000000000     
  -1.2196726196148606E-002   9.2195775780335096E-003   0.0000000000000000     
   0.0000000000000000        0.0000000000000000        0.0000000000000000     
  -3.2838977219794225E-003   1.9959889771568955E-003   0.0000000000000000     
  -6.6787033446747638E-003   4.3246282119218053E-003   0.0000000000000000     
  -1.0184416868086025E-002   6.9859177042947296E-003   0.0000000000000000     
  -1.3801038292213207E-002   9.9798574542756674E-003   0.0000000000000000     
   0.0000000000000000        0.0000000000000000        0.0000000000000000     
  -3.9540871732647283E-003   2.4220401836347110E-003   0.0000000000000000     
  -7.9123565894855617E-003   5.0568066295647958E-003   0.0000000000000000     
  -1.1874808248662501E-002   7.9042993377902559E-003   0.0000000000000000     
  -1.5841442150795540E-002   1.0964518308311088E-002   0.0000000000000000     
   0.0000000000000000        0.0000000000000000        0.0000000000000000     
  -4.8911249660861834E-003   3.0199248776249239E-003   0.0000000000000000     
  -9.5744895834308473E-003   6.0554931935231935E-003   0.0000000000000000     
  -1.4050093852033990E-002   9.1067049476948100E-003   0.0000000000000000     
  -1.8317937771895613E-002   1.2173560140139770E-002   0.0000000000000000     
   0.0000000000000000        0.0000000000000000        0.0000000000000000     
  -6.0950111004437870E-003   3.7896430591275350E-003   0.0000000000000000     
  -1.1665102326510619E-002   7.3206879037969984E-003   0.0000000000000000     
  -1.6710273678200497E-002   1.0593134534008390E-002   0.0000000000000000     
  -2.1230525155513415E-002   1.3606982949761710E-002   0.0000000000000000     
  -1.2196726196148606E-002   9.2195775780335096E-003   0.0000000000000000     
  -1.5428634452617919E-002   1.2359700630410518E-002   0.0000000000000000     
  -1.8576329625799852E-002   1.5668619301679731E-002   0.0000000000000000     
  -2.1639811715694405E-002   1.9146333591841140E-002   0.0000000000000000     
  -2.4619080722301578E-002   2.2792843500894760E-002   0.0000000000000000     
  -1.3801038292213207E-002   9.9798574542756674E-003   0.0000000000000000     
  -1.7410799820351729E-002   1.3206985270201461E-002   0.0000000000000000     
  -2.0895933655797026E-002   1.6567838960408945E-002   0.0000000000000000     
  -2.4256439798549089E-002   2.0062418524898127E-002   0.0000000000000000     
  -2.7492318248607921E-002   2.3690723963668999E-002   0.0000000000000000     
  -1.5841442150795540E-002   1.0964518308311088E-002   0.0000000000000000     
  -1.9739817393678773E-002   1.4195110969387690E-002   0.0000000000000000     
  -2.3497493075106290E-002   1.7553724749280453E-002   0.0000000000000000     
  -2.7114469195078081E-002   2.1040359647989379E-002   0.0000000000000000     
  -3.0590745753594155E-002   2.4655015665514462E-002   0.0000000000000000     
  -1.8317937771895613E-002   1.2173560140139770E-002   0.0000000000000000     
  -2.2415687172599050E-002   1.5324077727969206E-002   0.0000000000000000     
  -2.6381007883727634E-002   1.8626276668294250E-002   0.0000000000000000     
  -3.0213899905281387E-002   2.2080156961114900E-002   0.0000000000000000     
  -3.3914363237260277E-002   2.5685718606431162E-002   0.0000000000000000     
  -2.1230525155513415E-002   1.3606982949761710E-002   0.0000000000000000     
  -2.5438409157112554E-002   1.6593885545946010E-002   0.0000000000000000     
  -2.9546478081661075E-002   1.9785494717450343E-002   0.0000000000000000     
  -3.3554731929158990E-002   2.3181810464274703E-002   0.0000000000000000     
  -3.7463170699606287E-002   2.6782832786419096E-002   0.0000000000000000     
  -2.4619080722301578E-002   2.2792843500894760E-002   0.0000000000000000     
  -2.7517862201092959E-002   2.6634772996223282E-002   0.0000000000000000     
  -3.0339881707540147E-002   3.0698746045209422E-002   0.0000000000000000     
  -3.3085139241643136E-002   3.4984762647853183E-002   0.0000000000000000     
  -3.5753634803401935E-002   3.9492822804154559E-002   0.0000000000000000     
  -2.7492318248607921E-002   2.3690723963668999E-002   0.0000000000000000     
  -3.0629216361493475E-002   2.7498884820359316E-002   0.0000000000000000     
  -3.3692781492725712E-002   3.1533030638606852E-002   0.0000000000000000     
  -3.6683013642304620E-002   3.5793161418411580E-002   0.0000000000000000     
  -3.9599912810230217E-002   4.0279277159773530E-002   0.0000000000000000     
  -3.0590745753594155E-002   2.4655015665514462E-002   0.0000000000000000     
  -3.3960708708920651E-002   2.8445153686709041E-002   0.0000000000000000     
  -3.7258744019323733E-002   3.2458234596426432E-002   0.0000000000000000     
  -4.0484851684803390E-002   3.6694258394666633E-002   0.0000000000000000     
  -4.3639031705359627E-002   4.1153225081429656E-002   0.0000000000000000     
  -3.3914363237260277E-002   2.5685718606431162E-002   0.0000000000000000     
  -3.7512339243374500E-002   2.9473579595272449E-002   0.0000000000000000     
  -4.1037769287334221E-002   3.3474357918668173E-002   0.0000000000000000     
  -4.4490653369139432E-002   3.7688053576618342E-002   0.0000000000000000     
  -4.7870991488790156E-002   4.2114666569122938E-002   0.0000000000000000     
  -3.7463170699606287E-002   2.6782832786419096E-002   0.0000000000000000     
  -4.1284107964855002E-002   3.0584162546049544E-002   0.0000000000000000     
  -4.5029857296757167E-002   3.4581400605332074E-002   0.0000000000000000     
  -4.8700418695312768E-002   3.8774546964266694E-002   0.0000000000000000     
  -5.2295792160521812E-002   4.3163601622853390E-002   0.0000000000000000     
  -3.5753634803401935E-002   3.9492822804154559E-002   0.0000000000000000     
  -3.8335812597511988E-002   4.4210153534349844E-002   0.0000000000000000     
  -4.0822116828668771E-002   4.9123981858675329E-002   0.0000000000000000     
  -4.3212547496872263E-002   5.4234307777131001E-002   0.0000000000000000     
  -4.5507104602122483E-002   5.9541131289716887E-002   0.0000000000000000     
  -3.9599912810230217E-002   4.0279277159773530E-002   0.0000000000000000     
  -4.2430582638140354E-002   4.4978075098814511E-002   0.0000000000000000     
  -4.5162126767672915E-002   4.9876252471656328E-002   0.0000000000000000     
  -4.7794545198827885E-002   5.4973809278299014E-002   0.0000000000000000     
  -5.0327837931605293E-002   6.0270745518742543E-002   0.0000000000000000     
  -4.3639031705359627E-002   4.1153225081429656E-002   0.0000000000000000     
  -4.6705984582805636E-002   4.5825976924061824E-002   0.0000000000000000     
  -4.9670410818954631E-002   5.0703356189909489E-002   0.0000000000000000     
  -5.2532310413806627E-002   5.5785362878972636E-002   0.0000000000000000     
  -5.5291683367361608E-002   6.1071996991251272E-002   0.0000000000000000     
  -4.7870991488790156E-002   4.2114666569122938E-002   0.0000000000000000     
  -5.1162018431507833E-002   4.6753859010091825E-002   0.0000000000000000     
  -5.4346968982513955E-002   5.1605293013434805E-002   0.0000000000000000     
  -5.7425843141808472E-002   5.6668968579151907E-002   0.0000000000000000     
  -6.0398640909391427E-002   6.1944885707243089E-002   0.0000000000000000     
  -5.2295792160521812E-002   4.3163601622853390E-002   0.0000000000000000     
  -5.5798684184246952E-002   4.7761721356904485E-002   0.0000000000000000     
  -5.9191801258350822E-002   5.2582062942232284E-002   0.0000000000000000     
  -6.2475143382833422E-002   5.7624626378836794E-002   0.0000000000000000     
  -6.5648710557694751E-002   6.2889411666717993E-002   0.0000000000000000     
  -4.5507104602122483E-002   5.9541131289716887E-002   0.0000000000000000     
  -4.7745725980899434E-002   6.5049614993993546E-002   0.0000000000000000     
  -4.9968349469683128E-002   7.0764921487521545E-002   0.0000000000000000     
  -5.2174975068473572E-002   7.6687050770300899E-002   0.0000000000000000     
  -5.4365602777270761E-002   8.2816002842331607E-002   0.0000000000000000     
  -5.0327837931605293E-002   6.0270745518742543E-002   0.0000000000000000     
  -5.2808616376794071E-002   6.5767960134363188E-002   0.0000000000000000     
  -5.5283491945183200E-002   7.1466352066537217E-002   0.0000000000000000     
  -5.7752464636772659E-002   7.7365921315264624E-002   0.0000000000000000     
  -6.0215534451562483E-002   8.3466667880545381E-002   0.0000000000000000     
  -5.5291683367361608E-002   6.1071996991251272E-002   0.0000000000000000     
  -5.7999349081223832E-002   6.6559882899707046E-002   0.0000000000000000     
  -6.0706126956997571E-002   7.2245644977301599E-002   0.0000000000000000     
  -6.3412016994682824E-002   7.8129283224034937E-002   0.0000000000000000     
  -6.6117019194279578E-002   8.4210797639907048E-002   0.0000000000000000     
  -6.0398640909391427E-002   6.1944885707243089E-002   0.0000000000000000     
  -6.3317924094188724E-002   6.7425383290025134E-002   0.0000000000000000     
  -6.6236254505126255E-002   7.3102800219814718E-002   0.0000000000000000     
  -6.9153632142204047E-002   7.8977136496611880E-002   0.0000000000000000     
  -7.2070057005422059E-002   8.5048392120416594E-002   0.0000000000000000     
  -6.5648710557694751E-002   6.2889411666717993E-002   0.0000000000000000     
  -6.8764341415688740E-002   6.8364461305317425E-002   0.0000000000000000     
  -7.1873874589569245E-002   7.4037817794076560E-002   0.0000000000000000     
  -7.4977310079336335E-002   7.9909481132995439E-002   0.0000000000000000     
  -7.8074647884989939E-002   8.5979451322074046E-002   0.0000000000000000     
  -5.4365602777270761E-002   8.2816002842331607E-002   0.0000000000000000     
  -5.6494015403201703E-002   8.9131736708163462E-002   0.0000000000000000     
  -5.8513995753393395E-002   9.5614211372346283E-002   0.0000000000000000     
  -6.0425543827845860E-002  0.10226342683488003        0.0000000000000000     
  -6.2228659626559074E-002  0.10907938309576475        0.0000000000000000     
  -6.0215534451562483E-002   8.3466667880545381E-002   0.0000000000000000     
  -6.2618082692796256E-002   8.9753121418756104E-002   0.0000000000000000     
  -6.4905490663717591E-002   9.6209811586273314E-002   0.0000000000000000     
  -6.7077758364326473E-002  0.10283673838309704        0.0000000000000000     
  -6.9134885794622916E-002  0.10963390180922725        0.0000000000000000     
  -6.6117019194279578E-002   8.4210797639907048E-002   0.0000000000000000     
  -6.8759234017120766E-002   9.0473451439362723E-002   0.0000000000000000     
  -7.1276761924539286E-002   9.6900507836846755E-002   0.0000000000000000     
  -7.3669602916535112E-002  0.10349196683235917        0.0000000000000000     
  -7.5937756993108299E-002  0.11024782842589990        0.0000000000000000     
  -7.2070057005422059E-002   8.5048392120416594E-002   0.0000000000000000     
  -7.4917469376175258E-002   9.1292726769983359E-002   0.0000000000000000     
  -7.7627809535858502E-002   9.7686300124066636E-002   0.0000000000000000     
  -8.0201077484471806E-002  0.10422911218266642        0.0000000000000000     
  -8.2637273222015167E-002  0.11092116294578271        0.0000000000000000     
  -7.8074647884989939E-002   8.5979451322074046E-002   0.0000000000000000     
  -8.1092788769959706E-002   9.2210947410617972E-002   0.0000000000000000     
  -8.3958633497675239E-002   9.8567188447932899E-002   0.0000000000000000     
  -8.6672182068136525E-002  0.10504817443401879        0.0000000000000000     
  -8.9233434481343576E-002  0.11165390536887565        0.0000000000000000     
  -6.2228659626559074E-002  0.10907938309576475        0.0000000000000000     
  -6.3885866490626692E-002  0.11600910823627966        0.0000000000000000     
  -6.5359687761142371E-002  0.12299963033770410        0.0000000000000000     
  -6.6650123438106057E-002  0.13005094940003806        0.0000000000000000     
  -6.7757173521517805E-002  0.13716306542328147        0.0000000000000000     
  -6.9134885794622916E-002  0.10963390180922725        0.0000000000000000     
  -7.1020801041351805E-002  0.11655044674550089        0.0000000000000000     
  -7.2679432191257970E-002  0.12353551807275487        0.0000000000000000     
  -7.4110779244341396E-002  0.13058911579098920        0.0000000000000000     
  -7.5314842200602111E-002  0.13771123990020387        0.0000000000000000     
  -7.5937756993108299E-002  0.11024782842589990        0.0000000000000000     
  -7.8019384003013073E-002  0.11712788046677394        0.0000000000000000     
  -7.9852643795003744E-002  0.12409191080428619        0.0000000000000000     
  -8.1437536369080327E-002  0.13113991943843670        0.0000000000000000     
  -8.2774061725242792E-002  0.13827190636922537        0.0000000000000000     
  -8.2637273222015167E-002  0.11092116294578271        0.0000000000000000     
  -8.4881615375610522E-002  0.11774140940009882        0.0000000000000000     
  -8.6879322572379722E-002  0.12466880853229811        0.0000000000000000     
  -8.8630394812322821E-002  0.13170336034238050        0.0000000000000000     
  -9.0134832095439779E-002  0.13884506483034600        0.0000000000000000     
  -8.9233434481343576E-002  0.11165390536887565        0.0000000000000000     
  -9.1607495159144098E-002  0.11839103354547555        0.0000000000000000     
  -9.3759468523385875E-002  0.12526621125679055        0.0000000000000000     
  -9.5689354574068880E-002  0.13227943850282062        0.0000000000000000     
  -9.7397153311193127E-002  0.13943071528356582        0.0000000000000000     
  -6.7757173521517805E-002  0.13716306542328147        0.0000000000000000     
  -6.8835648333019236E-002  0.14443927771821524        0.0000000000000000     
  -7.0040358194251987E-002  0.15198288559562018        0.0000000000000000     
  -7.1371303105216041E-002  0.15979388905549627        0.0000000000000000     
  -7.2828483065911429E-002  0.16787228809784349        0.0000000000000000     
  -7.5314842200602111E-002  0.13771123990020387        0.0000000000000000     
  -7.6591727240365809E-002  0.14501500552140911        0.0000000000000000     
  -7.8241540543958155E-002  0.15261352777561518        0.0000000000000000     
  -8.0264282111379107E-002  0.16050680666282202        0.0000000000000000     
  -8.2659951942628748E-002  0.16869484218302974        0.0000000000000000     
  -8.2774061725242792E-002  0.13827190636922537        0.0000000000000000     
  -8.4228785985514476E-002  0.14560224785413015        0.0000000000000000     
  -8.6168275271918740E-002  0.15324532015062889        0.0000000000000000     
  -8.8592529584455543E-002  0.16120112325872160        0.0000000000000000     
  -9.1501548923124940E-002  0.16946965717840826        0.0000000000000000     
  -9.0134832095439779E-002  0.13884506483034600        0.0000000000000000     
  -9.1746824568465238E-002  0.14620100471637842        0.0000000000000000     
  -9.3820562378133757E-002  0.15387826272066138        0.0000000000000000     
  -9.6356045524445336E-002  0.16187683884319495        0.0000000000000000     
  -9.9353274007400030E-002  0.17019673308397903        0.0000000000000000     
  -9.7397153311193127E-002  0.13943071528356582        0.0000000000000000     
  -9.9145842989218066E-002  0.14681127610815389        0.0000000000000000     
 -0.10119840186260319       0.15451235548571263        0.0000000000000000     
 -0.10355482993134849       0.16253395341624205        0.0000000000000000     
 -0.10621512719545396       0.17087606989974213        0.0000000000000000     
 </DataArray>
 <DataArray  type="Float64" Name="stress" NumberOfComponents="3" format="ascii">
   13413565266.258924        4024069579.8776774        2893988061.2678995     
   11764453314.924726        1886516937.9502993        1715471000.6675584     
   10313346786.275806        408982371.64051962        810013380.75379515     
   9060245680.3121662       -408534119.05166101        177615201.52660948     
   8005149997.0338068       -566032534.12624216       -181723537.01399779     
   10538911944.796642        3161673583.4389925        2224322332.3680964     
   9667736672.5988407        1587422241.2786517        1445379421.3761289     
   8945727828.2108288        510392325.15094995        861797292.16395640     
   8372885411.6326103       -69416164.944109917        473575944.73157811     
   7949209422.8641815       -152003229.00652933        280715379.07899547     
   8338277384.1142874        2501483215.2342863        1710038438.6941674     
   8023042622.7477837        1423934322.3494527        1273690849.9558392     
   7808135294.3155842        680810205.91230154        955005384.09052134     
   7693555398.8176899        272110865.92283201        753982041.09821522     
   7679302936.2541027        197836302.38104630        670620820.97892046     
   6811661584.2118559        2043498475.2635570        1351136380.2461131     
   6830371165.3715582        1396053181.1627033        1200405286.4066877     
   6900569184.5900764        920236013.92457318        1089637656.5334907     
   7022255641.8674116        616046973.54916692        1018833490.6265210     
   7195430537.2035627        483486060.03648448        987992788.68577921     
   5959064545.0893507        1787719363.5268052        1147616157.0239334     
   6089722300.4701614        1503778817.7184024        1225522730.7286758     
   6223029499.0343027        1228669749.1877651        1265694109.4928634     
   6358986140.7817726        962392157.93489337        1268130293.3164945     
   6497592225.7125740        704946043.95978785        1232831282.1995709     
   8005149997.0338068       -566032534.12624216       -181723537.01399779     
   7924553056.1520805       -195872510.77810431       -78935781.031067818     
   7801099362.2798414        31431669.268319130       -9220012.3872307520     
   7634788915.4170904        115880006.01304102        27423768.917507820     
   7425621715.5638275        57472499.456044674        30995562.883156225     
   7949209422.8641815       -152003229.00652933        280715379.07899547     
   7746923329.1703939        21253405.175924301        278446066.93647438     
   7520367552.5387821        113611096.23229408        261080945.16200230     
   7269542092.9693480        125069844.16258287        228620013.75558212     
   6994446950.4620819        55629648.966781616        181063272.71721387     
   7679302936.2541027        197836302.38104630        670620820.97892046     
   7406688197.4829521        189597699.71822929        584979355.77241719     
   7128390845.8266659        162417054.10495234        502218258.64110827     
   6844410881.2852440        116294365.54122066        422337529.58499473     
   6554748303.8586817        51229634.027029037        345337168.60407877     
   7195430537.2035627        483486060.03648448        987992788.68577921     
   6903847661.0897512        309160372.84880495        840664085.47676337     
   6625169242.1434927        177849542.88629317        714191928.05008614     
   6359395280.3647833        89553570.148949623        608576316.40574944     
   6106525775.7536221        44272454.636774063        523817250.54375428     
   6497592225.7125740        704946043.95978785        1232831282.1995709     
   6238401719.9907980        379941424.56765461        1045500256.0495111     
   6010702741.4892616        159908562.57631612        897001953.38893449     
   5814495290.2079649        44847457.985772371        787336374.21784592     
   5649779366.1469049        34758110.796023130        716503518.53623891     
   7425621715.5638275        57472499.456044674        30995562.883156225     
   7253474863.6477814       -35147567.066761971        12883269.741046237     
   7094304326.6912689       -84513250.391114235       -2530833.9905358730     
   6948110104.6942997       -90624550.516987324       -15246748.311587544     
   6814892197.6568718       -53481467.444397926       -25264473.222110700     
   6994446950.4620819        55629648.966781616        181063272.71721387     
   6837840941.7098618       -2096222.5691795349        171780943.82312992     
   6689790934.7086506       -31302088.268443108        163702413.72449812     
   6550296929.4584465       -31987948.131020069        156827682.42131343     
   6419358925.9592505       -4153802.1568932533        151156749.91358331     
   6554748303.8586817        51229634.027029037        345337168.60407877     
   6409413450.7986288        27117051.236418724        339727771.88140839     
   6268214286.2810497        16790096.920726061        333827783.33910590     
   6131150810.3059521        20248771.079962730        327637202.97716832     
   5998223022.8733244        37493073.714118481        321156030.79560101     
   6106525775.7536221        44272454.636774063        523817250.54375428     
   5968192390.9140730        52492254.350016832        516723753.91587448     
   5829574381.4084692        59763305.176406622        507845274.85328138     
   5690671747.2368078        66085607.115948200        497181813.35597551     
   5551484488.3990927        71459160.168635845        484733369.42395288     
   5649779366.1469049        34758110.796023130        716503518.53623891     
   5514177762.0561991        74029386.771616220        702768889.92652988     
   5373871220.0909042        97617536.498588562        685754888.26702678     
   5228859740.2510233        105522559.97693634        665461513.55772626     
   5079143322.5365562        97744457.206665277        641888765.79863250     
   6814892197.6568718       -53481467.444397926       -25264473.222110700     
   6611654623.7314482       -28380369.299501896       -13108464.077104446     
   6401351008.5643187       -26832741.960291862        1833732.1708775752     
   6183981352.1554728       -48838585.426804781        19562115.521833763     
   5959545654.5049219       -94397899.698997259        40076685.975763798     
   6419358925.9592505       -4153802.1568932533        151156749.91358331     
   6219169228.3287697        7436112.7654907703        146926834.26857591     
   6013411184.2358418        464872.81305050850        145373217.10652062     
   5802084793.6804657       -25067522.014217138        146495898.42740795     
   5585190056.6626444       -69161071.716311693        150294878.23123747     
   5998223022.8733244        37493073.714118481        321156030.79560101     
   5800767234.0519915        35477615.168250799        302287500.93638915     
   5599240793.5474749        19893317.678429604        285985380.94009727     
   5393643701.3597651       -9259818.7553505898        272249670.80672002     
   5183975957.4888754       -51981794.133075953        261080370.53626436     
   5551484488.3990927        71459160.168635845        484733369.42395288     
   5356448640.9011164        55744137.908782959        452973535.92633957     
   5158839836.4992104        31452592.635841608        423670223.67161399     
   4958658075.1933823       -1415475.6501815319        396823432.65978044     
   4755903356.9836311       -42860066.949281931        372433162.89083719     
   5079143322.5365562        97744457.206665277        641888765.79863250     
   4886213448.8761368        68235680.987077236        598984939.23842120     
   4692208313.0910559        35142697.685280085        558427745.30107236     
   4497127915.1813107       -1534492.6987249851        520217183.98658782     
   4300972255.1469078       -41795890.164934635        484353255.29496419     
   5959545654.5049219       -94397899.698997259        40076685.975763798     
   5949514481.3673277       -88809965.005426884        47161541.910167001     
   5937863124.1606102       -88622643.875604868        59921399.081469536     
   5924591582.8847513       -93835936.309591532        78356257.489688694     
   5909699857.5397673       -104449842.30731440        102466117.13480462     
   5585190056.6626444       -69161071.716311693        150294878.23123747     
   5587242276.3119450       -56222586.771246195        145078958.09925568     
   5589158192.5206451       -43738446.628212214        141786673.43148124     
   5590937805.2887259       -31708651.287225962        140418024.22792011     
   5592581114.6162024       -20133200.748269081        140973010.48856407     
   5183975957.4888754       -51981794.133075953        261080370.53626436     
   5187393382.0030909       -34908215.313112974        245294868.40450233     
   5192158383.7052174       -13342712.533452272        227681635.96425620     
   5198270962.5952454        12714714.205882549        208240673.21552336     
   5205731118.6731901        43264064.904942513        186971980.15830609     
   4755903356.9836311       -42860066.949281931        372433162.89083719     
   4749967798.4407673       -24866850.631024122        347809272.82590950     
   4746863697.7143345        2564558.4086611271        317606286.67979658     
   4746591054.8043261        39434160.169769764        281824204.45250475     
   4749149869.7107487        85741954.652311802        240463026.14402366     
   4300972255.1469078       -41795890.164934635        484353255.29496419     
   4274965525.6249762       -26098492.724972486        452622171.36346954     
   4253274134.5479951        3983366.1981546879        411560625.57810122     
   4235898081.9159555        48449686.604424715        361168617.93884671     
   4222837367.7288709        107300468.49386358        301446148.44571865     
   5909699857.5397673       -104449842.30731440        102466117.13480462     
   5594763571.4673252       -179542056.29449892        81236050.576302469     
   5298283772.9115629       -193112645.22607493        72296399.845305055     
   5020260461.8724861       -145161609.10204029        75647164.941811115     
   4760693638.3500881       -35688947.922404766        91288345.865814239     
   5592581114.6162024       -20133200.748269081        140973010.48856407     
   5313234714.0866537       -74025718.402493715        112376584.81198893     
   5046439305.8530779       -86081595.070161104        93974340.725613624     
   4792194889.9154491       -56300830.751319408        85766278.229435578     
   4550501466.2737961        15316574.554087162        87752397.323462501     
   5205731118.6731901        43264064.904942513        186971980.15830609     
   4955985363.0085535        8774471.3803098202        144119450.93947297     
   4712885104.4191513       -3563465.2268800735        109364869.07353668     
   4476430342.9049921        6250255.0834088326        82708234.560503155     
   4246621078.4660563        38215632.311127663        64149547.400366157     
   4749149869.7107487        85741954.652311802        240463026.14402366     
   4523015518.2330093        68858513.053860188        176464648.95875680     
   4297621168.6097870        54441744.303789616        118467984.88909057     
   4072966820.8410726        42491648.402081966        66473033.935021445     
   3849052474.9268684        33008225.348748684        20479796.096549537     
   4222837367.7288709        107300468.49386358        301446148.44571865     
   4014325179.7600293        106226406.61819124        209412178.86983824     
   3800647498.4249721        87934033.521799803        121283688.17225702     
   3581804323.7237110        52423349.204724550        37060676.352974355     
   3357795655.6562381       -305646.33306264877       -43256856.588009134     
   4760693638.3500881       -35688947.922404766        91288345.865814239     
   4352103023.1243019        23701144.299295187        109623843.79628725     
   3921511679.8673830        9755476.4171898365        101407710.44660704     
   3468919608.5793133       -77525951.568732023        66639945.816761412     
   2994326809.2601047       -238143139.65846026        5320549.9067663876     
   4550501466.2737961        15316574.554087162        87752397.323462501     
   4075361856.9523339        9981601.5418894291        58905020.399137199     
   3583109592.0731716       -52395556.662609816        20354294.350742918     
   3073744671.6363115       -171814900.05946755       -27899780.821740523     
   2547267095.6417561       -348276428.64861035       -85857205.118306398     
   4246621078.4660563        38215632.311127663        64149547.400366157     
   3753070424.0662737       -17403021.229725361       -6177953.1597190462     
   3247295186.5822401       -113770285.05142570       -69360520.687813640     
   2729295366.0139465       -250886159.15397859       -125398155.18392049     
   2199070962.3614039       -428750643.53735805       -174290856.64803094     
   3849052474.9268684        33008225.348748684        20479796.096549537     
   3385228724.4661222       -58452724.015587091       -85625076.880294621     
   2914068463.3945684       -174368708.74928010       -167736734.66906628     
   2435571691.7122078       -314739728.85232520       -225855177.26976898     
   1949738409.4190459       -479565784.32471585       -259980404.68240070     
   3357795655.6562381       -305646.33306264877       -43256856.588009134     
   2971836758.1518874       -113167506.81566179       -179436350.76258084     
   2583429422.5101757       -234190827.75613248       -274774347.59301043     
   2192573648.7311020       -363375609.15448737       -329270847.07929528     
   1799269436.8146751       -500721851.01066411       -342925849.22143668     
   2994326809.2601047       -238143139.65846026        5320549.9067663876     
   3620182527.8130074       -96720261.949882507        148660992.75763467     
   4249515135.1245332        56292244.954107523        458380045.42336643     
   4882324631.1946793        220894381.05348063        934477707.90397906     
   5518611016.0234232        397086146.34821820        1576953980.1994462     
   2547267095.6417561       -348276428.64861035       -85857205.118306398     
   3505605422.2263417       -108985496.25336814        42882787.721658908     
   4461479057.2547379        122089797.62127113        238415087.38188714     
   5414888000.7269850        344949452.97538829        500739693.86239368     
   6365832252.6430588        559593469.80895901        829856607.16315544     
   2199070962.3614039       -428750643.53735805       -174290856.64803094     
   3205359602.7073627       -176951344.73659420       -67083157.519557059     
   4203241971.1823707        46827047.827682018        7330545.4345955094     
   5192718067.7864370        242584534.15547323        48950252.214412823     
   6173787892.5195484        410321114.24674249        57775962.819890559     
   1949738409.4190459       -479565784.32471585       -259980404.68240070     
   2719445069.2561021       -300617807.39946818       -181236842.96599579     
   3474803876.9074292       -169496004.42666841       -234873580.41852355     
   4215814832.3730221       -86200375.406325102       -420890617.03998202     
   4942477935.6528673       -50730920.338432074       -739287952.83037269     
   1799269436.8146751       -500721851.01066411       -342925849.22143668     
   2047861821.8725564       -479984884.24202096       -299578268.61768144     
   2276164774.4299059       -526879359.14181376       -488197290.17746049     
   2484178294.4867458       -641405275.70996046       -908782913.90076625     
   2671902382.0430641       -823562633.94652963       -1561335139.7876024     
   5959064545.0893507        1787719363.5268052        1147616157.0239334     
   6089722300.4701614        1503778817.7184024        1225522730.7286758     
   6223029499.0343027        1228669749.1877651        1265694109.4928634     
   6358986140.7817726        962392157.93489337        1268130293.3164945     
   6497592225.7125740        704946043.95978785        1232831282.1995709     
   5435371152.7184515        1630611345.8155355        1031515144.4119337     
   5489984736.0799351        1373711375.9246991        1111924054.6895645     
   5546764270.7155447        1124031243.6142778        1165332510.0657537     
   5605709756.6252775        881570948.88427079        1191740510.5405009     
   5666821193.8091345        646330491.73467827        1191148056.1138067     
   4895466293.0708361        1468639887.9212508        934870717.79441822     
   4904706390.2390337        1247981699.6957936        1017217890.7508647     
   4915628946.7721491        1032931709.3533995        1083299348.8449829     
   4928233962.6701851        823489916.89406872        1133115092.0767729     
   4942521437.9331388        619656322.31780112        1166665120.4462352     
   4339349966.1465082        1301804989.8439524        857682877.17138731     
   4333887262.9474573        1126589789.0316856        941404238.91257620     
   4329623527.2041187        955371146.40513039        1019594625.8305506     
   4326558758.9164953        788149061.96428776        1092254037.9253106     
   4324692958.0845852        624923535.70915747        1159382475.1968563     
   3767022171.9454651        1130106651.5836396        799951622.54284084     
   3777527354.2052045        1009535643.9323746        884483099.17469931     
   3788748012.0114527        891349554.76947045        974218341.02245724     
   3800684145.3642087        775548384.09492803        1069157348.0861143     
   3813335754.2634730        662132131.90874505        1169300120.3656700     
   6497592225.7125740        704946043.95978785        1232831282.1995709     
   6238401719.9907980        379941424.56765461        1045500256.0495111     
   6010702741.4892616        159908562.57631612        897001953.38893449     
   5814495290.2079649        44847457.985772371        787336374.21784592     
   5649779366.1469049        34758110.796023130        716503518.53623891     
   5666821193.8091345        646330491.73467827        1191148056.1138067     
   5514226579.0069504        387543696.69487977        1068315847.2522396     
   5386212481.7475271        210691960.13094664        973366717.68110240     
   5282778902.0308628        115775282.04287791        906300667.40039766     
   5203925839.8569565        102793662.43067122        867117696.41012239     
   4942521437.9331388        619656322.31780112        1166665120.4462352     
   4865238016.3389645        417701942.31686306        1100268884.2494352     
   4805624102.6100702        274645921.86686087        1050806083.1440115     
   4763679696.7464533        190488260.96778941        1018276717.1299652     
   4739404798.7481232        165228959.61965346        1002680786.2072961     
   4324692958.0845852        624923535.70915747        1159382475.1968563     
   4291436031.9868355        470416161.43360555        1141359367.0410974     
   4268937604.0768886        351770447.78405654        1129320049.7776620     
   4257197674.3547425        268986394.76051092        1123264523.4065492     
   4256216242.8203969        222064002.36296797        1123192787.9277599     
   3813335754.2634730        662132131.90874505        1169300120.3656700     
   3792820625.9505672        545686354.04510355        1191587295.6272275     
   3776152986.1479840        442065537.88253677        1208908617.5820537     
   3763332834.8557220        351269683.42104065        1221264086.2301486     
   3754360172.0737810        273298790.66061616        1228653701.5715129     
   5649779366.1469049        34758110.796023130        716503518.53623891     
   5514177762.0561991        74029386.771616220        702768889.92652988     
   5373871220.0909042        97617536.498588562        685754888.26702678     
   5228859740.2510233        105522559.97693634        665461513.55772626     
   5079143322.5365562        97744457.206665277        641888765.79863250     
   5203925839.8569565        102793662.43067122        867117696.41012239     
   5054537849.6722002        103498072.13888907        845595698.14828980     
   4903545061.3229322        98853154.632068634        825648206.61792028     
   4750947474.8091555        88858909.910217047        807275221.81900930     
   4596745090.1308670        73515337.973329544        790476743.75155652     
   4739404798.7481232        165228959.61965346        1002680786.2072961     
   4590098650.4157600        131526971.44442511        976988247.95509791     
   4442287843.6289625        102809455.08774877        957724096.21561432     
   4295972378.3877335        79076410.549628973        944888330.98884678     
   4151152254.6920681        60327837.830061197        938480952.27479744     
   4256216242.8203969        222064002.36296797        1123192787.9277599     
   4120860164.2868748        158116084.68822837        1096946539.3469489     
   3990099567.0089955        109486437.86563230        1081982557.0601099     
   3863934450.9867582        76175061.895175457        1078300841.0672438     
   3742364816.2201667        58181956.776861668        1085901391.3683486     
   3754360172.0737810        273298790.66061616        1228653701.5715129     
   3646822391.2855453        183265411.87029874        1205470572.3238471     
   3546980231.4630284        118884102.96571100        1198423589.1514077     
   3454833692.6062322        80154863.946855307        1207512752.0541995     
   3370382774.7151542        67077694.813728929        1232738061.0322156     
   5079143322.5365562        97744457.206665277        641888765.79863250     
   4886213448.8761368        68235680.987077236        598984939.23842120     
   4692208313.0910559        35142697.685280085        558427745.30107236     
   4497127915.1813107       -1534492.6987249851        520217183.98658782     
   4300972255.1469078       -41795890.164934635        484353255.29496419     
   4596745090.1308670        73515337.973329544        790476743.75155652     
   4413366444.0935249        45080828.167464733        760298180.39079392     
   4228732337.2352443        12461448.958482742        734872174.94482708     
   4042842769.5560327       -24342799.653610468        714198727.41365802     
   3855697741.0558829       -65331917.668825150        698277837.79728770     
   4151152254.6920681        60327837.830061197        938480952.27479744     
   3984198908.5404720        35029816.116723776        920817420.30116308     
   3815809902.8716640        4946262.6793582439        910312371.53426027     
   3645985237.6856494       -29922822.482030392        906965805.97409046     
   3474724912.9824300       -69577439.367444277        910777723.62065089     
   3742364816.2201667        58181956.776861668        1085901391.3683486     
   3598710842.2169824        38082644.834850788        1080542658.9695268     
   3453441010.0003176        12597138.847902298        1084748335.0693703     
   3306555319.5701718       -18274561.183977365        1098518419.6678796     
   3158053770.9265480       -54532455.260790110        1121852912.7650578     
   3370382774.7151542        67077694.813728929        1232738061.0322156     
   3256902245.1230526        54239314.321843386        1239473896.3958869     
   3141625658.6212006        35414077.464115024        1258180065.5501575     
   3024553015.2095942        10601984.240543246        1288856568.4950316     
   2905684314.8882384       -20196965.348867655        1331503405.2305012     
   4300972255.1469078       -41795890.164934635        484353255.29496419     
   4274965525.6249762       -26098492.724972486        452622171.36346954     
   4253274134.5479951        3983366.1981546879        411560625.57810122     
   4235898081.9159555        48449686.604424715        361168617.93884671     
   4222837367.7288709        107300468.49386358        301446148.44571865     
   3855697741.0558829       -65331917.668825150        698277837.79728770     
   3810214053.8406510       -58929876.458303690        697095671.81391728     
   3769211820.9674067       -37589654.107821465        692406774.74252725     
   3732691042.4361482       -1311250.6173870564        684211146.58311617     
   3700651718.2468753        49905334.013004541        672508787.33568299     
   3474724912.9824300       -69577439.367444277        910777723.62065089     
   3426403498.8334908       -67478985.158482552        940338277.46528506     
   3382729654.9235792       -49888630.152764559        972215830.98775458     
   3343703381.2526960       -16806374.350288630        1006410384.1880629     
   3309324677.8208370        31767782.248938680        1042921937.0662040     
   3158053770.9265480       -54532455.260790110        1121852912.7650578     
   3123533860.6034956       -51745818.825511456        1182349988.3175721     
   3093827636.4165092       -32913561.936681271        1250987794.3137858     
   3068935098.3655896        1964315.4057066441        1327766330.7536914     
   3048856246.4507351        52887813.201654077        1412685597.6372914     
   2905684314.8882384       -20196965.348867655        1331503405.2305012     
   2901605139.1506667       -11730377.459393263        1423130804.3707814     
   2902505765.4461985        13335550.540429831        1528722664.7206144     
   2908386193.7748384        55000818.650615931        1648278986.2799985     
   2919246424.1365867        113265426.87115204        1781799769.0489345     
   4222837367.7288709        107300468.49386358        301446148.44571865     
   4014325179.7600293        106226406.61819124        209412178.86983824     
   3800647498.4249721        87934033.521799803        121283688.17225702     
   3581804323.7237110        52423349.204724550        37060676.352974355     
   3357795655.6562381       -305646.33306264877       -43256856.588009134     
   3700651718.2468753        49905334.013004541        672508787.33568299     
   3504189700.2442489        53151717.766232252        621400405.71273160     
   3304140694.2294078        44441474.812082410        574658880.80959654     
   3100504700.2023616        23774605.150581002        532284212.62626576     
   2893281718.1631069       -8848891.2182823420        494276401.16275549     
   3309324677.8208370        31767782.248938680        1042921937.0662040     
   3126231052.1887455        39730078.352348804        1034580732.9758550     
   2941128943.8984470        40997432.261739373        1031067763.4468298     
   2754018352.9499464        35569843.977121353        1032383028.4791318     
   2564899279.3432446        23447313.498488426        1038526528.0727673     
   3048856246.4507351        52887813.201654077        1412685597.6372914     
   2880449235.5935125        65961488.376548648        1448953160.6592083     
   2711612247.4320879        77601905.870780349        1490510336.0839689     
   2542345281.9664578        87809065.684328079        1537357123.9115672     
   2372648339.1966367        96582967.817230821        1589493524.1420138     
   2919246424.1365867        113265426.87115204        1781799769.0489345     
   2766844250.4585586        131845947.83883369        1864517688.7627943     
   2615590604.8303318        154254895.63919806        1952986598.7210078     
   2465485487.2519088        180492270.27223039        2047206498.9235833     
   2316528897.7232900        210558071.73795146        2147177389.3705103     
   3357795655.6562381       -305646.33306264877       -43256856.588009134     
   2971836758.1518874       -113167506.81566179       -179436350.76258084     
   2583429422.5101757       -234190827.75613248       -274774347.59301043     
   2192573648.7311020       -363375609.15448737       -329270847.07929528     
   1799269436.8146751       -500721851.01066411       -342925849.22143668     
   2893281718.1631069       -8848891.2182823420        494276401.16275549     
   2607429635.2500472       -78407620.227622747        393938423.95448166     
   2316364648.6711721       -165342694.78969216        319771161.05538422     
   2020086758.4264698       -269654114.90450454        271774612.46545976     
   1718595964.5159566       -391341880.57203579        249948778.18470880     
   2564899279.3432446        23447313.498488426        1038526528.0727673     
   2337237488.0644116       -15383240.924721599        970804858.04759097     
   2101598327.5913091       -80805025.995508552        914583119.29662216     
   1857981797.9239228       -172818041.71390903        869861311.81985474     
   1606387899.0622602       -291422288.07988763        836639435.61729455     
   2372648339.1966367        96582967.817230821        1589493524.1420138     
   2161260316.5949802        75905631.093050241        1551162951.5167403     
   1939130459.2705884        19422178.626407266        1509661527.1306958     
   1706258767.2234607       -72867389.582681417        1464989250.9838817     
   1462645240.4535966       -200963073.53422952        1417146123.0763063     
   2316528897.7232900        210558071.73795146        2147177389.3705103     
   2079498120.8417468        195458995.82566500        2135012704.3619308     
   1828961043.7090173        135338919.07608956        2105006384.5576108     
   1564917666.3250809        30197841.489157796        2057158429.9575543     
   1287367988.6899548       -119964236.93507159        1991468840.5617609     
   1799269436.8146751       -500721851.01066411       -342925849.22143668     
   2047861821.8725564       -479984884.24202096       -299578268.61768144     
   2276164774.4299059       -526879359.14181376       -488197290.17746049     
   2484178294.4867458       -641405275.70996046       -908782913.90076625     
   2671902382.0430641       -823562633.94652963       -1561335139.7876024     
   1718595964.5159566       -391341880.57203579        249948778.18470880     
   1473072428.0991688       -490348070.56477875        331469066.90459663     
   1236646233.8712811       -559029786.59451902        292499823.59858775     
   1009317381.8323047       -597387028.66124439        133041048.26669009     
   791085871.98221374       -605419796.76498580       -146907259.09110111     
   1606387899.0622602       -291422288.07988763        836639435.61729455     
   1185254355.8497744       -414619860.43032187        990617002.92430544     
   802604929.51560688       -409537043.18635249        1135582108.3430607     
   458439620.05976510       -276173836.34796655        1271534751.8735604     
   152758427.48224396       -14530239.915171206        1398474933.5157950     
   1462645240.4535966       -200963073.53422952        1417146123.0763063     
   1184407605.1243675       -252800253.83868027        1677865539.4414375     
   974040861.36289096       -78401128.917288482        2041049564.0559428     
   831545009.16915143        322234301.22989672        2506698196.9198356     
   756920048.54315948        949106036.60291243        3074811438.0331063     
   1287367988.6899548       -119964236.93507159        1991468840.5617609     
   1470532175.9229500       -4889250.7898319960        2393214676.4559951     
   1750954029.4131191        434377956.21264207        3008902190.7372508     
   2128633549.1604464        1197837384.0723252        3838531383.4055309     
   2603570735.1649485        2285489032.7892447        4882102254.4608145     
   3767022171.9454651        1130106651.5836396        799951622.54284084     
   3777527354.2052045        1009535643.9323746        884483099.17469931     
   3788748012.0114527        891349554.76947045        974218341.02245724     
   3800684145.3642087        775548384.09492803        1069157348.0861143     
   3813335754.2634730        662132131.90874505        1169300120.3656700     
   3205950642.0883689        961785192.62651062        756506005.16451120     
   3234206552.2620745        868864003.40530336        853330372.14875901     
   3262272274.2067270        775308853.42058885        952224652.67475975     
   3290147807.9223275        681119742.67236769        1053188846.7425140     
   3317833153.4088764        586296671.16063929        1156222954.3520215     
   2683603108.1958809        805080932.45876431        722175076.29213071     
   2720655884.3574204        737123403.08977509        830235725.89061403     
   2756612808.5143466        665513033.70541084        937232437.35670435     
   2791473880.6666613        590249824.30567217        1043165210.6904022     
   2825239100.8143630        511333774.89055872        1148034045.8917072     
   2199979570.2680006        659993871.08040023        696958835.92569923     
   2236875350.4912424        614313842.98578954        815199160.40026426     
   2271769614.9343114        561962095.62393653        929241695.06829047     
   2304662363.5972075        502938628.99484050        1039086439.9297777     
   2335553596.4799309        437243443.09850276        1144733394.9847269     
   1755080028.3047287        526524008.49141860        680857284.06521690     
   1782864950.6635418        500435323.09334719        808220675.67770994     
   1807742693.4666219        464656039.17616528        928252425.80951846     
   1829713256.7139685        419186156.73987305        1040952534.4606420     
   1848776640.4055824        364025675.78447092        1146321001.6310809     
   3813335754.2634730        662132131.90874505        1169300120.3656700     
   3792820625.9505672        545686354.04510355        1191587295.6272275     
   3776152986.1479840        442065537.88253677        1208908617.5820537     
   3763332834.8557220        351269683.42104065        1221264086.2301486     
   3754360172.0737810        273298790.66061616        1228653701.5715129     
   3317833153.4088764        586296671.16063929        1156222954.3520215     
   3290026006.7114954        480080592.30688894        1184885367.8679147     
   3265873712.1859074        386047354.02578187        1210543690.0078905     
   3245376269.8321133        304196956.31731653        1233197920.7719498     
   3228533679.6501102        234529399.18149412        1252848060.1600914     
   2825239100.8143630        511333774.89055872        1148034045.8917072     
   2795744969.8205457        417028905.27311093        1182846955.2669857     
   2769713054.6599936        334264755.09987640        1216617535.1971610     
   2747143355.3327045        263041324.37085354        1249345785.6822329     
   2728035871.8386788        203358613.08604336        1281031706.7222009     
   2335553596.4799309        437243443.09850276        1144733394.9847269     
   2309977515.2777176        356531292.94376945        1185472057.8244398     
   2287671013.5702395        286717741.10481817        1227130153.1498644     
   2268634091.3574967        227802787.58165127        1269707680.9609988     
   2252866748.6394877        179786432.37426507        1313204641.2578433     
   1848776640.4055824        364025675.78447092        1146321001.6310809     
   1832723643.0830123        298587755.31886470        1192760675.5402792     
   1819747588.9166479        243406312.04060942        1242081543.8660011     
   1809848477.9064894        198481345.94970781        1294283606.6082475     
   1803026310.0525360        163812857.04615802        1349366863.7670186     
   3754360172.0737810        273298790.66061616        1228653701.5715129     
   3646822391.2855453        183265411.87029874        1205470572.3238471     
   3546980231.4630284        118884102.96571100        1198423589.1514077     
   3454833692.6062322        80154863.946855307        1207512752.0541995     
   3370382774.7151542        67077694.813728929        1232738061.0322156     
   3228533679.6501102        234529399.18149412        1252848060.1600914     
   3162765151.3200231        164930919.75642478        1244130032.5827146     
   3103064974.6567230        115560279.22064376        1246690307.1213231     
   3049433149.6602097        86417477.574150562        1260528883.7759149     
   3001869676.3304811        77502514.816942573        1285645762.5464895     
   2728035871.8386788        203358613.08604336        1281031706.7222009     
   2690157041.7974734        150031166.77544153        1284880299.9663608     
   2656719294.1241198        111507328.35768354        1295149351.3672600     
   2627722628.8186226        87787097.832774162        1311838860.9248998     
   2603167045.8809767        78870475.200708389        1334948828.6392784     
   2252866748.6394877        179786432.37426507        1313204641.2578433     
   2228998062.7178936        138566152.92734909        1327721374.4747844     
   2207943189.8652205        106725250.37683606        1343800721.8892193     
   2189702130.0814681        84263724.722728014        1361442683.5011513     
   2174274883.3666387        71181575.965023994        1380647259.3105795     
   1803026310.0525360        163812857.04615802        1349366863.7670186     
   1779288214.0812852        130535878.21214712        1372653256.1079843     
   1756736661.8800237        101214045.27809948        1392644418.6872029     
   1735371653.4487510        75847358.244014680        1409340351.5046723     
   1715193188.7874646        54435817.109887242        1422741054.5603943     
   3370382774.7151542        67077694.813728929        1232738061.0322156     
   3256902245.1230526        54239314.321843386        1239473896.3958869     
   3141625658.6212006        35414077.464115024        1258180065.5501575     
   3024553015.2095942        10601984.240543246        1288856568.4950316     
   2905684314.8882384       -20196965.348867655        1331503405.2305012     
   3001869676.3304811        77502514.816942573        1285645762.5464895     
   2915772531.0381284        64803455.727532744        1278764122.8178310     
   2828734070.5118985        48966679.191870332        1280944139.9747279     
   2740754294.7517943        29992185.209955573        1292185814.0171824     
   2651833203.7578158        7879973.7817918062        1312489144.9451928     
   2603167045.8809767        78870475.200708389        1334948828.6392784     
   2536142779.4453855        63817585.880877018        1315446912.4401453     
   2469031939.4517975        48476118.034384131        1302097976.2215259     
   2401834525.9002118        32846071.661233902        1294902019.9834197     
   2334550538.7906275        16927446.761423588        1293859043.7258239     
   2174274883.3666387        71181575.965023994        1380647259.3105795     
   2118012990.3448279        51281704.781874895        1349522265.2628305     
   2062519265.4408977        33942393.991659880        1321641574.2905524     
   2007793708.6548464        19163643.594377041        1297005186.3937418     
   1953836319.9866757        6945453.5900292397        1275613101.5723989     
   1715193188.7874646        54435817.109887242        1422741054.5603943     
   1661383163.7364533        27195812.430531263        1380990181.2858896     
   1609196048.4791956        5365507.0636923313        1339574934.1818056     
   1558631843.0156980       -11055098.990616798        1298495313.2481494     
   1509690547.3459573       -22066005.732401490        1257751318.4849169     
   2905684314.8882384       -20196965.348867655        1331503405.2305012     
   2901605139.1506667       -11730377.459393263        1423130804.3707814     
   2902505765.4461985        13335550.540429831        1528722664.7206144     
   2908386193.7748384        55000818.650615931        1648278986.2799985     
   2919246424.1365867        113265426.87115204        1781799769.0489345     
   2651833203.7578158        7879973.7817918062        1312489144.9451928     
   2678356828.7862244        24785890.156071067        1383887991.4963279     
   2708712788.6061296        54466255.835338235        1462915455.4690967     
   2742901083.2175303        96921070.819590092        1549571536.8634970     
   2780921712.6204257        152150335.10882294        1643856235.6795280     
   2334550538.7906275        16927446.761423588        1293859043.7258239     
   2373574553.7623863        36841968.373716354        1343690625.9059384     
   2415283436.2840319        65706048.485628009        1394814981.7197640     
   2459677186.3555636        103519687.09716165        1447232111.1673012     
   2506755803.9769812        150282884.20831382        1500942014.2485507     
   1953836319.9866757        6945453.5900292397        1275613101.5723989     
   1987258314.0791554        24437857.193544745        1302538707.5996125     
   2022217708.4799089        47054928.491308451        1324421243.4726191     
   2058714503.1889412        74796667.483338952        1341260709.1914144     
   2096748698.2062509        107663074.16961825        1353057104.7560034     
   1509690547.3459573       -22066005.732401490        1257751318.4849169     
   1519408109.7365270       -12426443.384446263        1260432236.5773501     
   1529515605.1937630       -1487104.1476050019        1251734240.7276573     
   1540013033.7176635        10752011.978118777        1231657330.9358346     
   1550900395.3082321        24290904.992732584        1200201507.2018821     
   2919246424.1365867        113265426.87115204        1781799769.0489345     
   2766844250.4585586        131845947.83883369        1864517688.7627943     
   2615590604.8303318        154254895.63919806        1952986598.7210078     
   2465485487.2519088        180492270.27223039        2047206498.9235833     
   2316528897.7232900        210558071.73795146        2147177389.3705103     
   2780921712.6204257        152150335.10882294        1643856235.6795280     
   2642198597.3906951        161099074.78273630        1680679035.1490879     
   2504088816.8910880        172092263.55705893        1724495915.7869289     
   2366592371.1216073        185129901.43180645        1775306877.5930521     
   2229709260.0822511        200211988.40696764        1833111920.5674510     
   2506755803.9769812        150282884.20831382        1500942014.2485507     
   2385263435.5496120        150665349.09466887        1491245301.2675233     
   2263849208.5326929        151308285.34918857        1489785760.3786969     
   2142513122.9262209        152211692.97186077        1496563391.5820763     
   2021255178.7301929        153375571.96268159        1511578194.8776579     
   2096748698.2062509        107663074.16961825        1353057104.7560034     
   1996038764.9353104        100544770.77463639        1296216487.1180942     
   1894871779.7551422        91902961.015567720        1248856132.4963117     
   1793247742.6657364        81737644.892370462        1210976040.8906567     
   1691166653.6671031        70048822.405082583        1182576212.3011270     
   1550900395.3082321        24290904.992732584        1200201507.2018821     
   1474524585.5477865        10737339.822640359        1095592592.7008052     
   1397156530.5584326       -6123709.4438115358        1001707032.1397756     
   1318796230.3401725       -26292242.806621432        918544825.51879609     
   1239443684.8929975       -49768260.265814424        846105972.83786583     
   2316528897.7232900        210558071.73795146        2147177389.3705103     
   2079498120.8417468        195458995.82566500        2135012704.3619308     
   1828961043.7090173        135338919.07608956        2105006384.5576108     
   1564917666.3250809        30197841.489157796        2057158429.9575543     
   1287367988.6899548       -119964236.93507159        1991468840.5617609     
   2229709260.0822511        200211988.40696764        1833111920.5674510     
   1956106056.2665226        161664035.05851573        1771768139.7035525     
   1673572586.4081140        93348528.234468281        1705544636.9405200     
   1382108850.5070286       -4734532.0651714206        1634441412.2783511     
   1081714848.5632684       -132585145.84040588        1558458465.7170424     
   2021255178.7301929        153375571.96268159        1511578194.8776579     
   1748113584.8277030        102488952.23227280        1406394024.7350512     
   1470617759.0910580        37088226.388006926        1309292045.5899017     
   1188767701.5202518       -42826605.570128381        1220272257.4422245     
   902563412.11528599       -137255543.64212555        1139334660.2920096     
   1691166653.6671031        70048822.405082583        1182576212.3011270     
   1455520706.5252960        17933747.346959412        1038890359.4564151     
   1220096561.7578447       -33441986.463301122        916248610.50576389     
   984894219.36475325       -84078379.025696456        814650965.44918191     
   749913679.34602356       -133975430.34022754        734097424.28666842     
   1239443684.8929975       -49768260.265814424        846105972.83786583     
   1078327421.3592987       -92001579.597425997        669257143.86764812     
   922008994.40847611       -118242110.31945330        526414331.68809795     
   770488404.04053211       -128489852.43188420        417577536.29921907     
   623765650.25546718       -122744805.93471774        342746757.70100766     
   1287367988.6899548       -119964236.93507159        1991468840.5617609     
   1470532175.9229500       -4889250.7898319960        2393214676.4559951     
   1750954029.4131191        434377956.21264207        3008902190.7372508     
   2128633549.1604464        1197837384.0723252        3838531383.4055309     
   2603570735.1649485        2285489032.7892447        4882102254.4608145     
   1081714848.5632684       -132585145.84040588        1558458465.7170424     
   1722472488.0428250        107661007.84581554        2012017094.2580218     
   2428699695.7855825        566139055.74269795        2574743353.6306524     
   3200396471.7915411        1242848997.8502412        3246637243.8349323     
   4037562816.0606880        2137790834.1684349        4027698764.8708634     
   902563412.11528599       -137255543.64212555        1139334660.2920096     
   1701560082.2546403        138355451.10903352        1607619967.1534395     
   2534238222.6632242        526238013.42429757        2080298857.2911510     
   3400597833.3410325        1026392143.3036485        2557371330.7051311     
   4300638914.2880735        1638817840.7471056        3038837387.3954110     
   749913679.34602356       -133975430.34022754        734097424.28666842     
   1407794958.5584011        87194078.999840915        1180023295.1422467     
   2067569610.0460408        314674829.25744802        1525568701.7187395     
   2729237633.8089395        548466820.43258739        1770733644.0161426     
   3392799029.8471050        788570052.52528381        1915518122.0344625     
   623765650.25546718       -122744805.93471774        342746757.70100766     
   841177116.95410538       -45823108.481768608        729227078.22444463     
   1028693857.9340346       -68550496.757843554        910552886.91342080     
   1186315873.1952567       -190926970.76294088        886724183.76795089     
   1314043162.7377748       -412952530.49705994        657740968.78801370     
   1755080028.3047287        526524008.49141860        680857284.06521690     
   1782864950.6635418        500435323.09334719        808220675.67770994     
   1807742693.4666219        464656039.17616528        928252425.80951846     
   1829713256.7139685        419186156.73987305        1040952534.4606420     
   1848776640.4055824        364025675.78447092        1146321001.6310809     
   1326234368.5456951        397870310.56370848        670756102.40983844     
   1338699940.1054070        375791860.45812547        793812931.20525825     
   1348985126.9980538        346445461.46232462        911491846.56840289     
   1357089929.2236347        309831113.57630581        1023792848.4992729     
   1363014346.7821510        265948816.80006936        1130715936.9978676     
   890772477.23053086        267231743.16915926        663540972.65871882     
   893500778.12945497        250838152.39755866        783139166.00717771     
   894775489.24998188        229599262.36463279        899313173.97177112     
   894596610.59211087        203515073.07038146        1012062996.5524992     
   892964142.15584242        172585584.51480484        1121388633.7493622     
   448694354.35923582        134608306.30777076        659211894.81185782     
   447267464.73568588        125574198.91164671        776199380.08346832     
   445113780.22240591        114117441.88308972        891716408.01962256     
   442233300.81939626        100238035.22209989        1005762978.6203215     
   438626026.52665657        83935978.928677037        1118339091.8855650     
  -6.8189844796370164E-002  -2.0456953438911050E-002   657768868.86925566     
  -7.5900675396770798E-002   3.8950070275328014E-004   772993573.43412948     
  -8.4673760105106757E-002   1.7695584866922406E-002   888701548.71195769     
  -9.4508908768997035E-002   3.1461043849084942E-002   1004892794.7027398     
 -0.10540624577383371        4.1686048500440415E-002   1121567311.4064758     
   1848776640.4055824        364025675.78447092        1146321001.6310809     
   1832723643.0830123        298587755.31886470        1192760675.5402792     
   1819747588.9166479        243406312.04060942        1242081543.8660011     
   1809848477.9064894        198481345.94970781        1294283606.6082475     
   1803026310.0525360        163812857.04615802        1349366863.7670186     
   1363014346.7821510        265948816.80006936        1130715936.9978676     
   1357885890.1535001        218943763.86293992        1184989570.8687375     
   1355065140.8920839        179631068.81659165        1240531764.5041411     
   1354552098.9979019        148010731.66102505        1297342517.9040794     
   1356346764.4709549        124082752.39624143        1355421831.0685527     
   892964142.15584242        172585584.51480484        1121388633.7493622     
   894152698.64399695        142631140.83301824        1182598785.8281035     
   896879726.71041501        117804935.74544322        1243464863.0193896     
   901145226.35509646        98106969.252078712        1303986865.3232198     
   906949197.57804108        83537241.352926195        1364164792.7395954     
   438626026.52665657        83935978.928677037        1118339091.8855650     
   441524068.55450296        69649886.229099736        1185588320.4183786     
   445191346.37164086        57927912.827161208        1250880839.4117470     
   449627859.97807205        48770058.722866580        1314216648.8656697     
   454833609.37379438        42176323.916209623        1375595748.7801478     
 -0.10540624577383371        4.1686048500440415E-002   1121567311.4064758     
 -0.11498258274998353        5.1182315597291937E-002   1193958174.6395619     
 -0.12423729627481864        6.1750617497105559E-002   1262779693.6812129     
 -0.13317138500576872        7.3387343449217629E-002   1328031868.5314279     
 -0.14178436355386112        8.6095130566912315E-002   1389714699.1902087     
   1803026310.0525360        163812857.04615802        1349366863.7670186     
   1779288214.0812852        130535878.21214712        1372653256.1079843     
   1756736661.8800237        101214045.27809948        1392644418.6872029     
   1735371653.4487510        75847358.244014680        1409340351.5046723     
   1715193188.7874646        54435817.109887242        1422741054.5603943     
   1356346764.4709549        124082752.39624143        1355421831.0685527     
   1328647850.7651727        96156415.756953716        1380122635.9162917     
   1301838844.8871975        71196438.543689966        1403837124.0696638     
   1275919746.8370292        49202820.756448448        1426565295.5286701     
   1250890556.6146688        30175562.395234585        1448307150.2933111     
   906949197.57804108        83537241.352926195        1364164792.7395954     
   881886360.61596191        62940615.251829982        1389933934.8282280     
   857416795.53950977        44321562.102822781        1417025673.2898767     
   833540502.34868181        27680081.905897856        1445440008.1245410     
   810257481.04348052        13016174.661060780        1475176939.3322234     
   454833609.37379438        42176323.916209623        1375595748.7801478     
   439003743.63365471        30888476.696778581        1402087152.8437955     
   423470513.83695877        20589415.955494195        1432210066.3478422     
   408233919.98370713        11279141.692357764        1465964489.2922881     
   393293962.07389998        2957653.9073693752        1503350421.6771317     
 -0.14178436355386112        8.6095130566912315E-002   1389714699.1902087     
 -0.18175097416095343        9.1795996170674160E-002   1416582289.9629941     
 -0.22045322298427714       0.10171122758131711        1449390303.2435603     
 -0.25789471291105159       0.11582907538329804        1488138739.0319073     
 -0.29407131491814609       0.13416321625087896        1532827597.3280354     
   1715193188.7874646        54435817.109887242        1422741054.5603943     
   1661383163.7364533        27195812.430531263        1380990181.2858896     
   1609196048.4791956        5365507.0636923313        1339574934.1818056     
   1558631843.0156980       -11055098.990616798        1298495313.2481494     
   1509690547.3459573       -22066005.732401490        1257751318.4849169     
   1250890556.6146688        30175562.395234585        1448307150.2933111     
   1201848797.8243060        7140286.8909201622        1417510503.5757902     
   1154024221.3779843       -11837714.133256733        1389075805.6941018     
   1107416827.2757032       -26758440.677298605        1363003056.6482482     
   1062026615.5174628       -37621892.741205156        1339292256.4382305     
   810257481.04348052        13016174.661060780        1475176939.3322234     
   771773481.84351218       -4077523.6692836285        1454861170.4803498     
   734100937.53786790       -18466372.351880908        1438933673.1297195     
   697239848.12654722       -30150371.386732250        1427394447.2803352     
   661190213.60955215       -39129520.773832738        1420243492.9321957     
   393293962.07389998        2957653.9073693752        1503350421.6771317     
   371157215.79407024       -6457619.2500808388        1493042181.9995682     
   349426196.95884800       -14520467.592171833        1489148536.4886611     
   328100905.56823117       -21230891.118912220        1491669485.1444082     
   307181341.62222338       -26588889.830287948        1500605027.9668109     
 -0.29407131491814609       0.13416321625087896        1532827597.3280354     
 -0.32402034352322323       0.14852649787722283        1532053538.1334472     
 -0.35907774006940818       0.14586153942184588        1539720395.7709258     
 -0.39924615239286348       0.12615968823655316        1555828170.2404683     
 -0.44452207482713629        8.9433497237926235E-002   1580376861.5420763     
   1509690547.3459573       -22066005.732401490        1257751318.4849169     
   1519408109.7365270       -12426443.384446263        1260432236.5773501     
   1529515605.1937630       -1487104.1476050019        1251734240.7276573     
   1540013033.7176635        10752011.978118777        1231657330.9358346     
   1550900395.3082321        24290904.992732584        1200201507.2018821     
   1062026615.5174628       -37621892.741205156        1339292256.4382305     
   1046337793.2207745       -37285319.213743925        1361441515.9864519     
   1030941420.7248178       -35973913.017175078        1377573160.2144094     
   1015837498.0295914       -33687674.151506007        1387687189.1221042     
   1001026025.1350961       -30426602.616736293        1391783602.7095385     
   661190213.60955215       -39129520.773832738        1420243492.9321957     
   635413002.68808353       -43500537.248113930        1461747363.4592776     
   609830758.30140960       -47221665.273078889        1502594917.2879615     
   584443480.44952989       -50292904.848729193        1542786154.4182510     
   559251169.13244653       -52714255.975059271        1582321074.8501444     
   307181341.62222338       -26588889.830287948        1500605027.9668109     
   286633738.13845134       -31072097.487567633        1561349778.9958282     
   266183617.92353570       -35230360.915324986        1626799511.9483147     
   245830980.97748083       -39063680.113546148        1696954226.8242722     
   225575827.30028430       -42572055.082241029        1771813923.6237020     
 -0.44452207482713629        8.9433497237926235E-002   1580376861.5420763     
 -0.42812379099741349        6.7890816594902453E-002   1660248762.5961046     
 -0.40880259342514658        5.6090834815664181E-002   1750186944.1954684     
 -0.38655797884989840        5.4036096796739402E-002   1850191406.3401697     
 -0.36138834598846048        6.1730725842390227E-002   1960262149.0302098     
   1550900395.3082321        24290904.992732584        1200201507.2018821     
   1474524585.5477865        10737339.822640359        1095592592.7008052     
   1397156530.5584326       -6123709.4438115358        1001707032.1397756     
   1318796230.3401725       -26292242.806621432        918544825.51879609     
   1239443684.8929975       -49768260.265814424        846105972.83786583     
   1001026025.1350961       -30426602.616736293        1391783602.7095385     
   951823798.45960224       -38167887.300441146        1323053977.5844522     
   901877387.86193120       -48389785.058070362        1263162459.2416518     
   851186793.34209359       -61092295.889584959        1212109047.6811385     
   799752014.90008342       -76275419.795014262        1169893742.9029069     
   559251169.13244653       -52714255.975059271        1582321074.8501444     
   531836105.09114563       -56259186.307622731        1549760143.9589121     
   503924918.43441027       -61457858.691631258        1524152072.6922014     
   475517609.16224414       -68310273.127076209        1505496861.0500133     
   446614177.27464509       -76816429.613966376        1493794509.0323479     
   225575827.30028430       -42572055.082241029        1771813923.6237020     
   214561505.44242373       -43536557.198881462        1775711091.8241858     
   203299122.27586964       -45327930.344501570        1784675872.4914267     
   191788677.80062282       -47946174.519095764        1798708265.6254253     
   180030172.01667929       -51391289.722680874        1817808271.2261837     
 -0.36138834598846048        6.1730725842390227E-002   1960262149.0302098     
 -0.48655882436629883        2.5794956829868293E-002   2000906821.1802702     
 -0.61368993678021411       -1.6675912024881306E-002   2044733858.6393235     
 -0.74277110332329233       -6.5647481727216905E-002   2091743261.4073727     
 -0.87381274377412654      -0.12115327056601549        2141935029.4844174     
   1239443684.8929975       -49768260.265814424        846105972.83786583     
   1078327421.3592987       -92001579.597425997        669257143.86764812     
   922008994.40847611       -118242110.31945330        526414331.68809795     
   770488404.04053211       -128489852.43188420        417577536.29921907     
   623765650.25546718       -122744805.93471774        342746757.70100766     
   799752014.90008342       -76275419.795014262        1169893742.9029069     
   721198396.95289028       -95265335.388915867        1023303462.4684272     
   646243156.44197655       -102260659.52855065        900853030.21649969     
   574886293.36734986       -97261392.213895082        802542446.14712930     
   507127807.72900331       -80267533.444974989        728371710.26031673     
   446614177.27464509       -76816429.613966376        1493794509.0323479     
   422434151.74791682       -81019657.419969380        1376063408.1292412     
   400653044.51087350       -77226490.927021921        1272605986.8005769     
   381270855.56352043       -65436930.135106742        1183422245.0463550     
   364287584.90585274       -45650975.044241562        1108512182.8665724     
   180030172.01667929       -51391289.722680874        1817808271.2261837     
   182034685.74437737       -49264545.690592274        1727536980.8500931     
   185238658.61516261       -43139604.514879115        1641673201.4403265     
   189642090.62904137       -33016466.195519969        1560216932.9968851     
   195244981.78601313       -18895130.732519828        1483168175.5197763     
 -0.87381274377412654      -0.12115327056601549        2141935029.4844174     
  -1.0577304142446287      -0.20079233605478139        2077724180.6309760     
  -1.2451518296283806      -0.29210985736499051        2008054674.1357477     
  -1.4360765095404200      -0.39510631488160530        1932926509.9987319     
  -1.6305099212191307      -0.50979646328561934        1852339688.2199309     
   623765650.25546718       -122744805.93471774        342746757.70100766     
   841177116.95410538       -45823108.481768608        729227078.22444463     
   1028693857.9340346       -68550496.757843554        910552886.91342080     
   1186315873.1952567       -190926970.76294088        886724183.76795089     
   1314043162.7377748       -412952530.49705994        657740968.78801370     
   507127807.72900331       -80267533.444974989        728371710.26031673     
   270611140.01451540       -142448840.74680209        1121780779.6862876     
   11673427.975006655       -279366962.46536374        1403269566.3415627     
  -269685328.38951492       -491021898.60063058        1572838070.2261446     
  -573465129.07905066       -777413649.15262425        1630486291.3400395     
   364287584.90585274       -45650975.044241562        1108512182.8665724     
  -59773705.611011796       -167020233.61761674        1517569296.1543827     
  -498782359.05920523       -338214035.29542166        1907940355.7352629     
  -952738375.43872571       -559232380.07764852        2279625361.6092119     
  -1421641754.7495694       -830075267.96428967        2632624313.7762303     
   195244981.78601313       -18895130.732519828        1483168175.5197763     
  -149977419.92247474       -119537287.09420878        1916592627.6287313     
  -502673503.16860896       -245091715.24804920        2424565255.0945225     
  -862843267.95237517       -395558415.19399649        3007086057.9171376     
  -1230486714.2737777       -570937386.93206871        3664155036.0965872     
  -1.6305099212191307      -0.50979646328561934        1852339688.2199309     
  -2.9198792651129835       -1.1765933008109688        2318850774.1093369     
  -4.3531986165984229       -2.3232241908643316        2953144264.4193344     
  -5.9304658711318048       -3.9496814244108318        3755220159.1499243     
  -7.6516761791125516       -6.0559481422258301        4725078458.3011122     
  -6.8189844796370164E-002  -2.0456953438911050E-002   657768868.86925566     
  -7.5900675396770798E-002   3.8950070275328014E-004   772993573.43412948     
  -8.4673760105106757E-002   1.7695584866922406E-002   888701548.71195769     
  -9.4508908768997035E-002   3.1461043849084942E-002   1004892794.7027398     
 -0.10540624577383371        4.1686048500440415E-002   1121567311.4064758     
  -448694354.49302018       -134608306.34790605        659211894.83018339     
  -447267464.88550675       -125574198.91368873        776199380.10145509     
  -445113780.39014053       -114117441.85329574        891716408.03762889     
  -442233301.00692153       -100238035.16672689        1005762978.6387049     
  -438626026.73584974       -83935978.853982240        1118339091.9046831     
  -890772477.35652912       -267231743.20695874        663540972.69391203     
  -893500778.27108240       -250838152.40055791        783139166.04198217     
  -894775489.40886772       -229599262.33826497        899313174.00690246     
  -894596610.76988578       -203515073.02008039        1012062996.5886735     
  -892964142.35413647       -172585584.44600374        1121388633.7872944     
  -1326234368.6587169       -397870310.59761512        670756102.46044195     
  -1338699940.2326276       -375791860.46021789        793812931.25571108     
  -1348985127.1408560       -346445461.43721265        911491846.61977863     
  -1357089929.3834019       -309831113.52859920        1023792848.5526446     
  -1363014346.9602649       -265948816.73437759        1130715937.0543091     
  -1755080028.3995833       -526524008.51987499        680857284.12977266     
  -1782864950.7701428       -500435323.09266895        808220675.74264145     
  -1807742693.5861049       -464656039.15013850        928252425.87625682     
  -1829713256.8474698       -419186156.69228405        1040952534.5306190     
  -1848776640.5542371       -364025675.71910477        1146321001.7057278     
 -0.10540624577383371        4.1686048500440415E-002   1121567311.4064758     
 -0.11498258274998353        5.1182315597291937E-002   1193958174.6395619     
 -0.12423729627481864        6.1750617497105559E-002   1262779693.6812129     
 -0.13317138500576872        7.3387343449217629E-002   1328031868.5314279     
 -0.14178436355386112        8.6095130566912315E-002   1389714699.1902087     
  -438626026.73584974       -83935978.853982240        1118339091.9046831     
  -441524068.78287762       -69649886.137032315        1185588320.4413538     
  -445191346.61909610       -57927912.717385426        1250880839.4389310     
  -449627860.24450707       -48770058.595045924        1314216648.8974147     
  -454833609.65910912       -42176323.770010382        1375595748.8168044     
  -892964142.35413647       -172585584.44600374        1121388633.7872944     
  -894152698.86049628       -142631140.74816385        1182598785.8731182     
  -896879726.94556046       -117804935.64600396        1243464863.0721905     
  -901145226.60932887       -98106969.139524311        1303986865.3845100     
  -906949197.85180175       -83537241.228726268        1364164792.8100779     
  -1363014346.9602649       -265948816.73437759        1130715937.0543091     
  -1357885890.3478396       -218943763.78221306        1184989570.9348552     
  -1355065141.1036305       -179631068.72410485        1240531764.5809908     
  -1354552099.2276378       -148010731.56005096        1297342517.9927158     
  -1356346764.7198617       -124082752.29005241        1355421831.1700306     
  -1848776640.5542371       -364025675.71910477        1146321001.7057278     
  -1832723643.2449062       -298587755.23917896        1192760675.6265647     
  -1819747589.0933049       -243406311.95168495        1242081543.9653320     
  -1809848478.0994320       -198481345.85662025        1294283606.7220311     
  -1803026310.2632897       -163812856.95398843        1349366863.8966610     
 -0.14178436355386112        8.6095130566912315E-002   1389714699.1902087     
 -0.18175097416095343        9.1795996170674160E-002   1416582289.9629941     
 -0.22045322298427714       0.10171122758131711        1449390303.2435603     
 -0.25789471291105159       0.11582907538329804        1488138739.0319073     
 -0.29407131491814609       0.13416321625087896        1532827597.3280354     
  -454833609.65910912       -42176323.770010382        1375595748.8168044     
  -439003743.99725789       -30888476.547223330        1402087152.8891594     
  -423470514.27710462       -20589415.796762556        1432210066.4050360     
  -408233920.49864876       -11279141.518626630        1465964489.3644316     
  -393293962.66189170       -2957653.7128202766        1503350421.7673483     
  -906949197.85180175       -83537241.228726268        1364164792.8100779     
  -881886360.95744836       -62940615.129647702        1389933934.9152157     
  -857416795.94775462       -44321561.979432493        1417025673.3996143     
  -833540502.82271934       -27680081.778080583        1445440008.2632718     
  -810257481.58234370       -13016174.525592834        1475176939.5061893     
  -1356346764.7198617       -124082752.29005241        1355421831.1700306     
  -1328647851.0623229       -96156415.655478120        1380122636.0411634     
  -1301838845.2324045       -71196438.446303189        1403837124.2272949     
  -1275919747.2301061       -49202820.662529409        1426565295.7284267     
  -1250890557.0554273       -30175562.304155111        1448307150.5445583     
  -1803026310.2632897       -163812856.95398843        1349366863.8966610     
  -1779288214.3118818       -130535878.12471461        1372653256.2670012     
  -1756736662.1310542       -101214045.19737488        1392644418.8880801     
  -1735371653.7208076       -75847358.171970010        1409340351.7598975     
  -1715193189.0811429       -54435817.048506200        1422741054.8824530     
 -0.29407131491814609       0.13416321625087896        1532827597.3280354     
 -0.32402034352322323       0.14852649787722283        1532053538.1334472     
 -0.35907774006940818       0.14586153942184588        1539720395.7709258     
 -0.39924615239286348       0.12615968823655316        1555828170.2404683     
 -0.44452207482713629        8.9433497237926235E-002   1580376861.5420763     
  -393293962.66189170       -2957653.7128202766        1503350421.7673483     
  -371157216.44208235        6457619.4617345780        1493042182.0983100     
  -349426197.67365134        14520467.798362389        1489148536.5985136     
  -328100906.35659999        21230891.297057092        1491669485.2679608     
  -307181342.49092770        26588889.957822427        1500605028.1066504     
  -810257481.58234370       -13016174.525592834        1475176939.5061893     
  -771773482.43512607        4077523.8124494255        1454861170.6753850     
  -734100938.18555844        18466372.491659731        1438933673.3510013     
  -697239848.83363819        30150371.512044966        1427394447.5330379     
  -661190214.37936735        39129520.873598695        1420243493.2214944     
  -1250890557.0554273       -30175562.304155111        1448307150.5445583     
  -1201848798.3031538       -7140286.7993348837        1417510503.8646736     
  -1154024221.8947988        11837714.225757182        1389075806.0283880     
  -1107416827.8303597        26758440.771126688        1363003057.0356984     
  -1062026616.1098405        37621892.836766064        1339292256.8866076     
  -1715193189.0811429       -54435817.048506200        1422741054.8824530     
  -1661383164.0461626       -27195812.373609424        1380990181.6661761     
  -1609196048.8013697       -5365506.9993393421        1339574934.6306725     
  -1558631843.3467643        11055099.074307203        1298495313.7759438     
  -1509690547.6823471        22066005.847323537        1257751319.1019919     
 -0.44452207482713629        8.9433497237926235E-002   1580376861.5420763     
 -0.42812379099741349        6.7890816594902453E-002   1660248762.5961046     
 -0.40880259342514658        5.6090834815664181E-002   1750186944.1954684     
 -0.38655797884989840        5.4036096796739402E-002   1850191406.3401697     
 -0.36138834598846048        6.1730725842390227E-002   1960262149.0302098     
  -307181342.49092770        26588889.957822427        1500605028.1066504     
  -286633738.97143292        31072097.592421487        1561349779.1666424     
  -266183618.71856642        35230361.004928216        1626799512.1476469     
  -245830981.73233047        39063680.195331529        1696954227.0496609     
  -225575828.01272103        42572055.163647264        1771813923.8726909     
  -661190214.37936735        39129520.873598695        1420243493.2214944     
  -635413003.42627573        43500537.343492866        1461747363.8063061     
  -609830759.00936592        47221665.359450102        1502594917.6878042     
  -584443481.12863839        50292904.921464741        1542786154.8659911     
  -559251169.78408957        52714256.029551387        1582321075.3408630     
  -1062026616.1098405        37621892.836766064        1339292256.8866076     
  -1046337793.7926531        37285319.321103513        1361441516.5150955     
  -1030941421.2811979        35973913.119666278        1377573160.8159461     
  -1015837498.5754780        33687674.232444286        1387687189.7891560     
  -1001026025.6754910        30426602.659448147        1391783603.4347303     
  -1509690547.6823471        22066005.847323537        1257751319.1019919     
  -1519408110.0705638        12426443.525253296        1260432237.2930105     
  -1529515605.5340655        1487104.2855685353        1251734241.5320661     
  -1540013034.0728564       -10752011.871748686        1231657331.8191602     
  -1550900395.6869278       -24290904.946669042        1200201508.1542883     
 -0.36138834598846048        6.1730725842390227E-002   1960262149.0302098     
 -0.48655882436629883        2.5794956829868293E-002   2000906821.1802702     
 -0.61368993678021411       -1.6675912024881306E-002   2044733858.6393235     
 -0.74277110332329233       -6.5647481727216905E-002   2091743261.4073727     
 -0.87381274377412654      -0.12115327056601549        2141935029.4844174     
  -225575828.01272103        42572055.163647264        1771813923.8726909     
  -214561506.39826465        43536557.195622414        1775711092.0919561     
  -203299123.47638047        45327930.252354980        1784675872.7862678     
  -191788679.24707094        47946174.333838478        1798708265.9556279     
  -180030173.71033698        51391289.440072373        1817808271.6000350     
  -559251169.78408957        52714256.029551387        1582321075.3408630     
  -531836105.95556670        56259186.271777689        1549760144.4902778     
  -503924919.51023591        61457858.570029736        1524152073.2807944     
  -475517610.44810134        68310272.924295336        1505496861.7124088     
  -446614178.76915568        76816429.334598005        1493794509.7851241     
  -1001026025.6754910        30426602.659448147        1391783603.4347303     
  -951823799.15846586        38167887.254258811        1323053978.3752403     
  -901877388.71525574        48389784.936350226        1263162460.1229036     
  -851186794.34585428        61092295.705747008        1212109048.6777182     
  -799752016.05026305        76275419.562444508        1169893744.0396836     
  -1550900395.6869278       -24290904.946669042        1200201508.1542883     
  -1474524586.0069675       -10737339.856954157        1095592593.7468390     
  -1397156531.0914335        6123709.3513373137        1001707033.3125945     
  -1318796230.9403384        26292242.678167105        918544826.85155439     
  -1239443685.5536635        49768260.123596489        846105974.36371827     
 -0.87381274377412654      -0.12115327056601549        2141935029.4844174     
  -1.0577304142446287      -0.20079233605478139        2077724180.6309760     
  -1.2451518296283806      -0.29210985736499051        2008054674.1357477     
  -1.4360765095404200      -0.39510631488160530        1932926509.9987319     
  -1.6305099212191307      -0.50979646328561934        1852339688.2199309     
  -180030173.71033698        51391289.440072373        1817808271.6000350     
  -182034687.79044786        49264545.257060669        1727536981.2679081     
  -185238661.02689779        43139603.886252441        1641673201.9120424     
  -189642093.41968769        33016465.327645570        1560216933.5324392     
  -195244984.96881932        18895129.581230111        1483168176.1291010     
  -446614178.76915568        76816429.334598005        1493794509.7851241     
  -422434153.55102789        81019657.006558210        1376063408.9626653     
  -400653046.64207846        77226490.314590573        1272605987.7345209     
  -381270858.04230720        65436929.258694813        1183422246.1006894     
  -364287587.75171274        45650973.838878140        1108512184.0611682     
  -799752016.05026305        76275419.562444508        1169893744.0396836     
  -721198398.33947349        95265335.047691137        1023303463.7152559     
  -646243158.09069693        102260658.99289423        900853031.60318804     
  -574886295.30393696        97261391.398041070        802542447.70348179     
  -507127809.97919089        80267532.263142407        728371712.01613784     
  -1239443685.5536635        49768260.123596489        846105974.36371827     
  -1078327422.1557801        92001579.380472362        669257145.52567446     
  -922008995.37275267        118242109.92116421        526414333.51804250     
  -770488405.20457554        128489851.74568906        417577538.34081966     
  -623765651.65124595        122744804.85405365        342746759.99400806     
  -1.6305099212191307      -0.50979646328561934        1852339688.2199309     
  -2.9198792651129835       -1.1765933008109688        2318850774.1093369     
  -4.3531986165984229       -2.3232241908643316        2953144264.4193344     
  -5.9304658711318048       -3.9496814244108318        3755220159.1499243     
  -7.6516761791125516       -6.0559481422258301        4725078458.3011122     
  -195244984.96881932        18895129.581230111        1483168176.1291010     
   149977414.32198459        119537284.67162561        1916592628.0769150     
   502673494.91298103        245091710.76266217        2424565255.4910746     
   862843256.80416524        395558407.85432255        3007086058.3715773     
   1230486699.9955347        570937375.94660354        3664155036.7184167     
  -364287587.75171274        45650973.838878140        1108512184.0611682     
   59773700.821407482        167020231.29712057        1517569297.0855532     
   498782352.13885736        338214031.23646009        1907940356.6220312     
   952738366.20062840        559232373.65687096        2279625362.6705999     
   1421641743.0067255        830075258.55836916        2632624315.2312589     
  -507127809.97919089        80267532.263142407        728371712.01613784     
  -270611143.42160910        142448838.69989288        1121780781.1352546     
  -11673432.675574020        279366959.09815115        1403269567.8122072     
   269685322.25892752        491021893.45796615        1572838072.0470045     
   573465121.38188887        777413641.77931333        1630486293.8396375     
  -623765651.65124595        122744804.85405365        342746759.99400806     
  -841177118.40707481        45823106.879913747        729227080.22601414     
  -1028693859.5303028        68550494.347774506        910552889.06160760     
  -1186315875.0209374        190926967.25761580        886724186.50078285     
  -1314043164.8789721        412952525.60945672        657740972.54355323     
  -1755080028.3995833       -526524008.51987499        680857284.12977266     
  -1782864950.7701428       -500435323.09266895        808220675.74264145     
  -1807742693.5861049       -464656039.15013850        928252425.87625682     
  -1829713256.8474698       -419186156.69228405        1040952534.5306190     
  -1848776640.5542371       -364025675.71910477        1146321001.7057278     
  -2199979570.3410406       -659993871.10231221        696958836.00222719     
  -2236875350.5738821       -614313842.98401308        815199160.47676241     
  -2271769615.0274115       -561962095.60134089        929241695.14623559     
  -2304662363.7016296       -502938628.95429575        1039086440.0106467     
  -2335553596.5965352       -437243443.04287738        1144733395.0699956     
  -2683603108.2450004       -805080932.47350013        722175076.37812805     
  -2720655884.4138641       -737123403.08622992        830235725.97649693     
  -2756612808.5787015       -665513033.68553782        937232437.44399500     
  -2791473880.7395115       -590249824.27142429        1043165210.7806218     
  -2825239100.8962960       -511333774.84388912        1148034045.9863780     
  -3205950642.1114645       -961785192.63343930        756506005.25747526     
  -3234206552.2900887       -868864003.39931941        853330372.24184489     
  -3262272274.2399721       -775308853.40272915        952224652.76953459     
  -3290147807.9611144       -681119742.64366913        1053188846.8405445     
  -3317833153.4535146       -586296671.12213826        1156222954.4548750     
  -3767022171.9404306       -1130106651.5821292        799951622.64026892     
  -3777527354.2025561       -1009535643.9232819        884483099.27280605     
  -3788748012.0112252       -891349554.75291526        974218341.12285459     
  -3800684145.3664384       -775548384.07103038        1069157348.1904149     
  -3813335754.2681971       -662132131.87762618        1169300120.4754863     
  -1848776640.5542371       -364025675.71910477        1146321001.7057278     
  -1832723643.2449062       -298587755.23917896        1192760675.6265647     
  -1819747589.0933049       -243406311.95168495        1242081543.9653320     
  -1809848478.0994320       -198481345.85662025        1294283606.7220311     
  -1803026310.2632897       -163812856.95398843        1349366863.8966610     
  -2335553596.5965352       -437243443.04287738        1144733395.0699956     
  -2309977515.4047928       -356531292.87624663        1185472057.9203951     
  -2287671013.7093596       -286717741.03064930        1227130153.2577877     
  -2268634091.5102367       -227802787.50608796        1269707681.0821726     
  -2252866748.8074260       -179786432.30256414        1313204641.3935506     
  -2825239100.8962960       -511333774.84388912        1148034045.9863780     
  -2795744969.9105349       -417028905.21706963        1182846955.3713291     
  -2769713054.7596650       -334264755.03989017        1216617535.3123348     
  -2747143355.4436884       -263041324.31235063        1249345785.8093944     
  -2728035871.9626021       -203358613.03445101        1281031706.8625083     
  -3317833153.4535146       -586296671.12213826        1156222954.4548750     
  -3290026006.7621322       -480080592.26165009        1184885367.9793658     
  -3265873712.2442226       -386047353.97940648        1210543690.1289725     
  -3245376269.8997855       -304196956.27540624        1233197920.9036949     
  -3228533679.7288227       -234529399.14965117        1252848060.3035343     
  -3813335754.2681971       -662132131.87762618        1169300120.4754863     
  -3792820625.9595866       -545686354.00998771        1191587295.7445049     
  -3776152986.1630306       -442065537.84919679        1208908617.7077024     
  -3763332834.8785295       -351269683.39525509        1221264086.3650761     
  -3754360172.1060843       -273298790.64816391        1228653701.7166278     
  -1803026310.2632897       -163812856.95398843        1349366863.8966610     
  -1779288214.3118818       -130535878.12471461        1372653256.2670012     
  -1756736662.1310542       -101214045.19737488        1392644418.8880801     
  -1735371653.7208076       -75847358.171970010        1409340351.7598975     
  -1715193189.0811429       -54435817.048506200        1422741054.8824530     
  -2252866748.8074260       -179786432.30256414        1313204641.3935506     
  -2228998062.8772631       -138566152.85725248        1327721374.6370625     
  -2207943190.0176597       -106725250.31380510        1343800722.0867157     
  -2189702130.2286143       -84263724.672217488        1361442683.7425110     
  -2174274883.5101280       -71181575.932493806        1380647259.6044452     
  -2728035871.9626021       -203358613.03445101        1281031706.8625083     
  -2690157041.8953929       -150031166.72561479        1284880300.1292179     
  -2656719294.1987190       -111507328.31856811        1295149351.5574715     
  -2627722628.8725820       -87787097.813311458        1311838861.1472676     
  -2603167045.9169827       -78870475.209844351        1334948828.8986092     
  -3228533679.7288227       -234529399.14965117        1252848060.3035343     
  -3162765151.3662705       -164930919.72980297        1244130032.7434661     
  -3103064974.6742334       -115560279.21166837        1246690307.3003454     
  -3049433149.6527123       -86417477.595254302        1260528883.9741702     
  -3001869676.3017058       -77502514.880553603        1285645762.7649429     
  -3754360172.1060843       -273298790.64816391        1228653701.7166278     
  -3646822391.2898974       -183265411.86981463        1205470572.4798100     
  -3546980231.4442058       -118884102.99310803        1198423589.3153396     
  -3454833692.5690055       -80154864.018046021        1207512752.2232184     
  -3370382774.6642990       -67077694.944626331        1232738061.2034469     
  -1715193189.0811429       -54435817.048506200        1422741054.8824530     
  -1661383164.0461626       -27195812.373609424        1380990181.6661761     
  -1609196048.8013697       -5365506.9993393421        1339574934.6306725     
  -1558631843.3467643        11055099.074307203        1298495313.7759438     
  -1509690547.6823471        22066005.847323537        1257751319.1019919     
  -2174274883.5101280       -71181575.932493806        1380647259.6044452     
  -2118012990.4828634       -51281704.764518857        1349522265.6030393     
  -2062519265.5703495       -33942393.979040980        1321641574.6857488     
  -2007793708.7725832       -19163643.576052427        1297005186.8525760     
  -1953836320.0895629       -6945453.5555610657        1275613102.1035194     
  -2603167045.9169827       -78870475.209844351        1334948828.8986092     
  -2536142779.4593163       -63817585.917355180        1315446912.7334192     
  -2469031939.4409595       -48476118.089231968        1302097976.5556881     
  -2401834525.8619099       -32846071.725465417        1294902020.3654165     
  -2334550538.7221708       -16927446.826065063        1293859044.1626024     
  -3001869676.3017058       -77502514.880553603        1285645762.7649429     
  -2915772530.9755168       -64803455.832114577        1278764123.0573156     
  -2828734070.4131966       -48966679.329906821        1280944140.2404892     
  -2740754294.6147490       -29992185.373931646        1292185814.3144641     
  -2651833203.5801644       -7879973.9641846418        1312489145.2792401     
  -3370382774.6642990       -67077694.944626331        1232738061.2034469     
  -3256902245.0314679       -54239314.508799314        1239473896.5747302     
  -3141625658.4870663       -35414077.701079488        1258180065.7401538     
  -3024553015.0310931       -10601984.521448612        1288856568.6997218     
  -2905684314.6635518        20196965.030077696        1331503405.4534330     
  -1509690547.6823471        22066005.847323537        1257751319.1019919     
  -1519408110.0705638        12426443.525253296        1260432237.2930105     
  -1529515605.5340655        1487104.2855685353        1251734241.5320661     
  -1540013034.0728564       -10752011.871748686        1231657331.8191602     
  -1550900395.6869278       -24290904.946669042        1200201508.1542883     
  -1953836320.0895629       -6945453.5555610657        1275613102.1035194     
  -1987258314.2055659       -24437857.157294393        1302538708.2022743     
  -2022217708.6348507       -47054928.469965219        1324421244.1423130     
  -2058714503.3774233       -74796667.493602753        1341260709.9236312     
  -2096748698.4332781       -107663074.22817147        1353057105.5462317     
  -2334550538.7221708       -16927446.826065063        1293859044.1626024     
  -2373574553.7281165       -36841968.456102848        1343690626.3914292     
  -2415283436.2853422       -65706048.590412617        1394814982.2547822     
  -2459677186.3938570       -103519687.22901499        1447232111.7526598     
  -2506755804.0536528       -150282884.37189126        1500942014.8850646     
  -2651833203.5801644       -7879973.9641846418        1312489145.2792401     
  -2678356828.6382122       -24785890.371172547        1383887991.8604722     
  -2708712788.4855413       -54466256.075772882        1462915455.8694732     
  -2742901083.1221552       -96921071.077989101        1549571537.3062463     
  -2780921712.5480528       -152150335.37781024        1643856236.1707878     
  -2905684314.6635518        20196965.030077696        1331503405.4534330     
  -2901605138.9358587        11730377.097484350        1423130804.6094038     
  -2902505765.2354455       -13335550.926038623        1528722664.9863887     
  -2908386193.5623207       -55000819.040526271        1648278986.5843887     
  -2919246423.9164758       -113265427.24594617        1781799769.4034035     
  -1550900395.6869278       -24290904.946669042        1200201508.1542883     
  -1474524586.0069675       -10737339.856954157        1095592593.7468390     
  -1397156531.0914335        6123709.3513373137        1001707033.3125945     
  -1318796230.9403384        26292242.678167105        918544826.85155439     
  -1239443685.5536635        49768260.123596489        846105974.36371827     
  -2096748698.4332781       -107663074.22817147        1353057105.5462317     
  -1996038765.1555474       -100544770.86724508        1296216488.0036137     
  -1894871779.9631560       -91902961.124107599        1248856133.5004134     
  -1793247742.8560958       -81737644.998746157        1210976042.0366261     
  -1691166653.8343730       -70048822.491174936        1182576213.6122549     
  -2506755804.0536528       -150282884.37189126        1500942014.8850646     
  -2385263435.5604177       -150665349.25443792        1491245301.9995575     
  -2263849208.4734173       -151308285.49111485        1489785761.2196767     
  -2142513122.7926602       -152211693.08192837        1496563392.5454190     
  -2021255178.5181413       -153375572.02686900        1511578195.9767854     
  -2780921712.5480528       -152150335.37781024        1643856236.1707878     
  -2642198597.2215614       -161099075.01850379        1680679035.7346723     
  -2504088816.6222205       -172092263.74968588        1724495916.4703891     
  -2366592370.7500176       -185129901.57133496        1775306878.3779387     
  -2229709259.6049638       -200211988.48348498        1833111921.4573245     
  -2919246423.9164758       -113265427.24594617        1781799769.4034035     
  -2766844250.1389947       -131845948.15946305        1864517689.2089515     
  -2615590604.4095602       -154254895.89981127        1952986599.2525456     
  -2465485486.7281766       -180492270.46699107        2047206499.5341804     
  -2316528897.0948410       -210558071.86100084        2147177390.0538597     
  -1239443685.5536635        49768260.123596489        846105974.36371827     
  -1078327422.1557801        92001579.380472362        669257145.52567446     
  -922008995.37275267        118242109.92116421        526414333.51804250     
  -770488405.20457554        128489851.74568906        417577538.34081966     
  -623765651.65124595        122744804.85405365        342746759.99400806     
  -1691166653.8343730       -70048822.491174936        1182576213.6122549     
  -1455520706.7166724       -17933747.438097835        1038890360.8288453     
  -1220096561.9861336        33441986.324444592        916248611.96960962     
  -984894219.64275742        84078378.796445310        814650967.03454411     
  -749913679.68653953        133975429.97791258        734097426.02364814     
  -2021255178.5181413       -153375572.02686900        1511578195.9767854     
  -1748113584.5555909       -102488952.24006927        1406394025.8469865     
  -1470617758.7525134       -37088226.318175256        1309292046.7351196     
  -1188767701.1089065        42826605.738811374        1220272258.6411824     
  -902563411.62477410        137255543.93088919        1139334661.5651739     
  -2229709259.6049638       -200211988.48348498        1833111921.4573245     
  -1956106055.6725349       -161664035.02544671        1771768140.5801022     
  -1673572585.6718915       -93348528.006697714        1705544637.8145726     
  -1382108849.6030271        4734532.5727893114        1634441413.1607323     
  -1081714847.4659486        132585146.71298712        1558458466.6185853     
  -2316528897.0948410       -210558071.86100084        2147177390.0538597     
  -2079498120.0675094       -195458995.79423982        2135012705.0281904     
  -1828961042.7442667       -135338918.74111331        2105006385.2079694     
  -1564917665.1251187       -30197840.701632559        2057158430.5932007     
  -1287367987.2100654        119964238.32419902        1991468841.1838825     
  -623765651.65124595        122744804.85405365        342746759.99400806     
  -841177118.40707481        45823106.879913747        729227080.22601414     
  -1028693859.5303028        68550494.347774506        910552889.06160760     
  -1186315875.0209374        190926967.25761580        886724186.50078285     
  -1314043164.8789721        412952525.60945672        657740972.54355323     
  -749913679.68653953        133975429.97791258        734097426.02364814     
  -1407794957.9167860       -87194079.271276176        1180023296.3232269     
  -2067569608.4684639       -314674829.59190625        1525568702.5639031     
  -2729237631.3415871       -548466820.98400319        1770733644.7456856     
  -3392799026.5361371       -788570053.44755447        1915518122.8685622     
  -902563411.62477410        137255543.93088919        1139334661.5651739     
  -1701560080.3651078       -138355450.30403090        1607619967.6526136     
  -2534238219.3809175       -526238012.12387240        2080298857.0186663     
  -3400597828.6721940       -1026392141.5286081        2557371329.6633363     
  -4300638908.2389526       -1638817838.5182610        3038837385.5866184     
  -1081714847.4659486        132585146.71298712        1558458466.6185853     
  -1722472485.7520506       -107661006.21838111        2012017094.2141826     
  -2428699692.2676673       -566139053.24812520        2574743352.4259024     
  -3200396467.0127883       -1242848994.3762100        3246637241.2537546     
  -4037562809.9874101       -2137790829.6026630        4027698760.6977358     
  -1287367987.2100654        119964238.32419902        1991468841.1838825     
  -1470532174.0776086        4889252.9856874347        2393214676.0079265     
  -1750954027.1287060       -434377952.96466726        3008902188.7856102     
  -2128633546.3633337       -1197837379.5267992        3838531379.5169311     
  -2603570731.7815123       -2285489026.7007523        4882102248.2019033     
  -3767022171.9404306       -1130106651.5821292        799951622.64026892     
  -3777527354.2025561       -1009535643.9232819        884483099.27280605     
  -3788748012.0112252       -891349554.75291526        974218341.12285459     
  -3800684145.3664384       -775548384.07103038        1069157348.1904149     
  -3813335754.2681971       -662132131.87762618        1169300120.4754863     
  -4339349966.1126480       -1301804989.8337944        857682877.27048635     
  -4333887262.9138947       -1126589789.0206296        941404239.01229513     
  -4329623527.1704273       -955371146.39174652        1019594625.9324253     
  -4326558758.8822432       -788149061.94714475        1092254038.0308771     
  -4324692958.0493441       -624923535.68682468        1159382475.3076494     
  -4895466293.0088654       -1468639887.9026597        934870717.89210510     
  -4904706390.1754913       -1247981699.6830547        1017217890.8496555     
  -4915628946.7061434       -1032931709.3435318        1083299348.9463372     
  -4928233962.6008205       -823489916.88409054        1133115092.1821499     
  -4942521437.8595209       -619656322.30473161        1166665120.5570934     
  -5435371152.6290817       -1630611345.7887244        1031515144.5051250     
  -5489984735.9873466       -1373711375.9105570        1111924054.7848868     
  -5546764270.6183748       -1124031243.6082709        1165332510.1645896     
  -5605709756.5221691       -881570948.88186824        1191740510.6442332     
  -5666821193.6987267       -646330491.73134685        1191148056.2238183     
  -5959064544.9732971       -1787719363.4919891        1147616157.1095462     
  -6089722300.3494577       -1503778817.7031360        1225522730.8179893     
  -6223029498.9071207       -1228669749.1859651        1265694109.5871832     
  -6358986140.6462889       -962392157.94047701        1268130293.4171281     
  -6497592225.5669632       -704946043.96667266        1232831282.3078234     
  -3813335754.2681971       -662132131.87762618        1169300120.4754863     
  -3792820625.9595866       -545686354.00998771        1191587295.7445049     
  -3776152986.1630306       -442065537.84919679        1208908617.7077024     
  -3763332834.8785295       -351269683.39525509        1221264086.3650761     
  -3754360172.1060843       -273298790.64816391        1228653701.7166278     
  -4324692958.0493441       -624923535.68682468        1159382475.3076494     
  -4291436031.9534683       -470416161.40784085        1141359367.1572781     
  -4268937604.0464158       -351770447.75826669        1129320049.9003160     
  -4257197674.3281870       -268986394.73810458        1123264523.5367615     
  -4256216242.7987776       -222064002.34734702        1123192788.0666161     
  -4942521437.8595209       -619656322.30473161        1166665120.5570934     
  -4865238016.2642918       -417701942.30077767        1100268884.3644359     
  -4805624102.5346527       -274645921.84879327        1050806083.2644175     
  -4763679696.6706066       -190488260.94878006        1018276717.2570386     
  -4739404798.6721506       -165228959.60073638        1002680786.3422995     
  -5666821193.6987267       -646330491.73134685        1191148056.2238183     
  -5514226578.8920565       -387543696.68879580        1068315847.3659773     
  -5386212481.6277437       -210691960.12077618        973366717.80000794     
  -5282778901.9057922       -115775282.02728653        906300667.52590835     
  -5203925839.7261992       -102793662.40832734        867117696.54367948     
  -6497592225.5669632       -704946043.96667266        1232831282.3078234     
  -6238401719.8367634       -379941424.57189727        1045500256.1619045     
  -6010702741.3256893       -159908562.57421398        897001953.50708687     
  -5814495290.0337410       -44847457.973621130        787336374.34336948     
  -5649779365.9609232       -34758110.770120144        716503518.67075384     
  -3754360172.1060843       -273298790.64816391        1228653701.7166278     
  -3646822391.2898974       -183265411.86981463        1205470572.4798100     
  -3546980231.4442058       -118884102.99310803        1198423589.3153396     
  -3454833692.5690055       -80154864.018046021        1207512752.2232184     
  -3370382774.6642990       -67077694.944626331        1232738061.2034469     
  -4256216242.7987776       -222064002.34734702        1123192788.0666161     
  -4120860164.2427053       -158116084.68093157        1096946539.4912350     
  -3990099566.9477048       -109486437.88475180        1081982557.2077105     
  -3863934450.9137726       -76175061.958804607        1078300841.2160423     
  -3742364816.1409106       -58181956.903088093        1085901391.5162282     
  -4739404798.6721506       -165228959.60073638        1002680786.3422995     
  -4590098650.3204575       -131526971.42953467        976988248.08935010     
  -4442287843.5204105       -102809455.09715557        957724096.34776378     
  -4295972378.2720137       -79076410.603601933        944888331.11754155     
  -4151152254.5752611       -60327837.948872805        938480952.39868104     
  -5203925839.7261992       -102793662.40832734        867117696.54367948     
  -5054537849.5231476       -103498072.11561537        845595698.27415383     
  -4903545061.1623249       -98853154.630321980        825648206.73549950     
  -4750947474.6437254       -88858909.952443361        807275221.92771614     
  -4596745089.9673500       -73515338.081977844        790476743.85080194     
  -5649779365.9609232       -34758110.770120144        716503518.67075384     
  -5514177761.8507853       -74029386.739185810        702768890.04564810     
  -5373871219.8734465       -97617536.484252691        685754888.37091851     
  -5228859740.0289116       -105522560.00532818        665461513.64656699     
  -5079143322.3171778       -97744457.302406788        641888765.87259161     
  -3370382774.6642990       -67077694.944626331        1232738061.2034469     
  -3256902245.0314679       -54239314.508799314        1239473896.5747302     
  -3141625658.4870663       -35414077.701079488        1258180065.7401538     
  -3024553015.0310931       -10601984.521448612        1288856568.6997218     
  -2905684314.6635518        20196965.030077696        1331503405.4534330     
  -3742364816.1409106       -58181956.903088093        1085901391.5162282     
  -3598710842.0902252       -38082645.021393299        1080542659.1281209     
  -3453441009.8272839       -12597139.098836899        1084748335.2413247     
  -3306555319.3520832        18274560.864572287        1098518419.8558412     
  -3158053770.6646299        54532454.868840456        1121852912.9716704     
  -4151152254.5752611       -60327837.948872805        938480952.39868104     
  -3984198908.3719521       -35029816.300876141        920817420.43531728     
  -3815809902.6557002       -4946262.9430625439        910312371.68043494     
  -3645985237.4265051        29922822.124563932        906965806.13403463     
  -3474724912.6843596        69577438.902008057        910777723.79611707     
  -4596745089.9673500       -73515338.081977844        790476743.85080194     
  -4413366443.8766489       -45080828.347247601        760298180.49631655     
  -4228732336.9723163       -12461449.233745337        734872175.05748308     
  -4042842769.2543502        24342799.258532763        714198727.53430116     
  -3855697740.7227545        65331917.129576206        698277837.92677224     
  -5079143322.3171778       -97744457.302406788        641888765.87259161     
  -4886213448.6043158       -68235681.160515070        598984939.31112003     
  -4692208312.7771263       -35142697.970884800        558427745.37247217     
  -4497127914.8356256        1534492.2664656639        520217184.05664325     
  -4300972254.7798052        41795889.551545858        484353255.36363429     
  -2905684314.6635518        20196965.030077696        1331503405.4534330     
  -2901605138.9358587        11730377.097484350        1423130804.6094038     
  -2902505765.2354455       -13335550.926038623        1528722664.9863887     
  -2908386193.5623207       -55000819.040526271        1648278986.5843887     
  -2919246423.9164758       -113265427.24594617        1781799769.4034035     
  -3158053770.6646299        54532454.868840456        1121852912.9716704     
  -3123533860.3342500        51745818.367026567        1182349988.5479879     
  -3093827636.1275349        32913561.453001142        1250987794.5751781     
  -3068935098.0444813       -1964315.8732274771        1327766331.0532386     
  -3048856246.0850878       -52887813.611662507        1412685597.9821715     
  -3474724912.6843596        69577438.902008057        910777723.79611707     
  -3426403498.5231357        67478984.599417210        940338277.68033886     
  -3382729654.5819535        49888629.563352108        972215831.24529147     
  -3343703380.8608103        16806373.793822527        1006410384.4909701     
  -3309324677.3597093       -31767782.709179997        1042921937.4173797     
  -3855697740.7227545        65331917.129576206        698277837.92677224     
  -3810214053.5025191        58929875.794656992        697095672.00645733     
  -3769211820.5987029        37589653.405004025        692406774.99672985     
  -3732691042.0113082        1311249.9606192112        684211146.89758658     
  -3700651717.7403331       -49905334.538500786        672508787.70903242     
  -4300972254.7798052        41795889.551545858        484353255.36363429     
  -4274965525.2723961        26098491.952749491        452622171.52634245     
  -4253274134.1777868       -3983367.0220508575        411560625.82949305     
  -4235898081.4959745       -48449687.372834921        361168618.27308625     
  -4222837367.2269616       -107300469.09962273        301446148.85712159     
  -2919246423.9164758       -113265427.24594617        1781799769.4034035     
  -2766844250.1389947       -131845948.15946305        1864517689.2089515     
  -2615590604.4095602       -154254895.89981127        1952986599.2525456     
  -2465485486.7281766       -180492270.46699107        2047206499.5341804     
  -2316528897.0948410       -210558071.86100084        2147177390.0538597     
  -3048856246.0850878       -52887813.611662507        1412685597.9821715     
  -2880449235.1346650       -65961488.697618008        1448953161.0784147     
  -2711612246.8813481       -77601906.107265830        1490510336.5709779     
  -2542345281.3251424       -87809065.840614080        1537357124.4598608     
  -2372648338.4660435       -96582967.897654772        1589493524.7450624     
  -3309324677.3597093       -31767782.709179997        1042921937.4173797     
  -3126231051.6412697       -39730078.689061284        1034580733.3804168     
  -2941128943.2689958       -40997432.489488363        1031067763.8980486     
  -2754018352.2428899       -35569844.110478401        1032383028.9702798     
  -2564899278.5629516       -23447313.552013874        1038526528.5971051     
  -3700651717.7403331       -49905334.538500786        672508787.70903242     
  -3504189699.6588030       -53151718.133777142        621400406.11495864     
  -3304140693.5724974       -44441475.046466947        574658881.23376060     
  -3100504699.4814177       -23774605.276573181        532284213.06543463     
  -2893281717.3855596        8848891.1759170294        494276401.60997969     
  -4222837367.2269616       -107300469.09962273        301446148.85712159     
  -4014325179.1872683       -106226407.03177953        209412179.28204119     
  -3800647497.7918525       -87934033.778192520        121283688.57810801     
  -3581804323.0407238       -52423349.338903427        37060676.745326206     
  -3357795654.9338727        305646.28613352776       -43256856.216306463     
  -2316528897.0948410       -210558071.86100084        2147177390.0538597     
  -2079498120.0675094       -195458995.79423982        2135012705.0281904     
  -1828961042.7442667       -135338918.74111331        2105006385.2079694     
  -1564917665.1251187       -30197840.701632559        2057158430.5932007     
  -1287367987.2100654        119964238.32419902        1991468841.1838825     
  -2372648338.4660435       -96582967.897654772        1589493524.7450624     
  -2161260315.7028089       -75905631.007578492        1551162952.1410413     
  -1939130458.1704664       -19422178.220479250        1509661527.7845731     
  -1706258765.8690147        72867390.463656068        1464989251.6756575     
  -1462645238.7984483        200963075.04483294        1417146123.8143058     
  -2564899278.5629516       -23447313.552013874        1038526528.5971051     
  -2337237487.0863757        15383241.054590702        970804858.63346756     
  -2101598326.3674889        80805026.468914986        914583119.95948887     
  -1857981796.4062877        172818042.69093859        869861312.57517004     
  -1606387897.2027748        291422289.72068191        836639436.48051071     
  -2893281717.3855596        8848891.1759170294        494276401.60997969     
  -2607429634.2182035        78407620.392296195        393938424.50546724     
  -2316364647.3353381        165342695.32704782        319771161.73271543     
  -2020086756.7369492        269654115.98020434        271774613.29172623     
  -1718595962.4230459        391341882.35174859        249948779.18250176     
  -3357795654.9338727        305646.28613352776       -43256856.216306463     
  -2971836757.0982990        113167507.00550449       -179436350.24296188     
  -2583429421.0740061        234190828.35395145       -274774346.89574701     
  -2192573646.8609953        363375610.33144701       -329270846.17466760     
  -1799269434.4592605        500721852.93802869       -342925848.07972300     
  -1287367987.2100654        119964238.32419902        1991468841.1838825     
  -1470532174.0776086        4889252.9856874347        2393214676.0079265     
  -1750954027.1287060       -434377952.96466726        3008902188.7856102     
  -2128633546.3633337       -1197837379.5267992        3838531379.5169311     
  -2603570731.7815123       -2285489026.7007523        4882102248.2019033     
  -1462645238.7984483        200963075.04483294        1417146123.8143058     
  -1184407603.9845588        252800256.15786964        1677865539.3927071     
  -974040860.50535560        78401132.821956515        2041049562.9759083     
  -831545008.36084878       -322234294.96293879        2506698194.5638981     
  -756920047.55102086       -949106027.19678009        3074811434.1566906     
  -1606387897.2027748        291422289.72068191        836639436.48051071     
  -1185254354.8470113        414619863.04341954        990617003.47027004     
  -802604928.97707820        409537048.08004457        1135582108.5159788     
  -458439619.59299314        276173844.83053446        1271534751.6176386     
  -152758426.69472939        14530253.294925198        1398474932.7752347     
  -1718595962.4230459        391341882.35174859        249948779.18250176     
  -1473072426.6649725        490348073.64230746        331469068.24061531     
  -1236646232.5438750        559029792.80960727        292499825.40583295     
  -1009317380.0597647        597387039.85362864        133041050.67814192     
  -791085869.21262860        605419814.77438331       -146907255.94243899     
  -1799269434.4592605        500721852.93802869       -342925848.07972300     
  -2047861819.4384375        479984887.95454454       -299578266.29625630     
  -2276164771.2057381        526879367.01066756       -488197286.35454291     
  -2484178289.7611728        641405290.10631478       -908782908.25457311     
  -2671902375.1047363        823562657.24156535       -1561335131.9963527     
  -5959064544.9732971       -1787719363.4919891        1147616157.1095462     
  -6089722300.3494577       -1503778817.7031360        1225522730.8179893     
  -6223029498.9071207       -1228669749.1859651        1265694109.5871832     
  -6358986140.6462889       -962392157.94047701        1268130293.4171281     
  -6497592225.5669632       -704946043.96667266        1232831282.3078234     
  -6811661584.0804482       -2043498475.2241344        1351136380.3221326     
  -6830371165.2309036       -1396053181.1437666        1200405286.4814799     
  -6900569184.4382572       -920236013.91972494        1089637656.6094990     
  -7022255641.7025080       -616046973.55200958        1018833490.7061900     
  -7195430537.0236568       -483486060.04062080        987992788.77155316     
  -8338277383.9894714       -2501483215.1968412        1710038438.7596483     
  -8023042622.6058750       -1423934322.3324552        1273690850.0152740     
  -7808135294.1545706       -680810205.90903807        955005384.14749360     
  -7693555398.6355562       -272110865.92658997        753982041.15630507     
  -7679302936.0488338       -197836302.38511276        670620821.04171181     
  -10538911944.700363       -3161673583.4101090        2224322332.4220934     
  -9667736672.4743729       -1587422241.2692013        1445379421.4193730     
  -8945727828.0560646       -510392325.15390491        861797292.20116675     
  -8372885411.4454412        69416164.935776711        473575944.76747489     
  -7949209422.6424999        152003228.99984741        280715379.11829847     
  -13413565266.213131       -4024069579.8639393        2893988061.3094678     
  -11764453314.836395       -1886516937.9540038        1715471000.6937754     
  -10313346786.142736       -408982371.65432501        810013380.77051973     
  -9060245680.1321564        408534119.03509569        177615201.53969774     
  -8005149996.8046532        566032534.11426115       -181723536.99868664     
  -6497592225.5669632       -704946043.96667266        1232831282.3078234     
  -6238401719.8367634       -379941424.57189727        1045500256.1619045     
  -6010702741.3256893       -159908562.57421398        897001953.50708687     
  -5814495290.0337410       -44847457.973621130        787336374.34336948     
  -5649779365.9609232       -34758110.770120144        716503518.67075384     
  -7195430537.0236568       -483486060.04062080        987992788.77155316     
  -6903847660.8956490       -309160372.85061097        840664085.56520128     
  -6625169241.9345655       -177849542.88367653        714191928.14408290     
  -6359395280.1404057       -89553570.139816761        608576316.50819838     
  -6106525775.5131655       -44272454.619029760        523817250.65754640     
  -7679302936.0488338       -197836302.38511276        670620821.04171181     
  -7406688197.2540751       -189597699.71918678        584979355.83583331     
  -7128390845.5740290       -162417054.10231495        502218258.70931971     
  -6844410881.0087013       -116294365.53450155        422337529.66217273     
  -6554748303.5580912       -51229634.015743494        345337168.69439167     
  -7949209422.6424999        152003228.99984741        280715379.11829847     
  -7746923328.9120340       -21253405.177622318        278446066.97379822     
  -7520367552.2440796       -113611096.23013115        261080945.20279554     
  -7269542092.6386356       -125069844.15768194        228620013.80529433     
  -6994446950.0957041       -55629648.960266590        181063272.78129029     
  -8005149996.8046532        566032534.11426115       -181723536.99868664     
  -7924553055.8695288        195872510.77408028       -78935781.020900473     
  -7801099361.9447145       -31431669.267120361       -9220012.3754836582     
  -7634788915.0302076       -115880006.00934649        27423768.937562652     
  -7425621715.1260042       -57472499.452591419        30995562.918241620     
  -5649779365.9609232       -34758110.770120144        716503518.67075384     
  -5514177761.8507853       -74029386.739185810        702768890.04564810     
  -5373871219.8734465       -97617536.484252691        685754888.37091851     
  -5228859740.0289116       -105522560.00532818        665461513.64656699     
  -5079143322.3171778       -97744457.302406788        641888765.87259161     
  -6106525775.5131655       -44272454.619029760        523817250.65754640     
  -5968192390.6518440       -52492254.329222441        516723754.00990367     
  -5829574381.1298943       -59763305.170642138        507845274.92997497     
  -5690671746.9473076       -66085607.143276453        497181813.41776013     
  -5551484488.1040888       -71459160.247132540        484733369.47325903     
  -6554748303.5580912       -51229634.015743494        345337168.69439167     
  -6409413450.4674873       -27117051.223640680        339727771.94988585     
  -6268214285.9228172       -16790096.917971373        333827783.39043391     
  -6131150809.9240751       -20248771.098738432        327637203.01603019     
  -5998223022.4712639       -37493073.765938997        321156030.82667750     
  -6994446950.0957041       -55629648.960266590        181063272.78129029     
  -6837840941.2977095        2096222.5775713921        171780943.86559781     
  -6689790934.2522135        31302088.273759365        163702413.75229293     
  -6550296928.9592113        31987948.128293514        156827682.44137794     
  -6419358925.4187069        4153802.1411764622        151156749.93284681     
  -7425621715.1260042       -57472499.452591419        30995562.918241620     
  -7253474863.1425190        35147567.074408054        12883269.757035691     
  -7094304326.1180916        84513250.404536724       -2530833.9844444315     
  -6948110104.0527229        90624550.537808895       -15246748.306197826     
  -6814892196.9464178        53481467.474204540       -25264473.208230775     
  -5079143322.3171778       -97744457.302406788        641888765.87259161     
  -4886213448.6043158       -68235681.160515070        598984939.31112003     
  -4692208312.7771263       -35142697.970884800        558427745.37247217     
  -4497127914.8356256        1534492.2664656639        520217184.05664325     
  -4300972254.7798052        41795889.551545858        484353255.36363429     
  -5551484488.1040888       -71459160.247132540        484733369.47325903     
  -5356448640.5581741       -55744138.043946505        452973535.97137928     
  -5158839836.1149445       -31452592.849690914        423670223.70411110     
  -4958658074.7743845        1415475.3356478214        396823432.67145008     
  -4755903356.5365047        42860066.512060165        372433162.87339813     
  -5998223022.4712639       -37493073.765938997        321156030.82667750     
  -5800767233.6300545       -35477615.262789488        302287500.96455920     
  -5599240793.1085167       -19893317.825217724        285985380.94884288     
  -5393643700.9066496        9259818.5467827320        272249670.77952105     
  -5183975957.0244617        51981793.853191376        261080370.45659810     
  -6419358925.4187069        4153802.1411764622        151156749.93284681     
  -6219169227.8199463       -7436112.8170382977        146926834.29066679     
  -6013411183.7578526       -464872.89747548103        145373217.10666904     
  -5802084793.2324276        25067521.899861097        146495898.38085875     
  -5585190056.2436781        69161071.574944496        150294878.11323601     
  -6814892196.9464178        53481467.474204540       -25264473.208230775     
  -6611654623.1278515        28380369.293318748       -13108464.050308572     
  -6401351008.0629492        26832741.933542728        1833732.1775888733     
  -6183981351.7517109        48838585.394887447        19562115.475459963     
  -5959545654.1941481        94397899.677325010        40076685.843304373     
  -4300972254.7798052        41795889.551545858        484353255.36363429     
  -4274965525.2723961        26098491.952749491        452622171.52634245     
  -4253274134.1777868       -3983367.0220508575        411560625.82949305     
  -4235898081.4959745       -48449687.372834921        361168618.27308625     
  -4222837367.2269616       -107300469.09962273        301446148.85712159     
  -4755903356.5365047        42860066.512060165        372433162.87339813     
  -4749967798.0102186        24866850.081897736        347809272.91209918     
  -4746863697.2778006       -2564558.9944920540        317606286.86288542     
  -4746591054.3392477       -39434160.717105389        281824204.72575676     
  -4749149869.1945686       -85741955.085953712        240463026.50071460     
  -5183975957.0244617        51981793.853191376        261080370.45659810     
  -5187393381.5603132        34908214.967376947        245294868.42671147     
  -5192158383.2711086        13342712.165071249        227681636.08055106     
  -5198270962.1568346       -12714714.553673506        208240673.41811711     
  -5205731118.2175016       -43264065.188881397        186971980.43941298     
  -5585190056.2436781        69161071.574944496        150294878.11323601     
  -5587242275.9226894        56222586.609152079        145078958.07017246     
  -5589158192.1577091        43738446.456661940        141786673.48248574     
  -5590937804.9487429        31708651.117472410        140418024.35017207     
  -5592581114.2957821        20133200.591579437        140973010.67322525     
  -5959545654.1941481        94397899.677325010        40076685.843304373     
  -5949514481.0973396        88809965.007257938        47161541.842495494     
  -5937863123.9376135        88622643.880244493        59921399.068695143     
  -5924591582.7149658        93835936.296316385        78356257.521911964     
  -5909699857.4293928        104449842.25545478        102466117.20214050     
  -4222837367.2269616       -107300469.09962273        301446148.85712159     
  -4014325179.1872683       -106226407.03177953        209412179.28204119     
  -3800647497.7918525       -87934033.778192520        121283688.57810801     
  -3581804323.0407238       -52423349.338903427        37060676.745326206     
  -3357795654.9338727        305646.28613352776       -43256856.216306463     
  -4749149869.1945686       -85741955.085953712        240463026.50071460     
  -4523015517.6741886       -68858513.350969553        176464649.28327256     
  -4297621168.0141459       -54441744.483769655        118467985.17971227     
  -4072966820.2144470       -42491648.484378099        66473034.190033883     
  -3849052474.2750788       -33008225.352760553        20479796.314239506     
  -5205731118.2175016       -43264065.188881397        186971980.43941298     
  -4955985362.5229263       -8774471.5787148476        144119451.16087905     
  -4712885103.9047356        3563465.1101548672        109364869.23896125     
  -4476430342.3629351       -6250255.1222784519        82708234.673654392     
  -4246621077.8975272       -38215632.276018858        64149547.464964166     
  -5592581114.2957821        20133200.591579437        140973010.67322525     
  -5313234713.7334690        74025718.285013437        112376584.91486177     
  -5046439305.4636078        86081595.003610373        93974340.755852818     
  -4792194889.4861879        56300830.747400284        85766278.196189404     
  -4550501465.8012199       -15316574.483656645        87752397.235876083     
  -5909699857.4293928        104449842.25545478        102466117.20214050     
  -5594763571.3058376        179542056.24016762        81236050.545227319     
  -5298283772.6907730        193112645.19656515        72296399.730392486     
  -5020260461.5842066        145161609.12462974        75647164.757642254     
  -4760693637.9861546        35688948.024337053        91288345.626969397     
  -3357795654.9338727        305646.28613352776       -43256856.216306463     
  -2971836757.0982990        113167507.00550449       -179436350.24296188     
  -2583429421.0740061        234190828.35395145       -274774346.89574701     
  -2192573646.8609953        363375610.33144701       -329270846.17466760     
  -1799269434.4592605        500721852.93802869       -342925848.07972300     
  -3849052474.2750788       -33008225.352760553        20479796.314239506     
  -3385228723.5025082        58452724.223748446       -85625076.501692653     
  -2914068462.0817232        174368709.29430366       -167736734.16852230     
  -2435571690.0127349        314739729.85886335       -225855176.68625519     
  -1949738407.2955325        479565785.91748381       -259980404.05488425     
  -4246621077.8975272       -38215632.276018858        64149547.464964166     
  -3753070423.4015727        17403021.393549442       -6177952.9375012899     
  -3247295185.7979164        113770285.42212248       -69360520.415637434     
  -2729295365.0865664        250886159.80967200       -125398154.96944220     
  -2199070961.2675171        428750644.55622661       -174290856.59891063     
  -4550501465.8012199       -15316574.483656645        87752397.235876083     
  -4075361856.7955070       -9981601.4851324558        58905020.449605241     
  -3583109592.2225986        52395556.737380266        20354294.362905424     
  -3073744672.0825033        171814900.18384898       -27899781.024229713     
  -2547267096.3752270        348276428.85425115       -85857205.711793587     
  -4760693637.9861546        35688948.024337053        91288345.626969397     
  -4352103023.6842918       -23701144.412243128        109623843.65963760     
  -3921511681.3557563       -9755476.7598948479        101407710.16711330     
  -3468919611.0005445        77525950.981363773        66639945.149380036     
  -2994326812.6186490        238143138.81156838        5320548.6064449986     
  -1799269434.4592605        500721852.93802869       -342925848.07972300     
  -2047861819.4384375        479984887.95454454       -299578266.29625630     
  -2276164771.2057381        526879367.01066756       -488197286.35454291     
  -2484178289.7611728        641405290.10631478       -908782908.25457311     
  -2671902375.1047363        823562657.24156535       -1561335131.9963527     
  -1949738407.2955325        479565785.91748381       -259980404.05488425     
  -2719445066.4596505        300617810.54042077       -181236840.76945427     
  -3474803872.8904028        169496010.94125485       -234873576.46294656     
  -4215814826.5877886        86200387.119989157       -420890611.13535750     
  -4942477927.5517960        50730939.076621771       -739287944.78669548     
  -2199070961.2675171        428750644.55622661       -174290856.59891063     
  -3205359600.7227979        176951346.95371318       -67083155.703098536     
  -4203241967.9232187       -46827043.132590532        7330549.0766137671     
  -5192718062.8687582       -242584525.70264482        48950257.740234055     
  -6173787885.5594368       -410321100.75648975        57775970.287748948     
  -2547267096.3752270        348276428.85425115       -85857205.711793587     
  -3505605422.2278771        108985497.19443083        42882788.902812801     
  -4461479056.3041763       -122089795.21086144        238415090.26414314     
  -5414887998.6040974       -344949448.36160517        500739698.37220716     
  -6365832249.1276588       -559593462.25777173        829856613.22699964     
  -2994326812.6186490        238143138.81156838        5320548.6064449986     
  -3620182530.9748993        96720261.262539387        148660993.04826757     
  -4249515138.0332861       -56292245.293613195        458380047.09963709     
  -4882324633.7938051       -220894380.85685945        934477710.76056135     
  -5518611018.2564564       -397086145.42724061        1576953984.0310376     
 </DataArray>
 <DataArray  type="Float64" Name="VM" NumberOfComponents="1" format="ascii">
   12933106737.613813     
   11340017185.801783     
   10211893875.138762     
   9276368517.9537010     
   8308613902.1678038     
   10128527773.035646     
   9322318732.0066872     
   8828861738.2952557     
   8447725424.1223402     
   8041003936.2420397     
   7981160409.0906401     
   7735591849.6500940     
   7671422747.0673656     
   7673122293.5209646     
   7670774716.2929764     
   6490894241.0855446     
   6587130779.2038050     
   6758436785.2342472     
   6962730346.8225355     
   7173386806.5759363     
   5657236448.2222672     
   5890177494.6792355     
   6115196001.8521490     
   6329891652.5075788     
   6534127381.1324339     
   8308613902.1678038     
   8025447143.7254858     
   7785447492.6491375     
   7577662354.7534332     
   7397247737.2056160     
   8041003936.2420397     
   7751336717.7198257     
   7477895973.1017656     
   7218690015.6981258     
   6973853733.6456022     
   7670774716.2929764     
   7383582385.1121559     
   7102058338.7197819     
   6826318571.3133736     
   6556624567.9963474     
   7173386806.5759363     
   6909735513.0650282     
   6654053272.7026758     
   6402461793.8084745     
   6151781835.4269724     
   6534127381.1324339     
   6322261986.4860716     
   6132437759.3757420     
   5950571160.7879992     
   5767579321.6433735     
   7397247737.2056160     
   7271146600.0346680     
   7136937599.7325783     
   6993912608.9260025     
   6841929643.6803675     
   6973853733.6456022     
   6845358489.7185211     
   6711488839.1439171     
   6571965339.0170584     
   6426771826.5433149     
   6556624567.9963474     
   6422908733.7255516     
   6286483220.9664907     
   6147301067.3428936     
   6005382330.3019581     
   6151781835.4269724     
   6009143224.4805441     
   5866245388.4735575     
   5723076970.6119795     
   5579630931.8427887     
   5767579321.6433735     
   5611156554.6981392     
   5456575510.6965933     
   5303665110.6956291     
   5152364149.1670208     
   6841929643.6803675     
   6625929293.6360750     
   6414810255.8391867     
   6208637169.4494438     
   6007701922.2676182     
   6426771826.5433149     
   6220662121.2343273     
   6018448216.2914629     
   5820192725.9138184     
   5626115409.7840834     
   6005382330.3019581     
   5806762865.5633965     
   5611227017.9243956     
   5418835846.7783356     
   5229748568.0857601     
   5579630931.8427887     
   5386243023.9018860     
   5195271716.8269091     
   5006767148.5838585     
   4820830991.1315413     
   5152364149.1670208     
   4962123814.0849419     
   4773749223.0514383     
   4587258484.7233887     
   4402688545.3891907     
   6007701922.2676182     
   5994969439.4449883     
   5983566938.3330307     
   5973604382.1655302     
   5965251655.1650362     
   5626115409.7840834     
   5621184053.1521606     
   5616526847.8235359     
   5612131835.8529186     
   5607993009.6848679     
   5229748568.0857601     
   5222246647.3382254     
   5213777993.7648029     
   5204438554.6193027     
   5194339489.7071867     
   4820830991.1315413     
   4800400301.7479286     
   4777360065.1869316     
   4752134100.5138998     
   4725255778.8782682     
   4402688545.3891907     
   4359149231.5936975     
   4310633460.1750736     
   4258084112.5682096     
   4202780714.9712048     
   5965251655.1650362     
   5688401182.6205416     
   5398884082.3712187     
   5096077272.2992735     
   4781253230.3609648     
   5607993009.6848679     
   5354170751.9609270     
   5092627885.8449640     
   4822880235.2270250     
   4545404442.5944557     
   5194339489.7071867     
   4957891992.2071075     
   4718471673.2953510     
   4475601725.4951525     
   4229102647.3970604     
   4725255778.8782682     
   4499375741.9099770     
   4275587165.5201735     
   4053523551.4886570     
   3832819115.5276618     
   4202780714.9712048     
   3978847036.6995277     
   3763319908.8111501     
   3556461826.4979835     
   3358784232.9358606     
   4781253230.3609648     
   4344452187.3025990     
   3920579470.0729914     
   3510223278.4623008     
   3120235328.9287043     
   4545404442.5944557     
   4071658711.5769992     
   3609764750.8833752     
   3163522876.9791245     
   2742103862.5821285     
   4229102647.3970604     
   3761817345.2111325     
   3307831321.4362531     
   2871221618.6401949     
   2460431915.3890219     
   3832819115.5276618     
   3418049303.2764311     
   3019060888.3530493     
   2636412983.4941411     
   2273600771.6079874     
   3358784232.9358606     
   3045903506.3852167     
   2749631107.2740397     
   2461992424.0076580     
   2177572229.6622982     
   3120235328.9287043     
   3678521662.0884194     
   4295657080.3194723     
   5042534661.6706343     
   5990136270.5075264     
   2742103862.5821285     
   3562123546.6775289     
   4421032173.9937601     
   5322063533.5158806     
   6272214355.9609118     
   2460431915.3890219     
   3299444665.8800321     
   4180044454.1404757     
   5076483376.8887711     
   5980033362.5386477     
   2273600771.6079874     
   2898586991.0414791     
   3585729081.8082538     
   4321501678.9661856     
   5130403323.0070963     
   2177572229.6622982     
   2382500297.4151063     
   2715290400.5847845     
   3263980199.7238774     
   4163063652.0248466     
   5657236448.2222672     
   5890177494.6792355     
   6115196001.8521490     
   6329891652.5075788     
   6534127381.1324339     
   5150849011.3784733     
   5309848036.5563660     
   5465281634.7658081     
   5614272408.5595083     
   5755385937.8094120     
   4642711067.4665718     
   4753610837.2077332     
   4865537923.5619459     
   4975854106.9212170     
   5082632189.6049128     
   4133101338.5892892     
   4222321168.0976229     
   4317487246.6612902     
   4416941595.8275089     
   4519225527.0508118     
   3623565656.9090157     
   3717829699.7463264     
   3823522041.4719710     
   3940603142.4646521     
   4069005371.9130654     
   6534127381.1324339     
   6322261986.4860716     
   6132437759.3757420     
   5950571160.7879992     
   5767579321.6433735     
   5755385937.8094120     
   5643029095.8937941     
   5546455862.6571054     
   5456526763.9326153     
   5367695910.3467407     
   5082632189.6049128     
   5044261229.5487871     
   5016192640.7680330     
   4993212131.2304611     
   4972150219.8212013     
   4519225527.0508118     
   4530679566.0877514     
   4546644471.1871920     
   4564660670.1398296     
   4583036420.2730780     
   4069005371.9130654     
   4107701582.1509829     
   4143648917.3941746     
   4175952297.1213193     
   4203881562.4437404     
   5767579321.6433735     
   5611156554.6981392     
   5456575510.6965933     
   5303665110.6956291     
   5152364149.1670208     
   5367695910.3467407     
   5213542562.9692421     
   5061114511.6157093     
   4910429070.0408735     
   4761522771.8575010     
   4972150219.8212013     
   4831780344.8183270     
   4694623329.9998331     
   4560741557.3773947     
   4430295017.5999756     
   4583036420.2730780     
   4468197628.3144188     
   4359825547.8571463     
   4257893228.7169008     
   4162749925.8451214     
   4203881562.4437404     
   4126020026.5424294     
   4059825110.3189793     
   4004951942.3224301     
   3961922682.1611185     
   5152364149.1670208     
   4962123814.0849419     
   4773749223.0514383     
   4587258484.7233887     
   4402688545.3891907     
   4761522771.8575010     
   4584216116.8436861     
   4410186807.3851566     
   4239554671.1340666     
   4072511420.9171748     
   4430295017.5999756     
   4275420030.8605819     
   4126446597.6865420     
   3983837699.6791720     
   3848228798.8699570     
   4162749925.8451214     
   4039534490.5594020     
   3925932611.8593102     
   3822864899.9812698     
   3731508503.0524468     
   3961922682.1611185     
   3878477615.3095613     
   3809049670.6390505     
   3754919552.1262112     
   3717633550.3974357     
   4402688545.3891907     
   4359149231.5936975     
   4310633460.1750736     
   4258084112.5682096     
   4202780714.9712048     
   4072511420.9171748     
   4025365379.3018355     
   3973453853.6585150     
   3916926513.2780957     
   3856090718.4858503     
   3848228798.8699570     
   3824750032.2635860     
   3801278654.4068060     
   3778282132.2614150     
   3756403547.2654853     
   3731508503.0524468     
   3756943666.0631909     
   3790724603.3591976     
   3834218098.5530481     
   3888973641.7185230     
   3717633550.3974357     
   3811743796.1998882     
   3923899845.8063540     
   4056136409.2470098     
   4210535631.0492311     
   4202780714.9712048     
   3978847036.6995277     
   3763319908.8111501     
   3556461826.4979835     
   3358784232.9358606     
   3856090718.4858503     
   3640649976.4619641     
   3429749024.9853716     
   3223346211.9117236     
   3021537228.1273880     
   3756403547.2654853     
   3586330373.1361117     
   3423542568.4364548     
   3268847878.3106999     
   3123256336.0575471     
   3888973641.7185230     
   3796015777.5436325     
   3716624805.3515749     
   3652176033.5753212     
   3604039398.0708508     
   4210535631.0492311     
   4211566441.6771374     
   4231324980.8392105     
   4270756188.5766010     
   4330587627.7940741     
   3358784232.9358606     
   3045903506.3852167     
   2749631107.2740397     
   2461992424.0076580     
   2177572229.6622982     
   3021537228.1273880     
   2734015701.4735870     
   2466300499.0853882     
   2218056103.9051619     
   1991658180.6588855     
   3123256336.0575471     
   2885525294.3473887     
   2665042501.8301067     
   2464352109.2203159     
   2287671939.9909644     
   3604039398.0708508     
   3425065765.6615496     
   3249642411.1630273     
   3078886125.8589282     
   2915229723.6767240     
   4330587627.7940741     
   4198916262.8555698     
   4050807468.7423639     
   3885656250.1348424     
   3704590436.6947331     
   2177572229.6622982     
   2382500297.4151063     
   2715290400.5847845     
   3263980199.7238774     
   4163063652.0248466     
   1991658180.6588855     
   1860730248.7456357     
   1670269059.3666430     
   1425358099.7637665     
   1239368493.7599952     
   2287671939.9909644     
   2238779500.4799352     
   2238131338.1193242     
   2294220952.1743922     
   2427542440.5466619     
   2915229723.6767240     
   3195597939.6627107     
   3678167778.7400279     
   4402040126.2955198     
   5396177256.1399651     
   3704590436.6947331     
   4399103095.9291801     
   5445587715.7119627     
   6900659960.2708454     
   8806609767.6535473     
   3623565656.9090157     
   3717829699.7463264     
   3823522041.4719710     
   3940603142.4646521     
   4069005371.9130654     
   3136338379.0592961     
   3254143389.3368859     
   3381486507.4806943     
   3517901691.9545293     
   3662933339.2343702     
   2693320214.8805704     
   2829794040.2073240     
   2973629759.4105968     
   3123721383.9111757     
   3279137774.3708496     
   2297995614.3356786     
   2449591466.3124371     
   2605870401.6573300     
   2764853347.6860771     
   2925069327.6017876     
   1955541252.2725649     
   2120494359.5930040     
   2286660888.4556432     
   2450984231.8504128     
   2611444640.2677121     
   4069005371.9130654     
   4107701582.1509829     
   4143648917.3941746     
   4175952297.1213193     
   4203881562.4437404     
   3662933339.2343702     
   3699612259.5351868     
   3735027420.8604274     
   3768302094.1829395     
   3798701420.3712649     
   3279137774.3708496     
   3319876102.9105048     
   3361205223.8134413     
   3402347689.9426322     
   3442657629.3746662     
   2925069327.6017876     
   2975829869.6987548     
   3029401773.0074592     
   3085168774.2746739     
   3142644771.9241581     
   2611444640.2677121     
   2677468178.7427030     
   2748834217.5336471     
   2825108026.0434456     
   2905985621.9178905     
   4203881562.4437404     
   4126020026.5424294     
   4059825110.3189793     
   4004951942.3224301     
   3961922682.1611185     
   3798701420.3712649     
   3761944505.0715580     
   3734499367.4888372     
   3716151960.6109080     
   3707186375.7664404     
   3442657629.3746662     
   3436364214.7582998     
   3436070888.1520243     
   3441615352.7313414     
   3453064048.6298199     
   3142644771.9241581     
   3157103324.3490000     
   3173036599.1324410     
   3190291817.0051403     
   3208789543.7909470     
   2905985621.9178905     
   2933117130.1472292     
   2955831014.9295673     
   2973947699.7752247     
   2987316406.9628186     
   3961922682.1611185     
   3878477615.3095613     
   3809049670.6390505     
   3754919552.1262112     
   3717633550.3974357     
   3707186375.7664404     
   3636301672.0181794     
   3576041684.9923339     
   3526990921.2801557     
   3489880846.8509116     
   3453064048.6298199     
   3386066170.4568238     
   3326433072.7320876     
   3274341284.7999134     
   3230032267.9127445     
   3208789543.7909470     
   3137455108.3545561     
   3070071712.1235766     
   3006624941.5753365     
   2947120744.0230765     
   2987316406.9628186     
   2904677711.2940755     
   2822107292.6461701     
   2739517567.4145432     
   2656836546.5489678     
   3717633550.3974357     
   3811743796.1998882     
   3923899845.8063540     
   4056136409.2470098     
   4210535631.0492311     
   3489880846.8509116     
   3585144641.9248962     
   3689569485.7266893     
   3804020370.5710568     
   3929420707.4908957     
   3230032267.9127445     
   3311235393.1277776     
   3393484806.4363422     
   3477002376.2983613     
   3562045466.3353400     
   2947120744.0230765     
   2998507918.1553941     
   3042810905.6599870     
   3080073997.9797430     
   3110384962.7580385     
   2656836546.5489678     
   2663400932.6971345     
   2653716370.5340543     
   2627952977.8405132     
   2586437759.4958634     
   4210535631.0492311     
   4211566441.6771374     
   4231324980.8392105     
   4270756188.5766010     
   4330587627.7940741     
   3929420707.4908957     
   3880149049.7255812     
   3845881008.0534072     
   3827799504.6694531     
   3827031700.9723582     
   3562045466.3353400     
   3467598996.6899753     
   3385816464.2577143     
   3317607765.6655469     
   3263983963.2245474     
   3110384962.7580385     
   2972224804.1504550     
   2846711402.2451324     
   2734086973.1608543     
   2634757436.4858031     
   2586437759.4958634     
   2399890614.1410050     
   2229549413.2346392     
   2075033175.4827149     
   1935992881.0461383     
   4330587627.7940741     
   4198916262.8555698     
   4050807468.7423639     
   3885656250.1348424     
   3704590436.6947331     
   3827031700.9723582     
   3599130615.5988955     
   3373422762.9597874     
   3151346873.8977895     
   2935555062.2581797     
   3263983963.2245474     
   2970029498.0905838     
   2693006963.8688622     
   2435796953.4916792     
   2202632977.4565678     
   2634757436.4858031     
   2308817607.0714521     
   2012235321.2125516     
   1746671890.5265279     
   1515746362.4718053     
   1935992881.0461383     
   1616841834.6411428     
   1343293794.1772761     
   1110078808.3463788     
   912764968.24515963     
   3704590436.6947331     
   4399103095.9291801     
   5445587715.7119627     
   6900659960.2708454     
   8806609767.6535473     
   2935555062.2581797     
   3864931772.1513424     
   4973130191.4877758     
   6279455536.8751345     
   7804336639.6743479     
   2202632977.4565678     
   3229915588.3669491     
   4283527440.6827836     
   5361682937.9048643     
   6468141402.9062357     
   1515746362.4718053     
   2458475747.1160984     
   3271900337.3462362     
   3957164457.2656274     
   4523836569.0002794     
   912764968.24515963     
   1530862647.1659706     
   1902826155.6246200     
   2007271154.9349074     
   1933325172.1537502     
   1955541252.2725649     
   2120494359.5930040     
   2286660888.4556432     
   2450984231.8504128     
   2611444640.2677121     
   1655074122.5112650     
   1822273695.1905606     
   1991202580.0714440     
   2159091267.3762450     
   2324134337.8613024     
   1395602234.1920547     
   1573867908.9642949     
   1753337320.5874338     
   1931960691.3829894     
   2108458064.1882572     
   1209433338.1609182     
   1402536360.9496350     
   1595565191.0637126     
   1787726731.4566143     
   1978552124.1815844     
   1139289100.5186613     
   1338864143.1121361     
   1539276235.1342583     
   1740525376.5850265     
   1942611567.4644411     
   2611444640.2677121     
   2677468178.7427030     
   2748834217.5336471     
   2825108026.0434456     
   2905985621.9178905     
   2324134337.8613024     
   2409790585.0776477     
   2498362310.3148584     
   2589502489.7894745     
   2682960837.5087113     
   2108458064.1882572     
   2210868231.2764525     
   2313272354.3035555     
   2415455299.5638647     
   2517262010.3831425     
   1978552124.1815844     
   2094254403.1611426     
   2206778329.5308557     
   2316055170.8516912     
   2422036382.2750883     
   1942611567.4644411     
   2067996220.5879159     
   2187198588.2221246     
   2300218670.3670645     
   2407056467.0227404     
   2905985621.9178905     
   2933117130.1472292     
   2955831014.9295673     
   2973947699.7752247     
   2987316406.9628186     
   2682960837.5087113     
   2713117878.5683045     
   2742160286.0433402     
   2769996190.3504901     
   2796546482.3465896     
   2517262010.3831425     
   2553806498.8425846     
   2592877009.5546093     
   2634458945.9458909     
   2678540864.0729752     
   2422036382.2750883     
   2465291743.4901791     
   2514897455.5692568     
   2570862360.3439865     
   2633194472.8726697     
   2407056467.0227404     
   2453592499.3181734     
   2510417645.2155085     
   2577531904.7147460     
   2654935277.8158855     
   2987316406.9628186     
   2904677711.2940755     
   2822107292.6461701     
   2739517567.4145432     
   2656836546.5489678     
   2796546482.3465896     
   2732017213.4442549     
   2670986302.0488601     
   2613436968.4872766     
   2559371531.2092600     
   2678540864.0729752     
   2636031284.7593508     
   2600844424.7317085     
   2573021417.6056004     
   2552616385.5575042     
   2633194472.8726697     
   2612990823.4347091     
   2603857414.3082371     
   2605820482.7477055     
   2618908418.8706121     
   2654935277.8158855     
   2653594567.9627929     
   2666873954.9253035     
   2694773438.7034116     
   2737293019.2971210     
   2656836546.5489678     
   2663400932.6971345     
   2653716370.5340543     
   2627952977.8405132     
   2586437759.4958634     
   2559371531.2092600     
   2587623430.0089140     
   2606596395.2265749     
   2616163047.0936017     
   2616222752.8507185     
   2552616385.5575042     
   2615989077.0906858     
   2678860787.6786389     
   2741179358.0982180     
   2802898700.2722311     
   2618908418.8706121     
   2721299337.3840976     
   2832119806.4234686     
   2951359491.6454277     
   3079005326.4198222     
   2737293019.2971210     
   2875635210.0198126     
   3031412710.0902667     
   3204625519.5084877     
   3395273638.2744780     
   2586437759.4958634     
   2399890614.1410050     
   2229549413.2346392     
   2075033175.4827149     
   1935992881.0461383     
   2616222752.8507185     
   2489009826.6601214     
   2376153244.6991401     
   2277691201.9904385     
   2193713006.4619160     
   2802898700.2722311     
   2742481525.3078012     
   2694031581.1657114     
   2657598243.4692812     
   2633237247.0706363     
   3079005326.4198222     
   3084918635.1615739     
   3099645817.2507677     
   3123192523.7627954     
   3155564076.8394527     
   3395273638.2744780     
   3465672275.4953623     
   3541582931.1196666     
   3623005605.1473970     
   3709940297.5785522     
   1935992881.0461383     
   1616841834.6411428     
   1343293794.1772761     
   1110078808.3463788     
   912764968.24515963     
   2193713006.4619160     
   1933741903.1405051     
   1711368241.2852066     
   1525808442.6224952     
   1376918092.5123129     
   2633237247.0706363     
   2428969282.9027977     
   2248556384.5733438     
   2091904223.8298993     
   1959034792.4877017     
   3155564076.8394527     
   2999613898.3181229     
   2851216969.9233279     
   2710377493.1332564     
   2577116667.7039909     
   3709940297.5785522     
   3598723844.9672656     
   3478052719.9792805     
   3347926922.6145949     
   3208346452.8732133     
   912764968.24515963     
   1530862647.1659706     
   1902826155.6246200     
   2007271154.9349074     
   1933325172.1537502     
   1376918092.5123129     
   1976675658.1541212     
   2447231040.6281748     
   2757330242.2345934     
   2909101451.6930680     
   1959034792.4877017     
   2632590918.0760193     
   3333944598.2375741     
   4034566207.8529353     
   4724632567.8583469     
   2577116667.7039909     
   3322474438.7928610     
   4221978152.1467390     
   5261877965.9365311     
   6435497849.4406281     
   3208346452.8732133     
   4016367355.9277930     
   5114995908.0549059     
   6504232109.2545538     
   8184075959.5267467     
   1139289100.5186613     
   1338864143.1121361     
   1539276235.1342583     
   1740525376.5850265     
   1942611567.4644411     
   1209433338.2300944     
   1402536361.0204258     
   1595565191.1367216     
   1787726731.5325167     
   1978552124.2610521     
   1395602234.3057854     
   1573867909.0849941     
   1753337320.7154479     
   1931960691.5191419     
   2108458064.3335826     
   1655074122.6443367     
   1822273695.3365002     
   1991202580.2304561     
   2159091267.5492730     
   2324134338.0496926     
   1955541252.4072473     
   2120494359.7444234     
   2286660888.6242371     
   2450984232.0374417     
   2611444640.4749188     
   1942611567.4644411     
   2067996220.5879159     
   2187198588.2221246     
   2300218670.3670645     
   2407056467.0227404     
   1978552124.2610521     
   2094254403.2511554     
   2206778329.6319470     
   2316055170.9643664     
   2422036382.3998218     
   2108458064.3335826     
   2210868231.4409490     
   2313272354.4880962     
   2415455299.7692366     
   2517262010.6100745     
   2324134338.0496926     
   2409790585.2912750     
   2498362310.5549006     
   2589502490.0569410     
   2682960837.8045177     
   2611444640.4749188     
   2677468178.9781938     
   2748834217.7989841     
   2825108026.3399348     
   2905985622.2467055     
   2407056467.0227404     
   2453592499.3181734     
   2510417645.2155085     
   2577531904.7147460     
   2654935277.8158855     
   2422036382.3998218     
   2465291743.6414914     
   2514897455.7513475     
   2570862360.5610714     
   2633194473.1289926     
   2517262010.6100745     
   2553806499.1164165     
   2592877009.8843288     
   2634458946.3406143     
   2678540864.5419321     
   2682960837.8045177     
   2713117878.9203687     
   2742160286.4654298     
   2769996190.8566489     
   2796546482.9511051     
   2905985622.2467055     
   2933117130.5278625     
   2955831015.3796191     
   2973947700.3125401     
   2987316407.6054149     
   2654935277.8158855     
   2653594567.9627929     
   2666873954.9253035     
   2694773438.7034116     
   2737293019.2971210     
   2633194473.1289926     
   2612990823.7123709     
   2603857414.6096129     
   2605820483.0750260     
   2618908419.2260690     
   2678540864.5419321     
   2636031285.2771273     
   2600844425.3048177     
   2573021418.2403622     
   2552616386.2601423     
   2796546482.9511051     
   2732017214.1238484     
   2670986302.8152399     
   2613436969.3521948     
   2559371532.1845493     
   2987316407.6054149     
   2904677712.0279212     
   2822107293.4869895     
   2739517568.3782177     
   2656836547.6514902     
   2737293019.2971210     
   2875635210.0198126     
   3031412710.0902667     
   3204625519.5084877     
   3395273638.2744780     
   2618908419.2260690     
   2721299337.7773247     
   2832119806.8519573     
   2951359492.1065645     
   3079005326.9108920     
   2552616386.2601423     
   2615989077.8710284     
   2678860788.5302205     
   2741179359.0143175     
   2802898701.2459159     
   2559371532.1845493     
   2587623431.1019487     
   2606596396.4258795     
   2616163048.3873062     
   2616222754.2266631     
   2656836547.6514902     
   2663400933.9453354     
   2653716371.9084220     
   2627952979.3206453     
   2586437761.0603929     
   3395273638.2744780     
   3465672275.4953623     
   3541582931.1196666     
   3623005605.1473970     
   3709940297.5785522     
   3079005326.9108920     
   3084918635.6970339     
   3099645817.8431950     
   3123192524.4246998     
   3155564077.5832930     
   2802898701.2459159     
   2742481526.3809042     
   2694031582.3640633     
   2657598244.8182454     
   2633237248.5951877     
   2616222754.2266631     
   2489009828.1842446     
   2376153246.4115524     
   2277691203.9307661     
   2193713008.6694565     
   2586437761.0603929     
   2399890615.8443160     
   2229549415.1209459     
   2075033177.5954044     
   1935992883.4289896     
   3709940297.5785522     
   3598723844.9672656     
   3478052719.9792805     
   3347926922.6145949     
   3208346452.8732133     
   3155564077.5832930     
   2999613899.1607018     
   2851216970.8831410     
   2710377494.2294459     
   2577116668.9567642     
   2633237248.5951877     
   2428969284.6131773     
   2248556386.4998298     
   2091904226.0025296     
   1959034794.9377685     
   2193713008.6694565     
   1933741905.5907536     
   1711368244.0137382     
   1525808445.6639969     
   1376918095.9065449     
   1935992883.4289896     
   1616841837.1692259     
   1343293796.8612018     
   1110078811.2080889     
   912764971.36137259     
   3208346452.8732133     
   4016367355.9277930     
   5114995908.0549059     
   6504232109.2545538     
   8184075959.5267467     
   2577116668.9567642     
   3322474439.3839331     
   4221978152.0932612     
   5261877965.3566179     
   6435497848.4817219     
   1959034794.9377685     
   2632590919.6086607     
   3333944598.9675522     
   4034566207.9789181     
   4724632567.5513468     
   1376918095.9065449     
   1976675660.9226067     
   2447231043.0563293     
   2757330244.6325073     
   2909101454.1634603     
   912764971.36137259     
   1530862650.3583970     
   1902826158.8619487     
   2007271158.3532059     
   1933325174.9658172     
   1955541252.4072473     
   2120494359.7444234     
   2286660888.6242371     
   2450984232.0374417     
   2611444640.4749188     
   2297995614.4605494     
   2449591466.4542770     
   2605870401.8168163     
   2764853347.8643208     
   2925069327.8001790     
   2693320214.9884114     
   2829794040.3306122     
   2973629759.5503545     
   3123721384.0686121     
   3279137774.5473146     
   3136338379.1452179     
   3254143389.4355941     
   3381486507.5935421     
   3517901692.0829592     
   3662933339.3799033     
   3623565656.9694066     
   3717829699.8161650     
   3823522041.5528579     
   3940603142.5583005     
   4069005372.0212994     
   2611444640.4749188     
   2677468178.9781938     
   2748834217.7989841     
   2825108026.3399348     
   2905985622.2467055     
   2925069327.8001790     
   2975829869.9225779     
   3029401773.2580686     
   3085168774.5531611     
   3142644772.2314644     
   3279137774.5473146     
   3319876103.1087222     
   3361205224.0344305     
   3402347690.1871300     
   3442657629.6432266     
   3662933339.3799033     
   3699612259.6982613     
   3735027421.0416164     
   3768302094.3824964     
   3798701420.5892258     
   4069005372.0212994     
   4107701582.2723203     
   4143648917.5286927     
   4175952297.2687435     
   4203881562.6035266     
   2905985622.2467055     
   2933117130.5278625     
   2955831015.3796191     
   2973947700.3125401     
   2987316407.6054149     
   3142644772.2314644     
   3157103324.6844287     
   3173036599.5066843     
   3190291817.4291906     
   3208789544.2762084     
   3442657629.6432266     
   3436364215.0328259     
   3436070888.4374328     
   3441615353.0330648     
   3453064048.9540882     
   3798701420.5892258     
   3761944505.2789378     
   3734499367.6858568     
   3716151960.7984209     
   3707186375.9462943     
   4203881562.6035266     
   4126020026.6830716     
   4059825110.4368181     
   4004951942.4142885     
   3961922682.2246609     
   2987316407.6054149     
   2904677712.0279212     
   2822107293.4869895     
   2739517568.3782177     
   2656836547.6514902     
   3208789544.2762084     
   3137455108.8911915     
   3070071712.7243152     
   3006624942.2533855     
   2947120744.7921710     
   3453064048.9540882     
   3386066170.7959533     
   3326433073.0969791     
   3274341285.2023010     
   3230032268.3653078     
   3707186375.9462943     
   3636301672.1811223     
   3576041685.1478171     
   3526990921.4386721     
   3489880847.0241265     
   3961922682.2246609     
   3878477615.3288751     
   3809049670.6217995     
   3754919552.0811191     
   3717633550.3344316     
   2656836547.6514902     
   2663400933.9453354     
   2653716371.9084220     
   2627952979.3206453     
   2586437761.0603929     
   2947120744.7921710     
   2998507919.0357552     
   3042810906.6430020     
   3080073999.0568166     
   3110384963.9207211     
   3230032268.3653078     
   3311235393.6658239     
   3393484807.0617228     
   3477002377.0130997     
   3562045467.1416483     
   3489880847.0241265     
   3585144642.1576571     
   3689569486.0305886     
   3804020370.9579883     
   3929420707.9728584     
   3717633550.3344316     
   3811743796.1644506     
   3923899845.8201427     
   4056136409.3326483     
   4210535631.2297497     
   2586437761.0603929     
   2399890615.8443160     
   2229549415.1209459     
   2075033177.5954044     
   1935992883.4289896     
   3110384963.9207211     
   2972224805.4252210     
   2846711403.6691184     
   2734086974.7738690     
   2634757438.3310513     
   3562045467.1416483     
   3467598997.5936017     
   3385816465.2884130     
   3317607766.8555493     
   3263983964.6084018     
   3929420707.9728584     
   3880149050.3043704     
   3845881008.7496619     
   3827799505.5043883     
   3827031701.9672012     
   4210535631.2297497     
   4211566441.9694738     
   4231324981.2517333     
   4270756189.1154122     
   4330587628.4627008     
   1935992883.4289896     
   1616841837.1692259     
   1343293796.8612018     
   1110078811.2080889     
   912764971.36137259     
   2634757438.3310513     
   2308817609.0159788     
   2012235323.3081014     
   1746671892.8325553     
   1515746365.0574036     
   3263983964.6084018     
   2970029499.5126925     
   2693006965.3747778     
   2435796955.1333799     
   2202632979.2931190     
   3827031701.9672012     
   3599130616.5914230     
   3373422763.9806442     
   3151346874.9856505     
   2935555063.4650903     
   4330587628.4627008     
   4198916263.5127845     
   4050807469.4011993     
   3885656250.8182731     
   3704590437.4461474     
   912764971.36137259     
   1530862650.3583970     
   1902826158.8619487     
   2007271158.3532059     
   1933325174.9658172     
   1515746365.0574036     
   2458475748.3925266     
   3271900337.5338993     
   3957164456.6005244     
   4523836567.6801510     
   2202632979.2931190     
   3229915588.3349080     
   4283527438.7704349     
   5361682934.1229610     
   6468141397.2773848     
   2935555063.4650903     
   3864931771.4111733     
   4973130188.4239302     
   6279455531.1065979     
   7804336630.8334665     
   3704590437.4461474     
   4399103094.9494705     
   5445587712.0965652     
   6900659953.0736723     
   8806609756.0030003     
   3623565656.9694066     
   3717829699.8161650     
   3823522041.5528579     
   3940603142.5583005     
   4069005372.0212994     
   4133101338.6228981     
   4222321168.1370749     
   4317487246.7071552     
   4416941595.8806667     
   4519225527.1123915     
   4642711067.4739618     
   4753610837.2171593     
   4865537923.5728550     
   4975854106.9335365     
   5082632189.6189127     
   5150849011.3599596     
   5309848036.5361490     
   5465281634.7422171     
   5614272408.5315323     
   5755385937.7764730     
   5657236448.1777945     
   5890177494.6295929     
   6115196001.7946205     
   6329891652.4402990     
   6534127381.0540848     
   4069005372.0212994     
   4107701582.2723203     
   4143648917.5286927     
   4175952297.2687435     
   4203881562.6035266     
   4519225527.1123915     
   4530679566.1552095     
   4546644471.2612677     
   4564660670.2211008     
   4583036420.3621111     
   5082632189.6189127     
   5044261229.5615349     
   5016192640.7811804     
   4993212131.2456341     
   4972150219.8401098     
   5755385937.7764730     
   5643029095.8526192     
   5546455862.6102104     
   5456526763.8826113     
   5367695910.2963543     
   6534127381.0540848     
   6322261986.3926296     
   6132437759.2703724     
   5950571160.6740856     
   5767579321.5244150     
   4203881562.6035266     
   4126020026.6830716     
   4059825110.4368181     
   4004951942.4142885     
   3961922682.2246609     
   4583036420.3621111     
   4468197628.3838377     
   4359825547.9034443     
   4257893228.7366366     
   4162749925.8351760     
   4972150219.8401098     
   4831780344.8171940     
   4694623329.9749374     
   4560741557.3249006     
   4430295017.5160065     
   5367695910.2963543     
   5213542562.8982782     
   5061114511.5200281     
   4910429069.9162636     
   4761522771.6995668     
   5767579321.5244150     
   5611156554.5578947     
   5456575510.5303497     
   5303665110.4988699     
   5152364148.9351082     
   3961922682.2246609     
   3878477615.3288751     
   3809049670.6217995     
   3754919552.0811191     
   3717633550.3344316     
   4162749925.8351760     
   4039534490.4930091     
   3925932611.7403517     
   3822864899.8144898     
   3731508502.8436308     
   4430295017.5160065     
   4275420030.7066159     
   4126446597.4620953     
   3983837699.3840108     
   3848228798.5041618     
   4761522771.6995668     
   4584216116.6036901     
   4410186807.0585423     
   4239554670.7158451     
   4072511420.4017935     
   5152364148.9351082     
   4962123813.7624674     
   4773749222.6308231     
   4587258484.1962442     
   4402688544.7460594     
   3717633550.3344316     
   3811743796.1644506     
   3923899845.8201427     
   4056136409.3326483     
   4210535631.2297497     
   3731508502.8436308     
   3756943665.8581204     
   3790724603.1793041     
   3834218098.4204435     
   3888973641.6550465     
   3848228798.5041618     
   3824750031.8811507     
   3801278654.0281649     
   3778282131.9070802     
   3756403546.9548497     
   4072511420.4017935     
   4025365378.7555280     
   3973453853.0999150     
   3916926512.7248044     
   3856090717.9529877     
   4402688544.7460594     
   4359149230.9143267     
   4310633459.4762640     
   4258084111.8643961     
   4202780714.2729726     
   4210535631.2297497     
   4211566441.9694738     
   4231324981.2517333     
   4270756189.1154122     
   4330587628.4627008     
   3888973641.6550465     
   3796015777.5632439     
   3716624805.4601078     
   3652176033.7783608     
   3604039398.3732409     
   3756403546.9548497     
   3586330372.8690014     
   3423542568.2120481     
   3268847878.1294732     
   3123256335.9211516     
   3856090717.9529877     
   3640649975.9371786     
   3429749024.4601202     
   3223346211.3788133     
   3021537227.5807762     
   4202780714.2729726     
   3978847035.9967933     
   3763319908.0949092     
   3556461825.7618389     
   3358784232.1758518     
   4330587628.4627008     
   4198916263.5127845     
   4050807469.4011993     
   3885656250.8182731     
   3704590437.4461474     
   3604039398.3732409     
   3425065765.9817476     
   3249642411.5398359     
   3078886126.3447304     
   2915229724.3485975     
   3123256335.9211516     
   2885525294.1972098     
   2665042501.7299299     
   2464352109.2595482     
   2287671940.2989802     
   3021537227.5807762     
   2734015700.7961407     
   2466300498.3378162     
   2218056103.1880808     
   1991658180.1405141     
   3358784232.1758518     
   3045903505.3455086     
   2749631105.9862428     
   2461992422.5390263     
   2177572228.1453333     
   3704590437.4461474     
   4399103094.9494705     
   5445587712.0965652     
   6900659953.0736723     
   8806609756.0030003     
   2915229724.3485975     
   3195597939.7316699     
   3678167777.3060746     
   4402040122.2808857     
   5396177248.4668550     
   2287671940.2989802     
   2238779501.7565899     
   2238131339.9130473     
   2294220953.4961281     
   2427542439.7159286     
   1991658180.1405141     
   1860730250.1644421     
   1670269063.4921143     
   1425358107.4660301     
   1239368504.7411451     
   2177572228.1453333     
   2382500296.5454597     
   2715290400.3322206     
   3263980199.2542944     
   4163063650.2031326     
   5657236448.1777945     
   5890177494.6295929     
   6115196001.7946205     
   6329891652.4402990     
   6534127381.0540848     
   6490894241.0240746     
   6587130779.1195555     
   6758436785.1281481     
   6962730346.6973076     
   7173386806.4351845     
   7981160409.0297136     
   7735591849.5510178     
   7671422746.9332762     
   7673122293.3569489     
   7670774716.1046648     
   10128527772.992079     
   9322318731.9116096     
   8828861738.1524868     
   8447725423.9378996     
   8041003936.0214806     
   12933106737.604197     
   11340017185.728085     
   10211893875.004597     
   9276368517.7658539     
   8308613901.9316216     
   6534127381.0540848     
   6322261986.3926296     
   6132437759.2703724     
   5950571160.6740856     
   5767579321.5244150     
   7173386806.4351845     
   6909735512.9068918     
   6654053272.5289469     
   6402461793.6207981     
   6151781835.2268972     
   7670774716.1046648     
   7383582384.9001188     
   7102058338.4848299     
   6826318571.0560331     
   6556624567.7168407     
   8041003936.0214806     
   7751336717.4651451     
   7477895972.8129559     
   7218690015.3750563     
   6973853733.2878103     
   8308613901.9316216     
   8025447143.4406528     
   7785447492.3145666     
   7577662354.3686142     
   7397247736.7699614     
   5767579321.5244150     
   5611156554.5578947     
   5456575510.5303497     
   5303665110.4988699     
   5152364148.9351082     
   6151781835.2268972     
   6009143224.2556486     
   5866245388.2208672     
   5723076970.3286219     
   5579630931.5259676     
   6556624567.7168407     
   6422908733.4129934     
   6286483220.6193199     
   6147301066.9595613     
   6005382329.8810616     
   6973853733.2878103     
   6845358489.3141489     
   6711488838.6925993     
   6571965338.5183191     
   6426771825.9967194     
   7397247736.7699614     
   7271146599.5333471     
   7136937599.1662560     
   6993912608.2950478     
   6841929642.9848671     
   5152364148.9351082     
   4962123813.7624674     
   4773749222.6308231     
   4587258484.1962442     
   4402688544.7460594     
   5579630931.5259676     
   5386243023.5081701     
   5195271716.3495712     
   5006767148.0157576     
   4820830990.4648542     
   6005382329.8810616     
   5806762865.1009407     
   5611227017.4157734     
   5418835846.2186842     
   5229748567.4696722     
   6426771825.9967194     
   6220662120.7017899     
   6018448215.7717323     
   5820192725.4052019     
   5626115409.2842255     
   6841929642.9848671     
   6625929293.0292149     
   6414810255.3243685     
   6208637169.0291119     
   6007701921.9431524     
   4402688544.7460594     
   4359149230.9143267     
   4310633459.4762640     
   4258084111.8643961     
   4202780714.2729726     
   4820830990.4648542     
   4800400301.0649986     
   4777360064.4990864     
   4752134099.8311024     
   4725255778.2085676     
   5229748567.4696722     
   5222246646.7260275     
   5213777993.1628056     
   5204438554.0334263     
   5194339489.1428366     
   5626115409.2842255     
   5621184052.6788788     
   5616526847.3781252     
   5612131835.4369211     
   5607993009.2999878     
   6007701921.9431524     
   5994969439.1743860     
   5983566938.1120729     
   5973604381.9902802     
   5965251655.0315971     
   4202780714.2729726     
   3978847035.9967933     
   3763319908.0949092     
   3556461825.7618389     
   3358784232.1758518     
   4725255778.2085676     
   4499375741.2458906     
   4275587164.8612504     
   4053523550.8343730     
   3832819114.8774281     
   5194339489.1428366     
   4957891991.6425915     
   4718471672.7344713     
   4475601724.9402637     
   4229102646.8489943     
   5607993009.2999878     
   5354170751.5545635     
   5092627885.4233103     
   4822880234.7942228     
   4545404442.1520910     
   5965251655.0315971     
   5688401182.4293995     
   5398884082.1304426     
   5096077272.0147457     
   4781253230.0350647     
   3358784232.1758518     
   3045903505.3455086     
   2749631105.9862428     
   2461992422.5390263     
   2177572228.1453333     
   3832819114.8774281     
   3418049302.3920188     
   3019060887.2590318     
   2636412982.2578182     
   2273600770.3666410     
   4229102646.8489943     
   3761817344.6278243     
   3307831320.8303800     
   2871221618.0589724     
   2460431914.9384518     
   4545404442.1520910     
   4071658711.4506779     
   3609764751.0711832     
   3163522877.4973092     
   2742103863.4874430     
   4781253230.0350647     
   4344452187.7957458     
   3920579471.3676386     
   3510223280.5405688     
   3120235331.8022423     
   2177572228.1453333     
   2382500296.5454597     
   2715290400.3322206     
   3263980199.2542944     
   4163063650.2031326     
   2273600770.3666410     
   2898586989.6599927     
   3585729080.5077248     
   4321501677.4867516     
   5130403320.8966408     
   2460431914.9384518     
   3299444664.9839001     
   4180044453.2086301     
   5076483376.0550985     
   5980033361.8462963     
   2742103863.4874430     
   3562123547.2135797     
   4421032174.6635914     
   5322063534.7458010     
   6272214358.1149702     
   3120235331.8022423     
   3678521664.9206767     
   4295657083.5510550     
   5042534665.8049631     
   5990136275.8800535     
 </DataArray>
 <DataArray  type="Float64" Name="strain" NumberOfComponents="3" format="ascii">
  0.20343907320492702        0.0000000000000000       0.12540614932160898     
  0.18664163722566060       -2.7380317608785308E-002   7.4337076695594195E-002
  0.16984420124639416       -4.4750361070703702E-002   3.5100579832664458E-002
  0.15304676526712774       -5.2110130385755182E-002   7.6966587328197444E-003
  0.13624932928786132       -4.9459625553939734E-002  -7.8746866039399038E-003
  0.15984016449608240        0.0000000000000000        9.6387301069284170E-002
  0.15319183333692074       -2.1881646008350006E-002   6.2633108259632253E-002
  0.14654350217775905       -3.6222100388538306E-002   3.7344549327104778E-002
  0.13989517101859739       -4.3021363140564886E-002   2.0521624271701719E-002
  0.13324683985943567       -4.2279434264429733E-002   1.2164333093423137E-002
  0.12646387365906669        0.0000000000000000        7.4101665676747253E-002
  0.12659770543404913       -1.6382974407914707E-002   5.5193270164753026E-002
  0.12673153720903158       -2.7693839706372899E-002   4.1383566643922592E-002
  0.12686536898401402       -3.3932595895374583E-002   3.2672555114255993E-002
  0.12699920075899648       -3.5099242974919745E-002   2.9060235575753220E-002
  0.10331020069387982        0.0000000000000000        5.8549243143998238E-002
  0.10685925351704580       -1.0884302807479406E-002   5.2017562410956474E-002
  0.11040830634021175       -1.9165579024207499E-002   4.7217631783117928E-002
  0.11395735916337769       -2.4843828650184276E-002   4.4149451260482579E-002
  0.11750641198654363       -2.7919051685409740E-002   4.2813020843050435E-002
   9.0379145600521821E-002   0.0000000000000000        4.9730033471037119E-002
   9.3976477585910684E-002  -5.3856312070441033E-003   5.3105984998242622E-002
   9.7573809571299547E-002  -1.0637318342042096E-002   5.4846744744690749E-002
  0.10117114155668841       -1.5755061404993973E-002   5.4952312710381430E-002
  0.10476847354207729       -2.0738860395899738E-002   5.3422688895314735E-002
  0.13624932928786132       -4.9459625553939734E-002  -7.8746866039399038E-003
  0.13305524682309186       -4.2887307127062145E-002  -3.4205505113462722E-003
  0.12986116435832243       -3.8481635656927221E-002  -3.9953387011333261E-004
  0.12666708189355297       -3.6242611143534768E-002   1.1883633197586722E-003
  0.12347299942878356       -3.6170233586885064E-002   1.3431410582701031E-003
  0.13324683985943567       -4.2279434264429733E-002   1.2164333093423137E-002
  0.12900912179362695       -3.8380393226253230E-002   1.2065996233913891E-002
  0.12477140372781823       -3.5708319492155673E-002   1.1313507623686766E-002
  0.12053368566200955       -3.4263213062137025E-002   9.9068672627418922E-003
  0.11629596759620078       -3.4045073936197379E-002   7.8460751510792681E-003
  0.12699920075899648       -3.5099242974919745E-002   2.9060235575753220E-002
  0.12249681479279140       -3.3873479325444281E-002   2.5349105416804747E-002
  0.11799442882658634       -3.2935003327384124E-002   2.1762791207781358E-002
  0.11349204286038130       -3.2283814980739206E-002   1.8301292948683105E-002
  0.10898965689417622       -3.1919914285509596E-002   1.4964610639510080E-002
  0.11750641198654363       -2.7919051685409740E-002   4.2813020843050435E-002
  0.11351832582058517       -2.9366565424635345E-002   3.6428777037326415E-002
  0.10953023965462674       -3.0161687162612576E-002   3.0948316882170399E-002
  0.10554215348866830       -3.0304416899341421E-002   2.6371640377582474E-002
  0.10155406732270983       -2.9794754634821875E-002   2.2698747523562685E-002
  0.10476847354207729       -2.0738860395899738E-002   5.3422688895314735E-002
  0.10207365487700837       -2.4859651523826416E-002   4.5305011095478812E-002
   9.9378836211939450E-002  -2.7388370997841041E-002   3.8870084646853827E-002
   9.6684017546870546E-002  -2.8325018817943616E-002   3.4117909549439988E-002
   9.3989198881801642E-002  -2.7669594984134141E-002   3.1048485803237019E-002
  0.12347299942878356       -3.6170233586885064E-002   1.3431410582701031E-003
  0.12106698556279682       -3.6853167102684936E-002   5.5827502211200364E-004
  0.11866097169681004       -3.6880075806641578E-002  -1.0966947292322116E-004
  0.11625495783082326       -3.6250959698754616E-002  -6.6069242683546026E-004
  0.11384894396483652       -3.4965818779024327E-002  -1.0947938396247969E-003
  0.11629596759620078       -3.4045073936197379E-002   7.8460751510792681E-003
  0.11397449680801026       -3.4224141751368967E-002   7.4438408990022964E-003
  0.11165302601981973       -3.3970656144683975E-002   7.0937712613949183E-003
  0.10933155523162921       -3.3284617116142570E-002   6.7958662382569153E-003
  0.10701008444343865       -3.2166024665744475E-002   6.5501258295886100E-003
  0.10898965689417622       -3.1919914285509596E-002   1.4964610639510080E-002
  0.10668797225712838       -3.1595116400052831E-002   1.4721536781527697E-002
  0.10438628762008052       -3.1061236482726479E-002   1.4465870611361255E-002
  0.10208460298303272       -3.0318274533530382E-002   1.4197612129010629E-002
   9.9782918345984822E-002  -2.9366230552464651E-002   1.3916761334476044E-002
  0.10155406732270983       -2.9794754634821875E-002   2.2698747523562685E-002
   9.9207411910151130E-002  -2.8966091048736750E-002   2.2391362669687893E-002
   9.6860756497592446E-002  -2.8151816820768900E-002   2.2006628576975527E-002
   9.4514101085033733E-002  -2.7351931950918239E-002   2.1544545245425605E-002
   9.2167445672475035E-002  -2.6566436439184868E-002   2.1005112675037959E-002
   9.3989198881801642E-002  -2.7669594984134141E-002   3.1048485803237019E-002
   9.1532815767078557E-002  -2.6337065697420718E-002   3.0453318563482962E-002
   8.9076432652355458E-002  -2.5242397158811377E-002   2.9716045158237829E-002
   8.6620049537632374E-002  -2.4385589368306176E-002   2.8836665587501472E-002
   8.4163666422909289E-002  -2.3766642325905030E-002   2.7815179851274074E-002
  0.11384894396483652       -3.4965818779024327E-002  -1.0947938396247969E-003
  0.11033614557535498       -3.3531279273648934E-002  -5.6803344334119266E-004
  0.10682334718587344       -3.2453967408826459E-002   7.9461727404694926E-005
  0.10331054879639190       -3.1733883184557443E-002   8.4769167261279643E-004
   9.9797750406910357E-002  -3.1371026600841234E-002   1.7366563922830980E-003
  0.10701008444343865       -3.2166024665744475E-002   6.5501258295886100E-003
  0.10361563990831871       -3.0971910928885668E-002   6.3668294849716228E-003
  0.10022119537319878       -3.0059308040961699E-002   6.2995060746158932E-003
   9.6826750838078846E-002  -2.9428216001972613E-002   6.3481555985210117E-003
   9.3432306302958956E-002  -2.9078634811918413E-002   6.5127780566869575E-003
   9.9782918345984822E-002  -2.9366230552464651E-002   1.3916761334476044E-002
   9.6502065825025268E-002  -2.8412542584122444E-002   1.3099125040576864E-002
   9.3221213304065756E-002  -2.7664648673096877E-002   1.2392699840737549E-002
   8.9940360783106160E-002  -2.7122548819387998E-002   1.1797485734957869E-002
   8.6659508262146648E-002  -2.6786243022995648E-002   1.1313482723238122E-002
   9.2167445672475035E-002  -2.6566436439184868E-002   2.1005112675037959E-002
   8.8995423325474693E-002  -2.5853174239359199E-002   1.9628853223474716E-002
   8.5823400978474310E-002  -2.5269989305232030E-002   1.8359043025769940E-002
   8.2651378631473954E-002  -2.4816881636803276E-002   1.7195682081923819E-002
   7.9479356284473598E-002  -2.4493851234072855E-002   1.6138770391936279E-002
   8.4163666422909289E-002  -2.3766642325905030E-002   2.7815179851274074E-002
   8.1095712409666898E-002  -2.3293805894596065E-002   2.5956014033664918E-002
   7.8027758396424535E-002  -2.2875329937367281E-002   2.4198535629713136E-002
   7.4959804383182130E-002  -2.2511214454218633E-002   2.2542744639418806E-002
   7.1891850369939808E-002  -2.2201459445150118E-002   2.0988641062781782E-002
   9.9797750406910357E-002  -3.1371026600841234E-002   1.7366563922830980E-003
   9.9602624514482596E-002  -3.1227738490260420E-002   2.0436668161072369E-003
   9.9407498622054863E-002  -3.1166359685396466E-002   2.5965939601970134E-003
   9.9212372729627143E-002  -3.1186890186250281E-002   3.3954378245531769E-003
   9.9017246837199369E-002  -3.1289329992820747E-002   4.4401984091748670E-003
   9.3432306302958956E-002  -2.9078634811918413E-002   6.5127780566869575E-003
   9.3401817539055326E-002  -2.8873254494413830E-002   6.2867548509677462E-003
   9.3371328775151807E-002  -2.8674765073073427E-002   6.1440891820308541E-003
   9.3340840011248233E-002  -2.8483166547897398E-002   6.0847810498765378E-003
   9.3310351247344714E-002  -2.8298458918885494E-002   6.1088304545044436E-003
   8.6659508262146648E-002  -2.6786243022995648E-002   1.1313482723238122E-002
   8.6631097443283747E-002  -2.6518770498567337E-002   1.0629444297528434E-002
   8.6602686624420888E-002  -2.6183170460750291E-002   9.8662042251177681E-003
   8.6574275805558015E-002  -2.5779442909544852E-002   9.0237625060060125E-003
   8.6545864986695115E-002  -2.5307587844950241E-002   8.1021191401932646E-003
   7.9479356284473598E-002  -2.4493851234072855E-002   1.6138770391936279E-002
   7.9290464227167914E-002  -2.4164286502720907E-002   1.5071735155789412E-002
   7.9101572169862258E-002  -2.3691575848427314E-002   1.3762939089457853E-002
   7.8912680112556602E-002  -2.3075719271192140E-002   1.2212382192941873E-002
   7.8723788055250918E-002  -2.2316716771015210E-002   1.0420064466241025E-002
   7.1891850369939808E-002  -2.2201459445150118E-002   2.0988641062781782E-002
   7.1379917890707800E-002  -2.1809802506874421E-002   1.9613627425750346E-002
   7.0867985411475806E-002  -2.1199981236104060E-002   1.7834293775051052E-002
   7.0356052932243812E-002  -2.0371995632839368E-002   1.5650640110683359E-002
   6.9844120453011860E-002  -1.9325845697079957E-002   1.3062666432647807E-002
   9.9017246837199369E-002  -3.1289329992820747E-002   4.4401984091748670E-003
   9.4143769805927924E-002  -3.0966185462244944E-002   3.5202288583064401E-003
   8.9270292774656423E-002  -2.9709962951659064E-002   3.1328439932965524E-003
   8.4396815743384979E-002  -2.7520662461063106E-002   3.2780438141451484E-003
   7.9523338712113478E-002  -2.4398283990457181E-002   3.9558283208519507E-003
   9.3310351247344714E-002  -2.8298458918885494E-002   6.1088304545044436E-003
   8.8924040493456702E-002  -2.7799935543808163E-002   4.8696520085195205E-003
   8.4537729739568773E-002  -2.6666889780434744E-002   4.0722214314432570E-003
   8.0151418985680747E-002  -2.4899321628765902E-002   3.7165387232755420E-003
   7.5765108231792833E-002  -2.2497231088800862E-002   3.8026038840167087E-003
   8.6545864986695115E-002  -2.5307587844950241E-002   8.1021191401932646E-003
   8.2555883693241003E-002  -2.4633685625370938E-002   6.2451762073771622E-003
   7.8565902399786919E-002  -2.3623816609210424E-002   4.7391443265199229E-003
   7.4575921106332821E-002  -2.2277980796468144E-002   3.5840234976218036E-003
   7.0585939812878640E-002  -2.0596178187144820E-002   2.7798137206825335E-003
   7.8723788055250918E-002  -2.2316716771015210E-002   1.0420064466241025E-002
   7.5039299405280854E-002  -2.1467435706934046E-002   7.6468014548794622E-003
   7.1354810755310832E-002  -2.0580743437985771E-002   5.1336126785272579E-003
   6.7670322105340797E-002  -1.9656639964170664E-002   2.8804981371842626E-003
   6.3985833455370733E-002  -1.8695125285488529E-002   8.8745783085047991E-004
   6.9844120453011860E-002  -1.9325845697079957E-002   1.3062666432647807E-002
   6.6374287629576201E-002  -1.8301185788496960E-002   9.0745277510263234E-003
   6.2904454806140542E-002  -1.7537670266761535E-002   5.2556264874644709E-003
   5.9434621982704897E-002  -1.7035299131873148E-002   1.6059626419622219E-003
   5.5964789159269279E-002  -1.6794072383832237E-002  -1.8744637854803958E-003
   7.9523338712113478E-002  -2.4398283990457181E-002   3.9558283208519507E-003
   7.2416544663908566E-002  -2.1365496043966592E-002   4.7503665645057813E-003
   6.5309750615703765E-002  -1.9444967125717083E-002   4.3943341193529717E-003
   5.8202956567498881E-002  -1.8636697235708766E-002   2.8877309853929944E-003
   5.1096162519294053E-002  -1.8940686373941529E-002   2.3055716262654347E-004
   7.5765108231792833E-002  -2.2497231088800862E-002   3.8026038840167087E-003
   6.7872789608162787E-002  -2.0210449259063512E-002   2.5525508839626121E-003
   5.9980470984532575E-002  -1.8788807238076022E-002   8.8201942186552640E-004
   5.2088152360902529E-002  -1.8232305025839349E-002  -1.2089905022754227E-003
   4.4195833737272316E-002  -1.8540942622352286E-002  -3.7204788884599438E-003
   7.0585939812878640E-002  -2.0596178187144820E-002   2.7798137206825335E-003
   6.2638188840586528E-002  -1.9055402474160127E-002  -2.6771130358782536E-004
   5.4690437868294459E-002  -1.8132647350434961E-002  -3.0056225631385908E-003
   4.6742686896002340E-002  -1.7827912815969377E-002  -5.4339200579698876E-003
   3.8794935923710194E-002  -1.8141198870762987E-002  -7.5526037880813413E-003
   6.3985833455370733E-002  -1.8695125285488529E-002   8.8745783085047991E-004
   5.6712742361179971E-002  -1.7900355689257061E-002  -3.7104199981461000E-003
   4.9439651266989210E-002  -1.7476487462794177E-002  -7.2685918356595394E-003
   4.2166560172798427E-002  -1.7423520606099793E-002  -9.7870576816899892E-003
   3.4893469078607679E-002  -1.7741455119173827E-002  -1.1265817536237364E-002
   5.5964789159269279E-002  -1.6794072383832237E-002  -1.8744637854803958E-003
   5.0096450169943102E-002  -1.6745308904353801E-002  -7.7755751997118372E-003
   4.4228111180616925E-002  -1.6820327575153088E-002  -1.1906888395697118E-002
   3.8359772191290803E-002  -1.7019128396230300E-002  -1.4268403373436128E-002
   3.2491433201964570E-002  -1.7341711367584445E-002  -1.4860120132928922E-002
   5.1096162519294053E-002  -1.8940686373941529E-002   2.3055716262654347E-004
   6.0819976773299533E-002  -1.9712917004896413E-002   6.4419763528308360E-003
   7.0543791027305014E-002  -2.0309371593054210E-002   1.9863135301679213E-002
   8.0267605281310578E-002  -2.0730050138415383E-002   4.0494034009172425E-002
   8.9991419535315975E-002  -2.0974952640980149E-002   6.8334672475309333E-002
   4.4195833737272316E-002  -1.8540942622352286E-002  -3.7204788884599438E-003
   5.8971684518372536E-002  -1.9344452048687844E-002   1.8582541346052195E-003
   7.3747535299472616E-002  -2.0272565325919173E-002   1.0331320453215109E-002
   8.8523386080572794E-002  -2.1325282454045115E-002   2.1698720067370392E-002
  0.10329923686167286       -2.2502603433065982E-002   3.5960452977070068E-002
   3.8794935923710194E-002  -1.8141198870762987E-002  -7.5526037880813413E-003
   5.4307416768805683E-002  -1.8975987092480051E-002  -2.9069368258474726E-003
   6.9819897613901102E-002  -2.0235759058783817E-002   3.1765696883247208E-004
   8.5332378458996577E-002  -2.1920514769674295E-002   2.1211775959578891E-003
  0.10084485930409209       -2.4030254225152037E-002   2.5036250555285910E-003
   3.4893469078607679E-002  -1.7741455119173827E-002  -1.1265817536237364E-002
   4.6827173524599044E-002  -1.8607522136271648E-002  -7.8535965285264839E-003
   5.8760877970590500E-002  -2.0198952791648288E-002  -1.0177855151469354E-002
   7.0694582416581997E-002  -2.2515747085303864E-002  -1.8238593405065888E-002
   8.2628286862573272E-002  -2.5557905017238203E-002  -3.2035811289316152E-002
   3.2491433201964570E-002  -1.7341711367584445E-002  -1.4860120132928922E-002
   3.6530954785752717E-002  -1.8239057180063134E-002  -1.2981724973432862E-002
   4.0570476369540837E-002  -2.0162146524513092E-002  -2.1155215907689956E-002
   4.4609997953328900E-002  -2.3110979400933068E-002  -3.9380592935699871E-002
   4.8649519537117047E-002  -2.7085555809324147E-002  -6.7657856057462773E-002
   9.0379145600521821E-002   0.0000000000000000        4.9730033471037119E-002
   9.3976477585910684E-002  -5.3856312070441033E-003   5.3105984998242622E-002
   9.7573809571299547E-002  -1.0637318342042096E-002   5.4846744744690749E-002
  0.10117114155668841       -1.5755061404993973E-002   5.4952312710381430E-002
  0.10476847354207729       -2.0738860395899738E-002   5.3422688895314735E-002
   8.2436462482896516E-002   0.0000000000000000        4.4698989591183791E-002
   8.4631188721708758E-002  -4.5547340816546903E-003   4.8183375703214459E-002
   8.6825914960521028E-002  -8.9999672933397598E-003   5.0497742102849325E-002
   8.9020641199333270E-002  -1.3335699635055208E-002   5.1642088790088372E-002
   9.1215367438145512E-002  -1.7561931106801033E-002   5.1616415764931624E-002
   7.4247905444907683E-002   0.0000000000000000        4.0511064437758121E-002
   7.5505198005504925E-002  -3.7238369562652743E-003   4.4079441932537475E-002
   7.6762490566102168E-002  -7.3626162446374238E-003   4.6942971783282592E-002
   7.8019783126699396E-002  -1.0916337865116444E-002   4.9101653989993492E-002
   7.9277075687296639E-002  -1.4385001817702340E-002   5.0555488552670190E-002
   6.5813474486555376E-002   0.0000000000000000        3.7166258010760116E-002
   6.6598505437299185E-002  -2.8929398308758601E-003   4.0794183686211634E-002
   6.7383536388042994E-002  -5.7252651959350869E-003   4.4182433785990523E-002
   6.8168567338786817E-002  -8.4969760951776798E-003   4.7331008310096796E-002
   6.8953598289530640E-002  -1.1208072528603640E-002   5.0239907258530433E-002
   5.7133169607839554E-002   0.0000000000000000        3.4664570310189768E-002
   5.7911111017091538E-002  -2.0620427054864453E-003   3.8327600964236971E-002
   5.8689052426343521E-002  -4.0879141472327518E-003   4.2216128110973146E-002
   5.9466993835595512E-002  -6.0776143252389125E-003   4.6330151750398285E-002
   6.0244935244847489E-002  -8.0311432395049464E-003   5.0669671882512368E-002
  0.10476847354207729       -2.0738860395899738E-002   5.3422688895314735E-002
  0.10207365487700837       -2.4859651523826416E-002   4.5305011095478812E-002
   9.9378836211939450E-002  -2.7388370997841041E-002   3.8870084646853827E-002
   9.6684017546870546E-002  -2.8325018817943616E-002   3.4117909549439988E-002
   9.3989198881801642E-002  -2.7669594984134141E-002   3.1048485803237019E-002
   9.1215367438145512E-002  -1.7561931106801033E-002   5.1616415764931624E-002
   8.9966057833308119E-002  -2.1112071283453424E-002   4.6293686714263718E-002
   8.8716748228470727E-002  -2.3419529739888527E-002   4.2179224432847773E-002
   8.7467438623633334E-002  -2.4484306476106353E-002   3.9273028920683899E-002
   8.6218129018795928E-002  -2.4306401492106930E-002   3.7575100177771971E-002
   7.9277075687296639E-002  -1.4385001817702340E-002   5.0555488552670190E-002
   7.8998790560731752E-002  -1.7364491043080434E-002   4.7678318317475522E-002
   7.8720505434166879E-002  -1.9450688481936006E-002   4.5534930269573830E-002
   7.8442220307601951E-002  -2.0643594134269114E-002   4.4125324408965161E-002
   7.8163935181037120E-002  -2.0943208000079726E-002   4.3449500735649502E-002
   6.8953598289530640E-002  -1.1208072528603640E-002   5.0239907258530433E-002
   6.9171853059279240E-002  -1.3616910802707423E-002   4.9458905905114217E-002
   6.9390107829027867E-002  -1.5481847223983502E-002   4.8937202157032018E-002
   6.9608362598776480E-002  -1.6802881792431862E-002   4.8674796014283796E-002
   6.9826617368525107E-002  -1.7580014508052518E-002   4.8671687476869591E-002
   6.0244935244847489E-002  -8.0311432395049464E-003   5.0669671882512368E-002
   6.0485245328950610E-002  -9.8693305623344454E-003   5.1635449477179858E-002
   6.0725555413053717E-002  -1.1513005966030974E-002   5.2386040095222325E-002
   6.0965865497156831E-002  -1.2962169450594599E-002   5.2921443736639776E-002
   6.1206175581259938E-002  -1.4216821016025304E-002   5.3241660401432224E-002
   9.3989198881801642E-002  -2.7669594984134141E-002   3.1048485803237019E-002
   9.1532815767078557E-002  -2.6337065697420718E-002   3.0453318563482962E-002
   8.9076432652355458E-002  -2.5242397158811377E-002   2.9716045158237829E-002
   8.6620049537632374E-002  -2.4385589368306176E-002   2.8836665587501472E-002
   8.4163666422909289E-002  -2.3766642325905030E-002   2.7815179851274074E-002
   8.6218129018795928E-002  -2.4306401492106930E-002   3.7575100177771971E-002
   8.3724807133842227E-002  -2.3547721379379515E-002   3.6642480253092559E-002
   8.1231485248888541E-002  -2.2870172729413520E-002   3.5778088953443213E-002
   7.8738163363934840E-002  -2.2273755542208826E-002   3.4981926278823738E-002
   7.6244841478981140E-002  -2.1758469817765511E-002   3.4253992229234115E-002
   7.8163935181037120E-002  -2.0943208000079726E-002   4.3449500735649502E-002
   7.5844009316373875E-002  -2.0758377061338384E-002   4.2336157411387576E-002
   7.3524083451710631E-002  -2.0497948300015667E-002   4.1501377502676622E-002
   7.1204157587047415E-002  -2.0161921716111517E-002   4.0945161009516694E-002
   6.8884231722384170E-002  -1.9750297309625992E-002   4.0667507931907890E-002
   6.9826617368525107E-002  -1.7580014508052518E-002   4.8671687476869591E-002
   6.7890422314673432E-002  -1.7969032743297232E-002   4.7534350038367784E-002
   6.5954227260821771E-002  -1.8125723870617776E-002   4.6885910805938090E-002
   6.4018032206970096E-002  -1.8050087890014201E-002   4.6726369779580564E-002
   6.2081837153118470E-002  -1.7742124801486472E-002   4.7055726959295108E-002
   6.1206175581259938E-002  -1.4216821016025304E-002   5.3241660401432224E-002
   5.9864046128740932E-002  -1.5179688425256081E-002   5.2237058134033371E-002
   5.8521916676221919E-002  -1.5753499441219961E-002   5.1931688863227674E-002
   5.7179787223702927E-002  -1.5938254063916905E-002   5.2325552589015313E-002
   5.5837657771183921E-002  -1.5733952293346953E-002   5.3418649311396005E-002
   8.4163666422909289E-002  -2.3766642325905030E-002   2.7815179851274074E-002
   8.1095712409666898E-002  -2.3293805894596065E-002   2.5956014033664918E-002
   7.8027758396424535E-002  -2.2875329937367281E-002   2.4198535629713136E-002
   7.4959804383182130E-002  -2.2511214454218633E-002   2.2542744639418806E-002
   7.1891850369939808E-002  -2.2201459445150118E-002   2.0988641062781782E-002
   7.6244841478981140E-002  -2.1758469817765511E-002   3.4253992229234115E-002
   7.3330703260721414E-002  -2.1315485084343208E-002   3.2946254483601070E-002
   7.0416565042461660E-002  -2.0935970870201510E-002   3.1844460914275841E-002
   6.7502426824201933E-002  -2.0619927175340339E-002   3.0948611521258516E-002
   6.4588288605942179E-002  -2.0367353999759835E-002   3.0258706304549132E-002
   6.8884231722384170E-002  -1.9750297309625992E-002   4.0667507931907890E-002
   6.6228166061757576E-002  -1.9337164274090296E-002   3.9902088213050399E-002
   6.3572100401130940E-002  -1.8996611803035683E-002   3.9446869433151281E-002
   6.0916034740504311E-002  -1.8728639896462090E-002   3.9301851592210585E-002
   5.8259969079877717E-002  -1.8533248554369552E-002   3.9467034690228206E-002
   6.2081837153118470E-002  -1.7742124801486472E-002   4.7055726959295108E-002
   5.9788100812775448E-002  -1.7358843463837398E-002   4.6823515222012828E-002
   5.7494364472432447E-002  -1.7057252735869884E-002   4.7005761186339375E-002
   5.5200628132089417E-002  -1.6837352617583817E-002   4.7602464852274783E-002
   5.2906891791746423E-002  -1.6699143108979242E-002   4.8613626219819177E-002
   5.5837657771183921E-002  -1.5733952293346953E-002   5.3418649311396005E-002
   5.4010507513774994E-002  -1.5380522653584541E-002   5.3710535510488433E-002
   5.2183357256366102E-002  -1.5117893668704085E-002   5.4521136173840162E-002
   5.0356206998957195E-002  -1.4946065338705586E-002   5.5850451301451373E-002
   4.8529056741548310E-002  -1.4865037663588987E-002   5.7698480893321719E-002
   7.1891850369939808E-002  -2.2201459445150118E-002   2.0988641062781782E-002
   7.1379917890707800E-002  -2.1809802506874421E-002   1.9613627425750346E-002
   7.0867985411475806E-002  -2.1199981236104060E-002   1.7834293775051052E-002
   7.0356052932243812E-002  -2.0371995632839368E-002   1.5650640110683359E-002
   6.9844120453011860E-002  -1.9325845697079957E-002   1.3062666432647807E-002
   6.4588288605942179E-002  -2.0367353999759835E-002   3.0258706304549132E-002
   6.3798216946302375E-002  -2.0033234876841652E-002   3.0207479111936414E-002
   6.3008145286662556E-002  -1.9472553339967391E-002   3.0004293572176183E-002
   6.2218073627022738E-002  -1.8685309389137192E-002   2.9649149685268369E-002
   6.1428001967382906E-002  -1.7671503024350971E-002   2.9142047451212932E-002
   5.8259969079877717E-002  -1.8533248554369552E-002   3.9467034690228206E-002
   5.7444119906350594E-002  -1.8256667246808828E-002   4.0747992023495688E-002
   5.6628270732823477E-002  -1.7745125443830639E-002   4.2129352676136031E-002
   5.5812421559296381E-002  -1.6998623145434960E-002   4.3611116648149394E-002
   5.4996572385769257E-002  -1.6017160351621873E-002   4.5193283939535506E-002
   5.2906891791746423E-002  -1.6699143108979242E-002   4.8613626219819177E-002
   5.2317626770852485E-002  -1.6480099616776003E-002   5.1235166160428128E-002
   5.1728361749958561E-002  -1.6017697547693902E-002   5.4209471086930715E-002
   5.1139096729064630E-002  -1.5311936901732839E-002   5.7536540999326626E-002
   5.0549831708170651E-002  -1.4362817678892775E-002   6.1216375897615964E-002
   4.8529056741548310E-002  -1.4865037663588987E-002   5.7698480893321719E-002
   4.8418737539808077E-002  -1.4703531986743221E-002   6.1669001522733857E-002
   4.8308418338067829E-002  -1.4290269651557164E-002   6.6244648804559964E-002
   4.8198099136327562E-002  -1.3625250658030594E-002   7.1425422738799940E-002
   4.8087779934587349E-002  -1.2708475006163733E-002   7.7211323325453829E-002
   6.9844120453011860E-002  -1.9325845697079957E-002   1.3062666432647807E-002
   6.6374287629576201E-002  -1.8301185788496960E-002   9.0745277510263234E-003
   6.2904454806140542E-002  -1.7537670266761535E-002   5.2556264874644709E-003
   5.9434621982704897E-002  -1.7035299131873148E-002   1.6059626419622219E-003
   5.5964789159269279E-002  -1.6794072383832237E-002  -1.8744637854803958E-003
   6.1428001967382906E-002  -1.7671503024350971E-002   2.9142047451212932E-002
   5.8137403081906319E-002  -1.6635086538450708E-002   2.6927350914218370E-002
   5.4846804196429719E-002  -1.5780012224279001E-002   2.4901884835082516E-002
   5.1556205310953118E-002  -1.5106280081835457E-002   2.3065649213804849E-002
   4.8265606425476532E-002  -1.4613890111120242E-002   2.1418644050386071E-002
   5.4996572385769257E-002  -1.6017160351621873E-002   4.5193283939535506E-002
   5.1905200478050681E-002  -1.4968987288404581E-002   4.4831831762287049E-002
   4.8813828570332084E-002  -1.4022354181796579E-002   4.4679603082695959E-002
   4.5722456662613500E-002  -1.3177261031797709E-002   4.4736597900762377E-002
   4.2631084754894966E-002  -1.2433707838408081E-002   4.5002816216486580E-002
   5.0549831708170651E-002  -1.4362817678892775E-002   6.1216375897615964E-002
   4.7677679818009133E-002  -1.3302888038358419E-002   6.2787970295232365E-002
   4.4805527927847560E-002  -1.2264696139314100E-002   6.4588781230305314E-002
   4.1933376037685995E-002  -1.1248241981760157E-002   6.6618808702834584E-002
   3.9061224147524456E-002  -1.0253525565696003E-002   6.8878052712820603E-002
   4.8087779934587349E-002  -1.2708475006163733E-002   7.7211323325453829E-002
   4.5454841101781801E-002  -1.1636788788312230E-002   8.0795766513054423E-002
   4.2821902268976211E-002  -1.0507038096831692E-002   8.4629419277910345E-002
   4.0188963436170663E-002  -9.3192229317223714E-003   8.8712281620021941E-002
   3.7556024603365074E-002  -8.0733432929839255E-003   9.3044353539388780E-002
   5.5964789159269279E-002  -1.6794072383832237E-002  -1.8744637854803958E-003
   5.0096450169943102E-002  -1.6745308904353801E-002  -7.7755751997118372E-003
   4.4228111180616925E-002  -1.6820327575153088E-002  -1.1906888395697118E-002
   3.8359772191290803E-002  -1.7019128396230300E-002  -1.4268403373436128E-002
   3.2491433201964570E-002  -1.7341711367584445E-002  -1.4860120132928922E-002
   4.8265606425476532E-002  -1.4613890111120242E-002   2.1418644050386071E-002
   4.3849198688638902E-002  -1.4343941846710617E-002   1.7070665038027538E-002
   3.9432790951801328E-002  -1.4337534823184062E-002   1.3856750312399982E-002
   3.5016383214963684E-002  -1.4594669040540756E-002   1.1776899873503256E-002
   3.0599975478126124E-002  -1.5115344498780381E-002   1.0831113721337382E-002
   4.2631084754894966E-002  -1.2433707838408081E-002   4.5002816216486580E-002
   3.9030874339030470E-002  -1.1942574789067420E-002   4.2068210515395610E-002
   3.5430663923166031E-002  -1.1854742071215021E-002   3.9631935169520294E-002
   3.1830453507301591E-002  -1.2170209684851430E-002   3.7693990178860375E-002
   2.8230243091437110E-002  -1.2888977629976095E-002   3.6254375543416095E-002
   3.9061224147524456E-002  -1.0253525565696003E-002   6.8878052712820603E-002
   3.5641477121117753E-002  -9.5412077314240631E-003   6.7217061232392086E-002
   3.2221730094711104E-002  -9.3719493192461548E-003   6.5418666175663484E-002
   2.8801983068304421E-002  -9.7457503291619955E-003   6.3482867542634880E-002
   2.5382236041897759E-002  -1.0662610761171809E-002   6.1409665333306607E-002
   3.7556024603365074E-002  -8.0733432929839255E-003   9.3044353539388780E-002
   3.3681007034900790E-002  -7.1398406737809839E-003   9.2517217189017009E-002
   2.9805989466436505E-002  -6.8891565672769273E-003   9.1216943330829803E-002
   2.5930971897972228E-002  -7.3212909734727757E-003   8.9143531964827355E-002
   2.2055954329507937E-002  -8.4362438923676342E-003   8.6296983091009638E-002
   3.2491433201964570E-002  -1.7341711367584445E-002  -1.4860120132928922E-002
   3.6530954785752717E-002  -1.8239057180063134E-002  -1.2981724973432862E-002
   4.0570476369540837E-002  -2.0162146524513092E-002  -2.1155215907689956E-002
   4.4609997953328900E-002  -2.3110979400933068E-002  -3.9380592935699871E-002
   4.8649519537117047E-002  -2.7085555809324147E-002  -6.7657856057462773E-002
   3.0599975478126124E-002  -1.5115344498780381E-002   1.0831113721337382E-002
   2.7002947487810042E-002  -1.5537829983242157E-002   1.4363659565865855E-002
   2.3405919497493946E-002  -1.5500394279265056E-002   1.2674992355938802E-002
   1.9808891507177968E-002  -1.5003037386848932E-002   5.7651120915565707E-003
   1.6211863516861824E-002  -1.4045759305994165E-002  -6.3659812272810479E-003
   2.8230243091437110E-002  -1.2888977629976095E-002   3.6254375543416095E-002
   2.1827338566314518E-002  -1.2836602786420903E-002   4.2926736793386572E-002
   1.5424434041191877E-002  -1.0838642034017243E-002   4.9208558028199303E-002
   9.0215295160692502E-003  -6.8950953727649339E-003   5.5099839247854290E-002
   2.6186249909465886E-003  -1.0059628026640732E-003   6.0600580452351116E-002
   2.5382236041897759E-002  -1.0662610761171809E-002   6.1409665333306607E-002
   2.1004128021266194E-002  -1.0135375589599843E-002   7.2707506709128955E-002
   1.6626020000634626E-002  -6.1768897887692631E-003   8.8445481109090854E-002
   1.2247911980003039E-002   1.2128466413191888E-003  0.10862358853319287     
   7.8698039593714311E-003   1.2033833700666074E-002  0.13324182898143461     
   2.2055954329507937E-002  -8.4362438923676342E-003   8.6296983091009638E-002
   2.4533315852664994E-002  -7.4341483927786167E-003  0.10370596931309312     
   2.7010677375822106E-002  -1.5151375435215608E-003  0.13038576159861420     
   2.9488038898979149E-002   9.3207886554031866E-003  0.16633635994757301     
   3.1965400422136248E-002   2.5073630203996000E-002  0.21155776435996865     
   5.7133169607839554E-002   0.0000000000000000        3.4664570310189768E-002
   5.7911111017091538E-002  -2.0620427054864453E-003   3.8327600964236971E-002
   5.8689052426343521E-002  -4.0879141472327518E-003   4.2216128110973146E-002
   5.9466993835595512E-002  -6.0776143252389125E-003   4.6330151750398285E-002
   6.0244935244847489E-002  -8.0311432395049464E-003   5.0669671882512368E-002
   4.8623584738340261E-002   0.0000000000000000        3.2781926890462151E-002
   4.9559122520674723E-002  -1.6899660378886482E-003   3.6977649459779556E-002
   5.0494660303009170E-002  -3.3895471473571522E-003   4.1263068282572923E-002
   5.1430198085343617E-002  -5.0987433284055087E-003   4.5638183358842274E-002
   5.2365735867678079E-002  -6.8175545810337263E-003   5.0102994688587595E-002
   4.0701313807637529E-002   0.0000000000000000        3.1294253305992330E-002
   4.1658647723841466E-002  -1.3178893702908510E-003   3.5976881455259943E-002
   4.2615981640045389E-002  -2.6911801474815526E-003   4.0613405618790524E-002
   4.3573315556249326E-002  -4.1198723315721024E-003   4.5203825796584093E-002
   4.4530649472453256E-002  -5.6039659225625036E-003   4.9748141988640644E-002
   3.3366356815731343E-002   0.0000000000000000        3.0201549556780300E-002
   3.4209686626591761E-002  -9.4581270269305379E-004   3.5325296950678119E-002
   3.5053016437452178E-002  -1.9928131476059496E-003   4.0267140119625920E-002
   3.5896346248312595E-002  -3.1410013347386964E-003   4.5027079063623701E-002
   3.6739676059173006E-002  -4.3903772640912775E-003   4.9605113782671503E-002
   2.6618713762621718E-002   0.0000000000000000        2.9503815642826066E-002
   2.7212239228925628E-002  -5.7373603509525573E-004   3.5022895946034097E-002
   2.7805764695229537E-002  -1.2944461477303552E-003   4.0224271785079133E-002
   2.8399290161533444E-002  -2.1621303379052905E-003   4.5107943159961153E-002
   2.8992815627837353E-002  -3.1767886056200635E-003   4.9673910070680172E-002
   6.0244935244847489E-002  -8.0311432395049464E-003   5.0669671882512368E-002
   6.0485245328950610E-002  -9.8693305623344454E-003   5.1635449477179858E-002
   6.0725555413053717E-002  -1.1513005966030974E-002   5.2386040095222325E-002
   6.0965865497156831E-002  -1.2962169450594599E-002   5.2921443736639776E-002
   6.1206175581259938E-002  -1.4216821016025304E-002   5.3241660401432224E-002
   5.2365735867678079E-002  -6.8175545810337263E-003   5.0102994688587595E-002
   5.2433363816990486E-002  -8.4487868284426632E-003   5.1345032607609635E-002
   5.2500991766302886E-002  -9.8952459938331742E-003   5.2456893233675250E-002
   5.2568619715615300E-002  -1.1156932077205289E-002   5.3438576566784489E-002
   5.2636247664927707E-002  -1.2233845078558986E-002   5.4290082606937295E-002
   4.4530649472453256E-002  -5.6039659225625036E-003   4.9748141988640644E-002
   4.4510604970643547E-002  -7.0282430945508810E-003   5.1256701394902716E-002
   4.4490560468833845E-002  -8.2774860216353625E-003   5.2720093191876975E-002
   4.4470515967024143E-002  -9.3516947038159645E-003   5.4138317379563428E-002
   4.4450471465214428E-002  -1.0250869141092672E-002   5.5511373957962039E-002
   3.6739676059173006E-002  -4.3903772640912775E-003   4.9605113782671503E-002
   3.6716968789909786E-002  -5.6076993606590988E-003   5.1370455839059061E-002
   3.6694261520646573E-002  -6.6597260494375638E-003   5.3175639969827458E-002
   3.6671554251383361E-002  -7.5464573304266300E-003   5.5020666174976619E-002
   3.6648846982120141E-002  -8.2678932036263555E-003   5.6905534454506544E-002
   2.8992815627837353E-002  -3.1767886056200635E-003   4.9673910070680172E-002
   2.9052455274789217E-002  -4.1871556267673174E-003   5.1686295940078765E-002
   2.9112094921741084E-002  -5.0419660772397486E-003   5.3823533567526713E-002
   2.9171734568692948E-002  -5.7412199570373154E-003   5.6085622953024057E-002
   2.9231374215644812E-002  -6.2849172661600464E-003   5.8472564096570805E-002
   6.1206175581259938E-002  -1.4216821016025304E-002   5.3241660401432224E-002
   5.9864046128740932E-002  -1.5179688425256081E-002   5.2237058134033371E-002
   5.8521916676221919E-002  -1.5753499441219961E-002   5.1931688863227674E-002
   5.7179787223702927E-002  -1.5938254063916905E-002   5.2325552589015313E-002
   5.5837657771183921E-002  -1.5733952293346953E-002   5.3418649311396005E-002
   5.2636247664927707E-002  -1.2233845078558986E-002   5.4290082606937295E-002
   5.1888097923218267E-002  -1.3064977093993037E-002   5.3912301411917635E-002
   5.1139948181508833E-002  -1.3589320219606221E-002   5.4023246641923997E-002
   5.0391798439799407E-002  -1.3806874455398539E-002   5.4622918296956313E-002
   4.9643648698089973E-002  -1.3717639801370030E-002   5.5711316377014541E-002
   4.4450471465214428E-002  -1.0250869141092672E-002   5.5511373957962039E-002
   4.4085794862747343E-002  -1.0950265762730007E-002   5.5678146331875636E-002
   4.3721118260280245E-002  -1.1425140997992540E-002   5.6123138559247929E-002
   4.3356441657813168E-002  -1.1675494846880210E-002   5.6846350640078994E-002
   4.2991765055346076E-002  -1.1701327309393078E-002   5.7847782574368733E-002
   3.6648846982120141E-002  -8.2678932036263555E-003   5.6905534454506544E-002
   3.6457136947328148E-002  -8.8355544314669826E-003   5.7534592893907319E-002
   3.6265426912536161E-002  -9.2609617763788361E-003   5.8231364615199503E-002
   3.6073716877744161E-002  -9.5441152383618725E-003   5.8995849618383223E-002
   3.5882006842952188E-002  -9.6850148174161266E-003   5.9828047903458442E-002
   2.9231374215644812E-002  -6.2849172661600464E-003   5.8472564096570805E-002
   2.9002124176960686E-002  -6.7208431002039742E-003   5.9481641098012655E-002
   2.8772874138276564E-002  -7.0967825547651273E-003   6.0347924809778797E-002
   2.8543624099592442E-002  -7.4127356298435091E-003   6.1071415231869132E-002
   2.8314374060908309E-002  -7.6687023254392028E-003   6.1652112364283751E-002
   5.5837657771183921E-002  -1.5733952293346953E-002   5.3418649311396005E-002
   5.4010507513774994E-002  -1.5380522653584541E-002   5.3710535510488433E-002
   5.2183357256366102E-002  -1.5117893668704085E-002   5.4521136173840162E-002
   5.0356206998957195E-002  -1.4946065338705586E-002   5.5850451301451373E-002
   4.8529056741548310E-002  -1.4865037663588987E-002   5.7698480893321719E-002
   4.9643648698089973E-002  -1.3717639801370030E-002   5.5711316377014541E-002
   4.8272191571997809E-002  -1.3498805059731764E-002   5.5413111988772676E-002
   4.6900734445905624E-002  -1.3327559032694988E-002   5.5507579398904876E-002
   4.5529277319813460E-002  -1.3203901720259714E-002   5.5994718607411231E-002
   4.4157820193721303E-002  -1.3127833122425880E-002   5.6874529614291694E-002
   4.2991765055346076E-002  -1.1701327309393078E-002   5.7847782574368733E-002
   4.1949958394685377E-002  -1.1617087465878979E-002   5.7002699539072957E-002
   4.0908151734024706E-002  -1.1537224396685919E-002   5.6424245636266121E-002
   3.9866345073364028E-002  -1.1461738101813827E-002   5.6112420865948184E-002
   3.8824538412703342E-002  -1.1390628581262746E-002   5.6067225228119036E-002
   3.5882006842952188E-002  -9.6850148174161266E-003   5.9828047903458442E-002
   3.5043807981837760E-002  -9.7353698720262262E-003   5.8479298161389318E-002
   3.4205609120723325E-002  -9.7468897606768218E-003   5.7271134885923933E-002
   3.3367410259608890E-002  -9.7195744833679480E-003   5.6203558077062149E-002
   3.2529211398494448E-002  -9.6534240400995563E-003   5.5276567734803952E-002
   2.8314374060908309E-002  -7.6687023254392028E-003   6.1652112364283751E-002
   2.7553740333454896E-002  -7.8536522781734106E-003   5.9842907855721883E-002
   2.6793106606001468E-002  -7.9565551246677732E-003   5.8048247147878249E-002
   2.6032472878548048E-002  -7.9774108649221017E-003   5.6268130240753146E-002
   2.5271839151094627E-002  -7.9162194989364776E-003   5.4502557134346402E-002
   4.8529056741548310E-002  -1.4865037663588987E-002   5.7698480893321719E-002
   4.8418737539808077E-002  -1.4703531986743221E-002   6.1669001522733857E-002
   4.8308418338067829E-002  -1.4290269651557164E-002   6.6244648804559964E-002
   4.8198099136327562E-002  -1.3625250658030594E-002   7.1425422738799940E-002
   4.8087779934587349E-002  -1.2708475006163733E-002   7.7211323325453829E-002
   4.4157820193721303E-002  -1.3127833122425880E-002   5.6874529614291694E-002
   4.4515351028990048E-002  -1.2978685974663270E-002   5.9968479631507546E-002
   4.4872881864258807E-002  -1.2635793012441679E-002   6.3393003070327525E-002
   4.5230412699527558E-002  -1.2099154235761151E-002   6.7148099930751534E-002
   4.5587943534796310E-002  -1.1368769644621746E-002   7.1233770212779546E-002
   3.8824538412703342E-002  -1.1390628581262746E-002   5.6067225228119036E-002
   3.9375366054171190E-002  -1.1253839962583327E-002   5.8226593789257333E-002
   3.9926193695639059E-002  -1.0981316373326361E-002   6.0441982541189779E-002
   4.0477021337106921E-002  -1.0573057813491792E-002   6.2713391483916386E-002
   4.1027848978574782E-002  -1.0029064283079675E-002   6.5040820617437198E-002
   3.2529211398494448E-002  -9.6534240400995563E-003   5.5276567734803952E-002
   3.2998782615351538E-002  -9.5289939505033665E-003   5.6443343995983206E-002
   3.3468353832208607E-002  -9.3268397342110704E-003   5.7391587217146829E-002
   3.3937925049065655E-002  -9.0469613912223905E-003   5.8121297398294622E-002
   3.4407496265922759E-002  -8.6893589215376182E-003   5.8632474539426813E-002
   2.5271839151094627E-002  -7.9162194989364776E-003   5.4502557134346402E-002
   2.5385600712531015E-002  -7.8041479384234058E-003   5.4618730251685177E-002
   2.5499362273967409E-002  -7.6723630950955649E-003   5.4241817098198489E-002
   2.5613123835403800E-002  -7.5208649689530050E-003   5.3371817673886164E-002
   2.5726885396840204E-002  -7.3496535599956170E-003   5.2008731978748224E-002
   4.8087779934587349E-002  -1.2708475006163733E-002   7.7211323325453829E-002
   4.5454841101781801E-002  -1.1636788788312230E-002   8.0795766513054423E-002
   4.2821902268976211E-002  -1.0507038096831692E-002   8.4629419277910345E-002
   4.0188963436170663E-002  -9.3192229317223714E-003   8.8712281620021941E-002
   3.7556024603365074E-002  -8.0733432929839255E-003   9.3044353539388780E-002
   4.5587943534796310E-002  -1.1368769644621746E-002   7.1233770212779546E-002
   4.3231147915931231E-002  -1.0526008407241202E-002   7.2829424856460476E-002
   4.0874352297066166E-002  -9.6522396918377884E-003   7.4728156350766919E-002
   3.8517556678201087E-002  -8.7474634984112606E-003   7.6929964695698932E-002
   3.6160761059336008E-002  -7.8116798269617926E-003   7.9434849891256210E-002
   4.1027848978574782E-002  -1.0029064283079675E-002   6.5040820617437198E-002
   3.9001063847020186E-002  -9.4152280261702442E-003   6.4620629721592673E-002
   3.6974278715465610E-002  -8.7974412868436561E-003   6.4557382949743530E-002
   3.4947493583911048E-002  -8.1757040651000926E-003   6.4851080301889977E-002
   3.2920708452356472E-002  -7.5500163609396043E-003   6.5501721778031846E-002
   3.4407496265922759E-002  -8.6893589215376182E-003   5.8632474539426813E-002
   3.2764588895048657E-002  -8.3044476450992791E-003   5.6169381108450746E-002
   3.1121681524174532E-002  -7.9426428818495827E-003   5.4117099074840171E-002
   2.9478774153300420E-002  -7.6039446317891753E-003   5.2475628438595122E-002
   2.7835866782426305E-002  -7.2883528949174714E-003   5.1244969199715502E-002
   2.5726885396840204E-002  -7.3496535599956170E-003   5.2008731978748224E-002
   2.4521723060016570E-002  -7.1936672640282584E-003   4.7475679017034894E-002
   2.3316560723192936E-002  -7.0878444768556897E-003   4.3407304726056944E-002
   2.2111398386369316E-002  -7.0321851984778867E-003   3.9803609105814500E-002
   2.0906236049545696E-002  -7.0266894288952275E-003   3.6664592156307518E-002
   3.7556024603365074E-002  -8.0733432929839255E-003   9.3044353539388780E-002
   3.3681007034900790E-002  -7.1398406737809839E-003   9.2517217189017009E-002
   2.9805989466436505E-002  -6.8891565672769273E-003   9.1216943330829803E-002
   2.5930971897972228E-002  -7.3212909734727757E-003   8.9143531964827355E-002
   2.2055954329507937E-002  -8.4362438923676342E-003   8.6296983091009638E-002
   3.6160761059336008E-002  -7.8116798269617926E-003   7.9434849891256210E-002
   3.1793447429149468E-002  -7.0861296970240184E-003   7.6776619387153938E-002
   2.7426133798962894E-002  -6.8120541281327662E-003   7.3906934267422536E-002
   2.3058820168776337E-002  -6.9894531202880014E-003   7.0825794532061878E-002
   1.8691506538589836E-002  -7.6183266734897725E-003   6.7533200181071840E-002
   3.2920708452356472E-002  -7.5500163609396043E-003   6.5501721778031846E-002
   2.8622781652633690E-002  -7.0324187202673027E-003   6.0943741071852214E-002
   2.4324854852910933E-002  -6.7349516889885080E-003   5.6735988642229077E-002
   2.0026928053188169E-002  -6.6576152671033971E-003   5.2878464489163064E-002
   1.5729001253465394E-002  -6.8004094546118554E-003   4.9371168612653754E-002
   2.7835866782426305E-002  -7.2883528949174714E-003   5.1244969199715502E-002
   2.4169009705353468E-002  -6.9787077435104899E-003   4.5018582243111317E-002
   2.0502152628280586E-002  -6.6578492498442429E-003   3.9704106455249771E-002
   1.6835295551207705E-002  -6.3257774139187078E-003   3.5301541836131219E-002
   1.3168438474134864E-002  -5.9824922357339105E-003   3.1810888385755631E-002
   2.0906236049545696E-002  -7.0266894288952275E-003   3.6664592156307518E-002
   1.8432131587308775E-002  -6.9249967667535939E-003   2.9001142900931420E-002
   1.5958027125071869E-002  -6.5807468106999362E-003   2.2811287706484246E-002
   1.3483922662834956E-002  -5.9939395607340636E-003   1.8095026572966161E-002
   1.1009818200598043E-002  -5.1645750168559657E-003   1.4852359500376999E-002
   2.2055954329507937E-002  -8.4362438923676342E-003   8.6296983091009638E-002
   2.4533315852664994E-002  -7.4341483927786167E-003  0.10370596931309312     
   2.7010677375822106E-002  -1.5151375435215608E-003  0.13038576159861420     
   2.9488038898979149E-002   9.3207886554031866E-003  0.16633635994757301     
   3.1965400422136248E-002   2.5073630203996000E-002  0.21155776435996865     
   1.8691506538589836E-002  -7.6183266734897725E-003   6.7533200181071840E-002
   2.8169569761484672E-002  -6.8180123094505329E-003   8.7187407417847612E-002
   3.7647632984379550E-002  -2.7078475498829441E-003  0.11157221199066161     
   4.7125696207274477E-002   4.7121676052129836E-003  0.14068761389951373     
   5.6603759430169293E-002   1.5442033155837143E-002  0.17453361314440408     
   1.5729001253465394E-002  -6.8004094546118554E-003   4.9371168612653754E-002
   2.7667557448698837E-002  -6.2018762261226434E-003   6.9663531909982382E-002
   3.9606113643932246E-002  -3.9005575562444939E-003   9.0146283815949885E-002
   5.1544669839165641E-002   1.0354655502230886E-004  0.11081942433055568     
   6.3483226034399029E-002   5.8104361076780631E-003  0.13168295345380115     
   1.3168438474134864E-002  -5.9824922357339105E-003   3.1810888385755631E-002
   2.3027278914307479E-002  -5.5857401427946568E-003   5.1134342789497356E-002
   3.2886119354480110E-002  -5.0932675626060714E-003   6.6107977074478713E-002
   4.2744959794652718E-002  -4.5050744951682410E-003   7.6731791240699510E-002
   5.2603800234825332E-002  -3.8211609404807945E-003   8.3005785288160036E-002
   1.1009818200598043E-002  -5.1645750168559657E-003   1.4852359500376999E-002
   1.4248734158310600E-002  -4.9696040594666702E-003   3.1599840056392603E-002
   1.7487650116023129E-002  -6.2859775689675657E-003   3.9457291766248237E-002
   2.0726566073735651E-002  -9.1136955453586313E-003   3.8424714629944540E-002
   2.3965482031448215E-002  -1.3452757988639874E-002   2.8502108647480595E-002
   2.6618713762621718E-002   0.0000000000000000        2.9503815642826066E-002
   2.7212239228925628E-002  -5.7373603509525573E-004   3.5022895946034097E-002
   2.7805764695229537E-002  -1.2944461477303552E-003   4.0224271785079133E-002
   2.8399290161533444E-002  -2.1621303379052905E-003   4.5107943159961153E-002
   2.8992815627837353E-002  -3.1767886056200635E-003   4.9673910070680172E-002
   2.0114554589609708E-002   0.0000000000000000        2.9066097771093001E-002
   2.0432706366132824E-002  -4.3030202622494369E-004   3.4398560352227860E-002
   2.0750858142655940E-002  -9.7083461061819171E-004   3.9497980017964125E-002
   2.1069009919179052E-002  -1.6215977531797441E-003   4.4364356768301826E-002
   2.1387161695702171E-002  -2.3825914539095990E-003   4.8997690603240926E-002
   1.3510049237996384E-002   0.0000000000000000        2.8753442148544483E-002
   1.3637488873503124E-002  -2.8686801735463034E-004   3.3936030526977704E-002
   1.3764928509009866E-002  -6.4722307350602911E-004   3.8970237538776750E-002
   1.3892368144516609E-002  -1.0810651684541967E-003   4.3856063183941633E-002
   1.4019807780023350E-002  -1.5883943021991315E-003   4.8593507462472360E-002
   6.8051977077817436E-003   0.0000000000000000        2.8565848775180508E-002
   6.8265867510365306E-003  -1.4343400848431721E-004   3.3635306470283628E-002
   6.8479757942913168E-003  -3.2361153639386782E-004   3.8641044347516980E-002
   6.8693648375461047E-003  -5.4053258372864987E-004   4.3583062406880597E-002
   6.8907538808008909E-003  -7.9419715048866554E-004   4.8461360648374488E-002
  -1.0342126460782808E-012   0.0000000000000000        2.8503317651001080E-002
  -1.2669587601266130E-012   3.8599505536307532E-013   3.3496388182145613E-002
  -1.4997072594197247E-012   7.1829521497424054E-013   3.8510400444184835E-002
  -1.7324536987287087E-012   9.9689527466306771E-013   4.3545354437118725E-002
  -1.9652010053994307E-012   1.2217987038765088E-012   4.8601250160947289E-002
   2.8992815627837353E-002  -3.1767886056200635E-003   4.9673910070680172E-002
   2.9052455274789217E-002  -4.1871556267673174E-003   5.1686295940078765E-002
   2.9112094921741084E-002  -5.0419660772397486E-003   5.3823533567526713E-002
   2.9171734568692948E-002  -5.7412199570373154E-003   5.6085622953024057E-002
   2.9231374215644812E-002  -6.2849172661600464E-003   5.8472564096570805E-002
   2.1387161695702171E-002  -2.3825914539095990E-003   4.8997690603240926E-002
   2.1536712683243638E-002  -3.1403667197185026E-003   5.1349548070978621E-002
   2.1686263670785105E-002  -3.7814745575172246E-003   5.3756376461846118E-002
   2.1835814658326572E-002  -4.3059149673057582E-003   5.6218175775843440E-002
   2.1985365645868039E-002  -4.7136879490840833E-003   5.8734946012970621E-002
   1.4019807780023350E-002  -1.5883943021991315E-003   4.8593507462472360E-002
   1.4189389273234859E-002  -2.0935778126696812E-003   5.1245947385884491E-002
   1.4358970766446367E-002  -2.5209830377946872E-003   5.3883477397506881E-002
   1.4528552259657880E-002  -2.8706099775741701E-003   5.6506097497339529E-002
   1.4698133752869389E-002  -3.1424586320081029E-003   5.9113807685382470E-002
   6.8907538808008909E-003  -7.9419715048866554E-004   4.8461360648374488E-002
   7.0104850447628838E-003  -1.0467889056208527E-003   5.1375493884796411E-002
   7.1302162087248750E-003  -1.2604915180721842E-003   5.4204836374509041E-002
   7.2499473726868671E-003  -1.4353049878425837E-003   5.6949388117512351E-002
   7.3696785366488583E-003  -1.5712293149321450E-003   5.9609149113806402E-002
  -1.9652010053994307E-012   1.2217987038765088E-012   4.8601250160947289E-002
  -2.1722879571528519E-012   1.4279515070381166E-012   5.1738187567714346E-002
  -2.3793746920658387E-012   1.6503634396591860E-012   5.4720453392852558E-002
  -2.5864598006755668E-012   1.8889793158491375E-012   5.7548047636361878E-002
  -2.7935483787322468E-012   2.1438406605511773E-012   6.0220970298242374E-002
   2.9231374215644812E-002  -6.2849172661600464E-003   5.8472564096570805E-002
   2.9002124176960686E-002  -6.7208431002039742E-003   5.9481641098012655E-002
   2.8772874138276564E-002  -7.0967825547651273E-003   6.0347924809778797E-002
   2.8543624099592442E-002  -7.4127356298435091E-003   6.1071415231869132E-002
   2.8314374060908309E-002  -7.6687023254392028E-003   6.1652112364283751E-002
   2.1985365645868039E-002  -4.7136879490840833E-003   5.8734946012970621E-002
   2.1663348767301444E-002  -5.0406323245433017E-003   5.9805314223039308E-002
   2.1341331888734844E-002  -5.3225869153744887E-003   6.0832942043018763E-002
   2.1019315010168245E-002  -5.5595517215776720E-003   6.1817829472909036E-002
   2.0697298131601642E-002  -5.7515267431527684E-003   6.2759976512710147E-002
   1.4698133752869389E-002  -3.1424586320081029E-003   5.9113807685382470E-002
   1.4383402934006882E-002  -3.3604215488826431E-003   6.0230470509223213E-002
   1.4068672115144381E-002  -3.5483912759838353E-003   6.1404445842561321E-002
   1.3753941296281874E-002  -3.7063678133117785E-003   6.2635733685396780E-002
   1.3439210477419371E-002  -3.8343511608663894E-003   6.3924334037729680E-002
   7.3696785366488583E-003  -1.5712293149321450E-003   5.9609149113806402E-002
   7.1622866770770181E-003  -1.6802107732219636E-003   6.0757109956564470E-002
   6.9548948175051752E-003  -1.7741956365932240E-003   6.2062436208406499E-002
   6.7475029579333297E-003  -1.8531839050459063E-003   6.3525127869332482E-002
   6.5401110983614869E-003  -1.9171755785800104E-003   6.5145184939342377E-002
  -2.7935483787322468E-012   2.1438406605511773E-012   6.0220970298242374E-002
  -3.4881628835359280E-012   2.4386881403160032E-012   6.1385232565063078E-002
  -4.1827765209778711E-012   2.7974532412766706E-012   6.2806913140554282E-002
  -4.8773905921006833E-012   3.2199581542768918E-012   6.4486012024715988E-002
  -5.5720046632234954E-012   3.7064101787720460E-012   6.6422529217548196E-002
   2.8314374060908309E-002  -7.6687023254392028E-003   6.1652112364283751E-002
   2.7553740333454896E-002  -7.8536522781734106E-003   5.9842907855721883E-002
   2.6793106606001468E-002  -7.9565551246677732E-003   5.8048247147878249E-002
   2.6032472878548048E-002  -7.9774108649221017E-003   5.6268130240753146E-002
   2.5271839151094627E-002  -7.9162194989364776E-003   5.4502557134346402E-002
   2.0697298131601642E-002  -5.7515267431527684E-003   6.2759976512710147E-002
   1.9995111862617168E-002  -5.8902392076061946E-003   6.1425455154950910E-002
   1.9292925593632691E-002  -5.9674163424442012E-003   6.0193284913411083E-002
   1.8590739324648213E-002  -5.9830581476668261E-003   5.9063465788090755E-002
   1.7888553055663739E-002  -5.9371646232740660E-003   5.8035997778989989E-002
   1.3439210477419371E-002  -3.8343511608663894E-003   6.3924334037729680E-002
   1.2883278982404954E-002  -3.9268261370389544E-003   6.3043984054148489E-002
   1.2327347487390537E-002  -3.9782775602206881E-003   6.2353792502287841E-002
   1.1771415992376114E-002  -3.9887054304116069E-003   6.1853759382147856E-002
   1.1215484497361702E-002  -3.9581097476116406E-003   6.1543884693728478E-002
   6.5401110983614869E-003  -1.9171755785800104E-003   6.5145184939342377E-002
   6.2182416928182414E-003  -1.9634130664716986E-003   6.4698494553314626E-002
   5.8963722872749924E-003  -1.9891387779971039E-003   6.4529769914508650E-002
   5.5745028817317469E-003  -1.9943527131563595E-003   6.4639011022924353E-002
   5.2526334761884971E-003  -1.9790548719492498E-003   6.5026217878561804E-002
  -5.5720046632234954E-012   3.7064101787720460E-012   6.6422529217548196E-002
  -6.1429715481065017E-012   4.0955433489031634E-012   6.6388986652449383E-002
  -6.7139366982660320E-012   4.2264143573778057E-012   6.6721217150073453E-002
  -7.2849009810638243E-012   4.0988922325735366E-012   6.7419220710420294E-002
  -7.8558687333085686E-012   3.7131686614344517E-012   6.8482997333489976E-002
   2.5271839151094627E-002  -7.9162194989364776E-003   5.4502557134346402E-002
   2.5385600712531015E-002  -7.8041479384234058E-003   5.4618730251685177E-002
   2.5499362273967409E-002  -7.6723630950955649E-003   5.4241817098198489E-002
   2.5613123835403800E-002  -7.5208649689530050E-003   5.3371817673886164E-002
   2.5726885396840204E-002  -7.3496535599956170E-003   5.2008731978748224E-002
   1.7888553055663739E-002  -5.9371646232740660E-003   5.8035997778989989E-002
   1.7625389816414962E-002  -5.8531109529996045E-003   5.8995799026079584E-002
   1.7362226577166174E-002  -5.7542723205770072E-003   5.9694836942624410E-002
   1.7099063337917386E-002  -5.6406487260063903E-003   6.0133111528624515E-002
   1.6835900098668616E-002  -5.5122401692877521E-003   6.0310622784080004E-002
   1.1215484497361702E-002  -3.9581097476116406E-003   6.1543884693728478E-002
   1.0807719397708630E-002  -3.9020739675756505E-003   6.3342385749902030E-002
   1.0399954298055554E-002  -3.8361815460583627E-003   6.5112446415811667E-002
   9.9921891984024770E-003  -3.7604324830598024E-003   6.6854066691457548E-002
   9.5844240987494056E-003  -3.6748267785798872E-003   6.8567246576839588E-002
   5.2526334761884971E-003  -1.9790548719492498E-003   6.5026217878561804E-002
   4.9325894564120273E-003  -1.9510369821517173E-003   6.7658490423152556E-002
   4.6125454366355532E-003  -1.9180907715397617E-003   7.0494645517760302E-002
   4.2925014168590783E-003  -1.8802162401131734E-003   7.3534683162385123E-002
   3.9724573970826103E-003  -1.8374133878721055E-003   7.6778603357027089E-002
  -7.8558687333085686E-012   3.7131686614344517E-012   6.8482997333489976E-002
  -7.4748505995980707E-012   3.2721325649021082E-012   7.1944113045831204E-002
  -7.0938307311640969E-012   2.9788602140534692E-012   7.5841434248470299E-002
  -6.7128134648153370E-012   2.8333915075284821E-012   8.0174960941407358E-002
  -6.3317927290196252E-012   2.8357871606488061E-012   8.4944693124642423E-002
   2.5726885396840204E-002  -7.3496535599956170E-003   5.2008731978748224E-002
   2.4521723060016570E-002  -7.1936672640282584E-003   4.7475679017034894E-002
   2.3316560723192936E-002  -7.0878444768556897E-003   4.3407304726056944E-002
   2.2111398386369316E-002  -7.0321851984778867E-003   3.9803609105814500E-002
   2.0906236049545696E-002  -7.0266894288952275E-003   3.6664592156307518E-002
   1.6835900098668616E-002  -5.5122401692877521E-003   6.0310622784080004E-002
   1.6054569410828910E-002  -5.3952504473053636E-003   5.7332339028659599E-002
   1.5273238722989205E-002  -5.3158833569441621E-003   5.4737039900471574E-002
   1.4491908035149485E-002  -5.2741388982035509E-003   5.2524725399515998E-002
   1.3710577347309794E-002  -5.2700170710839878E-003   5.0695395525792636E-002
   9.5844240987494056E-003  -3.6748267785798872E-003   6.8567246576839588E-002
   9.1452310163905419E-003  -3.5968336305827742E-003   6.7156272904886197E-002
   8.7060379340316608E-003  -3.5439222370325721E-003   6.6046589816662060E-002
   8.2668448516727833E-003  -3.5160925979291578E-003   6.5238197312167248E-002
   7.8276517693139161E-003  -3.5133447132726647E-003   6.4731095391401747E-002
   3.9724573970826103E-003  -1.8374133878721055E-003   7.6778603357027089E-002
   3.7937078767014696E-003  -1.7984168138601431E-003   7.6947480645714716E-002
   3.6149583563203349E-003  -1.7719611171210410E-003   7.7335954474628488E-002
   3.4362088359391925E-003  -1.7580462976547100E-003   7.7944024843768431E-002
   3.2574593155580596E-003  -1.7566723554614111E-003   7.8771691753134629E-002
  -6.3317927290196252E-012   2.8357871606488061E-012   8.4944693124642423E-002
  -8.2382885235876557E-012   2.8627100689959661E-012   8.6705962251145047E-002
  -1.0144786052879162E-011   2.7905178168197153E-012   8.8605133874370690E-002
  -1.2051280980085455E-011   2.6197308211628467E-012   9.0642207994319490E-002
  -1.3957779376738699E-011   2.3498425427703751E-012   9.2817184610991421E-002
   2.0906236049545696E-002  -7.0266894288952275E-003   3.6664592156307518E-002
   1.8432131587308775E-002  -6.9249967667535939E-003   2.9001142900931420E-002
   1.5958027125071869E-002  -6.5807468106999362E-003   2.2811287706484246E-002
   1.3483922662834956E-002  -5.9939395607340636E-003   1.8095026572966161E-002
   1.1009818200598043E-002  -5.1645750168559657E-003   1.4852359500376999E-002
   1.3710577347309794E-002  -5.2700170710839878E-003   5.0695395525792636E-002
   1.2496299959492752E-002  -5.1937475745797157E-003   4.4343150040298512E-002
   1.1282022571675696E-002  -4.9355601076857269E-003   3.9036964642714986E-002
   1.0067745183858640E-002  -4.4954546704016676E-003   3.4776839333042271E-002
   8.8534677960415975E-003  -3.8734312627279333E-003   3.1562774111280389E-002
   7.8276517693139161E-003  -3.5133447132726647E-003   6.4731095391401747E-002
   7.4456674828984604E-003  -3.4624983824057404E-003   5.9629414352267124E-002
   7.0636831964830012E-003  -3.2903734046713998E-003   5.5146259428025000E-002
   6.6816989100675402E-003  -2.9969697800693810E-003   5.1281630618675383E-002
   6.2997146236520862E-003  -2.5822875085999564E-003   4.8035527924218141E-002
   3.2574593155580596E-003  -1.7566723554614111E-003   7.8771691753134629E-002
   3.2802341575259176E-003  -1.7312491902317581E-003   7.4859935836837366E-002
   3.3030089994937721E-003  -1.6451867016571316E-003   7.1139172062414144E-002
   3.3257838414616227E-003  -1.4984848897372062E-003   6.7609400429865019E-002
   3.3485586834294846E-003  -1.2911437544720628E-003   6.4270620939190309E-002
  -1.3957779376738699E-011   2.3498425427703751E-012   9.2817184610991421E-002
  -1.6624878557136569E-011   1.9421131369767863E-012   9.0034714494008961E-002
  -1.9291981206981390E-011   1.3572615253920617E-012   8.7015702545882395E-002
  -2.1959076917932308E-011   5.9527729967534526E-013   8.3760148766611711E-002
  -2.4626183037224081E-011  -3.4405811533133601E-013   8.0268053156197006E-002
   1.1009818200598043E-002  -5.1645750168559657E-003   1.4852359500376999E-002
   1.4248734158310600E-002  -4.9696040594666702E-003   3.1599840056392603E-002
   1.7487650116023129E-002  -6.2859775689675657E-003   3.9457291766248237E-002
   2.0726566073735651E-002  -9.1136955453586313E-003   3.8424714629944540E-002
   2.3965482031448215E-002  -1.3452757988639874E-002   2.8502108647480595E-002
   8.8534677960415975E-003  -3.8734312627279333E-003   3.1562774111280389E-002
   5.2224298706426003E-003  -3.7272030458526118E-003   4.8610500453072469E-002
   1.5913919452435962E-003  -4.7144831809644294E-003   6.0808347874801050E-002
  -2.0396459801554287E-003  -6.8352716680629352E-003   6.8156316376466269E-002
  -5.6706839055543912E-003  -1.0089568507148483E-002   7.0654405958068378E-002
   6.2997146236520862E-003  -2.5822875085999564E-003   4.8035527924218141E-002
  -1.6112725876211292E-004  -2.4848020322385533E-003   6.5761336166689915E-002
  -6.6219691411763121E-003  -3.1429887929610018E-003   8.2677415415194730E-002
  -1.3082811023590520E-002  -4.5568477907671802E-003   9.8783765669732515E-002
  -1.9543652906004710E-002  -6.7263790256569811E-003  0.11408038693030331     
   3.3485586834294846E-003  -1.2911437544720628E-003   6.4270620939190309E-002
  -1.9019372299035348E-003  -1.2424010186244394E-003   8.3052347197245024E-002
  -7.1524331432365699E-003  -1.5714944049577753E-003  0.10506449438742931     
  -1.2402929056569603E-002  -2.2784239134713991E-003  0.13030706250974264     
  -1.7653424969902617E-002  -3.3631895441655901E-003  0.15878005156418545     
  -2.4626183037224081E-011  -3.4405811533133601E-013   8.0268053156197006E-002
  -4.2781687914494881E-011  -5.0104920212845627E-012  0.10048353354473794     
  -6.0937189322318730E-011  -1.6954410098080075E-011  0.12796958479150450     
  -7.9092690730142579E-011  -3.6175694384521506E-011  0.16272620689649672     
  -9.7248195607413379E-011  -6.2674088141534412E-011  0.20475339985971486     
  -1.0342126460782808E-012   0.0000000000000000        2.8503317651001080E-002
  -1.2669587601266130E-012   3.8599505536307532E-013   3.3496388182145613E-002
  -1.4997072594197247E-012   7.1829521497424054E-013   3.8510400444184835E-002
  -1.7324536987287087E-012   9.9689527466306771E-013   4.3545354437118725E-002
  -1.9652010053994307E-012   1.2217987038765088E-012   4.8601250160947289E-002
  -6.8051977098108063E-003   0.0000000000000000        2.8565848775974616E-002
  -6.8265867535233357E-003   1.4343400919938822E-004   3.3635306471063053E-002
  -6.8479757972358633E-003   3.2361153772910659E-004   3.8641044348297252E-002
  -6.8693648409483910E-003   5.4053258558915945E-004   4.3583062407677210E-002
  -6.8907538846609169E-003   7.9419715277954418E-004   4.8461360649202936E-002
  -1.3510049239907359E-002   0.0000000000000000        2.8753442150069523E-002
  -1.3637488875848584E-002   2.8686801801278052E-004   3.3936030528485893E-002
  -1.3764928511789804E-002   6.4722307473992231E-004   3.8970237540299109E-002
  -1.3892368147731029E-002   1.0810651701814228E-003   4.3856063185509185E-002
  -1.4019807783672256E-002   1.5883943043372871E-003   4.8593507464116087E-002
  -2.0114554591323875E-002   0.0000000000000000        2.9066097773285816E-002
  -2.0432706368242706E-002   4.3030202682617326E-004   3.4398560354414146E-002
  -2.0750858145161536E-002   9.7083461175073585E-004   3.9497980020190407E-002
  -2.1069009922080370E-002   1.6215977547736900E-003   4.4364356770614601E-002
  -2.1387161698999194E-002   2.3825914558950312E-003   4.8997690605686726E-002
  -2.6618713764060348E-002   0.0000000000000000        2.9503815645623481E-002
  -2.7212239230705704E-002   5.7373603563956599E-004   3.5022895948847797E-002
  -2.7805764697351056E-002   1.2944461487615494E-003   4.0224271787971132E-002
  -2.8399290163996411E-002   2.1621303393659485E-003   4.5107943162993491E-002
  -2.8992815630641763E-002   3.1767886074527728E-003   4.9673910073914869E-002
  -1.9652010053994307E-012   1.2217987038765088E-012   4.8601250160947289E-002
  -2.1722879571528519E-012   1.4279515070381166E-012   5.1738187567714346E-002
  -2.3793746920658387E-012   1.6503634396591860E-012   5.4720453392852558E-002
  -2.5864598006755668E-012   1.8889793158491375E-012   5.7548047636361878E-002
  -2.7935483787322468E-012   2.1438406605511773E-012   6.0220970298242374E-002
  -6.8907538846609169E-003   7.9419715277954418E-004   4.8461360649202936E-002
  -7.0104850490294657E-003   1.0467889082971830E-003   5.1375493885791997E-002
  -7.1302162133980076E-003   1.2604915211390567E-003   5.4204836375687009E-002
  -7.2499473777665555E-003   1.4353049913051036E-003   5.6949388118887966E-002
  -7.3696785421351000E-003   1.5712293187953724E-003   5.9609149115394860E-002
  -1.4019807783672256E-002   1.5883943043372871E-003   4.8593507464116087E-002
  -1.4189389277267454E-002   2.0935778151664180E-003   5.1245947387835125E-002
  -1.4358970770862655E-002   2.5209830406277365E-003   5.3883477399794918E-002
  -1.4528552264457859E-002   2.8706099807212387E-003   5.6506097499995439E-002
  -1.4698133758053065E-002   3.1424586354469042E-003   5.9113807688436715E-002
  -2.1387161698999194E-002   2.3825914558950312E-003   4.8997690605686726E-002
  -2.1536712686886263E-002   3.1403667220356478E-003   5.1349548073843725E-002
  -2.1686263674773318E-002   3.7814745601164055E-003   5.3756376465176267E-002
  -2.1835814662660376E-002   4.3059149701373403E-003   5.6218175779684354E-002
  -2.1985365650547435E-002   4.7136879520984359E-003   5.8734946017367992E-002
  -2.8992815630641763E-002   3.1767886074527728E-003   4.9673910073914869E-002
  -2.9052455277885872E-002   4.1871556289048801E-003   5.1686295943817809E-002
  -2.9112094925129992E-002   5.0419660796051100E-003   5.3823533571831055E-002
  -2.9171734572374101E-002   5.7412199595534910E-003   5.6085622957954682E-002
  -2.9231374219618220E-002   6.2849172687499746E-003   5.8472564102188644E-002
  -2.7935483787322468E-012   2.1438406605511773E-012   6.0220970298242374E-002
  -3.4881628835359280E-012   2.4386881403160032E-012   6.1385232565063078E-002
  -4.1827765209778711E-012   2.7974532412766706E-012   6.2806913140554282E-002
  -4.8773905921006833E-012   3.2199581542768918E-012   6.4486012024715988E-002
  -5.5720046632234954E-012   3.7064101787720460E-012   6.6422529217548196E-002
  -7.3696785421351000E-003   1.5712293187953724E-003   5.9609149115394860E-002
  -7.1622866838848484E-003   1.6802107775325675E-003   6.0757109958530245E-002
  -6.9548948256345977E-003   1.7741956414394806E-003   6.2062436210884891E-002
  -6.7475029673843469E-003   1.8531839105161334E-003   6.3525127872458703E-002
  -6.5401111091340936E-003   1.9171755847624539E-003   6.5145184943251763E-002
  -1.4698133758053065E-002   3.1424586354469042E-003   5.9113807688436715E-002
  -1.4383402940309235E-002   3.3604215526264469E-003   6.0230470512992684E-002
  -1.4068672122565415E-002   3.5483912800815653E-003   6.1404445847316622E-002
  -1.3753941304821587E-002   3.7063678178122536E-003   6.2635733691408443E-002
  -1.3439210487077764E-002   3.8343511658185045E-003   6.3924334045268205E-002
  -2.1985365650547435E-002   4.7136879520984359E-003   5.8734946017367992E-002
  -2.1663348772761326E-002   5.0406323277203124E-003   5.9805314228450417E-002
  -2.1341331894975224E-002   5.3225869187236352E-003   6.0832942049849445E-002
  -2.1019315017189122E-002   5.5595517251083738E-003   6.1817829481565154E-002
  -2.0697298139403013E-002   5.7515267468745516E-003   6.2759976523597522E-002
  -2.9231374219618220E-002   6.2849172687499746E-003   5.8472564102188644E-002
  -2.9002124181241120E-002   6.7208431028141641E-003   5.9481641104903386E-002
  -2.8772874142864030E-002   7.0967825573656895E-003   6.0347924818483473E-002
  -2.8543624104486943E-002   7.4127356324045386E-003   6.1071415242928889E-002
  -2.8314374066109853E-002   7.6687023279306127E-003   6.1652112378239629E-002
  -5.5720046632234954E-012   3.7064101787720460E-012   6.6422529217548196E-002
  -6.1429715481065017E-012   4.0955433489031634E-012   6.6388986652449383E-002
  -6.7139366982660320E-012   4.2264143573778057E-012   6.6721217150073453E-002
  -7.2849009810638243E-012   4.0988922325735366E-012   6.7419220710420294E-002
  -7.8558687333085686E-012   3.7131686614344517E-012   6.8482997333489976E-002
  -6.5401111091340936E-003   1.9171755847624539E-003   6.5145184943251763E-002
  -6.2182417046767122E-003   1.9634130732393215E-003   6.4698494557593439E-002
  -5.8963723002193342E-003   1.9891387850076298E-003   6.4529769919268926E-002
  -5.5745028957619519E-003   1.9943527200672849E-003   6.4639011028278306E-002
  -5.2526334913045748E-003   1.9790548784183459E-003   6.5026217884621512E-002
  -1.3439210487077764E-002   3.8343511658185045E-003   6.3924334045268205E-002
  -1.2883278992981015E-002   3.9268261423831205E-003   6.3043984062600020E-002
  -1.2327347498884273E-002   3.9782775657887879E-003   6.2353792511876720E-002
  -1.1771416004787528E-002   3.9887054360356073E-003   6.1853759393098305E-002
  -1.1215484510690783E-002   3.9581097531234816E-003   6.1543884706264755E-002
  -2.0697298139403013E-002   5.7515267468745516E-003   6.2759976523597522E-002
  -1.9995111871055887E-002   5.8902392115268536E-003   6.1425455167469195E-002
  -1.9292925602708764E-002   5.9674163465699469E-003   6.0193284927896815E-002
  -1.8590739334361631E-002   5.9830581520039098E-003   5.9063465804880269E-002
  -1.7888553066014508E-002   5.9371646278286380E-003   5.8035997798419663E-002
  -2.8314374066109853E-002   7.6687023279306127E-003   6.1652112378239629E-002
  -2.7553740338901331E-002   7.8536522806706560E-003   5.9842907872200965E-002
  -2.6793106611692798E-002   7.9565551273511927E-003   5.8048247167329141E-002
  -2.6032472884484275E-002   7.9774108679722747E-003   5.6268130263624233E-002
  -2.5271839157275738E-002   7.9162195025337945E-003   5.4502557161086318E-002
  -7.8558687333085686E-012   3.7131686614344517E-012   6.8482997333489976E-002
  -7.4748505995980707E-012   3.2721325649021082E-012   7.1944113045831204E-002
  -7.0938307311640969E-012   2.9788602140534692E-012   7.5841434248470299E-002
  -6.7128134648153370E-012   2.8333915075284821E-012   8.0174960941407358E-002
  -6.3317927290196252E-012   2.8357871606488061E-012   8.4944693124642423E-002
  -5.2526334913045748E-003   1.9790548784183459E-003   6.5026217884621512E-002
  -4.9325894708193230E-003   1.9510369880641892E-003   6.7658490430554510E-002
  -4.6125454503340808E-003   1.9180907770083022E-003   7.0494645526398031E-002
  -4.2925014298488325E-003   1.8802162452505114E-003   7.3534683172151977E-002
  -3.9724574093635868E-003   1.8374133927910596E-003   7.6778603367816611E-002
  -1.1215484510690783E-002   3.9581097531234816E-003   6.1543884706264755E-002
  -1.0807719410488727E-002   3.9020739728562598E-003   6.3342385764939932E-002
  -1.0399954310286683E-002   3.8361815510376644E-003   6.5112446433138182E-002
  -9.9921892100846305E-003   3.7604324876676044E-003   6.6854066710859611E-002
  -9.5844241098825833E-003   3.6748267827463044E-003   6.8567246598104065E-002
  -1.7888553066014508E-002   5.9371646278286380E-003   5.8035997798419663E-002
  -1.7625389826483068E-002   5.8531109576483234E-003   5.8995799048987475E-002
  -1.7362226586951631E-002   5.7542723250670943E-003   5.9694836968690997E-002
  -1.7099063347420188E-002   5.6406487300847945E-003   6.0133111557530095E-002
  -1.6835900107888758E-002   5.5122401727015907E-003   6.0310622815504984E-002
  -2.5271839157275738E-002   7.9162195025337945E-003   5.4502557161086318E-002
  -2.5385600718802328E-002   7.8041479424403731E-003   5.4618730282697120E-002
  -2.5499362280328931E-002   7.6723630990964686E-003   5.4241817133056203E-002
  -2.5613123841855528E-002   7.5208649725018034E-003   5.3371817712163608E-002
  -2.5726885403382117E-002   7.3496535626568216E-003   5.2008732020019155E-002
  -6.3317927290196252E-012   2.8357871606488061E-012   8.4944693124642423E-002
  -8.2382885235876557E-012   2.8627100689959661E-012   8.6705962251145047E-002
  -1.0144786052879162E-011   2.7905178168197153E-012   8.8605133874370690E-002
  -1.2051280980085455E-011   2.6197308211628467E-012   9.0642207994319490E-002
  -1.3957779376738699E-011   2.3498425427703751E-012   9.2817184610991421E-002
  -3.9724574093635868E-003   1.8374133927910596E-003   7.6778603367816611E-002
  -3.7937078926158566E-003   1.7984168185850302E-003   7.6947480657318101E-002
  -3.6149583758681159E-003   1.7719611215878187E-003   7.7335954487404934E-002
  -3.4362088591203752E-003   1.7580463017993295E-003   7.7944024858077207E-002
  -3.2574593423726449E-003   1.7566723592195577E-003   7.8771691769334851E-002
  -9.5844241098825833E-003   3.6748267827463044E-003   6.8567246598104065E-002
  -9.1452310306183327E-003   3.5968336343074614E-003   6.7156272927912042E-002
  -8.7060379513540804E-003   3.5439222403850085E-003   6.6046589842167755E-002
  -8.2668448720898315E-003   3.5160926009787617E-003   6.5238197340871051E-002
  -7.8276517928255844E-003   3.5133447160890785E-003   6.4731095424022042E-002
  -1.6835900107888758E-002   5.5122401727015907E-003   6.0310622815504984E-002
  -1.6054569422245726E-002   5.3952504500299758E-003   5.7332339062927083E-002
  -1.5273238736602680E-002   5.3158833591821150E-003   5.4737039938659152E-002
  -1.4491908050959639E-002   5.2741389001583882E-003   5.2524725442701120E-002
  -1.3710577365316608E-002   5.2700170729587242E-003   5.0695395575052954E-002
  -2.5726885403382117E-002   7.3496535626568216E-003   5.2008732020019155E-002
  -2.4521723067498020E-002   7.1936672657522682E-003   4.7475679062363024E-002
  -2.3316560731613915E-002   7.0878444779794575E-003   4.3407304776879096E-002
  -2.2111398395729807E-002   7.0321851993378100E-003   3.9803609163567358E-002
  -2.0906236059845706E-002   7.0266894298282589E-003   3.6664592222427794E-002
  -1.3957779376738699E-011   2.3498425427703751E-012   9.2817184610991421E-002
  -1.6624878557136569E-011   1.9421131369767863E-012   9.0034714494008961E-002
  -1.9291981206981390E-011   1.3572615253920617E-012   8.7015702545882395E-002
  -2.1959076917932308E-011   5.9527729967534526E-013   8.3760148766611711E-002
  -2.4626183037224081E-011  -3.4405811533133601E-013   8.0268053156197006E-002
  -3.2574593423726449E-003   1.7566723592195577E-003   7.8771691769334851E-002
  -3.2802341894594342E-003   1.7312491932365837E-003   7.4859935854942689E-002
  -3.3030090365462252E-003   1.6451867032386963E-003   7.1139172082855168E-002
  -3.3257838836330223E-003   1.4984848892258644E-003   6.7609400453072371E-002
  -3.3485587307198056E-003   1.2911437511979318E-003   6.4270620965594383E-002
  -7.8276517928255844E-003   3.5133447160890785E-003   6.4731095424022042E-002
  -7.4456675108832563E-003   3.4624983845311097E-003   5.9629414388382165E-002
  -7.0636832289409273E-003   3.2903734051202352E-003   5.5146259468495905E-002
  -6.6816989469985948E-003   2.9969697778564498E-003   5.1281630664363212E-002
  -6.2997146650562701E-003   2.5822875027398662E-003   4.8035527975983955E-002
  -1.3710577365316608E-002   5.2700170729587242E-003   5.0695395575052954E-002
  -1.2496299980896346E-002   5.1937475758255525E-003   4.4343150094327752E-002
  -1.1282022596476086E-002   4.9355601070017220E-003   3.9036964702804815E-002
  -1.0067745212055822E-002   4.4954546664870360E-003   3.4776839400484212E-002
  -8.8534678276355611E-003   3.8734312542816618E-003   3.1562774187365972E-002
  -2.0906236059845706E-002   7.0266894298282589E-003   3.6664592222427794E-002
  -1.8432131599498698E-002   6.9249967671201063E-003   2.9001142972779226E-002
  -1.5958027139151700E-002   6.5807468088831672E-003   2.2811287785781842E-002
  -1.3483922678804704E-002   5.9939395551176951E-003   1.8095026661435518E-002
  -1.1009818218457701E-002   5.1645750058237905E-003   1.4852359599740350E-002
  -2.4626183037224081E-011  -3.4405811533133601E-013   8.0268053156197006E-002
  -4.2781687914494881E-011  -5.0104920212845627E-012  0.10048353354473794     
  -6.0937189322318730E-011  -1.6954410098080075E-011  0.12796958479150450     
  -7.9092690730142579E-011  -3.6175694384521506E-011  0.16272620689649672     
  -9.7248195607413379E-011  -6.2674088141534412E-011  0.20475339985971486     
  -3.3485587307198056E-003   1.2911437511979318E-003   6.4270620965594383E-002
   1.9019371486749485E-003   1.2424010062505042E-003   8.3052347216666322E-002
   7.1524330280697060E-003   1.5714943714794649E-003  0.10506449440461324     
   1.2402928907464476E-002   2.2784238468845502E-003  0.13030706252943502     
   1.7653424786859225E-002   3.3631894324657186E-003  0.15878005159113140     
  -6.2997146650562701E-003   2.5822875027398662E-003   4.8035527975983955E-002
   1.6112719053785508E-004   2.4848020175116392E-003   6.5761336207040638E-002
   6.6219690461319890E-003   3.1429887599133816E-003   8.2677415453621353E-002
   1.3082810901726119E-002   4.5568477299447081E-003   9.8783765715726002E-002
   1.9543652757320246E-002   6.7263789276058583E-003  0.11408038699335454     
  -8.8534678276355611E-003   3.8734312542816618E-003   3.1562774187365972E-002
  -5.2224299171929490E-003   3.7272030287729269E-003   4.8610500515861035E-002
  -1.5913920067503226E-003   4.7144831483470553E-003   6.0808347938528975E-002
   2.0396459036922947E-003   6.8352716130047984E-003   6.8156316455370194E-002
   5.6706838141349159E-003   1.0089568422745776E-002   7.0654406066384290E-002
  -1.1009818218457701E-002   5.1645750058237905E-003   1.4852359599740350E-002
  -1.4248734174517483E-002   4.9696040400339370E-003   3.1599840143127278E-002
  -1.7487650130577254E-002   6.2859775367810899E-003   3.9457291859336330E-002
  -2.0726566086637040E-002   9.1136954960649511E-003   3.8424714748367256E-002
  -2.3965482042696815E-002   1.3452757917885805E-002   2.8502108810220639E-002
  -2.6618713764060348E-002   0.0000000000000000        2.9503815645623481E-002
  -2.7212239230705704E-002   5.7373603563956599E-004   3.5022895948847797E-002
  -2.7805764697351056E-002   1.2944461487615494E-003   4.0224271787971132E-002
  -2.8399290163996411E-002   2.1621303393659485E-003   4.5107943162993491E-002
  -2.8992815630641763E-002   3.1767886074527728E-003   4.9673910073914869E-002
  -3.3366356816839117E-002   0.0000000000000000        3.0201549560096512E-002
  -3.4209686627977971E-002   9.4581270313586017E-004   3.5325296953993036E-002
  -3.5053016439116826E-002   1.9928131484480442E-003   4.0267140123003545E-002
  -3.5896346250255680E-002   3.1410013359365529E-003   4.5027079067128023E-002
  -3.6739676061394534E-002   4.3903772656013855E-003   4.9605113786366478E-002
  -4.0701313808382510E-002   0.0000000000000000        3.1294253309718884E-002
  -4.1658647724799922E-002   1.3178893706321569E-003   3.5976881458981536E-002
  -4.2615981641217333E-002   2.6911801481345424E-003   4.0613405622573116E-002
  -4.3573315557634738E-002   4.1198723325071530E-003   4.5203825800493612E-002
  -4.4530649474052150E-002   5.6039659237499938E-003   4.9748141992743043E-002
  -4.8623584738690544E-002   0.0000000000000000        3.2781926894490596E-002
  -4.9559122521171547E-002   1.6899660381284533E-003   3.6977649463813281E-002
  -5.0494660303652551E-002   3.3895471478210411E-003   4.1263068286679833E-002
  -5.1430198086133562E-002   5.0987433290777540E-003   4.5638183363090258E-002
  -5.2365735868614559E-002   6.8175545818986048E-003   5.0102994693044585E-002
  -5.7133169607763198E-002   0.0000000000000000        3.4664570314411655E-002
  -5.7911111017092856E-002   2.0620427056247488E-003   3.8327600968488265E-002
  -5.8689052426422507E-002   4.0879141475075355E-003   4.2216128115323701E-002
  -5.9466993835752158E-002   6.0776143256483540E-003   4.6330151754917982E-002
  -6.0244935245081822E-002   8.0311432400472157E-003   5.0669671887271069E-002
  -2.8992815630641763E-002   3.1767886074527728E-003   4.9673910073914869E-002
  -2.9052455277885872E-002   4.1871556289048801E-003   5.1686295943817809E-002
  -2.9112094925129992E-002   5.0419660796051100E-003   5.3823533571831055E-002
  -2.9171734572374101E-002   5.7412199595534910E-003   5.6085622957954682E-002
  -2.9231374219618220E-002   6.2849172687499746E-003   5.8472564102188644E-002
  -3.6739676061394534E-002   4.3903772656013855E-003   4.9605113786366478E-002
  -3.6716968792365308E-002   5.6076993624198518E-003   5.1370455843217123E-002
  -3.6694261523336082E-002   6.6597260513693102E-003   5.3175639974504134E-002
  -3.6671554254306842E-002   7.5464573324497183E-003   5.5020666180227482E-002
  -3.6648846985277615E-002   8.2678932056610629E-003   5.6905534460387194E-002
  -4.4530649474052150E-002   5.6039659237499938E-003   4.9748141992743043E-002
  -4.4510604972423561E-002   7.0282430959348451E-003   5.1256701399424259E-002
  -4.4490560470794971E-002   8.2774860231334887E-003   5.2720093196867837E-002
  -4.4470515969166388E-002   9.3516947053459316E-003   5.4138317385073756E-002
  -4.4450471467537785E-002   1.0250869142572162E-002   5.5511373964042030E-002
  -5.2365735868614559E-002   6.8175545818986048E-003   5.0102994693044585E-002
  -5.2433363818060623E-002   8.4487868294498263E-003   5.1345032612439181E-002
  -5.2500991767506680E-002   9.8952459948976716E-003   5.2456893238922143E-002
  -5.2568619716952730E-002   1.1156932078242159E-002   5.3438576572493450E-002
  -5.2636247666398794E-002   1.2233845079483262E-002   5.4290082613153157E-002
  -6.0244935245081822E-002   8.0311432400472157E-003   5.0669671887271069E-002
  -6.0485245329276502E-002   9.8693305629648023E-003   5.1635449482261883E-002
  -6.0725555413471195E-002   1.1513005966661875E-002   5.2386040100667101E-002
  -6.0965865497665882E-002   1.2962169451138395E-002   5.2921443742486626E-002
  -6.1206175581860582E-002   1.4216821016394356E-002   5.3241660407720541E-002
  -2.9231374219618220E-002   6.2849172687499746E-003   5.8472564102188644E-002
  -2.9002124181241120E-002   6.7208431028141641E-003   5.9481641104903386E-002
  -2.8772874142864030E-002   7.0967825573656895E-003   6.0347924818483473E-002
  -2.8543624104486943E-002   7.4127356324045386E-003   6.1071415242928889E-002
  -2.8314374066109853E-002   7.6687023279306127E-003   6.1652112378239629E-002
  -3.6648846985277615E-002   8.2678932056610629E-003   5.6905534460387194E-002
  -3.6457136950334791E-002   8.8355544334321086E-003   5.7534592900939374E-002
  -3.6265426915391967E-002   9.2609617781915458E-003   5.8231364623757685E-002
  -3.6073716880449150E-002   9.5441152399394474E-003   5.8995849628842148E-002
  -3.5882006845506333E-002   9.6850148186757440E-003   5.9828047916192631E-002
  -4.4450471467537785E-002   1.0250869142572162E-002   5.5511373964042030E-002
  -4.4085794864628478E-002   1.0950265764050053E-002   5.5678146338932775E-002
  -4.3721118261719143E-002   1.1425140999017459E-002   5.6123138567490433E-002
  -4.3356441658809808E-002   1.1675494847474386E-002   5.6846350649714932E-002
  -4.2991765055900487E-002   1.1701327309420841E-002   5.7847782585606397E-002
  -5.2636247666398794E-002   1.2233845079483262E-002   5.4290082613153157E-002
  -5.1888097924122162E-002   1.3064977094667970E-002   5.3912301418883535E-002
  -5.1139948181845557E-002   1.3589320219843364E-002   5.4023246649681639E-002
  -5.0391798439568931E-002   1.3806874455009322E-002   5.4622918305547379E-002
  -4.9643648697292327E-002   1.3717639800165968E-002   5.5711316386480858E-002
  -6.1206175581860582E-002   1.4216821016394356E-002   5.3241660407720541E-002
  -5.9864046128815886E-002   1.5179688425285911E-002   5.2237058140791763E-002
  -5.8521916675771224E-002   1.5753499440669227E-002   5.1931688870331380E-002
  -5.7179787222726527E-002   1.5938254062544260E-002   5.2325552596339461E-002
  -5.5837657769681852E-002   1.5733952290911055E-002   5.3418649318816028E-002
  -2.8314374066109853E-002   7.6687023279306127E-003   6.1652112378239629E-002
  -2.7553740338901331E-002   7.8536522806706560E-003   5.9842907872200965E-002
  -2.6793106611692798E-002   7.9565551273511927E-003   5.8048247167329141E-002
  -2.6032472884484275E-002   7.9774108679722747E-003   5.6268130263624233E-002
  -2.5271839157275738E-002   7.9162195025337945E-003   5.4502557161086318E-002
  -3.5882006845506333E-002   9.6850148186757440E-003   5.9828047916192631E-002
  -3.5043807984225128E-002   9.7353698730056684E-003   5.8479298176131699E-002
  -3.4205609122943952E-002   9.7468897615343962E-003   5.7271134903049116E-002
  -3.3367410261662789E-002   9.7195744842620418E-003   5.6203558096944967E-002
  -3.2529211400381577E-002   9.6534240411884631E-003   5.5276567757819181E-002
  -4.2991765055900487E-002   1.1701327309420841E-002   5.7847782585606397E-002
  -4.1949958394735157E-002   1.1617087465340660E-002   5.7002699551781499E-002
  -4.0908151733569834E-002   1.1537224395717598E-002   5.6424245650746482E-002
  -3.9866345072404503E-002   1.1461738100551792E-002   5.6112420882501381E-002
  -3.8824538411239187E-002   1.1390628579843104E-002   5.6067225247046104E-002
  -4.9643648697292327E-002   1.3717639800165968E-002   5.5711316386480858E-002
  -4.8272191570431375E-002   1.3498805057675676E-002   5.5413111999150347E-002
  -4.6900734443570409E-002   1.3327559029900869E-002   5.5507579410421198E-002
  -4.5529277316709485E-002   1.3203901716841550E-002   5.5994718620293440E-002
  -4.4157820189848485E-002   1.3127833118497745E-002   5.6874529628767073E-002
  -5.5837657769681852E-002   1.5733952290911055E-002   5.3418649318816028E-002
  -5.4010507511313803E-002   1.5380522650010685E-002   5.3710535518238303E-002
  -5.2183357252945706E-002   1.5117893664084007E-002   5.4521136182073333E-002
  -5.0356206994577643E-002   1.4946065333131323E-002   5.5850451310321278E-002
  -4.8529056736209580E-002   1.4865037657152386E-002   5.7698480902982102E-002
  -2.5271839157275738E-002   7.9162195025337945E-003   5.4502557161086318E-002
  -2.5385600718802328E-002   7.8041479424403731E-003   5.4618730282697120E-002
  -2.5499362280328931E-002   7.6723630990964686E-003   5.4241817133056203E-002
  -2.5613123841855528E-002   7.5208649725018034E-003   5.3371817712163608E-002
  -2.5726885403382117E-002   7.3496535626568216E-003   5.2008732020019155E-002
  -3.2529211400381577E-002   9.6534240411884631E-003   5.5276567757819181E-002
  -3.2998782617639624E-002   9.5289939517395894E-003   5.6443344022098552E-002
  -3.3468353834897685E-002   9.3268397353414995E-003   5.7391587246166893E-002
  -3.3937925052155711E-002   9.0469613919937387E-003   5.8121297430024019E-002
  -3.4407496269413779E-002   8.6893589216968659E-003   5.8632474573670046E-002
  -3.8824538411239187E-002   1.1390628579843104E-002   5.6067225247046104E-002
  -3.9375366053188095E-002   1.1253839961038868E-002   5.8226593810295268E-002
  -3.9926193695136974E-002   1.0981316371586503E-002   6.0441982564373900E-002
  -4.0477021337085875E-002   1.0573057811485702E-002   6.2713391509281929E-002
  -4.1027848979034762E-002   1.0029064280736744E-002   6.5040820645019468E-002
  -4.4157820189848485E-002   1.3127833118497745E-002   5.6874529628767073E-002
  -4.4515351025447673E-002   1.2978685970338185E-002   5.9968479647287132E-002
  -4.4872881861046821E-002   1.2635793007831492E-002   6.3393003087677174E-002
  -4.5230412696645975E-002   1.2099154230977623E-002   6.7148099949937340E-002
  -4.5587943532245163E-002   1.1368769639776760E-002   7.1233770234067476E-002
  -4.8529056736209580E-002   1.4865037657152386E-002   5.7698480902982102E-002
  -4.8418737534418395E-002   1.4703531979637363E-002   6.1669001533074169E-002
  -4.8308418332627237E-002   1.4290269644076585E-002   6.6244648816076848E-002
  -4.8198099130836052E-002   1.3625250650469501E-002   7.1425422751990181E-002
  -4.8087779929044866E-002   1.2708474998816610E-002   7.7211323340814153E-002
  -2.5726885403382117E-002   7.3496535626568216E-003   5.2008732020019155E-002
  -2.4521723067498020E-002   7.1936672657522682E-003   4.7475679062363024E-002
  -2.3316560731613915E-002   7.0878444779794575E-003   4.3407304776879096E-002
  -2.2111398395729807E-002   7.0321851993378100E-003   3.9803609163567358E-002
  -2.0906236059845706E-002   7.0266894298282589E-003   3.6664592222427794E-002
  -3.4407496269413779E-002   8.6893589216968659E-003   5.8632474573670046E-002
  -3.2764588898256231E-002   8.3044476446569870E-003   5.6169381146823266E-002
  -3.1121681527098728E-002   7.9426428810806526E-003   5.4117099118351247E-002
  -2.9478774155941197E-002   7.6039446309680431E-003   5.2475628488253795E-002
  -2.7835866784783676E-002   7.2883528943189502E-003   5.1244969256531048E-002
  -4.1027848979034762E-002   1.0029064280736744E-002   6.5040820645019468E-002
  -3.9001063846401438E-002   9.4152280235614560E-003   6.4620629753314160E-002
  -3.6974278713768051E-002   8.7974412841818408E-003   6.4557382986185990E-002
  -3.4947493581134699E-002   8.1757040625978303E-003   6.4851080343634820E-002
  -3.2920708448501347E-002   7.5500163588095581E-003   6.5501721825660705E-002
  -4.5587943532245163E-002   1.1368769639776760E-002   7.1233770234067476E-002
  -4.3231147911933505E-002   1.0526008402466078E-002   7.2829424881835803E-002
  -4.0874352291621910E-002   9.6522396872830048E-003   7.4728156380383534E-002
  -3.8517556671310287E-002   8.7474634942278397E-003   7.6929964729710684E-002
  -3.6160761050998635E-002   7.8116798233000689E-003   7.9434849929817392E-002
  -4.8087779929044866E-002   1.2708474998816610E-002   7.7211323340814153E-002
  -4.5454841094852594E-002   1.1636788781370588E-002   8.0795766532387903E-002
  -4.2821902260660280E-002   1.0507038090384280E-002   8.4629419300943642E-002
  -4.0188963426467987E-002   9.3192229258576981E-003   8.8712281646481150E-002
  -3.7556024592275680E-002   8.0733432877908573E-003   9.3044353569000593E-002
  -2.0906236059845706E-002   7.0266894298282589E-003   3.6664592222427794E-002
  -1.8432131599498698E-002   6.9249967671201063E-003   2.9001142972779226E-002
  -1.5958027139151700E-002   6.5807468088831672E-003   2.2811287785781842E-002
  -1.3483922678804704E-002   5.9939395551176951E-003   1.8095026661435518E-002
  -1.1009818218457701E-002   5.1645750058237905E-003   1.4852359599740350E-002
  -2.7835866784783676E-002   7.2883528943189502E-003   5.1244969256531048E-002
  -2.4169009708087386E-002   6.9787077429483979E-003   4.5018582302583293E-002
  -2.0502152631391116E-002   6.6578492486714103E-003   3.9704106518683085E-002
  -1.6835295554694853E-002   6.3257774114878762E-003   3.5301541904830244E-002
  -1.3168438477998555E-002   5.9824922313979068E-003   3.1810888461024756E-002
  -3.2920708448501347E-002   7.5500163588095581E-003   6.5501721825660705E-002
  -2.8622781648059502E-002   7.0324187187768006E-003   6.0943741120036088E-002
  -2.4324854847617681E-002   6.7349516884596464E-003   5.6735988691855178E-002
  -2.0026928047175832E-002   6.6576152678580556E-003   5.2878464541117901E-002
  -1.5729001246734015E-002   6.8004094569720230E-003   4.9371168667824206E-002
  -3.6160761050998635E-002   7.8116798233000689E-003   7.9434849929817392E-002
  -3.1793447419415019E-002   7.0861296946052310E-003   7.6776619425137763E-002
  -2.7426133787831371E-002   6.8120541282478304E-003   7.3906934305298141E-002
  -2.3058820156247734E-002   6.9894531242282914E-003   7.0825794570298403E-002
  -1.8691506524664080E-002   7.6183266825461948E-003   6.7533200220138700E-002
  -3.7556024592275680E-002   8.0733432877908573E-003   9.3044353569000593E-002
  -3.3681007022153958E-002   7.1398406704335504E-003   9.2517217217888248E-002
  -2.9805989452032215E-002   6.8891565680361116E-003   9.1216943359012009E-002
  -2.5930971881910483E-002   7.3212909805983849E-003   8.9143531992372030E-002
  -2.2055954311788750E-002   8.4362439081203111E-003   8.6296983117968240E-002
  -1.1009818218457701E-002   5.1645750058237905E-003   1.4852359599740350E-002
  -1.4248734174517483E-002   4.9696040400339370E-003   3.1599840143127278E-002
  -1.7487650130577254E-002   6.2859775367810899E-003   3.9457291859336330E-002
  -2.0726566086637040E-002   9.1136954960649511E-003   3.8424714748367256E-002
  -2.3965482042696815E-002   1.3452757917885805E-002   2.8502108810220639E-002
  -1.3168438477998555E-002   5.9824922313979068E-003   3.1810888461024756E-002
  -2.3027278902256719E-002   5.5857401350626612E-003   5.1134342840673169E-002
  -3.2886119326514869E-002   5.0932675491438817E-003   6.6107977111102473E-002
  -4.2744959750773096E-002   4.5050744736412143E-003   7.6731791272313041E-002
  -5.2603800175031176E-002   3.8211609085547771E-003   8.3005785324304360E-002
  -1.5729001246734015E-002   6.8004094569720230E-003   4.9371168667824206E-002
  -2.7667557421231642E-002   6.2018762300916908E-003   6.9663531931613260E-002
  -3.9606113595729263E-002   3.9005575615067151E-003   9.0146283804142205E-002
  -5.1544669770226863E-002  -1.0354654878249811E-004  0.11081942428541125     
  -6.3483225944724581E-002  -5.8104361007762506E-003  0.13168295337542013     
  -1.8691506524664080E-002   7.6183266825461948E-003   6.7533200220138700E-002
  -2.8169569731442273E-002   6.8180123251205677E-003   8.7187407415947910E-002
  -3.7647632938220495E-002   2.7078475738695831E-003  0.11157221193845576     
  -4.7125696144998758E-002  -4.7121675712062227E-003  0.14068761378766270     
  -5.6603759351776854E-002  -1.5442033110107334E-002  0.17453361296356856     
  -2.2055954311788750E-002   8.4362439081203111E-003   8.6296983117968240E-002
  -2.4533315832888578E-002   7.4341484201495001E-003  0.10370596929367681     
  -2.7010677353988433E-002   1.5151375862324096E-003  0.13038576151404310     
  -2.9488038875088232E-002  -9.3207885936299854E-003  0.16633635977906702     
  -3.1965400396188115E-002  -2.5073630119438306E-002  0.21155776408874916     
  -5.7133169607763198E-002   0.0000000000000000        3.4664570314411655E-002
  -5.7911111017092856E-002   2.0620427056247488E-003   3.8327600968488265E-002
  -5.8689052426422507E-002   4.0879141475075355E-003   4.2216128115323701E-002
  -5.9466993835752158E-002   6.0776143256483540E-003   4.6330151754917982E-002
  -6.0244935245081822E-002   8.0311432400472157E-003   5.0669671887271069E-002
  -6.5813474486041829E-002   0.0000000000000000        3.7166258015054410E-002
  -6.6598505436795102E-002   2.8929398308923165E-003   4.0794183690532788E-002
  -6.7383536387548390E-002   5.7252651959896926E-003   4.4182433790405096E-002
  -6.8168567338301664E-002   8.4969760952921386E-003   4.7331008314671338E-002
  -6.8953598289054951E-002   1.1208072528799642E-002   5.0239907263331475E-002
  -7.4247905443967796E-002   0.0000000000000000        4.0511064441991221E-002
  -7.5505198004509597E-002   3.7238369561598838E-003   4.4079441936818405E-002
  -7.6762490565051411E-002   7.3626162444718575E-003   4.6942971787674613E-002
  -7.8019783125593226E-002   1.0916337864935927E-002   4.9101653994559825E-002
  -7.9277075686135026E-002   1.4385001817552080E-002   5.0555488557474049E-002
  -8.2436462481541073E-002   0.0000000000000000        4.4698989595222088E-002
  -8.4631188720236325E-002   4.5547340814274494E-003   4.8183375707345093E-002
  -8.6825914958931549E-002   8.9999672929540232E-003   5.0497742107132218E-002
  -8.9020641197626815E-002   1.3335699634579708E-002   5.1642088794583443E-002
  -9.1215367436322053E-002   1.7561931106304524E-002   5.1616415769698790E-002
  -9.0379145598761673E-002   0.0000000000000000        4.9730033474747005E-002
  -9.3976477583975274E-002   5.3856312066950188E-003   5.3105985002112874E-002
  -9.7573809569188846E-002   1.0637318341436181E-002   5.4846744748777938E-002
 -0.10117114155440243        1.5755061404223496E-002   5.4952312714742220E-002
 -0.10476847353961603        2.0738860395056943E-002   5.3422688900005684E-002
  -6.0244935245081822E-002   8.0311432400472157E-003   5.0669671887271069E-002
  -6.0485245329276502E-002   9.8693305629648023E-003   5.1635449482261883E-002
  -6.0725555413471195E-002   1.1513005966661875E-002   5.2386040100667101E-002
  -6.0965865497665882E-002   1.2962169451138395E-002   5.2921443742486626E-002
  -6.1206175581860582E-002   1.4216821016394356E-002   5.3241660407720541E-002
  -6.8953598289054951E-002   1.1208072528799642E-002   5.0239907263331475E-002
  -6.9171853058851943E-002   1.3616910802969995E-002   4.9458905910148718E-002
  -6.9390107828648934E-002   1.5481847224260969E-002   4.8937202162347024E-002
  -6.9608362598445925E-002   1.6802881792672524E-002   4.8674796019926331E-002
  -6.9826617368242888E-002   1.7580014508204768E-002   4.8671687482886694E-002
  -7.9277075686135026E-002   1.4385001817552080E-002   5.0555488557474049E-002
  -7.8998790559567642E-002   1.7364491042975164E-002   4.7678318322458890E-002
  -7.8720505433000243E-002   1.9450688481860042E-002   4.5534930274791427E-002
  -7.8442220306432872E-002   2.0643594134206699E-002   4.4125324414471673E-002
  -7.8163935179865501E-002   2.0943208000015149E-002   4.3449500741499641E-002
  -9.1215367436322053E-002   1.7561931106304524E-002   5.1616415769698790E-002
  -8.9966057831423626E-002   2.1112071282980354E-002   4.6293686719192352E-002
  -8.8716748226525186E-002   2.3419529739459117E-002   4.2179224438000346E-002
  -8.7467438621626772E-002   2.4484306475740854E-002   3.9273028926122694E-002
  -8.6218129016728359E-002   2.4306401491825544E-002   3.7575100183559446E-002
 -0.10476847353961603        2.0738860395056943E-002   5.3422688900005684E-002
 -0.10207365487441991        2.4859651522985533E-002   4.5305011100349193E-002
  -9.9378836209223748E-002   2.7388370997058212E-002   3.8870084651973766E-002
  -9.6684017544027584E-002   2.8325018817275019E-002   3.4117909554879346E-002
  -9.3989198878831462E-002   2.7669594983635949E-002   3.1048485809066002E-002
  -6.1206175581860582E-002   1.4216821016394356E-002   5.3241660407720541E-002
  -5.9864046128815886E-002   1.5179688425285911E-002   5.2237058140791763E-002
  -5.8521916675771224E-002   1.5753499440669227E-002   5.1931688870331380E-002
  -5.7179787222726527E-002   1.5938254062544260E-002   5.2325552596339461E-002
  -5.5837657769681852E-002   1.5733952290911055E-002   5.3418649318816028E-002
  -6.9826617368242888E-002   1.7580014508204768E-002   4.8671687482886694E-002
  -6.7890422313973769E-002   1.7969032743198003E-002   4.7534350044620186E-002
  -6.5954227259704651E-002   1.8125723869992658E-002   4.6885910812334126E-002
  -6.4018032205435518E-002   1.8050087888588785E-002   4.6726369786028496E-002
  -6.2081837151166400E-002   1.7742124798986417E-002   4.7055726965703225E-002
  -7.8163935179865501E-002   2.0943208000015149E-002   4.3449500741499641E-002
  -7.5844009314859948E-002   2.0758377061110042E-002   4.2336157417205172E-002
  -7.3524083449854408E-002   2.0497948299316129E-002   4.1501377508403096E-002
  -7.1204157584848882E-002   2.0161921714633366E-002   4.0945161015093469E-002
  -6.8884231719843328E-002   1.9750297307061758E-002   4.0667507937276179E-002
  -8.6218129016728359E-002   2.4306401491825544E-002   3.7575100183559446E-002
  -8.3724807131474385E-002   2.3547721379022148E-002   3.6642480258546668E-002
  -8.1231485246220481E-002   2.2870172728639594E-002   3.5778088958538311E-002
  -7.8738163360966534E-002   2.2273755540677904E-002   3.4981926283534366E-002
  -7.6244841475712616E-002   2.1758469815137123E-002   3.4253992233534751E-002
  -9.3989198878831462E-002   2.7669594983635949E-002   3.1048485809066002E-002
  -9.1532815763817166E-002   2.6337065696934163E-002   3.0453318568644749E-002
  -8.9076432648802856E-002   2.5242397157963024E-002   2.9716045162739801E-002
  -8.6620049533788560E-002   2.4385589366722426E-002   2.8836665591351236E-002
  -8.4163666418774277E-002   2.3766642323212447E-002   2.7815179854478969E-002
  -5.5837657769681852E-002   1.5733952290911055E-002   5.3418649318816028E-002
  -5.4010507511313803E-002   1.5380522650010685E-002   5.3710535518238303E-002
  -5.2183357252945706E-002   1.5117893664084007E-002   5.4521136182073333E-002
  -5.0356206994577643E-002   1.4946065333131323E-002   5.5850451310321278E-002
  -4.8529056736209580E-002   1.4865037657152386E-002   5.7698480902982102E-002
  -6.2081837151166400E-002   1.7742124798986417E-002   4.7055726965703225E-002
  -5.9788100809730120E-002   1.7358843460094572E-002   4.6823515228885240E-002
  -5.7494364468293882E-002   1.7057252730822470E-002   4.7005761193790740E-002
  -5.5200628126857589E-002   1.6837352611169958E-002   4.7602464860419781E-002
  -5.2906891785421364E-002   1.6699143101137154E-002   4.8613626228772383E-002
  -6.8884231719843328E-002   1.9750297307061758E-002   4.0667507937276179E-002
  -6.6228166058028157E-002   1.9337164270178491E-002   3.9902088218863749E-002
  -6.3572100396213027E-002   1.8996611797560792E-002   3.9446869439485513E-002
  -6.0916034734397911E-002   1.8728639889208594E-002   3.9301851599141499E-002
  -5.8259969072582705E-002   1.8533248545121936E-002   3.9467034697831742E-002
  -7.6244841475712616E-002   2.1758469815137123E-002   3.4253992233534751E-002
  -7.3330703256207913E-002   2.1315485080262452E-002   3.2946254488173718E-002
  -7.0416565036703210E-002   2.0935970864299158E-002   3.1844460919157602E-002
  -6.7502426817198508E-002   2.0619927167247299E-002   3.0948611526486387E-002
  -6.4588288597693791E-002   2.0367353989106711E-002   3.0258706310160130E-002
  -8.4163666418774277E-002   2.3766642323212447E-002   2.7815179854478969E-002
  -8.1095712404269354E-002   2.3293805890346325E-002   2.5956014036815203E-002
  -7.8027758389764362E-002   2.2875329931037556E-002   2.4198535632807126E-002
  -7.4959804375259412E-002   2.2511214445285886E-002   2.2542744642454541E-002
  -7.1891850360754489E-002   2.2201459433091458E-002   2.0988641065757485E-002
  -4.8529056736209580E-002   1.4865037657152386E-002   5.7698480902982102E-002
  -4.8418737534418395E-002   1.4703531979637363E-002   6.1669001533074169E-002
  -4.8308418332627237E-002   1.4290269644076585E-002   6.6244648816076848E-002
  -4.8198099130836052E-002   1.3625250650469501E-002   7.1425422751990181E-002
  -4.8087779929044866E-002   1.2708474998816610E-002   7.7211323340814153E-002
  -5.2906891785421364E-002   1.6699143101137154E-002   4.8613626228772383E-002
  -5.2317626764072638E-002   1.6480099607788359E-002   5.1235166170412808E-002
  -5.1728361742723918E-002   1.6017697538187693E-002   5.4209471098257717E-002
  -5.1139096721375218E-002   1.5311936892335282E-002   5.7536541012307013E-002
  -5.0549831700026485E-002   1.4362817670231065E-002   6.1216375912560766E-002
  -5.8259969072582705E-002   1.8533248545121936E-002   3.9467034697831742E-002
  -5.7444119898382683E-002   1.8256667235939300E-002   4.0747992032814685E-002
  -5.6628270724182653E-002   1.7745125432298971E-002   4.2129352687295965E-002
  -5.5812421549982616E-002   1.6998623134201092E-002   4.3611116661275373E-002
  -5.4996572375782586E-002   1.6017160341645548E-002   4.5193283954753125E-002
  -6.4588288597693791E-002   2.0367353989106711E-002   3.0258706310160130E-002
  -6.3798216937348606E-002   2.0033234864090213E-002   3.0207479120279816E-002
  -6.3008145277003408E-002   1.9472553326410250E-002   3.0004293583191628E-002
  -6.2218073616658230E-002   1.8685309376066859E-002   2.9649149698895417E-002
  -6.1428001956313052E-002   1.7671503013059989E-002   2.9142047467391408E-002
  -7.1891850360754489E-002   2.2201459433091458E-002   2.0988641065757485E-002
  -7.1379917880970353E-002   2.1809802492241140E-002   1.9613627432808173E-002
  -7.0867985401186190E-002   2.1199981220521420E-002   1.7834293785944699E-002
  -7.0356052921402068E-002   2.0371995617932626E-002   1.5650640125167072E-002
  -6.9844120441617918E-002   1.9325845684474430E-002   1.3062666450475269E-002
  -4.8087779929044866E-002   1.2708474998816610E-002   7.7211323340814153E-002
  -4.5454841094852594E-002   1.1636788781370588E-002   8.0795766532387903E-002
  -4.2821902260660280E-002   1.0507038090384280E-002   8.4629419300943642E-002
  -4.0188963426467987E-002   9.3192229258576981E-003   8.8712281646481150E-002
  -3.7556024592275680E-002   8.0733432877908573E-003   9.3044353569000593E-002
  -5.0549831700026485E-002   1.4362817670231065E-002   6.1216375912560766E-002
  -4.7677679808756333E-002   1.3302888030713028E-002   6.2787970313397973E-002
  -4.4805527917486140E-002   1.2264696132618977E-002   6.4588781251409044E-002
  -4.1933376026215968E-002   1.1248241975948810E-002   6.6618808726593967E-002
  -3.9061224134945782E-002   1.0253525560702637E-002   6.8878052738952700E-002
  -5.4996572375782586E-002   1.6017160341645548E-002   4.5193283954753125E-002
  -5.1905200467242528E-002   1.4968987280055329E-002   4.4831831779818060E-002
  -4.8813828558702491E-002   1.4022354174853507E-002   4.4679603102248777E-002
  -4.5722456650162446E-002   1.3177261026039812E-002   4.4736597922045457E-002
  -4.2631084741622458E-002   1.2433707833614527E-002   4.5002816239207891E-002
  -6.1428001956313052E-002   1.7671503013059989E-002   2.9142047467391408E-002
  -5.8137403070311164E-002   1.6635086529397727E-002   2.6927350931648209E-002
  -5.4846804184309289E-002   1.5780012217088038E-002   2.4901884853462959E-002
  -5.1556205298307428E-002   1.5106280076130869E-002   2.3065649232835501E-002
  -4.8265606412305581E-002   1.4613890106526417E-002   2.1418644069765787E-002
  -6.9844120441617918E-002   1.9325845684474430E-002   1.3062666450475269E-002
  -6.6374287617962241E-002   1.8301185778740015E-002   9.0745277688884518E-003
  -6.2904454794306577E-002   1.7537670259322721E-002   5.2556265050513473E-003
  -5.9434621970650879E-002   1.7035299126221894E-002   1.6059626589641357E-003
  -5.5964789146995209E-002   1.6794072379438252E-002  -1.8744637693732802E-003
  -3.7556024592275680E-002   8.0733432877908573E-003   9.3044353569000593E-002
  -3.3681007022153958E-002   7.1398406704335504E-003   9.2517217217888248E-002
  -2.9805989452032215E-002   6.8891565680361116E-003   9.1216943359012009E-002
  -2.5930971881910483E-002   7.3212909805983849E-003   8.9143531992372030E-002
  -2.2055954311788750E-002   8.4362439081203111E-003   8.6296983117968240E-002
  -3.9061224134945782E-002   1.0253525560702637E-002   6.8878052738952700E-002
  -3.5641477106675583E-002   9.5412077283877350E-003   6.7217061259445127E-002
  -3.2221730078405376E-002   9.3719493205110110E-003   6.5418666203998166E-002
  -2.8801983050135194E-002   9.7457503370726763E-003   6.3482867572611831E-002
  -2.5382236021864971E-002   1.0662610778072790E-002   6.1409665365286581E-002
  -4.2631084741622458E-002   1.2433707833614527E-002   4.5002816239207891E-002
  -3.9030874323379219E-002   1.1942574786341725E-002   4.2068210540783593E-002
  -3.5430663905136058E-002   1.1854742072986028E-002   3.9631935198244518E-002
  -3.1830453486892819E-002   1.2170209693547080E-002   3.7693990211590700E-002
  -2.8230243068649657E-002   1.2888977648025240E-002   3.6254375580822132E-002
  -4.8265606412305581E-002   1.4613890106526417E-002   2.1418644069765787E-002
  -4.3849198672264868E-002   1.4343941844295952E-002   1.7070665061903582E-002
  -3.9432790932224210E-002   1.4337534825460820E-002   1.3856750341751002E-002
  -3.5016383192183510E-002   1.4594669050021485E-002   1.1776899909308136E-002
  -3.0599975452142842E-002   1.5115344517977705E-002   1.0831113764575077E-002
  -5.5964789146995209E-002   1.6794072379438252E-002  -1.8744637693732802E-003
  -5.0096450153332500E-002   1.6745308902249900E-002  -7.7755751771950155E-003
  -4.4228111159669861E-002   1.6820327577935890E-002  -1.1906888365482371E-002
  -3.8359772166007160E-002   1.7019128406495762E-002  -1.4268403334235596E-002
  -3.2491433172344486E-002   1.7341711387930114E-002  -1.4860120083454664E-002
  -2.2055954311788750E-002   8.4362439081203111E-003   8.6296983117968240E-002
  -2.4533315832888578E-002   7.4341484201495001E-003  0.10370596929367681     
  -2.7010677353988433E-002   1.5151375862324096E-003  0.13038576151404310     
  -2.9488038875088232E-002  -9.3207885936299854E-003  0.16633635977906702     
  -3.1965400396188115E-002  -2.5073630119438306E-002  0.21155776408874916     
  -2.5382236021864971E-002   1.0662610778072790E-002   6.1409665365286581E-002
  -2.1004128013865329E-002   1.0135375622553955E-002   7.2707506707017311E-002
  -1.6626020005865709E-002   6.1768898495593860E-003   8.8445481062289361E-002
  -1.2247911997866120E-002  -1.2128465409114025E-003  0.10862358843110224     
  -7.8698039898664474E-003  -1.2033833548857897E-002  0.13324182881345659     
  -2.8230243068649657E-002   1.2888977648025240E-002   3.6254375580822132E-002
  -2.1827338562667286E-002   1.2836602824958715E-002   4.2926736817045036E-002
  -1.5424434056684859E-002   1.0838642112886133E-002   4.9208558035692414E-002
  -9.0215295507025568E-003   6.8950955118072064E-003   5.5099839236764342E-002
  -2.6186250447201159E-003   1.0059630217224003E-003   6.0600580420260175E-002
  -3.0599975452142842E-002   1.5115344517977705E-002   1.0831113764575077E-002
  -2.7002947479294416E-002   1.5537830027363322E-002   1.4363659623759996E-002
  -2.3405919506445952E-002   1.5500394376212829E-002   1.2674992434252760E-002
  -1.9808891533597557E-002   1.5003037564525968E-002   5.7651121960528165E-003
  -1.6211863560749058E-002   1.4045759592302864E-002  -6.3659810908390235E-003
  -3.2491433172344486E-002   1.7341711387930114E-002  -1.4860120083454664E-002
  -3.6530954763746681E-002   1.8239057229767930E-002  -1.2981724872837774E-002
  -4.0570476355148974E-002   2.0162146639539816E-002  -2.1155215742030192E-002
  -4.4609997946551121E-002   2.3110979617244443E-002  -3.9380592691031502E-002
  -4.8649519537953434E-002   2.7085556162883107E-002  -6.7657855719841953E-002
  -9.0379145598761673E-002   0.0000000000000000        4.9730033474747005E-002
  -9.3976477583975274E-002   5.3856312066950188E-003   5.3105985002112874E-002
  -9.7573809569188846E-002   1.0637318341436181E-002   5.4846744748777938E-002
 -0.10117114155440243        1.5755061404223496E-002   5.4952312714742220E-002
 -0.10476847353961603        2.0738860395056943E-002   5.3422688900005684E-002
 -0.10331020069188680        0.0000000000000000        5.8549243147292415E-002
 -0.10685925351479622        1.0884302807091737E-002   5.2017562414197457E-002
 -0.11040830633770565        1.9165579023529201E-002   4.7217631786411626E-002
 -0.11395735916061508        2.4843828649312380E-002   4.4149451263934901E-002
 -0.11750641198352452        2.7919051684441275E-002   4.2813020846767302E-002
 -0.12646387365717365        0.0000000000000000        7.4101665679584761E-002
 -0.12659770543176899        1.6382974407488461E-002   5.5193270167328543E-002
 -0.12673153720636432        2.7693839705622218E-002   4.1383566646391388E-002
 -0.12686536898095965        3.3932595894401278E-002   3.2672555116773222E-002
 -0.12699920075555501        3.5099242973825627E-002   2.9060235578474179E-002
 -0.15984016449462218        0.0000000000000000        9.6387301071624049E-002
 -0.15319183333489356        2.1881646007885183E-002   6.2633108261506171E-002
 -0.14654350217516490        3.6222100387715242E-002   3.7344549328717225E-002
 -0.13989517101543625        4.3021363139490156E-002   2.0521624273257245E-002
 -0.13324683985570757        4.2279434263209952E-002   1.2164333095126267E-002
 -0.20343907320423249        0.0000000000000000       0.12540614932341027     
 -0.18664163722416990        2.7380317608281909E-002   7.4337076696730273E-002
 -0.16984420124410732        4.4750361069808266E-002   3.5100579833389191E-002
 -0.15304676526404476        5.2110130384579047E-002   7.6966587333869019E-003
 -0.13624932928398217        4.9459625552594283E-002  -7.8746866032764207E-003
 -0.10476847353961603        2.0738860395056943E-002   5.3422688900005684E-002
 -0.10207365487441991        2.4859651522985533E-002   4.5305011100349193E-002
  -9.9378836209223748E-002   2.7388370997058212E-002   3.8870084651973766E-002
  -9.6684017544027584E-002   2.8325018817275019E-002   3.4117909554879346E-002
  -9.3989198878831462E-002   2.7669594983635949E-002   3.1048485809066002E-002
 -0.11750641198352452        2.7919051684441275E-002   4.2813020846767302E-002
 -0.11351832581734110        2.9366565423634732E-002   3.6428777041158725E-002
 -0.10953023965115771        3.0161687161611550E-002   3.0948316886243592E-002
 -0.10554215348497434        3.0304416898371746E-002   2.6371640382021930E-002
 -0.10155406731879094        2.9794754633915330E-002   2.2698747528493678E-002
 -0.12699920075555501        3.5099242973825627E-002   2.9060235578474179E-002
 -0.12249681478897198        3.3873479324283924E-002   2.5349105419552778E-002
 -0.11799442882238891        3.2935003326164891E-002   2.1762791210737188E-002
 -0.11349204285580586        3.2283814979468480E-002   1.8301292952027485E-002
 -0.10898965688922280        3.1919914284194731E-002   1.4964610643423639E-002
 -0.13324683985570757        4.2279434263209952E-002   1.2164333095126267E-002
 -0.12900912178931245        3.8380393224933133E-002   1.2065996235531255E-002
 -0.12477140372291734        3.5708319490718211E-002   1.1313507625454473E-002
 -0.12053368565652219        3.4263213060565144E-002   9.9068672648960875E-003
 -0.11629596759012707        3.4045073934474084E-002   7.8460751538559134E-003
 -0.13624932928398217        4.9459625552594283E-002  -7.8746866032764207E-003
 -0.13305524681836256        4.2887307125582322E-002  -3.4205505109056872E-003
 -0.12986116435274297        3.8481635655271573E-002  -3.9953386960429188E-004
 -0.12666708188712339        3.6242611141661926E-002   1.1883633206277149E-003
 -0.12347299942150378        3.6170233584753492E-002   1.3431410597904703E-003
  -9.3989198878831462E-002   2.7669594983635949E-002   3.1048485809066002E-002
  -9.1532815763817166E-002   2.6337065696934163E-002   3.0453318568644749E-002
  -8.9076432648802856E-002   2.5242397157963024E-002   2.9716045162739801E-002
  -8.6620049533788560E-002   2.4385589366722426E-002   2.8836665591351236E-002
  -8.4163666418774277E-002   2.3766642323212447E-002   2.7815179854478969E-002
 -0.10155406731879094        2.9794754633915330E-002   2.2698747528493678E-002
  -9.9207411905884627E-002   2.8966091047772178E-002   2.2391362673762492E-002
  -9.6860756492978359E-002   2.8151816819472104E-002   2.2006628580298917E-002
  -9.4514101080072077E-002   2.7351931949015265E-002   2.1544545248102939E-002
  -9.2167445667165809E-002   2.6566436436401566E-002   2.1005112677174559E-002
 -0.10898965688922280        3.1919914284194731E-002   1.4964610643423639E-002
 -0.10668797225167326        3.1595116398610096E-002   1.4721536784495053E-002
 -0.10438628761412376        3.1061236480981230E-002   1.4465870613585469E-002
 -0.10208460297657422        3.0318274531308066E-002   1.4197612130694643E-002
  -9.9782918339024695E-002   2.9366230549590665E-002   1.3916761335822692E-002
 -0.11629596759012707        3.4045073934474084E-002   7.8460751538559134E-003
 -0.11397449680118302        3.4224141749448073E-002   7.4438409008425726E-003
 -0.11165302601223902        3.3970656142490389E-002   7.0937712625993602E-003
 -0.10933155522329499        3.3284617113600951E-002   6.7958662391263778E-003
 -0.10701008443435099        3.2166024662779805E-002   6.5501258304233615E-003
 -0.12347299942150378        3.6170233584753492E-002   1.3431410597904703E-003
 -0.12106698555441403        3.6853167100286063E-002   5.5827502280487995E-004
 -0.11866097168732422        3.6880075803999400E-002  -1.0966947265925869E-004
 -0.11625495782023443        3.6250959695893765E-002  -6.6069242660190576E-004
 -0.11384894395314465        3.4965818775968827E-002  -1.0947938390233336E-003
  -8.4163666418774277E-002   2.3766642323212447E-002   2.7815179854478969E-002
  -8.1095712404269354E-002   2.3293805890346325E-002   2.5956014036815203E-002
  -7.8027758389764362E-002   2.2875329931037556E-002   2.4198535632807126E-002
  -7.4959804375259412E-002   2.2511214445285886E-002   2.2542744642454541E-002
  -7.1891850360754489E-002   2.2201459433091458E-002   2.0988641065757485E-002
  -9.2167445667165809E-002   2.6566436436401566E-002   2.1005112677174559E-002
  -8.8995423319083167E-002   2.5853174235391761E-002   1.9628853225426436E-002
  -8.5823400971000607E-002   2.5269989299746536E-002   1.8359043027178147E-002
  -8.2651378622917979E-002   2.4816881629466051E-002   1.7195682082429505E-002
  -7.9479356274835378E-002   2.4493851224550195E-002   1.6138770391180585E-002
  -9.9782918339024695E-002   2.9366230549590665E-002   1.3916761335822692E-002
  -9.6502065817520299E-002   2.8412542580437114E-002   1.3099125041797565E-002
  -9.3221213296015862E-002   2.7664648668455624E-002   1.2392699841116525E-002
  -8.9940360774511410E-002   2.7122548813646296E-002   1.1797485733779246E-002
  -8.6659508253006987E-002   2.6786243016008834E-002   1.1313482719785918E-002
 -0.10701008443435099        3.2166024662779805E-002   6.5501258304233615E-003
 -0.10361563989958057        3.0971910925482425E-002   6.3668294859288944E-003
 -0.10022119536481017        3.0059308037164674E-002   6.2995060746223255E-003
  -9.6826750830039762E-002   2.9428215997826489E-002   6.3481555965038787E-003
  -9.3432306295269357E-002   2.9078634807467467E-002   6.5127780515735600E-003
 -0.11384894395314465        3.4965818775968827E-002  -1.0947938390233336E-003
 -0.11033614556526411        3.3531279270527903E-002  -5.6803344218003815E-004
 -0.10682334717738354        3.2453967405873793E-002   7.9461727695517848E-005
 -0.10331054878950295        3.1733883182006678E-002   8.4769167060326500E-004
  -9.9797750401622420E-002   3.1371026598926155E-002   1.7366563865431894E-003
  -7.1891850360754489E-002   2.2201459433091458E-002   2.0988641065757485E-002
  -7.1379917880970353E-002   2.1809802492241140E-002   1.9613627432808173E-002
  -7.0867985401186190E-002   2.1199981220521420E-002   1.7834293785944699E-002
  -7.0356052921402068E-002   2.0371995617932626E-002   1.5650640125167072E-002
  -6.9844120441617918E-002   1.9325845684474430E-002   1.3062666450475269E-002
  -7.9479356274835378E-002   2.4493851224550195E-002   1.6138770391180585E-002
  -7.9290464217246462E-002   2.4164286491416054E-002   1.5071735159524299E-002
  -7.9101572159657546E-002   2.3691575836480801E-002   1.3762939097391701E-002
  -7.8912680102068603E-002   2.3075719259744484E-002   1.2212382204782792E-002
  -7.8723788044479701E-002   2.2316716761206945E-002   1.0420064481697633E-002
  -8.6659508253006987E-002   2.6786243016008834E-002   1.1313482719785918E-002
  -8.6631097434175450E-002   2.6518770490591183E-002   1.0629444298490831E-002
  -8.6602686615343843E-002   2.6183170452440067E-002   9.8662042301572127E-003
  -8.6574275796512223E-002   2.5779442901556288E-002   9.0237625147850751E-003
  -8.6545864977680631E-002   2.5307587837939488E-002   8.1021191523745623E-003
  -9.3432306295269357E-002   2.9078634807467467E-002   6.5127780515735600E-003
  -9.3401817531757247E-002   2.8873254489765982E-002   6.2867548497074731E-003
  -9.3371328768245138E-002   2.8674765068399583E-002   6.1440891842410488E-003
  -9.3340840004733083E-002   2.8483166543368257E-002   6.0847810551741231E-003
  -9.3310351241220946E-002   2.8298458914671906E-002   6.1088304625064281E-003
  -9.9797750401622420E-002   3.1371026598926155E-002   1.7366563865431894E-003
  -9.9602624509991966E-002   3.1227738488941004E-002   2.0436668131748048E-003
  -9.9407498618361456E-002   3.1166359684358810E-002   2.5965939596434562E-003
  -9.9212372726731002E-002   3.1186890185180099E-002   3.3954378259495183E-003
  -9.9017246835100492E-002   3.1289329991404546E-002   4.4401984120927551E-003
  -6.9844120441617918E-002   1.9325845684474430E-002   1.3062666450475269E-002
  -6.6374287617962241E-002   1.8301185778740015E-002   9.0745277688884518E-003
  -6.2904454794306577E-002   1.7537670259322721E-002   5.2556265050513473E-003
  -5.9434621970650879E-002   1.7035299126221894E-002   1.6059626589641357E-003
  -5.5964789146995209E-002   1.6794072379438252E-002  -1.8744637693732802E-003
  -7.8723788044479701E-002   2.2316716761206945E-002   1.0420064481697633E-002
  -7.5039299394481632E-002   2.1467435699188117E-002   7.6468014689418107E-003
  -7.1354810744483577E-002   2.0580743432007900E-002   5.1336126911208646E-003
  -6.7670322094485563E-002   1.9656639959665937E-002   2.8804981482348016E-003
  -6.3985833444487508E-002   1.8695125282162717E-002   8.8745784028371189E-004
  -8.6545864977680631E-002   2.5307587837939488E-002   8.1021191523745623E-003
  -8.2555883684155201E-002   2.4633685619636053E-002   6.2451762169714251E-003
  -7.8565902390629688E-002   2.3623816604692920E-002   4.7391443336883207E-003
  -7.4575921097104203E-002   2.2277980793110039E-002   3.5840235025250237E-003
  -7.0585939803578690E-002   2.0596178184887320E-002   2.7798137234817805E-003
  -9.3310351241220946E-002   2.8298458914671906E-002   6.1088304625064281E-003
  -8.8924040486982894E-002   2.7799935540084239E-002   4.8696520129773435E-003
  -8.4537729732744843E-002   2.6666889777378213E-002   4.0722214327536220E-003
  -8.0151418978506792E-002   2.4899321626554276E-002   3.7165387218348741E-003
  -7.5765108224268726E-002   2.2497231087611827E-002   3.8026038802212968E-003
  -9.9017246835100492E-002   3.1289329991404546E-002   4.4401984120927551E-003
  -9.4143769802964794E-002   3.0966185460531981E-002   3.5202288569598505E-003
  -8.9270292770829041E-002   2.9709962950063284E-002   3.1328439883170078E-003
  -8.4396815738693259E-002   2.7520662459998194E-002   3.2780438061644976E-003
  -7.9523338706557589E-002   2.4398283990336389E-002   3.9558283105020076E-003
  -5.5964789146995209E-002   1.6794072379438252E-002  -1.8744637693732802E-003
  -5.0096450153332500E-002   1.6745308902249900E-002  -7.7755751771950155E-003
  -4.4228111159669861E-002   1.6820327577935890E-002  -1.1906888365482371E-002
  -3.8359772166007160E-002   1.7019128406495762E-002  -1.4268403334235596E-002
  -3.2491433172344486E-002   1.7341711387930114E-002  -1.4860120083454664E-002
  -6.3985833444487508E-002   1.8695125282162717E-002   8.8745784028371189E-004
  -5.6712742346160541E-002   1.7900355687908348E-002  -3.7104199817400152E-003
  -4.9439651247833567E-002   1.7476487465313675E-002  -7.2685918139692995E-003
  -4.2166560149506566E-002   1.7423520614378064E-002  -9.7870576564043910E-003
  -3.4893469051179626E-002   1.7741455135102391E-002  -1.1265817509044984E-002
  -7.0585939803578690E-002   2.0596178184887320E-002   2.7798137234817805E-003
  -6.2638188830327290E-002   1.9055402473567018E-002  -2.6771129395838922E-004
  -5.4690437857075891E-002   1.8132647352691628E-002  -3.0056225513442891E-003
  -4.6742686883824464E-002   1.7827912822260698E-002  -5.4339200486758291E-003
  -3.8794935910573085E-002   1.8141198882274695E-002  -7.5526037859527939E-003
  -7.5765108224268726E-002   2.2497231087611827E-002   3.8026038802212968E-003
  -6.7872789605832790E-002   2.0210449259225327E-002   2.5525508861495606E-003
  -5.9980470987396881E-002   1.8788807240069330E-002   8.8201942239256835E-004
  -5.2088152368960972E-002   1.8232305030143333E-002  -1.2089905110499542E-003
  -4.4195833750525035E-002   1.8540942629446985E-002  -3.7204789141777224E-003
  -7.9523338706557589E-002   2.4398283990336389E-002   3.9558283105020076E-003
  -7.2416544672676997E-002   2.1365496044884080E-002   4.7503665585842958E-003
  -6.5309750638796460E-002   1.9444967127447199E-002   4.3943341072415765E-003
  -5.8202956604915895E-002   1.8636697238025454E-002   2.8877309564731349E-003
  -5.1096162571035331E-002   1.8940686376619387E-002   2.3055710627928327E-004
  -3.2491433172344486E-002   1.7341711387930114E-002  -1.4860120083454664E-002
  -3.6530954763746681E-002   1.8239057229767930E-002  -1.2981724872837774E-002
  -4.0570476355148974E-002   2.0162146639539816E-002  -2.1155215742030192E-002
  -4.4609997946551121E-002   2.3110979617244443E-002  -3.9380592691031502E-002
  -4.8649519537953434E-002   2.7085556162883107E-002  -6.7657855719841953E-002
  -3.4893469051179626E-002   1.7741455135102391E-002  -1.1265817509044984E-002
  -4.6827173493696278E-002   1.8607522174638597E-002  -7.8535964333430186E-003
  -5.8760877936212985E-002   2.0198952880139592E-002  -1.0177854980061019E-002
  -7.0694582378729748E-002   2.2515747251605427E-002  -1.8238593149198824E-002
  -8.2628286821246372E-002   2.5557905289036009E-002  -3.2035810940756804E-002
  -3.8794935910573085E-002   1.8141198882274695E-002  -7.5526037859527939E-003
  -5.4307416746815197E-002   1.8975987119509208E-002  -2.9069367471342700E-003
  -6.9819897583057358E-002   2.0235759120739584E-002   3.1765712665326323E-004
  -8.5332378419299415E-002   2.1920514885966379E-002   2.1211778354101422E-003
 -0.10084485925554150        2.4030254415189023E-002   2.5036253791357876E-003
  -4.4195833750525035E-002   1.8540942629446985E-002  -3.7204789141777224E-003
  -5.8971684523103439E-002   1.9344452064379902E-002   1.8582541857885548E-003
  -7.3747535295681954E-002   2.0272565361339857E-002   1.0331320578112870E-002
  -8.8523386068260268E-002   2.1325282520327071E-002   2.1698720262795644E-002
 -0.10329923684083878        2.2502603541342092E-002   3.5960453239836654E-002
  -5.1096162571035331E-002   1.8940686376619387E-002   2.3055710627928327E-004
  -6.0819976822561017E-002   1.9712917009250153E-002   6.4419763654249285E-003
  -7.0543791074086704E-002   2.0309371601939546E-002   1.9863135374317609E-002
  -8.0267605325612446E-002   2.0730050154688033E-002   4.0494034132957657E-002
  -8.9991419577138076E-002   2.0974952667494939E-002   6.8334672641344962E-002
 </DataArray>
 </PointData>
 </Piece>
 <Piece  NumberOfPoints="          1600 "  NumberOfCells="         1024 ">
 <Points>
 <DataArray  type="Float64" NumberOfComponents="3"  format="ascii" >
  0.50000000000000000        0.0000000000000000        0.0000000000000000     
  0.53125000000000000        0.0000000000000000        0.0000000000000000     
  0.56250000000000000        0.0000000000000000        0.0000000000000000     
  0.59375000000000000        0.0000000000000000        0.0000000000000000     
  0.62500000000000000        0.0000000000000000        0.0000000000000000     
  0.50000000000000000        3.1250000000000000E-002   0.0000000000000000     
  0.53125000000000000        3.1250000000000000E-002   0.0000000000000000     
  0.56250000000000000        3.1250000000000000E-002   0.0000000000000000     
  0.59375000000000000        3.1250000000000000E-002   0.0000000000000000     
  0.62500000000000000        3.1250000000000000E-002   0.0000000000000000     
  0.50000000000000000        6.2500000000000000E-002   0.0000000000000000     
  0.53125000000000000        6.2500000000000000E-002   0.0000000000000000     
  0.56250000000000000        6.2500000000000000E-002   0.0000000000000000     
  0.59375000000000000        6.2500000000000000E-002   0.0000000000000000     
  0.62500000000000000        6.2500000000000000E-002   0.0000000000000000     
  0.50000000000000000        9.3750000000000000E-002   0.0000000000000000     
  0.53125000000000000        9.3750000000000000E-002   0.0000000000000000     
  0.56250000000000000        9.3750000000000000E-002   0.0000000000000000     
  0.59375000000000000        9.3750000000000000E-002   0.0000000000000000     
  0.62500000000000000        9.3750000000000000E-002   0.0000000000000000     
  0.50000000000000000       0.12500000000000000        0.0000000000000000     
  0.53125000000000000       0.12500000000000000        0.0000000000000000     
  0.56250000000000000       0.12500000000000000        0.0000000000000000     
  0.59375000000000000       0.12500000000000000        0.0000000000000000     
  0.62500000000000000       0.12500000000000000        0.0000000000000000     
  0.62500000000000000        0.0000000000000000        0.0000000000000000     
  0.65625000000000000        0.0000000000000000        0.0000000000000000     
  0.68750000000000000        0.0000000000000000        0.0000000000000000     
  0.71875000000000000        0.0000000000000000        0.0000000000000000     
  0.75000000000000000        0.0000000000000000        0.0000000000000000     
  0.62500000000000000        3.1250000000000000E-002   0.0000000000000000     
  0.65625000000000000        3.1250000000000000E-002   0.0000000000000000     
  0.68750000000000000        3.1250000000000000E-002   0.0000000000000000     
  0.71875000000000000        3.1250000000000000E-002   0.0000000000000000     
  0.75000000000000000        3.1250000000000000E-002   0.0000000000000000     
  0.62500000000000000        6.2500000000000000E-002   0.0000000000000000     
  0.65625000000000000        6.2500000000000000E-002   0.0000000000000000     
  0.68750000000000000        6.2500000000000000E-002   0.0000000000000000     
  0.71875000000000000        6.2500000000000000E-002   0.0000000000000000     
  0.75000000000000000        6.2500000000000000E-002   0.0000000000000000     
  0.62500000000000000        9.3750000000000000E-002   0.0000000000000000     
  0.65625000000000000        9.3750000000000000E-002   0.0000000000000000     
  0.68750000000000000        9.3750000000000000E-002   0.0000000000000000     
  0.71875000000000000        9.3750000000000000E-002   0.0000000000000000     
  0.75000000000000000        9.3750000000000000E-002   0.0000000000000000     
  0.62500000000000000       0.12500000000000000        0.0000000000000000     
  0.65625000000000000       0.12500000000000000        0.0000000000000000     
  0.68750000000000000       0.12500000000000000        0.0000000000000000     
  0.71875000000000000       0.12500000000000000        0.0000000000000000     
  0.75000000000000000       0.12500000000000000        0.0000000000000000     
  0.75000000000000000        0.0000000000000000        0.0000000000000000     
  0.78125000000000000        0.0000000000000000        0.0000000000000000     
  0.81250000000000000        0.0000000000000000        0.0000000000000000     
  0.84375000000000000        0.0000000000000000        0.0000000000000000     
  0.87500000000000000        0.0000000000000000        0.0000000000000000     
  0.75000000000000000        3.1250000000000000E-002   0.0000000000000000     
  0.78125000000000000        3.1250000000000000E-002   0.0000000000000000     
  0.81250000000000000        3.1250000000000000E-002   0.0000000000000000     
  0.84375000000000000        3.1250000000000000E-002   0.0000000000000000     
  0.87500000000000000        3.1250000000000000E-002   0.0000000000000000     
  0.75000000000000000        6.2500000000000000E-002   0.0000000000000000     
  0.78125000000000000        6.2500000000000000E-002   0.0000000000000000     
  0.81250000000000000        6.2500000000000000E-002   0.0000000000000000     
  0.84375000000000000        6.2500000000000000E-002   0.0000000000000000     
  0.87500000000000000        6.2500000000000000E-002   0.0000000000000000     
  0.75000000000000000        9.3750000000000000E-002   0.0000000000000000     
  0.78125000000000000        9.3750000000000000E-002   0.0000000000000000     
  0.81250000000000000        9.3750000000000000E-002   0.0000000000000000     
  0.84375000000000000        9.3750000000000000E-002   0.0000000000000000     
  0.87500000000000000        9.3750000000000000E-002   0.0000000000000000     
  0.75000000000000000       0.12500000000000000        0.0000000000000000     
  0.78125000000000000       0.12500000000000000        0.0000000000000000     
  0.81250000000000000       0.12500000000000000        0.0000000000000000     
  0.84375000000000000       0.12500000000000000        0.0000000000000000     
  0.87500000000000000       0.12500000000000000        0.0000000000000000     
  0.87500000000000000        0.0000000000000000        0.0000000000000000     
  0.90625000000000000        0.0000000000000000        0.0000000000000000     
  0.93750000000000000        0.0000000000000000        0.0000000000000000     
  0.96875000000000000        0.0000000000000000        0.0000000000000000     
   1.0000000000000000        0.0000000000000000        0.0000000000000000     
  0.87500000000000000        3.1250000000000000E-002   0.0000000000000000     
  0.90625000000000000        3.1250000000000000E-002   0.0000000000000000     
  0.93750000000000000        3.1250000000000000E-002   0.0000000000000000     
  0.96875000000000000        3.1250000000000000E-002   0.0000000000000000     
   1.0000000000000000        3.1250000000000000E-002   0.0000000000000000     
  0.87500000000000000        6.2500000000000000E-002   0.0000000000000000     
  0.90625000000000000        6.2500000000000000E-002   0.0000000000000000     
  0.93750000000000000        6.2500000000000000E-002   0.0000000000000000     
  0.96875000000000000        6.2500000000000000E-002   0.0000000000000000     
   1.0000000000000000        6.2500000000000000E-002   0.0000000000000000     
  0.87500000000000000        9.3750000000000000E-002   0.0000000000000000     
  0.90625000000000000        9.3750000000000000E-002   0.0000000000000000     
  0.93750000000000000        9.3750000000000000E-002   0.0000000000000000     
  0.96875000000000000        9.3750000000000000E-002   0.0000000000000000     
   1.0000000000000000        9.3750000000000000E-002   0.0000000000000000     
  0.87500000000000000       0.12500000000000000        0.0000000000000000     
  0.90625000000000000       0.12500000000000000        0.0000000000000000     
  0.93750000000000000       0.12500000000000000        0.0000000000000000     
  0.96875000000000000       0.12500000000000000        0.0000000000000000     
   1.0000000000000000       0.12500000000000000        0.0000000000000000     
   1.0000000000000000        0.0000000000000000        0.0000000000000000     
   1.0312500000000000        0.0000000000000000        0.0000000000000000     
   1.0625000000000000        0.0000000000000000        0.0000000000000000     
   1.0937500000000000        0.0000000000000000        0.0000000000000000     
   1.1250000000000000        0.0000000000000000        0.0000000000000000     
   1.0000000000000000        3.1250000000000000E-002   0.0000000000000000     
   1.0312500000000000        3.1250000000000000E-002   0.0000000000000000     
   1.0625000000000000        3.1250000000000000E-002   0.0000000000000000     
   1.0937500000000000        3.1250000000000000E-002   0.0000000000000000     
   1.1250000000000000        3.1250000000000000E-002   0.0000000000000000     
   1.0000000000000000        6.2500000000000000E-002   0.0000000000000000     
   1.0312500000000000        6.2500000000000000E-002   0.0000000000000000     
   1.0625000000000000        6.2500000000000000E-002   0.0000000000000000     
   1.0937500000000000        6.2500000000000000E-002   0.0000000000000000     
   1.1250000000000000        6.2500000000000000E-002   0.0000000000000000     
   1.0000000000000000        9.3750000000000000E-002   0.0000000000000000     
   1.0312500000000000        9.3750000000000000E-002   0.0000000000000000     
   1.0625000000000000        9.3750000000000000E-002   0.0000000000000000     
   1.0937500000000000        9.3750000000000000E-002   0.0000000000000000     
   1.1250000000000000        9.3750000000000000E-002   0.0000000000000000     
   1.0000000000000000       0.12500000000000000        0.0000000000000000     
   1.0312500000000000       0.12500000000000000        0.0000000000000000     
   1.0625000000000000       0.12500000000000000        0.0000000000000000     
   1.0937500000000000       0.12500000000000000        0.0000000000000000     
   1.1250000000000000       0.12500000000000000        0.0000000000000000     
   1.1250000000000000        0.0000000000000000        0.0000000000000000     
   1.1562500000000000        0.0000000000000000        0.0000000000000000     
   1.1875000000000000        0.0000000000000000        0.0000000000000000     
   1.2187500000000000        0.0000000000000000        0.0000000000000000     
   1.2500000000000000        0.0000000000000000        0.0000000000000000     
   1.1250000000000000        3.1250000000000000E-002   0.0000000000000000     
   1.1562500000000000        3.1250000000000000E-002   0.0000000000000000     
   1.1875000000000000        3.1250000000000000E-002   0.0000000000000000     
   1.2187500000000000        3.1250000000000000E-002   0.0000000000000000     
   1.2500000000000000        3.1250000000000000E-002   0.0000000000000000     
   1.1250000000000000        6.2500000000000000E-002   0.0000000000000000     
   1.1562500000000000        6.2500000000000000E-002   0.0000000000000000     
   1.1875000000000000        6.2500000000000000E-002   0.0000000000000000     
   1.2187500000000000        6.2500000000000000E-002   0.0000000000000000     
   1.2500000000000000        6.2500000000000000E-002   0.0000000000000000     
   1.1250000000000000        9.3750000000000000E-002   0.0000000000000000     
   1.1562500000000000        9.3750000000000000E-002   0.0000000000000000     
   1.1875000000000000        9.3750000000000000E-002   0.0000000000000000     
   1.2187500000000000        9.3750000000000000E-002   0.0000000000000000     
   1.2500000000000000        9.3750000000000000E-002   0.0000000000000000     
   1.1250000000000000       0.12500000000000000        0.0000000000000000     
   1.1562500000000000       0.12500000000000000        0.0000000000000000     
   1.1875000000000000       0.12500000000000000        0.0000000000000000     
   1.2187500000000000       0.12500000000000000        0.0000000000000000     
   1.2500000000000000       0.12500000000000000        0.0000000000000000     
   1.2500000000000000        0.0000000000000000        0.0000000000000000     
   1.2812500000000000        0.0000000000000000        0.0000000000000000     
   1.3125000000000000        0.0000000000000000        0.0000000000000000     
   1.3437500000000000        0.0000000000000000        0.0000000000000000     
   1.3750000000000000        0.0000000000000000        0.0000000000000000     
   1.2500000000000000        3.1250000000000000E-002   0.0000000000000000     
   1.2812500000000000        3.1250000000000000E-002   0.0000000000000000     
   1.3125000000000000        3.1250000000000000E-002   0.0000000000000000     
   1.3437500000000000        3.1250000000000000E-002   0.0000000000000000     
   1.3750000000000000        3.1250000000000000E-002   0.0000000000000000     
   1.2500000000000000        6.2500000000000000E-002   0.0000000000000000     
   1.2812500000000000        6.2500000000000000E-002   0.0000000000000000     
   1.3125000000000000        6.2500000000000000E-002   0.0000000000000000     
   1.3437500000000000        6.2500000000000000E-002   0.0000000000000000     
   1.3750000000000000        6.2500000000000000E-002   0.0000000000000000     
   1.2500000000000000        9.3750000000000000E-002   0.0000000000000000     
   1.2812500000000000        9.3750000000000000E-002   0.0000000000000000     
   1.3125000000000000        9.3750000000000000E-002   0.0000000000000000     
   1.3437500000000000        9.3750000000000000E-002   0.0000000000000000     
   1.3750000000000000        9.3750000000000000E-002   0.0000000000000000     
   1.2500000000000000       0.12500000000000000        0.0000000000000000     
   1.2812500000000000       0.12500000000000000        0.0000000000000000     
   1.3125000000000000       0.12500000000000000        0.0000000000000000     
   1.3437500000000000       0.12500000000000000        0.0000000000000000     
   1.3750000000000000       0.12500000000000000        0.0000000000000000     
   1.3750000000000000        0.0000000000000000        0.0000000000000000     
   1.4062500000000000        0.0000000000000000        0.0000000000000000     
   1.4375000000000000        0.0000000000000000        0.0000000000000000     
   1.4687500000000000        0.0000000000000000        0.0000000000000000     
   1.5000000000000000        0.0000000000000000        0.0000000000000000     
   1.3750000000000000        3.1250000000000000E-002   0.0000000000000000     
   1.4062500000000000        3.1250000000000000E-002   0.0000000000000000     
   1.4375000000000000        3.1250000000000000E-002   0.0000000000000000     
   1.4687500000000000        3.1250000000000000E-002   0.0000000000000000     
   1.5000000000000000        3.1250000000000000E-002   0.0000000000000000     
   1.3750000000000000        6.2500000000000000E-002   0.0000000000000000     
   1.4062500000000000        6.2500000000000000E-002   0.0000000000000000     
   1.4375000000000000        6.2500000000000000E-002   0.0000000000000000     
   1.4687500000000000        6.2500000000000000E-002   0.0000000000000000     
   1.5000000000000000        6.2500000000000000E-002   0.0000000000000000     
   1.3750000000000000        9.3750000000000000E-002   0.0000000000000000     
   1.4062500000000000        9.3750000000000000E-002   0.0000000000000000     
   1.4375000000000000        9.3750000000000000E-002   0.0000000000000000     
   1.4687500000000000        9.3750000000000000E-002   0.0000000000000000     
   1.5000000000000000        9.3750000000000000E-002   0.0000000000000000     
   1.3750000000000000       0.12500000000000000        0.0000000000000000     
   1.4062500000000000       0.12500000000000000        0.0000000000000000     
   1.4375000000000000       0.12500000000000000        0.0000000000000000     
   1.4687500000000000       0.12500000000000000        0.0000000000000000     
   1.5000000000000000       0.12500000000000000        0.0000000000000000     
  0.50000000000000000       0.12500000000000000        0.0000000000000000     
  0.53125000000000000       0.12500000000000000        0.0000000000000000     
  0.56250000000000000       0.12500000000000000        0.0000000000000000     
  0.59375000000000000       0.12500000000000000        0.0000000000000000     
  0.62500000000000000       0.12500000000000000        0.0000000000000000     
  0.50000000000000000       0.15625000000000000        0.0000000000000000     
  0.53125000000000000       0.15625000000000000        0.0000000000000000     
  0.56250000000000000       0.15625000000000000        0.0000000000000000     
  0.59375000000000000       0.15625000000000000        0.0000000000000000     
  0.62500000000000000       0.15625000000000000        0.0000000000000000     
  0.50000000000000000       0.18750000000000000        0.0000000000000000     
  0.53125000000000000       0.18750000000000000        0.0000000000000000     
  0.56250000000000000       0.18750000000000000        0.0000000000000000     
  0.59375000000000000       0.18750000000000000        0.0000000000000000     
  0.62500000000000000       0.18750000000000000        0.0000000000000000     
  0.50000000000000000       0.21875000000000000        0.0000000000000000     
  0.53125000000000000       0.21875000000000000        0.0000000000000000     
  0.56250000000000000       0.21875000000000000        0.0000000000000000     
  0.59375000000000000       0.21875000000000000        0.0000000000000000     
  0.62500000000000000       0.21875000000000000        0.0000000000000000     
  0.50000000000000000       0.25000000000000000        0.0000000000000000     
  0.53125000000000000       0.25000000000000000        0.0000000000000000     
  0.56250000000000000       0.25000000000000000        0.0000000000000000     
  0.59375000000000000       0.25000000000000000        0.0000000000000000     
  0.62500000000000000       0.25000000000000000        0.0000000000000000     
  0.62500000000000000       0.12500000000000000        0.0000000000000000     
  0.65625000000000000       0.12500000000000000        0.0000000000000000     
  0.68750000000000000       0.12500000000000000        0.0000000000000000     
  0.71875000000000000       0.12500000000000000        0.0000000000000000     
  0.75000000000000000       0.12500000000000000        0.0000000000000000     
  0.62500000000000000       0.15625000000000000        0.0000000000000000     
  0.65625000000000000       0.15625000000000000        0.0000000000000000     
  0.68750000000000000       0.15625000000000000        0.0000000000000000     
  0.71875000000000000       0.15625000000000000        0.0000000000000000     
  0.75000000000000000       0.15625000000000000        0.0000000000000000     
  0.62500000000000000       0.18750000000000000        0.0000000000000000     
  0.65625000000000000       0.18750000000000000        0.0000000000000000     
  0.68750000000000000       0.18750000000000000        0.0000000000000000     
  0.71875000000000000       0.18750000000000000        0.0000000000000000     
  0.75000000000000000       0.18750000000000000        0.0000000000000000     
  0.62500000000000000       0.21875000000000000        0.0000000000000000     
  0.65625000000000000       0.21875000000000000        0.0000000000000000     
  0.68750000000000000       0.21875000000000000        0.0000000000000000     
  0.71875000000000000       0.21875000000000000        0.0000000000000000     
  0.75000000000000000       0.21875000000000000        0.0000000000000000     
  0.62500000000000000       0.25000000000000000        0.0000000000000000     
  0.65625000000000000       0.25000000000000000        0.0000000000000000     
  0.68750000000000000       0.25000000000000000        0.0000000000000000     
  0.71875000000000000       0.25000000000000000        0.0000000000000000     
  0.75000000000000000       0.25000000000000000        0.0000000000000000     
  0.75000000000000000       0.12500000000000000        0.0000000000000000     
  0.78125000000000000       0.12500000000000000        0.0000000000000000     
  0.81250000000000000       0.12500000000000000        0.0000000000000000     
  0.84375000000000000       0.12500000000000000        0.0000000000000000     
  0.87500000000000000       0.12500000000000000        0.0000000000000000     
  0.75000000000000000       0.15625000000000000        0.0000000000000000     
  0.78125000000000000       0.15625000000000000        0.0000000000000000     
  0.81250000000000000       0.15625000000000000        0.0000000000000000     
  0.84375000000000000       0.15625000000000000        0.0000000000000000     
  0.87500000000000000       0.15625000000000000        0.0000000000000000     
  0.75000000000000000       0.18750000000000000        0.0000000000000000     
  0.78125000000000000       0.18750000000000000        0.0000000000000000     
  0.81250000000000000       0.18750000000000000        0.0000000000000000     
  0.84375000000000000       0.18750000000000000        0.0000000000000000     
  0.87500000000000000       0.18750000000000000        0.0000000000000000     
  0.75000000000000000       0.21875000000000000        0.0000000000000000     
  0.78125000000000000       0.21875000000000000        0.0000000000000000     
  0.81250000000000000       0.21875000000000000        0.0000000000000000     
  0.84375000000000000       0.21875000000000000        0.0000000000000000     
  0.87500000000000000       0.21875000000000000        0.0000000000000000     
  0.75000000000000000       0.25000000000000000        0.0000000000000000     
  0.78125000000000000       0.25000000000000000        0.0000000000000000     
  0.81250000000000000       0.25000000000000000        0.0000000000000000     
  0.84375000000000000       0.25000000000000000        0.0000000000000000     
  0.87500000000000000       0.25000000000000000        0.0000000000000000     
  0.87500000000000000       0.12500000000000000        0.0000000000000000     
  0.90625000000000000       0.12500000000000000        0.0000000000000000     
  0.93750000000000000       0.12500000000000000        0.0000000000000000     
  0.96875000000000000       0.12500000000000000        0.0000000000000000     
   1.0000000000000000       0.12500000000000000        0.0000000000000000     
  0.87500000000000000       0.15625000000000000        0.0000000000000000     
  0.90625000000000000       0.15625000000000000        0.0000000000000000     
  0.93750000000000000       0.15625000000000000        0.0000000000000000     
  0.96875000000000000       0.15625000000000000        0.0000000000000000     
   1.0000000000000000       0.15625000000000000        0.0000000000000000     
  0.87500000000000000       0.18750000000000000        0.0000000000000000     
  0.90625000000000000       0.18750000000000000        0.0000000000000000     
  0.93750000000000000       0.18750000000000000        0.0000000000000000     
  0.96875000000000000       0.18750000000000000        0.0000000000000000     
   1.0000000000000000       0.18750000000000000        0.0000000000000000     
  0.87500000000000000       0.21875000000000000        0.0000000000000000     
  0.90625000000000000       0.21875000000000000        0.0000000000000000     
  0.93750000000000000       0.21875000000000000        0.0000000000000000     
  0.96875000000000000       0.21875000000000000        0.0000000000000000     
   1.0000000000000000       0.21875000000000000        0.0000000000000000     
  0.87500000000000000       0.25000000000000000        0.0000000000000000     
  0.90625000000000000       0.25000000000000000        0.0000000000000000     
  0.93750000000000000       0.25000000000000000        0.0000000000000000     
  0.96875000000000000       0.25000000000000000        0.0000000000000000     
   1.0000000000000000       0.25000000000000000        0.0000000000000000     
   1.0000000000000000       0.12500000000000000        0.0000000000000000     
   1.0312500000000000       0.12500000000000000        0.0000000000000000     
   1.0625000000000000       0.12500000000000000        0.0000000000000000     
   1.0937500000000000       0.12500000000000000        0.0000000000000000     
   1.1250000000000000       0.12500000000000000        0.0000000000000000     
   1.0000000000000000       0.15625000000000000        0.0000000000000000     
   1.0312500000000000       0.15625000000000000        0.0000000000000000     
   1.0625000000000000       0.15625000000000000        0.0000000000000000     
   1.0937500000000000       0.15625000000000000        0.0000000000000000     
   1.1250000000000000       0.15625000000000000        0.0000000000000000     
   1.0000000000000000       0.18750000000000000        0.0000000000000000     
   1.0312500000000000       0.18750000000000000        0.0000000000000000     
   1.0625000000000000       0.18750000000000000        0.0000000000000000     
   1.0937500000000000       0.18750000000000000        0.0000000000000000     
   1.1250000000000000       0.18750000000000000        0.0000000000000000     
   1.0000000000000000       0.21875000000000000        0.0000000000000000     
   1.0312500000000000       0.21875000000000000        0.0000000000000000     
   1.0625000000000000       0.21875000000000000        0.0000000000000000     
   1.0937500000000000       0.21875000000000000        0.0000000000000000     
   1.1250000000000000       0.21875000000000000        0.0000000000000000     
   1.0000000000000000       0.25000000000000000        0.0000000000000000     
   1.0312500000000000       0.25000000000000000        0.0000000000000000     
   1.0625000000000000       0.25000000000000000        0.0000000000000000     
   1.0937500000000000       0.25000000000000000        0.0000000000000000     
   1.1250000000000000       0.25000000000000000        0.0000000000000000     
   1.1250000000000000       0.12500000000000000        0.0000000000000000     
   1.1562500000000000       0.12500000000000000        0.0000000000000000     
   1.1875000000000000       0.12500000000000000        0.0000000000000000     
   1.2187500000000000       0.12500000000000000        0.0000000000000000     
   1.2500000000000000       0.12500000000000000        0.0000000000000000     
   1.1250000000000000       0.15625000000000000        0.0000000000000000     
   1.1562500000000000       0.15625000000000000        0.0000000000000000     
   1.1875000000000000       0.15625000000000000        0.0000000000000000     
   1.2187500000000000       0.15625000000000000        0.0000000000000000     
   1.2500000000000000       0.15625000000000000        0.0000000000000000     
   1.1250000000000000       0.18750000000000000        0.0000000000000000     
   1.1562500000000000       0.18750000000000000        0.0000000000000000     
   1.1875000000000000       0.18750000000000000        0.0000000000000000     
   1.2187500000000000       0.18750000000000000        0.0000000000000000     
   1.2500000000000000       0.18750000000000000        0.0000000000000000     
   1.1250000000000000       0.21875000000000000        0.0000000000000000     
   1.1562500000000000       0.21875000000000000        0.0000000000000000     
   1.1875000000000000       0.21875000000000000        0.0000000000000000     
   1.2187500000000000       0.21875000000000000        0.0000000000000000     
   1.2500000000000000       0.21875000000000000        0.0000000000000000     
   1.1250000000000000       0.25000000000000000        0.0000000000000000     
   1.1562500000000000       0.25000000000000000        0.0000000000000000     
   1.1875000000000000       0.25000000000000000        0.0000000000000000     
   1.2187500000000000       0.25000000000000000        0.0000000000000000     
   1.2500000000000000       0.25000000000000000        0.0000000000000000     
   1.2500000000000000       0.12500000000000000        0.0000000000000000     
   1.2812500000000000       0.12500000000000000        0.0000000000000000     
   1.3125000000000000       0.12500000000000000        0.0000000000000000     
   1.3437500000000000       0.12500000000000000        0.0000000000000000     
   1.3750000000000000       0.12500000000000000        0.0000000000000000     
   1.2500000000000000       0.15625000000000000        0.0000000000000000     
   1.2812500000000000       0.15625000000000000        0.0000000000000000     
   1.3125000000000000       0.15625000000000000        0.0000000000000000     
   1.3437500000000000       0.15625000000000000        0.0000000000000000     
   1.3750000000000000       0.15625000000000000        0.0000000000000000     
   1.2500000000000000       0.18750000000000000        0.0000000000000000     
   1.2812500000000000       0.18750000000000000        0.0000000000000000     
   1.3125000000000000       0.18750000000000000        0.0000000000000000     
   1.3437500000000000       0.18750000000000000        0.0000000000000000     
   1.3750000000000000       0.18750000000000000        0.0000000000000000     
   1.2500000000000000       0.21875000000000000        0.0000000000000000     
   1.2812500000000000       0.21875000000000000        0.0000000000000000     
   1.3125000000000000       0.21875000000000000        0.0000000000000000     
   1.3437500000000000       0.21875000000000000        0.0000000000000000     
   1.3750000000000000       0.21875000000000000        0.0000000000000000     
   1.2500000000000000       0.25000000000000000        0.0000000000000000     
   1.2812500000000000       0.25000000000000000        0.0000000000000000     
   1.3125000000000000       0.25000000000000000        0.0000000000000000     
   1.3437500000000000       0.25000000000000000        0.0000000000000000     
   1.3750000000000000       0.25000000000000000        0.0000000000000000     
   1.3750000000000000       0.12500000000000000        0.0000000000000000     
   1.4062500000000000       0.12500000000000000        0.0000000000000000     
   1.4375000000000000       0.12500000000000000        0.0000000000000000     
   1.4687500000000000       0.12500000000000000        0.0000000000000000     
   1.5000000000000000       0.12500000000000000        0.0000000000000000     
   1.3750000000000000       0.15625000000000000        0.0000000000000000     
   1.4062500000000000       0.15625000000000000        0.0000000000000000     
   1.4375000000000000       0.15625000000000000        0.0000000000000000     
   1.4687500000000000       0.15625000000000000        0.0000000000000000     
   1.5000000000000000       0.15625000000000000        0.0000000000000000     
   1.3750000000000000       0.18750000000000000        0.0000000000000000     
   1.4062500000000000       0.18750000000000000        0.0000000000000000     
   1.4375000000000000       0.18750000000000000        0.0000000000000000     
   1.4687500000000000       0.18750000000000000        0.0000000000000000     
   1.5000000000000000       0.18750000000000000        0.0000000000000000     
   1.3750000000000000       0.21875000000000000        0.0000000000000000     
   1.4062500000000000       0.21875000000000000        0.0000000000000000     
   1.4375000000000000       0.21875000000000000        0.0000000000000000     
   1.4687500000000000       0.21875000000000000        0.0000000000000000     
   1.5000000000000000       0.21875000000000000        0.0000000000000000     
   1.3750000000000000       0.25000000000000000        0.0000000000000000     
   1.4062500000000000       0.25000000000000000        0.0000000000000000     
   1.4375000000000000       0.25000000000000000        0.0000000000000000     
   1.4687500000000000       0.25000000000000000        0.0000000000000000     
   1.5000000000000000       0.25000000000000000        0.0000000000000000     
  0.50000000000000000       0.25000000000000000        0.0000000000000000     
  0.53125000000000000       0.25000000000000000        0.0000000000000000     
  0.56250000000000000       0.25000000000000000        0.0000000000000000     
  0.59375000000000000       0.25000000000000000        0.0000000000000000     
  0.62500000000000000       0.25000000000000000        0.0000000000000000     
  0.50000000000000000       0.28125000000000000        0.0000000000000000     
  0.53125000000000000       0.28125000000000000        0.0000000000000000     
  0.56250000000000000       0.28125000000000000        0.0000000000000000     
  0.59375000000000000       0.28125000000000000        0.0000000000000000     
  0.62500000000000000       0.28125000000000000        0.0000000000000000     
  0.50000000000000000       0.31250000000000000        0.0000000000000000     
  0.53125000000000000       0.31250000000000000        0.0000000000000000     
  0.56250000000000000       0.31250000000000000        0.0000000000000000     
  0.59375000000000000       0.31250000000000000        0.0000000000000000     
  0.62500000000000000       0.31250000000000000        0.0000000000000000     
  0.50000000000000000       0.34375000000000000        0.0000000000000000     
  0.53125000000000000       0.34375000000000000        0.0000000000000000     
  0.56250000000000000       0.34375000000000000        0.0000000000000000     
  0.59375000000000000       0.34375000000000000        0.0000000000000000     
  0.62500000000000000       0.34375000000000000        0.0000000000000000     
  0.50000000000000000       0.37500000000000000        0.0000000000000000     
  0.53125000000000000       0.37500000000000000        0.0000000000000000     
  0.56250000000000000       0.37500000000000000        0.0000000000000000     
  0.59375000000000000       0.37500000000000000        0.0000000000000000     
  0.62500000000000000       0.37500000000000000        0.0000000000000000     
  0.62500000000000000       0.25000000000000000        0.0000000000000000     
  0.65625000000000000       0.25000000000000000        0.0000000000000000     
  0.68750000000000000       0.25000000000000000        0.0000000000000000     
  0.71875000000000000       0.25000000000000000        0.0000000000000000     
  0.75000000000000000       0.25000000000000000        0.0000000000000000     
  0.62500000000000000       0.28125000000000000        0.0000000000000000     
  0.65625000000000000       0.28125000000000000        0.0000000000000000     
  0.68750000000000000       0.28125000000000000        0.0000000000000000     
  0.71875000000000000       0.28125000000000000        0.0000000000000000     
  0.75000000000000000       0.28125000000000000        0.0000000000000000     
  0.62500000000000000       0.31250000000000000        0.0000000000000000     
  0.65625000000000000       0.31250000000000000        0.0000000000000000     
  0.68750000000000000       0.31250000000000000        0.0000000000000000     
  0.71875000000000000       0.31250000000000000        0.0000000000000000     
  0.75000000000000000       0.31250000000000000        0.0000000000000000     
  0.62500000000000000       0.34375000000000000        0.0000000000000000     
  0.65625000000000000       0.34375000000000000        0.0000000000000000     
  0.68750000000000000       0.34375000000000000        0.0000000000000000     
  0.71875000000000000       0.34375000000000000        0.0000000000000000     
  0.75000000000000000       0.34375000000000000        0.0000000000000000     
  0.62500000000000000       0.37500000000000000        0.0000000000000000     
  0.65625000000000000       0.37500000000000000        0.0000000000000000     
  0.68750000000000000       0.37500000000000000        0.0000000000000000     
  0.71875000000000000       0.37500000000000000        0.0000000000000000     
  0.75000000000000000       0.37500000000000000        0.0000000000000000     
  0.75000000000000000       0.25000000000000000        0.0000000000000000     
  0.78125000000000000       0.25000000000000000        0.0000000000000000     
  0.81250000000000000       0.25000000000000000        0.0000000000000000     
  0.84375000000000000       0.25000000000000000        0.0000000000000000     
  0.87500000000000000       0.25000000000000000        0.0000000000000000     
  0.75000000000000000       0.28125000000000000        0.0000000000000000     
  0.78125000000000000       0.28125000000000000        0.0000000000000000     
  0.81250000000000000       0.28125000000000000        0.0000000000000000     
  0.84375000000000000       0.28125000000000000        0.0000000000000000     
  0.87500000000000000       0.28125000000000000        0.0000000000000000     
  0.75000000000000000       0.31250000000000000        0.0000000000000000     
  0.78125000000000000       0.31250000000000000        0.0000000000000000     
  0.81250000000000000       0.31250000000000000        0.0000000000000000     
  0.84375000000000000       0.31250000000000000        0.0000000000000000     
  0.87500000000000000       0.31250000000000000        0.0000000000000000     
  0.75000000000000000       0.34375000000000000        0.0000000000000000     
  0.78125000000000000       0.34375000000000000        0.0000000000000000     
  0.81250000000000000       0.34375000000000000        0.0000000000000000     
  0.84375000000000000       0.34375000000000000        0.0000000000000000     
  0.87500000000000000       0.34375000000000000        0.0000000000000000     
  0.75000000000000000       0.37500000000000000        0.0000000000000000     
  0.78125000000000000       0.37500000000000000        0.0000000000000000     
  0.81250000000000000       0.37500000000000000        0.0000000000000000     
  0.84375000000000000       0.37500000000000000        0.0000000000000000     
  0.87500000000000000       0.37500000000000000        0.0000000000000000     
  0.87500000000000000       0.25000000000000000        0.0000000000000000     
  0.90625000000000000       0.25000000000000000        0.0000000000000000     
  0.93750000000000000       0.25000000000000000        0.0000000000000000     
  0.96875000000000000       0.25000000000000000        0.0000000000000000     
   1.0000000000000000       0.25000000000000000        0.0000000000000000     
  0.87500000000000000       0.28125000000000000        0.0000000000000000     
  0.90625000000000000       0.28125000000000000        0.0000000000000000     
  0.93750000000000000       0.28125000000000000        0.0000000000000000     
  0.96875000000000000       0.28125000000000000        0.0000000000000000     
   1.0000000000000000       0.28125000000000000        0.0000000000000000     
  0.87500000000000000       0.31250000000000000        0.0000000000000000     
  0.90625000000000000       0.31250000000000000        0.0000000000000000     
  0.93750000000000000       0.31250000000000000        0.0000000000000000     
  0.96875000000000000       0.31250000000000000        0.0000000000000000     
   1.0000000000000000       0.31250000000000000        0.0000000000000000     
  0.87500000000000000       0.34375000000000000        0.0000000000000000     
  0.90625000000000000       0.34375000000000000        0.0000000000000000     
  0.93750000000000000       0.34375000000000000        0.0000000000000000     
  0.96875000000000000       0.34375000000000000        0.0000000000000000     
   1.0000000000000000       0.34375000000000000        0.0000000000000000     
  0.87500000000000000       0.37500000000000000        0.0000000000000000     
  0.90625000000000000       0.37500000000000000        0.0000000000000000     
  0.93750000000000000       0.37500000000000000        0.0000000000000000     
  0.96875000000000000       0.37500000000000000        0.0000000000000000     
   1.0000000000000000       0.37500000000000000        0.0000000000000000     
   1.0000000000000000       0.25000000000000000        0.0000000000000000     
   1.0312500000000000       0.25000000000000000        0.0000000000000000     
   1.0625000000000000       0.25000000000000000        0.0000000000000000     
   1.0937500000000000       0.25000000000000000        0.0000000000000000     
   1.1250000000000000       0.25000000000000000        0.0000000000000000     
   1.0000000000000000       0.28125000000000000        0.0000000000000000     
   1.0312500000000000       0.28125000000000000        0.0000000000000000     
   1.0625000000000000       0.28125000000000000        0.0000000000000000     
   1.0937500000000000       0.28125000000000000        0.0000000000000000     
   1.1250000000000000       0.28125000000000000        0.0000000000000000     
   1.0000000000000000       0.31250000000000000        0.0000000000000000     
   1.0312500000000000       0.31250000000000000        0.0000000000000000     
   1.0625000000000000       0.31250000000000000        0.0000000000000000     
   1.0937500000000000       0.31250000000000000        0.0000000000000000     
   1.1250000000000000       0.31250000000000000        0.0000000000000000     
   1.0000000000000000       0.34375000000000000        0.0000000000000000     
   1.0312500000000000       0.34375000000000000        0.0000000000000000     
   1.0625000000000000       0.34375000000000000        0.0000000000000000     
   1.0937500000000000       0.34375000000000000        0.0000000000000000     
   1.1250000000000000       0.34375000000000000        0.0000000000000000     
   1.0000000000000000       0.37500000000000000        0.0000000000000000     
   1.0312500000000000       0.37500000000000000        0.0000000000000000     
   1.0625000000000000       0.37500000000000000        0.0000000000000000     
   1.0937500000000000       0.37500000000000000        0.0000000000000000     
   1.1250000000000000       0.37500000000000000        0.0000000000000000     
   1.1250000000000000       0.25000000000000000        0.0000000000000000     
   1.1562500000000000       0.25000000000000000        0.0000000000000000     
   1.1875000000000000       0.25000000000000000        0.0000000000000000     
   1.2187500000000000       0.25000000000000000        0.0000000000000000     
   1.2500000000000000       0.25000000000000000        0.0000000000000000     
   1.1250000000000000       0.28125000000000000        0.0000000000000000     
   1.1562500000000000       0.28125000000000000        0.0000000000000000     
   1.1875000000000000       0.28125000000000000        0.0000000000000000     
   1.2187500000000000       0.28125000000000000        0.0000000000000000     
   1.2500000000000000       0.28125000000000000        0.0000000000000000     
   1.1250000000000000       0.31250000000000000        0.0000000000000000     
   1.1562500000000000       0.31250000000000000        0.0000000000000000     
   1.1875000000000000       0.31250000000000000        0.0000000000000000     
   1.2187500000000000       0.31250000000000000        0.0000000000000000     
   1.2500000000000000       0.31250000000000000        0.0000000000000000     
   1.1250000000000000       0.34375000000000000        0.0000000000000000     
   1.1562500000000000       0.34375000000000000        0.0000000000000000     
   1.1875000000000000       0.34375000000000000        0.0000000000000000     
   1.2187500000000000       0.34375000000000000        0.0000000000000000     
   1.2500000000000000       0.34375000000000000        0.0000000000000000     
   1.1250000000000000       0.37500000000000000        0.0000000000000000     
   1.1562500000000000       0.37500000000000000        0.0000000000000000     
   1.1875000000000000       0.37500000000000000        0.0000000000000000     
   1.2187500000000000       0.37500000000000000        0.0000000000000000     
   1.2500000000000000       0.37500000000000000        0.0000000000000000     
   1.2500000000000000       0.25000000000000000        0.0000000000000000     
   1.2812500000000000       0.25000000000000000        0.0000000000000000     
   1.3125000000000000       0.25000000000000000        0.0000000000000000     
   1.3437500000000000       0.25000000000000000        0.0000000000000000     
   1.3750000000000000       0.25000000000000000        0.0000000000000000     
   1.2500000000000000       0.28125000000000000        0.0000000000000000     
   1.2812500000000000       0.28125000000000000        0.0000000000000000     
   1.3125000000000000       0.28125000000000000        0.0000000000000000     
   1.3437500000000000       0.28125000000000000        0.0000000000000000     
   1.3750000000000000       0.28125000000000000        0.0000000000000000     
   1.2500000000000000       0.31250000000000000        0.0000000000000000     
   1.2812500000000000       0.31250000000000000        0.0000000000000000     
   1.3125000000000000       0.31250000000000000        0.0000000000000000     
   1.3437500000000000       0.31250000000000000        0.0000000000000000     
   1.3750000000000000       0.31250000000000000        0.0000000000000000     
   1.2500000000000000       0.34375000000000000        0.0000000000000000     
   1.2812500000000000       0.34375000000000000        0.0000000000000000     
   1.3125000000000000       0.34375000000000000        0.0000000000000000     
   1.3437500000000000       0.34375000000000000        0.0000000000000000     
   1.3750000000000000       0.34375000000000000        0.0000000000000000     
   1.2500000000000000       0.37500000000000000        0.0000000000000000     
   1.2812500000000000       0.37500000000000000        0.0000000000000000     
   1.3125000000000000       0.37500000000000000        0.0000000000000000     
   1.3437500000000000       0.37500000000000000        0.0000000000000000     
   1.3750000000000000       0.37500000000000000        0.0000000000000000     
   1.3750000000000000       0.25000000000000000        0.0000000000000000     
   1.4062500000000000       0.25000000000000000        0.0000000000000000     
   1.4375000000000000       0.25000000000000000        0.0000000000000000     
   1.4687500000000000       0.25000000000000000        0.0000000000000000     
   1.5000000000000000       0.25000000000000000        0.0000000000000000     
   1.3750000000000000       0.28125000000000000        0.0000000000000000     
   1.4062500000000000       0.28125000000000000        0.0000000000000000     
   1.4375000000000000       0.28125000000000000        0.0000000000000000     
   1.4687500000000000       0.28125000000000000        0.0000000000000000     
   1.5000000000000000       0.28125000000000000        0.0000000000000000     
   1.3750000000000000       0.31250000000000000        0.0000000000000000     
   1.4062500000000000       0.31250000000000000        0.0000000000000000     
   1.4375000000000000       0.31250000000000000        0.0000000000000000     
   1.4687500000000000       0.31250000000000000        0.0000000000000000     
   1.5000000000000000       0.31250000000000000        0.0000000000000000     
   1.3750000000000000       0.34375000000000000        0.0000000000000000     
   1.4062500000000000       0.34375000000000000        0.0000000000000000     
   1.4375000000000000       0.34375000000000000        0.0000000000000000     
   1.4687500000000000       0.34375000000000000        0.0000000000000000     
   1.5000000000000000       0.34375000000000000        0.0000000000000000     
   1.3750000000000000       0.37500000000000000        0.0000000000000000     
   1.4062500000000000       0.37500000000000000        0.0000000000000000     
   1.4375000000000000       0.37500000000000000        0.0000000000000000     
   1.4687500000000000       0.37500000000000000        0.0000000000000000     
   1.5000000000000000       0.37500000000000000        0.0000000000000000     
  0.50000000000000000       0.37500000000000000        0.0000000000000000     
  0.53125000000000000       0.37500000000000000        0.0000000000000000     
  0.56250000000000000       0.37500000000000000        0.0000000000000000     
  0.59375000000000000       0.37500000000000000        0.0000000000000000     
  0.62500000000000000       0.37500000000000000        0.0000000000000000     
  0.50000000000000000       0.40625000000000000        0.0000000000000000     
  0.53125000000000000       0.40625000000000000        0.0000000000000000     
  0.56250000000000000       0.40625000000000000        0.0000000000000000     
  0.59375000000000000       0.40625000000000000        0.0000000000000000     
  0.62500000000000000       0.40625000000000000        0.0000000000000000     
  0.50000000000000000       0.43750000000000000        0.0000000000000000     
  0.53125000000000000       0.43750000000000000        0.0000000000000000     
  0.56250000000000000       0.43750000000000000        0.0000000000000000     
  0.59375000000000000       0.43750000000000000        0.0000000000000000     
  0.62500000000000000       0.43750000000000000        0.0000000000000000     
  0.50000000000000000       0.46875000000000000        0.0000000000000000     
  0.53125000000000000       0.46875000000000000        0.0000000000000000     
  0.56250000000000000       0.46875000000000000        0.0000000000000000     
  0.59375000000000000       0.46875000000000000        0.0000000000000000     
  0.62500000000000000       0.46875000000000000        0.0000000000000000     
  0.50000000000000000       0.50000000000000000        0.0000000000000000     
  0.53125000000000000       0.50000000000000000        0.0000000000000000     
  0.56250000000000000       0.50000000000000000        0.0000000000000000     
  0.59375000000000000       0.50000000000000000        0.0000000000000000     
  0.62500000000000000       0.50000000000000000        0.0000000000000000     
  0.62500000000000000       0.37500000000000000        0.0000000000000000     
  0.65625000000000000       0.37500000000000000        0.0000000000000000     
  0.68750000000000000       0.37500000000000000        0.0000000000000000     
  0.71875000000000000       0.37500000000000000        0.0000000000000000     
  0.75000000000000000       0.37500000000000000        0.0000000000000000     
  0.62500000000000000       0.40625000000000000        0.0000000000000000     
  0.65625000000000000       0.40625000000000000        0.0000000000000000     
  0.68750000000000000       0.40625000000000000        0.0000000000000000     
  0.71875000000000000       0.40625000000000000        0.0000000000000000     
  0.75000000000000000       0.40625000000000000        0.0000000000000000     
  0.62500000000000000       0.43750000000000000        0.0000000000000000     
  0.65625000000000000       0.43750000000000000        0.0000000000000000     
  0.68750000000000000       0.43750000000000000        0.0000000000000000     
  0.71875000000000000       0.43750000000000000        0.0000000000000000     
  0.75000000000000000       0.43750000000000000        0.0000000000000000     
  0.62500000000000000       0.46875000000000000        0.0000000000000000     
  0.65625000000000000       0.46875000000000000        0.0000000000000000     
  0.68750000000000000       0.46875000000000000        0.0000000000000000     
  0.71875000000000000       0.46875000000000000        0.0000000000000000     
  0.75000000000000000       0.46875000000000000        0.0000000000000000     
  0.62500000000000000       0.50000000000000000        0.0000000000000000     
  0.65625000000000000       0.50000000000000000        0.0000000000000000     
  0.68750000000000000       0.50000000000000000        0.0000000000000000     
  0.71875000000000000       0.50000000000000000        0.0000000000000000     
  0.75000000000000000       0.50000000000000000        0.0000000000000000     
  0.75000000000000000       0.37500000000000000        0.0000000000000000     
  0.78125000000000000       0.37500000000000000        0.0000000000000000     
  0.81250000000000000       0.37500000000000000        0.0000000000000000     
  0.84375000000000000       0.37500000000000000        0.0000000000000000     
  0.87500000000000000       0.37500000000000000        0.0000000000000000     
  0.75000000000000000       0.40625000000000000        0.0000000000000000     
  0.78125000000000000       0.40625000000000000        0.0000000000000000     
  0.81250000000000000       0.40625000000000000        0.0000000000000000     
  0.84375000000000000       0.40625000000000000        0.0000000000000000     
  0.87500000000000000       0.40625000000000000        0.0000000000000000     
  0.75000000000000000       0.43750000000000000        0.0000000000000000     
  0.78125000000000000       0.43750000000000000        0.0000000000000000     
  0.81250000000000000       0.43750000000000000        0.0000000000000000     
  0.84375000000000000       0.43750000000000000        0.0000000000000000     
  0.87500000000000000       0.43750000000000000        0.0000000000000000     
  0.75000000000000000       0.46875000000000000        0.0000000000000000     
  0.78125000000000000       0.46875000000000000        0.0000000000000000     
  0.81250000000000000       0.46875000000000000        0.0000000000000000     
  0.84375000000000000       0.46875000000000000        0.0000000000000000     
  0.87500000000000000       0.46875000000000000        0.0000000000000000     
  0.75000000000000000       0.50000000000000000        0.0000000000000000     
  0.78125000000000000       0.50000000000000000        0.0000000000000000     
  0.81250000000000000       0.50000000000000000        0.0000000000000000     
  0.84375000000000000       0.50000000000000000        0.0000000000000000     
  0.87500000000000000       0.50000000000000000        0.0000000000000000     
  0.87500000000000000       0.37500000000000000        0.0000000000000000     
  0.90625000000000000       0.37500000000000000        0.0000000000000000     
  0.93750000000000000       0.37500000000000000        0.0000000000000000     
  0.96875000000000000       0.37500000000000000        0.0000000000000000     
   1.0000000000000000       0.37500000000000000        0.0000000000000000     
  0.87500000000000000       0.40625000000000000        0.0000000000000000     
  0.90625000000000000       0.40625000000000000        0.0000000000000000     
  0.93750000000000000       0.40625000000000000        0.0000000000000000     
  0.96875000000000000       0.40625000000000000        0.0000000000000000     
   1.0000000000000000       0.40625000000000000        0.0000000000000000     
  0.87500000000000000       0.43750000000000000        0.0000000000000000     
  0.90625000000000000       0.43750000000000000        0.0000000000000000     
  0.93750000000000000       0.43750000000000000        0.0000000000000000     
  0.96875000000000000       0.43750000000000000        0.0000000000000000     
   1.0000000000000000       0.43750000000000000        0.0000000000000000     
  0.87500000000000000       0.46875000000000000        0.0000000000000000     
  0.90625000000000000       0.46875000000000000        0.0000000000000000     
  0.93750000000000000       0.46875000000000000        0.0000000000000000     
  0.96875000000000000       0.46875000000000000        0.0000000000000000     
   1.0000000000000000       0.46875000000000000        0.0000000000000000     
  0.87500000000000000       0.50000000000000000        0.0000000000000000     
  0.90625000000000000       0.50000000000000000        0.0000000000000000     
  0.93750000000000000       0.50000000000000000        0.0000000000000000     
  0.96875000000000000       0.50000000000000000        0.0000000000000000     
   1.0000000000000000       0.50000000000000000        0.0000000000000000     
   1.0000000000000000       0.37500000000000000        0.0000000000000000     
   1.0312500000000000       0.37500000000000000        0.0000000000000000     
   1.0625000000000000       0.37500000000000000        0.0000000000000000     
   1.0937500000000000       0.37500000000000000        0.0000000000000000     
   1.1250000000000000       0.37500000000000000        0.0000000000000000     
   1.0000000000000000       0.40625000000000000        0.0000000000000000     
   1.0312500000000000       0.40625000000000000        0.0000000000000000     
   1.0625000000000000       0.40625000000000000        0.0000000000000000     
   1.0937500000000000       0.40625000000000000        0.0000000000000000     
   1.1250000000000000       0.40625000000000000        0.0000000000000000     
   1.0000000000000000       0.43750000000000000        0.0000000000000000     
   1.0312500000000000       0.43750000000000000        0.0000000000000000     
   1.0625000000000000       0.43750000000000000        0.0000000000000000     
   1.0937500000000000       0.43750000000000000        0.0000000000000000     
   1.1250000000000000       0.43750000000000000        0.0000000000000000     
   1.0000000000000000       0.46875000000000000        0.0000000000000000     
   1.0312500000000000       0.46875000000000000        0.0000000000000000     
   1.0625000000000000       0.46875000000000000        0.0000000000000000     
   1.0937500000000000       0.46875000000000000        0.0000000000000000     
   1.1250000000000000       0.46875000000000000        0.0000000000000000     
   1.0000000000000000       0.50000000000000000        0.0000000000000000     
   1.0312500000000000       0.50000000000000000        0.0000000000000000     
   1.0625000000000000       0.50000000000000000        0.0000000000000000     
   1.0937500000000000       0.50000000000000000        0.0000000000000000     
   1.1250000000000000       0.50000000000000000        0.0000000000000000     
   1.1250000000000000       0.37500000000000000        0.0000000000000000     
   1.1562500000000000       0.37500000000000000        0.0000000000000000     
   1.1875000000000000       0.37500000000000000        0.0000000000000000     
   1.2187500000000000       0.37500000000000000        0.0000000000000000     
   1.2500000000000000       0.37500000000000000        0.0000000000000000     
   1.1250000000000000       0.40625000000000000        0.0000000000000000     
   1.1562500000000000       0.40625000000000000        0.0000000000000000     
   1.1875000000000000       0.40625000000000000        0.0000000000000000     
   1.2187500000000000       0.40625000000000000        0.0000000000000000     
   1.2500000000000000       0.40625000000000000        0.0000000000000000     
   1.1250000000000000       0.43750000000000000        0.0000000000000000     
   1.1562500000000000       0.43750000000000000        0.0000000000000000     
   1.1875000000000000       0.43750000000000000        0.0000000000000000     
   1.2187500000000000       0.43750000000000000        0.0000000000000000     
   1.2500000000000000       0.43750000000000000        0.0000000000000000     
   1.1250000000000000       0.46875000000000000        0.0000000000000000     
   1.1562500000000000       0.46875000000000000        0.0000000000000000     
   1.1875000000000000       0.46875000000000000        0.0000000000000000     
   1.2187500000000000       0.46875000000000000        0.0000000000000000     
   1.2500000000000000       0.46875000000000000        0.0000000000000000     
   1.1250000000000000       0.50000000000000000        0.0000000000000000     
   1.1562500000000000       0.50000000000000000        0.0000000000000000     
   1.1875000000000000       0.50000000000000000        0.0000000000000000     
   1.2187500000000000       0.50000000000000000        0.0000000000000000     
   1.2500000000000000       0.50000000000000000        0.0000000000000000     
   1.2500000000000000       0.37500000000000000        0.0000000000000000     
   1.2812500000000000       0.37500000000000000        0.0000000000000000     
   1.3125000000000000       0.37500000000000000        0.0000000000000000     
   1.3437500000000000       0.37500000000000000        0.0000000000000000     
   1.3750000000000000       0.37500000000000000        0.0000000000000000     
   1.2500000000000000       0.40625000000000000        0.0000000000000000     
   1.2812500000000000       0.40625000000000000        0.0000000000000000     
   1.3125000000000000       0.40625000000000000        0.0000000000000000     
   1.3437500000000000       0.40625000000000000        0.0000000000000000     
   1.3750000000000000       0.40625000000000000        0.0000000000000000     
   1.2500000000000000       0.43750000000000000        0.0000000000000000     
   1.2812500000000000       0.43750000000000000        0.0000000000000000     
   1.3125000000000000       0.43750000000000000        0.0000000000000000     
   1.3437500000000000       0.43750000000000000        0.0000000000000000     
   1.3750000000000000       0.43750000000000000        0.0000000000000000     
   1.2500000000000000       0.46875000000000000        0.0000000000000000     
   1.2812500000000000       0.46875000000000000        0.0000000000000000     
   1.3125000000000000       0.46875000000000000        0.0000000000000000     
   1.3437500000000000       0.46875000000000000        0.0000000000000000     
   1.3750000000000000       0.46875000000000000        0.0000000000000000     
   1.2500000000000000       0.50000000000000000        0.0000000000000000     
   1.2812500000000000       0.50000000000000000        0.0000000000000000     
   1.3125000000000000       0.50000000000000000        0.0000000000000000     
   1.3437500000000000       0.50000000000000000        0.0000000000000000     
   1.3750000000000000       0.50000000000000000        0.0000000000000000     
   1.3750000000000000       0.37500000000000000        0.0000000000000000     
   1.4062500000000000       0.37500000000000000        0.0000000000000000     
   1.4375000000000000       0.37500000000000000        0.0000000000000000     
   1.4687500000000000       0.37500000000000000        0.0000000000000000     
   1.5000000000000000       0.37500000000000000        0.0000000000000000     
   1.3750000000000000       0.40625000000000000        0.0000000000000000     
   1.4062500000000000       0.40625000000000000        0.0000000000000000     
   1.4375000000000000       0.40625000000000000        0.0000000000000000     
   1.4687500000000000       0.40625000000000000        0.0000000000000000     
   1.5000000000000000       0.40625000000000000        0.0000000000000000     
   1.3750000000000000       0.43750000000000000        0.0000000000000000     
   1.4062500000000000       0.43750000000000000        0.0000000000000000     
   1.4375000000000000       0.43750000000000000        0.0000000000000000     
   1.4687500000000000       0.43750000000000000        0.0000000000000000     
   1.5000000000000000       0.43750000000000000        0.0000000000000000     
   1.3750000000000000       0.46875000000000000        0.0000000000000000     
   1.4062500000000000       0.46875000000000000        0.0000000000000000     
   1.4375000000000000       0.46875000000000000        0.0000000000000000     
   1.4687500000000000       0.46875000000000000        0.0000000000000000     
   1.5000000000000000       0.46875000000000000        0.0000000000000000     
   1.3750000000000000       0.50000000000000000        0.0000000000000000     
   1.4062500000000000       0.50000000000000000        0.0000000000000000     
   1.4375000000000000       0.50000000000000000        0.0000000000000000     
   1.4687500000000000       0.50000000000000000        0.0000000000000000     
   1.5000000000000000       0.50000000000000000        0.0000000000000000     
  0.50000000000000000       0.50000000000000000        0.0000000000000000     
  0.53125000000000000       0.50000000000000000        0.0000000000000000     
  0.56250000000000000       0.50000000000000000        0.0000000000000000     
  0.59375000000000000       0.50000000000000000        0.0000000000000000     
  0.62500000000000000       0.50000000000000000        0.0000000000000000     
  0.50000000000000000       0.53125000000000000        0.0000000000000000     
  0.53125000000000000       0.53125000000000000        0.0000000000000000     
  0.56250000000000000       0.53125000000000000        0.0000000000000000     
  0.59375000000000000       0.53125000000000000        0.0000000000000000     
  0.62500000000000000       0.53125000000000000        0.0000000000000000     
  0.50000000000000000       0.56250000000000000        0.0000000000000000     
  0.53125000000000000       0.56250000000000000        0.0000000000000000     
  0.56250000000000000       0.56250000000000000        0.0000000000000000     
  0.59375000000000000       0.56250000000000000        0.0000000000000000     
  0.62500000000000000       0.56250000000000000        0.0000000000000000     
  0.50000000000000000       0.59375000000000000        0.0000000000000000     
  0.53125000000000000       0.59375000000000000        0.0000000000000000     
  0.56250000000000000       0.59375000000000000        0.0000000000000000     
  0.59375000000000000       0.59375000000000000        0.0000000000000000     
  0.62500000000000000       0.59375000000000000        0.0000000000000000     
  0.50000000000000000       0.62500000000000000        0.0000000000000000     
  0.53125000000000000       0.62500000000000000        0.0000000000000000     
  0.56250000000000000       0.62500000000000000        0.0000000000000000     
  0.59375000000000000       0.62500000000000000        0.0000000000000000     
  0.62500000000000000       0.62500000000000000        0.0000000000000000     
  0.62500000000000000       0.50000000000000000        0.0000000000000000     
  0.65625000000000000       0.50000000000000000        0.0000000000000000     
  0.68750000000000000       0.50000000000000000        0.0000000000000000     
  0.71875000000000000       0.50000000000000000        0.0000000000000000     
  0.75000000000000000       0.50000000000000000        0.0000000000000000     
  0.62500000000000000       0.53125000000000000        0.0000000000000000     
  0.65625000000000000       0.53125000000000000        0.0000000000000000     
  0.68750000000000000       0.53125000000000000        0.0000000000000000     
  0.71875000000000000       0.53125000000000000        0.0000000000000000     
  0.75000000000000000       0.53125000000000000        0.0000000000000000     
  0.62500000000000000       0.56250000000000000        0.0000000000000000     
  0.65625000000000000       0.56250000000000000        0.0000000000000000     
  0.68750000000000000       0.56250000000000000        0.0000000000000000     
  0.71875000000000000       0.56250000000000000        0.0000000000000000     
  0.75000000000000000       0.56250000000000000        0.0000000000000000     
  0.62500000000000000       0.59375000000000000        0.0000000000000000     
  0.65625000000000000       0.59375000000000000        0.0000000000000000     
  0.68750000000000000       0.59375000000000000        0.0000000000000000     
  0.71875000000000000       0.59375000000000000        0.0000000000000000     
  0.75000000000000000       0.59375000000000000        0.0000000000000000     
  0.62500000000000000       0.62500000000000000        0.0000000000000000     
  0.65625000000000000       0.62500000000000000        0.0000000000000000     
  0.68750000000000000       0.62500000000000000        0.0000000000000000     
  0.71875000000000000       0.62500000000000000        0.0000000000000000     
  0.75000000000000000       0.62500000000000000        0.0000000000000000     
  0.75000000000000000       0.50000000000000000        0.0000000000000000     
  0.78125000000000000       0.50000000000000000        0.0000000000000000     
  0.81250000000000000       0.50000000000000000        0.0000000000000000     
  0.84375000000000000       0.50000000000000000        0.0000000000000000     
  0.87500000000000000       0.50000000000000000        0.0000000000000000     
  0.75000000000000000       0.53125000000000000        0.0000000000000000     
  0.78125000000000000       0.53125000000000000        0.0000000000000000     
  0.81250000000000000       0.53125000000000000        0.0000000000000000     
  0.84375000000000000       0.53125000000000000        0.0000000000000000     
  0.87500000000000000       0.53125000000000000        0.0000000000000000     
  0.75000000000000000       0.56250000000000000        0.0000000000000000     
  0.78125000000000000       0.56250000000000000        0.0000000000000000     
  0.81250000000000000       0.56250000000000000        0.0000000000000000     
  0.84375000000000000       0.56250000000000000        0.0000000000000000     
  0.87500000000000000       0.56250000000000000        0.0000000000000000     
  0.75000000000000000       0.59375000000000000        0.0000000000000000     
  0.78125000000000000       0.59375000000000000        0.0000000000000000     
  0.81250000000000000       0.59375000000000000        0.0000000000000000     
  0.84375000000000000       0.59375000000000000        0.0000000000000000     
  0.87500000000000000       0.59375000000000000        0.0000000000000000     
  0.75000000000000000       0.62500000000000000        0.0000000000000000     
  0.78125000000000000       0.62500000000000000        0.0000000000000000     
  0.81250000000000000       0.62500000000000000        0.0000000000000000     
  0.84375000000000000       0.62500000000000000        0.0000000000000000     
  0.87500000000000000       0.62500000000000000        0.0000000000000000     
  0.87500000000000000       0.50000000000000000        0.0000000000000000     
  0.90625000000000000       0.50000000000000000        0.0000000000000000     
  0.93750000000000000       0.50000000000000000        0.0000000000000000     
  0.96875000000000000       0.50000000000000000        0.0000000000000000     
   1.0000000000000000       0.50000000000000000        0.0000000000000000     
  0.87500000000000000       0.53125000000000000        0.0000000000000000     
  0.90625000000000000       0.53125000000000000        0.0000000000000000     
  0.93750000000000000       0.53125000000000000        0.0000000000000000     
  0.96875000000000000       0.53125000000000000        0.0000000000000000     
   1.0000000000000000       0.53125000000000000        0.0000000000000000     
  0.87500000000000000       0.56250000000000000        0.0000000000000000     
  0.90625000000000000       0.56250000000000000        0.0000000000000000     
  0.93750000000000000       0.56250000000000000        0.0000000000000000     
  0.96875000000000000       0.56250000000000000        0.0000000000000000     
   1.0000000000000000       0.56250000000000000        0.0000000000000000     
  0.87500000000000000       0.59375000000000000        0.0000000000000000     
  0.90625000000000000       0.59375000000000000        0.0000000000000000     
  0.93750000000000000       0.59375000000000000        0.0000000000000000     
  0.96875000000000000       0.59375000000000000        0.0000000000000000     
   1.0000000000000000       0.59375000000000000        0.0000000000000000     
  0.87500000000000000       0.62500000000000000        0.0000000000000000     
  0.90625000000000000       0.62500000000000000        0.0000000000000000     
  0.93750000000000000       0.62500000000000000        0.0000000000000000     
  0.96875000000000000       0.62500000000000000        0.0000000000000000     
   1.0000000000000000       0.62500000000000000        0.0000000000000000     
   1.0000000000000000       0.50000000000000000        0.0000000000000000     
   1.0312500000000000       0.50000000000000000        0.0000000000000000     
   1.0625000000000000       0.50000000000000000        0.0000000000000000     
   1.0937500000000000       0.50000000000000000        0.0000000000000000     
   1.1250000000000000       0.50000000000000000        0.0000000000000000     
   1.0000000000000000       0.53125000000000000        0.0000000000000000     
   1.0312500000000000       0.53125000000000000        0.0000000000000000     
   1.0625000000000000       0.53125000000000000        0.0000000000000000     
   1.0937500000000000       0.53125000000000000        0.0000000000000000     
   1.1250000000000000       0.53125000000000000        0.0000000000000000     
   1.0000000000000000       0.56250000000000000        0.0000000000000000     
   1.0312500000000000       0.56250000000000000        0.0000000000000000     
   1.0625000000000000       0.56250000000000000        0.0000000000000000     
   1.0937500000000000       0.56250000000000000        0.0000000000000000     
   1.1250000000000000       0.56250000000000000        0.0000000000000000     
   1.0000000000000000       0.59375000000000000        0.0000000000000000     
   1.0312500000000000       0.59375000000000000        0.0000000000000000     
   1.0625000000000000       0.59375000000000000        0.0000000000000000     
   1.0937500000000000       0.59375000000000000        0.0000000000000000     
   1.1250000000000000       0.59375000000000000        0.0000000000000000     
   1.0000000000000000       0.62500000000000000        0.0000000000000000     
   1.0312500000000000       0.62500000000000000        0.0000000000000000     
   1.0625000000000000       0.62500000000000000        0.0000000000000000     
   1.0937500000000000       0.62500000000000000        0.0000000000000000     
   1.1250000000000000       0.62500000000000000        0.0000000000000000     
   1.1250000000000000       0.50000000000000000        0.0000000000000000     
   1.1562500000000000       0.50000000000000000        0.0000000000000000     
   1.1875000000000000       0.50000000000000000        0.0000000000000000     
   1.2187500000000000       0.50000000000000000        0.0000000000000000     
   1.2500000000000000       0.50000000000000000        0.0000000000000000     
   1.1250000000000000       0.53125000000000000        0.0000000000000000     
   1.1562500000000000       0.53125000000000000        0.0000000000000000     
   1.1875000000000000       0.53125000000000000        0.0000000000000000     
   1.2187500000000000       0.53125000000000000        0.0000000000000000     
   1.2500000000000000       0.53125000000000000        0.0000000000000000     
   1.1250000000000000       0.56250000000000000        0.0000000000000000     
   1.1562500000000000       0.56250000000000000        0.0000000000000000     
   1.1875000000000000       0.56250000000000000        0.0000000000000000     
   1.2187500000000000       0.56250000000000000        0.0000000000000000     
   1.2500000000000000       0.56250000000000000        0.0000000000000000     
   1.1250000000000000       0.59375000000000000        0.0000000000000000     
   1.1562500000000000       0.59375000000000000        0.0000000000000000     
   1.1875000000000000       0.59375000000000000        0.0000000000000000     
   1.2187500000000000       0.59375000000000000        0.0000000000000000     
   1.2500000000000000       0.59375000000000000        0.0000000000000000     
   1.1250000000000000       0.62500000000000000        0.0000000000000000     
   1.1562500000000000       0.62500000000000000        0.0000000000000000     
   1.1875000000000000       0.62500000000000000        0.0000000000000000     
   1.2187500000000000       0.62500000000000000        0.0000000000000000     
   1.2500000000000000       0.62500000000000000        0.0000000000000000     
   1.2500000000000000       0.50000000000000000        0.0000000000000000     
   1.2812500000000000       0.50000000000000000        0.0000000000000000     
   1.3125000000000000       0.50000000000000000        0.0000000000000000     
   1.3437500000000000       0.50000000000000000        0.0000000000000000     
   1.3750000000000000       0.50000000000000000        0.0000000000000000     
   1.2500000000000000       0.53125000000000000        0.0000000000000000     
   1.2812500000000000       0.53125000000000000        0.0000000000000000     
   1.3125000000000000       0.53125000000000000        0.0000000000000000     
   1.3437500000000000       0.53125000000000000        0.0000000000000000     
   1.3750000000000000       0.53125000000000000        0.0000000000000000     
   1.2500000000000000       0.56250000000000000        0.0000000000000000     
   1.2812500000000000       0.56250000000000000        0.0000000000000000     
   1.3125000000000000       0.56250000000000000        0.0000000000000000     
   1.3437500000000000       0.56250000000000000        0.0000000000000000     
   1.3750000000000000       0.56250000000000000        0.0000000000000000     
   1.2500000000000000       0.59375000000000000        0.0000000000000000     
   1.2812500000000000       0.59375000000000000        0.0000000000000000     
   1.3125000000000000       0.59375000000000000        0.0000000000000000     
   1.3437500000000000       0.59375000000000000        0.0000000000000000     
   1.3750000000000000       0.59375000000000000        0.0000000000000000     
   1.2500000000000000       0.62500000000000000        0.0000000000000000     
   1.2812500000000000       0.62500000000000000        0.0000000000000000     
   1.3125000000000000       0.62500000000000000        0.0000000000000000     
   1.3437500000000000       0.62500000000000000        0.0000000000000000     
   1.3750000000000000       0.62500000000000000        0.0000000000000000     
   1.3750000000000000       0.50000000000000000        0.0000000000000000     
   1.4062500000000000       0.50000000000000000        0.0000000000000000     
   1.4375000000000000       0.50000000000000000        0.0000000000000000     
   1.4687500000000000       0.50000000000000000        0.0000000000000000     
   1.5000000000000000       0.50000000000000000        0.0000000000000000     
   1.3750000000000000       0.53125000000000000        0.0000000000000000     
   1.4062500000000000       0.53125000000000000        0.0000000000000000     
   1.4375000000000000       0.53125000000000000        0.0000000000000000     
   1.4687500000000000       0.53125000000000000        0.0000000000000000     
   1.5000000000000000       0.53125000000000000        0.0000000000000000     
   1.3750000000000000       0.56250000000000000        0.0000000000000000     
   1.4062500000000000       0.56250000000000000        0.0000000000000000     
   1.4375000000000000       0.56250000000000000        0.0000000000000000     
   1.4687500000000000       0.56250000000000000        0.0000000000000000     
   1.5000000000000000       0.56250000000000000        0.0000000000000000     
   1.3750000000000000       0.59375000000000000        0.0000000000000000     
   1.4062500000000000       0.59375000000000000        0.0000000000000000     
   1.4375000000000000       0.59375000000000000        0.0000000000000000     
   1.4687500000000000       0.59375000000000000        0.0000000000000000     
   1.5000000000000000       0.59375000000000000        0.0000000000000000     
   1.3750000000000000       0.62500000000000000        0.0000000000000000     
   1.4062500000000000       0.62500000000000000        0.0000000000000000     
   1.4375000000000000       0.62500000000000000        0.0000000000000000     
   1.4687500000000000       0.62500000000000000        0.0000000000000000     
   1.5000000000000000       0.62500000000000000        0.0000000000000000     
  0.50000000000000000       0.62500000000000000        0.0000000000000000     
  0.53125000000000000       0.62500000000000000        0.0000000000000000     
  0.56250000000000000       0.62500000000000000        0.0000000000000000     
  0.59375000000000000       0.62500000000000000        0.0000000000000000     
  0.62500000000000000       0.62500000000000000        0.0000000000000000     
  0.50000000000000000       0.65625000000000000        0.0000000000000000     
  0.53125000000000000       0.65625000000000000        0.0000000000000000     
  0.56250000000000000       0.65625000000000000        0.0000000000000000     
  0.59375000000000000       0.65625000000000000        0.0000000000000000     
  0.62500000000000000       0.65625000000000000        0.0000000000000000     
  0.50000000000000000       0.68750000000000000        0.0000000000000000     
  0.53125000000000000       0.68750000000000000        0.0000000000000000     
  0.56250000000000000       0.68750000000000000        0.0000000000000000     
  0.59375000000000000       0.68750000000000000        0.0000000000000000     
  0.62500000000000000       0.68750000000000000        0.0000000000000000     
  0.50000000000000000       0.71875000000000000        0.0000000000000000     
  0.53125000000000000       0.71875000000000000        0.0000000000000000     
  0.56250000000000000       0.71875000000000000        0.0000000000000000     
  0.59375000000000000       0.71875000000000000        0.0000000000000000     
  0.62500000000000000       0.71875000000000000        0.0000000000000000     
  0.50000000000000000       0.75000000000000000        0.0000000000000000     
  0.53125000000000000       0.75000000000000000        0.0000000000000000     
  0.56250000000000000       0.75000000000000000        0.0000000000000000     
  0.59375000000000000       0.75000000000000000        0.0000000000000000     
  0.62500000000000000       0.75000000000000000        0.0000000000000000     
  0.62500000000000000       0.62500000000000000        0.0000000000000000     
  0.65625000000000000       0.62500000000000000        0.0000000000000000     
  0.68750000000000000       0.62500000000000000        0.0000000000000000     
  0.71875000000000000       0.62500000000000000        0.0000000000000000     
  0.75000000000000000       0.62500000000000000        0.0000000000000000     
  0.62500000000000000       0.65625000000000000        0.0000000000000000     
  0.65625000000000000       0.65625000000000000        0.0000000000000000     
  0.68750000000000000       0.65625000000000000        0.0000000000000000     
  0.71875000000000000       0.65625000000000000        0.0000000000000000     
  0.75000000000000000       0.65625000000000000        0.0000000000000000     
  0.62500000000000000       0.68750000000000000        0.0000000000000000     
  0.65625000000000000       0.68750000000000000        0.0000000000000000     
  0.68750000000000000       0.68750000000000000        0.0000000000000000     
  0.71875000000000000       0.68750000000000000        0.0000000000000000     
  0.75000000000000000       0.68750000000000000        0.0000000000000000     
  0.62500000000000000       0.71875000000000000        0.0000000000000000     
  0.65625000000000000       0.71875000000000000        0.0000000000000000     
  0.68750000000000000       0.71875000000000000        0.0000000000000000     
  0.71875000000000000       0.71875000000000000        0.0000000000000000     
  0.75000000000000000       0.71875000000000000        0.0000000000000000     
  0.62500000000000000       0.75000000000000000        0.0000000000000000     
  0.65625000000000000       0.75000000000000000        0.0000000000000000     
  0.68750000000000000       0.75000000000000000        0.0000000000000000     
  0.71875000000000000       0.75000000000000000        0.0000000000000000     
  0.75000000000000000       0.75000000000000000        0.0000000000000000     
  0.75000000000000000       0.62500000000000000        0.0000000000000000     
  0.78125000000000000       0.62500000000000000        0.0000000000000000     
  0.81250000000000000       0.62500000000000000        0.0000000000000000     
  0.84375000000000000       0.62500000000000000        0.0000000000000000     
  0.87500000000000000       0.62500000000000000        0.0000000000000000     
  0.75000000000000000       0.65625000000000000        0.0000000000000000     
  0.78125000000000000       0.65625000000000000        0.0000000000000000     
  0.81250000000000000       0.65625000000000000        0.0000000000000000     
  0.84375000000000000       0.65625000000000000        0.0000000000000000     
  0.87500000000000000       0.65625000000000000        0.0000000000000000     
  0.75000000000000000       0.68750000000000000        0.0000000000000000     
  0.78125000000000000       0.68750000000000000        0.0000000000000000     
  0.81250000000000000       0.68750000000000000        0.0000000000000000     
  0.84375000000000000       0.68750000000000000        0.0000000000000000     
  0.87500000000000000       0.68750000000000000        0.0000000000000000     
  0.75000000000000000       0.71875000000000000        0.0000000000000000     
  0.78125000000000000       0.71875000000000000        0.0000000000000000     
  0.81250000000000000       0.71875000000000000        0.0000000000000000     
  0.84375000000000000       0.71875000000000000        0.0000000000000000     
  0.87500000000000000       0.71875000000000000        0.0000000000000000     
  0.75000000000000000       0.75000000000000000        0.0000000000000000     
  0.78125000000000000       0.75000000000000000        0.0000000000000000     
  0.81250000000000000       0.75000000000000000        0.0000000000000000     
  0.84375000000000000       0.75000000000000000        0.0000000000000000     
  0.87500000000000000       0.75000000000000000        0.0000000000000000     
  0.87500000000000000       0.62500000000000000        0.0000000000000000     
  0.90625000000000000       0.62500000000000000        0.0000000000000000     
  0.93750000000000000       0.62500000000000000        0.0000000000000000     
  0.96875000000000000       0.62500000000000000        0.0000000000000000     
   1.0000000000000000       0.62500000000000000        0.0000000000000000     
  0.87500000000000000       0.65625000000000000        0.0000000000000000     
  0.90625000000000000       0.65625000000000000        0.0000000000000000     
  0.93750000000000000       0.65625000000000000        0.0000000000000000     
  0.96875000000000000       0.65625000000000000        0.0000000000000000     
   1.0000000000000000       0.65625000000000000        0.0000000000000000     
  0.87500000000000000       0.68750000000000000        0.0000000000000000     
  0.90625000000000000       0.68750000000000000        0.0000000000000000     
  0.93750000000000000       0.68750000000000000        0.0000000000000000     
  0.96875000000000000       0.68750000000000000        0.0000000000000000     
   1.0000000000000000       0.68750000000000000        0.0000000000000000     
  0.87500000000000000       0.71875000000000000        0.0000000000000000     
  0.90625000000000000       0.71875000000000000        0.0000000000000000     
  0.93750000000000000       0.71875000000000000        0.0000000000000000     
  0.96875000000000000       0.71875000000000000        0.0000000000000000     
   1.0000000000000000       0.71875000000000000        0.0000000000000000     
  0.87500000000000000       0.75000000000000000        0.0000000000000000     
  0.90625000000000000       0.75000000000000000        0.0000000000000000     
  0.93750000000000000       0.75000000000000000        0.0000000000000000     
  0.96875000000000000       0.75000000000000000        0.0000000000000000     
   1.0000000000000000       0.75000000000000000        0.0000000000000000     
   1.0000000000000000       0.62500000000000000        0.0000000000000000     
   1.0312500000000000       0.62500000000000000        0.0000000000000000     
   1.0625000000000000       0.62500000000000000        0.0000000000000000     
   1.0937500000000000       0.62500000000000000        0.0000000000000000     
   1.1250000000000000       0.62500000000000000        0.0000000000000000     
   1.0000000000000000       0.65625000000000000        0.0000000000000000     
   1.0312500000000000       0.65625000000000000        0.0000000000000000     
   1.0625000000000000       0.65625000000000000        0.0000000000000000     
   1.0937500000000000       0.65625000000000000        0.0000000000000000     
   1.1250000000000000       0.65625000000000000        0.0000000000000000     
   1.0000000000000000       0.68750000000000000        0.0000000000000000     
   1.0312500000000000       0.68750000000000000        0.0000000000000000     
   1.0625000000000000       0.68750000000000000        0.0000000000000000     
   1.0937500000000000       0.68750000000000000        0.0000000000000000     
   1.1250000000000000       0.68750000000000000        0.0000000000000000     
   1.0000000000000000       0.71875000000000000        0.0000000000000000     
   1.0312500000000000       0.71875000000000000        0.0000000000000000     
   1.0625000000000000       0.71875000000000000        0.0000000000000000     
   1.0937500000000000       0.71875000000000000        0.0000000000000000     
   1.1250000000000000       0.71875000000000000        0.0000000000000000     
   1.0000000000000000       0.75000000000000000        0.0000000000000000     
   1.0312500000000000       0.75000000000000000        0.0000000000000000     
   1.0625000000000000       0.75000000000000000        0.0000000000000000     
   1.0937500000000000       0.75000000000000000        0.0000000000000000     
   1.1250000000000000       0.75000000000000000        0.0000000000000000     
   1.1250000000000000       0.62500000000000000        0.0000000000000000     
   1.1562500000000000       0.62500000000000000        0.0000000000000000     
   1.1875000000000000       0.62500000000000000        0.0000000000000000     
   1.2187500000000000       0.62500000000000000        0.0000000000000000     
   1.2500000000000000       0.62500000000000000        0.0000000000000000     
   1.1250000000000000       0.65625000000000000        0.0000000000000000     
   1.1562500000000000       0.65625000000000000        0.0000000000000000     
   1.1875000000000000       0.65625000000000000        0.0000000000000000     
   1.2187500000000000       0.65625000000000000        0.0000000000000000     
   1.2500000000000000       0.65625000000000000        0.0000000000000000     
   1.1250000000000000       0.68750000000000000        0.0000000000000000     
   1.1562500000000000       0.68750000000000000        0.0000000000000000     
   1.1875000000000000       0.68750000000000000        0.0000000000000000     
   1.2187500000000000       0.68750000000000000        0.0000000000000000     
   1.2500000000000000       0.68750000000000000        0.0000000000000000     
   1.1250000000000000       0.71875000000000000        0.0000000000000000     
   1.1562500000000000       0.71875000000000000        0.0000000000000000     
   1.1875000000000000       0.71875000000000000        0.0000000000000000     
   1.2187500000000000       0.71875000000000000        0.0000000000000000     
   1.2500000000000000       0.71875000000000000        0.0000000000000000     
   1.1250000000000000       0.75000000000000000        0.0000000000000000     
   1.1562500000000000       0.75000000000000000        0.0000000000000000     
   1.1875000000000000       0.75000000000000000        0.0000000000000000     
   1.2187500000000000       0.75000000000000000        0.0000000000000000     
   1.2500000000000000       0.75000000000000000        0.0000000000000000     
   1.2500000000000000       0.62500000000000000        0.0000000000000000     
   1.2812500000000000       0.62500000000000000        0.0000000000000000     
   1.3125000000000000       0.62500000000000000        0.0000000000000000     
   1.3437500000000000       0.62500000000000000        0.0000000000000000     
   1.3750000000000000       0.62500000000000000        0.0000000000000000     
   1.2500000000000000       0.65625000000000000        0.0000000000000000     
   1.2812500000000000       0.65625000000000000        0.0000000000000000     
   1.3125000000000000       0.65625000000000000        0.0000000000000000     
   1.3437500000000000       0.65625000000000000        0.0000000000000000     
   1.3750000000000000       0.65625000000000000        0.0000000000000000     
   1.2500000000000000       0.68750000000000000        0.0000000000000000     
   1.2812500000000000       0.68750000000000000        0.0000000000000000     
   1.3125000000000000       0.68750000000000000        0.0000000000000000     
   1.3437500000000000       0.68750000000000000        0.0000000000000000     
   1.3750000000000000       0.68750000000000000        0.0000000000000000     
   1.2500000000000000       0.71875000000000000        0.0000000000000000     
   1.2812500000000000       0.71875000000000000        0.0000000000000000     
   1.3125000000000000       0.71875000000000000        0.0000000000000000     
   1.3437500000000000       0.71875000000000000        0.0000000000000000     
   1.3750000000000000       0.71875000000000000        0.0000000000000000     
   1.2500000000000000       0.75000000000000000        0.0000000000000000     
   1.2812500000000000       0.75000000000000000        0.0000000000000000     
   1.3125000000000000       0.75000000000000000        0.0000000000000000     
   1.3437500000000000       0.75000000000000000        0.0000000000000000     
   1.3750000000000000       0.75000000000000000        0.0000000000000000     
   1.3750000000000000       0.62500000000000000        0.0000000000000000     
   1.4062500000000000       0.62500000000000000        0.0000000000000000     
   1.4375000000000000       0.62500000000000000        0.0000000000000000     
   1.4687500000000000       0.62500000000000000        0.0000000000000000     
   1.5000000000000000       0.62500000000000000        0.0000000000000000     
   1.3750000000000000       0.65625000000000000        0.0000000000000000     
   1.4062500000000000       0.65625000000000000        0.0000000000000000     
   1.4375000000000000       0.65625000000000000        0.0000000000000000     
   1.4687500000000000       0.65625000000000000        0.0000000000000000     
   1.5000000000000000       0.65625000000000000        0.0000000000000000     
   1.3750000000000000       0.68750000000000000        0.0000000000000000     
   1.4062500000000000       0.68750000000000000        0.0000000000000000     
   1.4375000000000000       0.68750000000000000        0.0000000000000000     
   1.4687500000000000       0.68750000000000000        0.0000000000000000     
   1.5000000000000000       0.68750000000000000        0.0000000000000000     
   1.3750000000000000       0.71875000000000000        0.0000000000000000     
   1.4062500000000000       0.71875000000000000        0.0000000000000000     
   1.4375000000000000       0.71875000000000000        0.0000000000000000     
   1.4687500000000000       0.71875000000000000        0.0000000000000000     
   1.5000000000000000       0.71875000000000000        0.0000000000000000     
   1.3750000000000000       0.75000000000000000        0.0000000000000000     
   1.4062500000000000       0.75000000000000000        0.0000000000000000     
   1.4375000000000000       0.75000000000000000        0.0000000000000000     
   1.4687500000000000       0.75000000000000000        0.0000000000000000     
   1.5000000000000000       0.75000000000000000        0.0000000000000000     
  0.50000000000000000       0.75000000000000000        0.0000000000000000     
  0.53125000000000000       0.75000000000000000        0.0000000000000000     
  0.56250000000000000       0.75000000000000000        0.0000000000000000     
  0.59375000000000000       0.75000000000000000        0.0000000000000000     
  0.62500000000000000       0.75000000000000000        0.0000000000000000     
  0.50000000000000000       0.78125000000000000        0.0000000000000000     
  0.53125000000000000       0.78125000000000000        0.0000000000000000     
  0.56250000000000000       0.78125000000000000        0.0000000000000000     
  0.59375000000000000       0.78125000000000000        0.0000000000000000     
  0.62500000000000000       0.78125000000000000        0.0000000000000000     
  0.50000000000000000       0.81250000000000000        0.0000000000000000     
  0.53125000000000000       0.81250000000000000        0.0000000000000000     
  0.56250000000000000       0.81250000000000000        0.0000000000000000     
  0.59375000000000000       0.81250000000000000        0.0000000000000000     
  0.62500000000000000       0.81250000000000000        0.0000000000000000     
  0.50000000000000000       0.84375000000000000        0.0000000000000000     
  0.53125000000000000       0.84375000000000000        0.0000000000000000     
  0.56250000000000000       0.84375000000000000        0.0000000000000000     
  0.59375000000000000       0.84375000000000000        0.0000000000000000     
  0.62500000000000000       0.84375000000000000        0.0000000000000000     
  0.50000000000000000       0.87500000000000000        0.0000000000000000     
  0.53125000000000000       0.87500000000000000        0.0000000000000000     
  0.56250000000000000       0.87500000000000000        0.0000000000000000     
  0.59375000000000000       0.87500000000000000        0.0000000000000000     
  0.62500000000000000       0.87500000000000000        0.0000000000000000     
  0.62500000000000000       0.75000000000000000        0.0000000000000000     
  0.65625000000000000       0.75000000000000000        0.0000000000000000     
  0.68750000000000000       0.75000000000000000        0.0000000000000000     
  0.71875000000000000       0.75000000000000000        0.0000000000000000     
  0.75000000000000000       0.75000000000000000        0.0000000000000000     
  0.62500000000000000       0.78125000000000000        0.0000000000000000     
  0.65625000000000000       0.78125000000000000        0.0000000000000000     
  0.68750000000000000       0.78125000000000000        0.0000000000000000     
  0.71875000000000000       0.78125000000000000        0.0000000000000000     
  0.75000000000000000       0.78125000000000000        0.0000000000000000     
  0.62500000000000000       0.81250000000000000        0.0000000000000000     
  0.65625000000000000       0.81250000000000000        0.0000000000000000     
  0.68750000000000000       0.81250000000000000        0.0000000000000000     
  0.71875000000000000       0.81250000000000000        0.0000000000000000     
  0.75000000000000000       0.81250000000000000        0.0000000000000000     
  0.62500000000000000       0.84375000000000000        0.0000000000000000     
  0.65625000000000000       0.84375000000000000        0.0000000000000000     
  0.68750000000000000       0.84375000000000000        0.0000000000000000     
  0.71875000000000000       0.84375000000000000        0.0000000000000000     
  0.75000000000000000       0.84375000000000000        0.0000000000000000     
  0.62500000000000000       0.87500000000000000        0.0000000000000000     
  0.65625000000000000       0.87500000000000000        0.0000000000000000     
  0.68750000000000000       0.87500000000000000        0.0000000000000000     
  0.71875000000000000       0.87500000000000000        0.0000000000000000     
  0.75000000000000000       0.87500000000000000        0.0000000000000000     
  0.75000000000000000       0.75000000000000000        0.0000000000000000     
  0.78125000000000000       0.75000000000000000        0.0000000000000000     
  0.81250000000000000       0.75000000000000000        0.0000000000000000     
  0.84375000000000000       0.75000000000000000        0.0000000000000000     
  0.87500000000000000       0.75000000000000000        0.0000000000000000     
  0.75000000000000000       0.78125000000000000        0.0000000000000000     
  0.78125000000000000       0.78125000000000000        0.0000000000000000     
  0.81250000000000000       0.78125000000000000        0.0000000000000000     
  0.84375000000000000       0.78125000000000000        0.0000000000000000     
  0.87500000000000000       0.78125000000000000        0.0000000000000000     
  0.75000000000000000       0.81250000000000000        0.0000000000000000     
  0.78125000000000000       0.81250000000000000        0.0000000000000000     
  0.81250000000000000       0.81250000000000000        0.0000000000000000     
  0.84375000000000000       0.81250000000000000        0.0000000000000000     
  0.87500000000000000       0.81250000000000000        0.0000000000000000     
  0.75000000000000000       0.84375000000000000        0.0000000000000000     
  0.78125000000000000       0.84375000000000000        0.0000000000000000     
  0.81250000000000000       0.84375000000000000        0.0000000000000000     
  0.84375000000000000       0.84375000000000000        0.0000000000000000     
  0.87500000000000000       0.84375000000000000        0.0000000000000000     
  0.75000000000000000       0.87500000000000000        0.0000000000000000     
  0.78125000000000000       0.87500000000000000        0.0000000000000000     
  0.81250000000000000       0.87500000000000000        0.0000000000000000     
  0.84375000000000000       0.87500000000000000        0.0000000000000000     
  0.87500000000000000       0.87500000000000000        0.0000000000000000     
  0.87500000000000000       0.75000000000000000        0.0000000000000000     
  0.90625000000000000       0.75000000000000000        0.0000000000000000     
  0.93750000000000000       0.75000000000000000        0.0000000000000000     
  0.96875000000000000       0.75000000000000000        0.0000000000000000     
   1.0000000000000000       0.75000000000000000        0.0000000000000000     
  0.87500000000000000       0.78125000000000000        0.0000000000000000     
  0.90625000000000000       0.78125000000000000        0.0000000000000000     
  0.93750000000000000       0.78125000000000000        0.0000000000000000     
  0.96875000000000000       0.78125000000000000        0.0000000000000000     
   1.0000000000000000       0.78125000000000000        0.0000000000000000     
  0.87500000000000000       0.81250000000000000        0.0000000000000000     
  0.90625000000000000       0.81250000000000000        0.0000000000000000     
  0.93750000000000000       0.81250000000000000        0.0000000000000000     
  0.96875000000000000       0.81250000000000000        0.0000000000000000     
   1.0000000000000000       0.81250000000000000        0.0000000000000000     
  0.87500000000000000       0.84375000000000000        0.0000000000000000     
  0.90625000000000000       0.84375000000000000        0.0000000000000000     
  0.93750000000000000       0.84375000000000000        0.0000000000000000     
  0.96875000000000000       0.84375000000000000        0.0000000000000000     
   1.0000000000000000       0.84375000000000000        0.0000000000000000     
  0.87500000000000000       0.87500000000000000        0.0000000000000000     
  0.90625000000000000       0.87500000000000000        0.0000000000000000     
  0.93750000000000000       0.87500000000000000        0.0000000000000000     
  0.96875000000000000       0.87500000000000000        0.0000000000000000     
   1.0000000000000000       0.87500000000000000        0.0000000000000000     
   1.0000000000000000       0.75000000000000000        0.0000000000000000     
   1.0312500000000000       0.75000000000000000        0.0000000000000000     
   1.0625000000000000       0.75000000000000000        0.0000000000000000     
   1.0937500000000000       0.75000000000000000        0.0000000000000000     
   1.1250000000000000       0.75000000000000000        0.0000000000000000     
   1.0000000000000000       0.78125000000000000        0.0000000000000000     
   1.0312500000000000       0.78125000000000000        0.0000000000000000     
   1.0625000000000000       0.78125000000000000        0.0000000000000000     
   1.0937500000000000       0.78125000000000000        0.0000000000000000     
   1.1250000000000000       0.78125000000000000        0.0000000000000000     
   1.0000000000000000       0.81250000000000000        0.0000000000000000     
   1.0312500000000000       0.81250000000000000        0.0000000000000000     
   1.0625000000000000       0.81250000000000000        0.0000000000000000     
   1.0937500000000000       0.81250000000000000        0.0000000000000000     
   1.1250000000000000       0.81250000000000000        0.0000000000000000     
   1.0000000000000000       0.84375000000000000        0.0000000000000000     
   1.0312500000000000       0.84375000000000000        0.0000000000000000     
   1.0625000000000000       0.84375000000000000        0.0000000000000000     
   1.0937500000000000       0.84375000000000000        0.0000000000000000     
   1.1250000000000000       0.84375000000000000        0.0000000000000000     
   1.0000000000000000       0.87500000000000000        0.0000000000000000     
   1.0312500000000000       0.87500000000000000        0.0000000000000000     
   1.0625000000000000       0.87500000000000000        0.0000000000000000     
   1.0937500000000000       0.87500000000000000        0.0000000000000000     
   1.1250000000000000       0.87500000000000000        0.0000000000000000     
   1.1250000000000000       0.75000000000000000        0.0000000000000000     
   1.1562500000000000       0.75000000000000000        0.0000000000000000     
   1.1875000000000000       0.75000000000000000        0.0000000000000000     
   1.2187500000000000       0.75000000000000000        0.0000000000000000     
   1.2500000000000000       0.75000000000000000        0.0000000000000000     
   1.1250000000000000       0.78125000000000000        0.0000000000000000     
   1.1562500000000000       0.78125000000000000        0.0000000000000000     
   1.1875000000000000       0.78125000000000000        0.0000000000000000     
   1.2187500000000000       0.78125000000000000        0.0000000000000000     
   1.2500000000000000       0.78125000000000000        0.0000000000000000     
   1.1250000000000000       0.81250000000000000        0.0000000000000000     
   1.1562500000000000       0.81250000000000000        0.0000000000000000     
   1.1875000000000000       0.81250000000000000        0.0000000000000000     
   1.2187500000000000       0.81250000000000000        0.0000000000000000     
   1.2500000000000000       0.81250000000000000        0.0000000000000000     
   1.1250000000000000       0.84375000000000000        0.0000000000000000     
   1.1562500000000000       0.84375000000000000        0.0000000000000000     
   1.1875000000000000       0.84375000000000000        0.0000000000000000     
   1.2187500000000000       0.84375000000000000        0.0000000000000000     
   1.2500000000000000       0.84375000000000000        0.0000000000000000     
   1.1250000000000000       0.87500000000000000        0.0000000000000000     
   1.1562500000000000       0.87500000000000000        0.0000000000000000     
   1.1875000000000000       0.87500000000000000        0.0000000000000000     
   1.2187500000000000       0.87500000000000000        0.0000000000000000     
   1.2500000000000000       0.87500000000000000        0.0000000000000000     
   1.2500000000000000       0.75000000000000000        0.0000000000000000     
   1.2812500000000000       0.75000000000000000        0.0000000000000000     
   1.3125000000000000       0.75000000000000000        0.0000000000000000     
   1.3437500000000000       0.75000000000000000        0.0000000000000000     
   1.3750000000000000       0.75000000000000000        0.0000000000000000     
   1.2500000000000000       0.78125000000000000        0.0000000000000000     
   1.2812500000000000       0.78125000000000000        0.0000000000000000     
   1.3125000000000000       0.78125000000000000        0.0000000000000000     
   1.3437500000000000       0.78125000000000000        0.0000000000000000     
   1.3750000000000000       0.78125000000000000        0.0000000000000000     
   1.2500000000000000       0.81250000000000000        0.0000000000000000     
   1.2812500000000000       0.81250000000000000        0.0000000000000000     
   1.3125000000000000       0.81250000000000000        0.0000000000000000     
   1.3437500000000000       0.81250000000000000        0.0000000000000000     
   1.3750000000000000       0.81250000000000000        0.0000000000000000     
   1.2500000000000000       0.84375000000000000        0.0000000000000000     
   1.2812500000000000       0.84375000000000000        0.0000000000000000     
   1.3125000000000000       0.84375000000000000        0.0000000000000000     
   1.3437500000000000       0.84375000000000000        0.0000000000000000     
   1.3750000000000000       0.84375000000000000        0.0000000000000000     
   1.2500000000000000       0.87500000000000000        0.0000000000000000     
   1.2812500000000000       0.87500000000000000        0.0000000000000000     
   1.3125000000000000       0.87500000000000000        0.0000000000000000     
   1.3437500000000000       0.87500000000000000        0.0000000000000000     
   1.3750000000000000       0.87500000000000000        0.0000000000000000     
   1.3750000000000000       0.75000000000000000        0.0000000000000000     
   1.4062500000000000       0.75000000000000000        0.0000000000000000     
   1.4375000000000000       0.75000000000000000        0.0000000000000000     
   1.4687500000000000       0.75000000000000000        0.0000000000000000     
   1.5000000000000000       0.75000000000000000        0.0000000000000000     
   1.3750000000000000       0.78125000000000000        0.0000000000000000     
   1.4062500000000000       0.78125000000000000        0.0000000000000000     
   1.4375000000000000       0.78125000000000000        0.0000000000000000     
   1.4687500000000000       0.78125000000000000        0.0000000000000000     
   1.5000000000000000       0.78125000000000000        0.0000000000000000     
   1.3750000000000000       0.81250000000000000        0.0000000000000000     
   1.4062500000000000       0.81250000000000000        0.0000000000000000     
   1.4375000000000000       0.81250000000000000        0.0000000000000000     
   1.4687500000000000       0.81250000000000000        0.0000000000000000     
   1.5000000000000000       0.81250000000000000        0.0000000000000000     
   1.3750000000000000       0.84375000000000000        0.0000000000000000     
   1.4062500000000000       0.84375000000000000        0.0000000000000000     
   1.4375000000000000       0.84375000000000000        0.0000000000000000     
   1.4687500000000000       0.84375000000000000        0.0000000000000000     
   1.5000000000000000       0.84375000000000000        0.0000000000000000     
   1.3750000000000000       0.87500000000000000        0.0000000000000000     
   1.4062500000000000       0.87500000000000000        0.0000000000000000     
   1.4375000000000000       0.87500000000000000        0.0000000000000000     
   1.4687500000000000       0.87500000000000000        0.0000000000000000     
   1.5000000000000000       0.87500000000000000        0.0000000000000000     
  0.50000000000000000       0.87500000000000000        0.0000000000000000     
  0.53125000000000000       0.87500000000000000        0.0000000000000000     
  0.56250000000000000       0.87500000000000000        0.0000000000000000     
  0.59375000000000000       0.87500000000000000        0.0000000000000000     
  0.62500000000000000       0.87500000000000000        0.0000000000000000     
  0.50000000000000000       0.90625000000000000        0.0000000000000000     
  0.53125000000000000       0.90625000000000000        0.0000000000000000     
  0.56250000000000000       0.90625000000000000        0.0000000000000000     
  0.59375000000000000       0.90625000000000000        0.0000000000000000     
  0.62500000000000000       0.90625000000000000        0.0000000000000000     
  0.50000000000000000       0.93750000000000000        0.0000000000000000     
  0.53125000000000000       0.93750000000000000        0.0000000000000000     
  0.56250000000000000       0.93750000000000000        0.0000000000000000     
  0.59375000000000000       0.93750000000000000        0.0000000000000000     
  0.62500000000000000       0.93750000000000000        0.0000000000000000     
  0.50000000000000000       0.96875000000000000        0.0000000000000000     
  0.53125000000000000       0.96875000000000000        0.0000000000000000     
  0.56250000000000000       0.96875000000000000        0.0000000000000000     
  0.59375000000000000       0.96875000000000000        0.0000000000000000     
  0.62500000000000000       0.96875000000000000        0.0000000000000000     
  0.50000000000000000        1.0000000000000000        0.0000000000000000     
  0.53125000000000000        1.0000000000000000        0.0000000000000000     
  0.56250000000000000        1.0000000000000000        0.0000000000000000     
  0.59375000000000000        1.0000000000000000        0.0000000000000000     
  0.62500000000000000        1.0000000000000000        0.0000000000000000     
  0.62500000000000000       0.87500000000000000        0.0000000000000000     
  0.65625000000000000       0.87500000000000000        0.0000000000000000     
  0.68750000000000000       0.87500000000000000        0.0000000000000000     
  0.71875000000000000       0.87500000000000000        0.0000000000000000     
  0.75000000000000000       0.87500000000000000        0.0000000000000000     
  0.62500000000000000       0.90625000000000000        0.0000000000000000     
  0.65625000000000000       0.90625000000000000        0.0000000000000000     
  0.68750000000000000       0.90625000000000000        0.0000000000000000     
  0.71875000000000000       0.90625000000000000        0.0000000000000000     
  0.75000000000000000       0.90625000000000000        0.0000000000000000     
  0.62500000000000000       0.93750000000000000        0.0000000000000000     
  0.65625000000000000       0.93750000000000000        0.0000000000000000     
  0.68750000000000000       0.93750000000000000        0.0000000000000000     
  0.71875000000000000       0.93750000000000000        0.0000000000000000     
  0.75000000000000000       0.93750000000000000        0.0000000000000000     
  0.62500000000000000       0.96875000000000000        0.0000000000000000     
  0.65625000000000000       0.96875000000000000        0.0000000000000000     
  0.68750000000000000       0.96875000000000000        0.0000000000000000     
  0.71875000000000000       0.96875000000000000        0.0000000000000000     
  0.75000000000000000       0.96875000000000000        0.0000000000000000     
  0.62500000000000000        1.0000000000000000        0.0000000000000000     
  0.65625000000000000        1.0000000000000000        0.0000000000000000     
  0.68750000000000000        1.0000000000000000        0.0000000000000000     
  0.71875000000000000        1.0000000000000000        0.0000000000000000     
  0.75000000000000000        1.0000000000000000        0.0000000000000000     
  0.75000000000000000       0.87500000000000000        0.0000000000000000     
  0.78125000000000000       0.87500000000000000        0.0000000000000000     
  0.81250000000000000       0.87500000000000000        0.0000000000000000     
  0.84375000000000000       0.87500000000000000        0.0000000000000000     
  0.87500000000000000       0.87500000000000000        0.0000000000000000     
  0.75000000000000000       0.90625000000000000        0.0000000000000000     
  0.78125000000000000       0.90625000000000000        0.0000000000000000     
  0.81250000000000000       0.90625000000000000        0.0000000000000000     
  0.84375000000000000       0.90625000000000000        0.0000000000000000     
  0.87500000000000000       0.90625000000000000        0.0000000000000000     
  0.75000000000000000       0.93750000000000000        0.0000000000000000     
  0.78125000000000000       0.93750000000000000        0.0000000000000000     
  0.81250000000000000       0.93750000000000000        0.0000000000000000     
  0.84375000000000000       0.93750000000000000        0.0000000000000000     
  0.87500000000000000       0.93750000000000000        0.0000000000000000     
  0.75000000000000000       0.96875000000000000        0.0000000000000000     
  0.78125000000000000       0.96875000000000000        0.0000000000000000     
  0.81250000000000000       0.96875000000000000        0.0000000000000000     
  0.84375000000000000       0.96875000000000000        0.0000000000000000     
  0.87500000000000000       0.96875000000000000        0.0000000000000000     
  0.75000000000000000        1.0000000000000000        0.0000000000000000     
  0.78125000000000000        1.0000000000000000        0.0000000000000000     
  0.81250000000000000        1.0000000000000000        0.0000000000000000     
  0.84375000000000000        1.0000000000000000        0.0000000000000000     
  0.87500000000000000        1.0000000000000000        0.0000000000000000     
  0.87500000000000000       0.87500000000000000        0.0000000000000000     
  0.90625000000000000       0.87500000000000000        0.0000000000000000     
  0.93750000000000000       0.87500000000000000        0.0000000000000000     
  0.96875000000000000       0.87500000000000000        0.0000000000000000     
   1.0000000000000000       0.87500000000000000        0.0000000000000000     
  0.87500000000000000       0.90625000000000000        0.0000000000000000     
  0.90625000000000000       0.90625000000000000        0.0000000000000000     
  0.93750000000000000       0.90625000000000000        0.0000000000000000     
  0.96875000000000000       0.90625000000000000        0.0000000000000000     
   1.0000000000000000       0.90625000000000000        0.0000000000000000     
  0.87500000000000000       0.93750000000000000        0.0000000000000000     
  0.90625000000000000       0.93750000000000000        0.0000000000000000     
  0.93750000000000000       0.93750000000000000        0.0000000000000000     
  0.96875000000000000       0.93750000000000000        0.0000000000000000     
   1.0000000000000000       0.93750000000000000        0.0000000000000000     
  0.87500000000000000       0.96875000000000000        0.0000000000000000     
  0.90625000000000000       0.96875000000000000        0.0000000000000000     
  0.93750000000000000       0.96875000000000000        0.0000000000000000     
  0.96875000000000000       0.96875000000000000        0.0000000000000000     
   1.0000000000000000       0.96875000000000000        0.0000000000000000     
  0.87500000000000000        1.0000000000000000        0.0000000000000000     
  0.90625000000000000        1.0000000000000000        0.0000000000000000     
  0.93750000000000000        1.0000000000000000        0.0000000000000000     
  0.96875000000000000        1.0000000000000000        0.0000000000000000     
   1.0000000000000000        1.0000000000000000        0.0000000000000000     
   1.0000000000000000       0.87500000000000000        0.0000000000000000     
   1.0312500000000000       0.87500000000000000        0.0000000000000000     
   1.0625000000000000       0.87500000000000000        0.0000000000000000     
   1.0937500000000000       0.87500000000000000        0.0000000000000000     
   1.1250000000000000       0.87500000000000000        0.0000000000000000     
   1.0000000000000000       0.90625000000000000        0.0000000000000000     
   1.0312500000000000       0.90625000000000000        0.0000000000000000     
   1.0625000000000000       0.90625000000000000        0.0000000000000000     
   1.0937500000000000       0.90625000000000000        0.0000000000000000     
   1.1250000000000000       0.90625000000000000        0.0000000000000000     
   1.0000000000000000       0.93750000000000000        0.0000000000000000     
   1.0312500000000000       0.93750000000000000        0.0000000000000000     
   1.0625000000000000       0.93750000000000000        0.0000000000000000     
   1.0937500000000000       0.93750000000000000        0.0000000000000000     
   1.1250000000000000       0.93750000000000000        0.0000000000000000     
   1.0000000000000000       0.96875000000000000        0.0000000000000000     
   1.0312500000000000       0.96875000000000000        0.0000000000000000     
   1.0625000000000000       0.96875000000000000        0.0000000000000000     
   1.0937500000000000       0.96875000000000000        0.0000000000000000     
   1.1250000000000000       0.96875000000000000        0.0000000000000000     
   1.0000000000000000        1.0000000000000000        0.0000000000000000     
   1.0312500000000000        1.0000000000000000        0.0000000000000000     
   1.0625000000000000        1.0000000000000000        0.0000000000000000     
   1.0937500000000000        1.0000000000000000        0.0000000000000000     
   1.1250000000000000        1.0000000000000000        0.0000000000000000     
   1.1250000000000000       0.87500000000000000        0.0000000000000000     
   1.1562500000000000       0.87500000000000000        0.0000000000000000     
   1.1875000000000000       0.87500000000000000        0.0000000000000000     
   1.2187500000000000       0.87500000000000000        0.0000000000000000     
   1.2500000000000000       0.87500000000000000        0.0000000000000000     
   1.1250000000000000       0.90625000000000000        0.0000000000000000     
   1.1562500000000000       0.90625000000000000        0.0000000000000000     
   1.1875000000000000       0.90625000000000000        0.0000000000000000     
   1.2187500000000000       0.90625000000000000        0.0000000000000000     
   1.2500000000000000       0.90625000000000000        0.0000000000000000     
   1.1250000000000000       0.93750000000000000        0.0000000000000000     
   1.1562500000000000       0.93750000000000000        0.0000000000000000     
   1.1875000000000000       0.93750000000000000        0.0000000000000000     
   1.2187500000000000       0.93750000000000000        0.0000000000000000     
   1.2500000000000000       0.93750000000000000        0.0000000000000000     
   1.1250000000000000       0.96875000000000000        0.0000000000000000     
   1.1562500000000000       0.96875000000000000        0.0000000000000000     
   1.1875000000000000       0.96875000000000000        0.0000000000000000     
   1.2187500000000000       0.96875000000000000        0.0000000000000000     
   1.2500000000000000       0.96875000000000000        0.0000000000000000     
   1.1250000000000000        1.0000000000000000        0.0000000000000000     
   1.1562500000000000        1.0000000000000000        0.0000000000000000     
   1.1875000000000000        1.0000000000000000        0.0000000000000000     
   1.2187500000000000        1.0000000000000000        0.0000000000000000     
   1.2500000000000000        1.0000000000000000        0.0000000000000000     
   1.2500000000000000       0.87500000000000000        0.0000000000000000     
   1.2812500000000000       0.87500000000000000        0.0000000000000000     
   1.3125000000000000       0.87500000000000000        0.0000000000000000     
   1.3437500000000000       0.87500000000000000        0.0000000000000000     
   1.3750000000000000       0.87500000000000000        0.0000000000000000     
   1.2500000000000000       0.90625000000000000        0.0000000000000000     
   1.2812500000000000       0.90625000000000000        0.0000000000000000     
   1.3125000000000000       0.90625000000000000        0.0000000000000000     
   1.3437500000000000       0.90625000000000000        0.0000000000000000     
   1.3750000000000000       0.90625000000000000        0.0000000000000000     
   1.2500000000000000       0.93750000000000000        0.0000000000000000     
   1.2812500000000000       0.93750000000000000        0.0000000000000000     
   1.3125000000000000       0.93750000000000000        0.0000000000000000     
   1.3437500000000000       0.93750000000000000        0.0000000000000000     
   1.3750000000000000       0.93750000000000000        0.0000000000000000     
   1.2500000000000000       0.96875000000000000        0.0000000000000000     
   1.2812500000000000       0.96875000000000000        0.0000000000000000     
   1.3125000000000000       0.96875000000000000        0.0000000000000000     
   1.3437500000000000       0.96875000000000000        0.0000000000000000     
   1.3750000000000000       0.96875000000000000        0.0000000000000000     
   1.2500000000000000        1.0000000000000000        0.0000000000000000     
   1.2812500000000000        1.0000000000000000        0.0000000000000000     
   1.3125000000000000        1.0000000000000000        0.0000000000000000     
   1.3437500000000000        1.0000000000000000        0.0000000000000000     
   1.3750000000000000        1.0000000000000000        0.0000000000000000     
   1.3750000000000000       0.87500000000000000        0.0000000000000000     
   1.4062500000000000       0.87500000000000000        0.0000000000000000     
   1.4375000000000000       0.87500000000000000        0.0000000000000000     
   1.4687500000000000       0.87500000000000000        0.0000000000000000     
   1.5000000000000000       0.87500000000000000        0.0000000000000000     
   1.3750000000000000       0.90625000000000000        0.0000000000000000     
   1.4062500000000000       0.90625000000000000        0.0000000000000000     
   1.4375000000000000       0.90625000000000000        0.0000000000000000     
   1.4687500000000000       0.90625000000000000        0.0000000000000000     
   1.5000000000000000       0.90625000000000000        0.0000000000000000     
   1.3750000000000000       0.93750000000000000        0.0000000000000000     
   1.4062500000000000       0.93750000000000000        0.0000000000000000     
   1.4375000000000000       0.93750000000000000        0.0000000000000000     
   1.4687500000000000       0.93750000000000000        0.0000000000000000     
   1.5000000000000000       0.93750000000000000        0.0000000000000000     
   1.3750000000000000       0.96875000000000000        0.0000000000000000     
   1.4062500000000000       0.96875000000000000        0.0000000000000000     
   1.4375000000000000       0.96875000000000000        0.0000000000000000     
   1.4687500000000000       0.96875000000000000        0.0000000000000000     
   1.5000000000000000       0.96875000000000000        0.0000000000000000     
   1.3750000000000000        1.0000000000000000        0.0000000000000000     
   1.4062500000000000        1.0000000000000000        0.0000000000000000     
   1.4375000000000000        1.0000000000000000        0.0000000000000000     
   1.4687500000000000        1.0000000000000000        0.0000000000000000     
   1.5000000000000000        1.0000000000000000        0.0000000000000000     
 </DataArray>
 </Points>
 <Cells>
 <DataArray  type="Int32"  Name="connectivity"  format="ascii">
           0           1           6           5
           1           2           7           6
           2           3           8           7
           3           4           9           8
           5           6          11          10
           6           7          12          11
           7           8          13          12
           8           9          14          13
          10          11          16          15
          11          12          17          16
          12          13          18          17
          13          14          19          18
          15          16          21          20
          16          17          22          21
          17          18          23          22
          18          19          24          23
          25          26          31          30
          26          27          32          31
          27          28          33          32
          28          29          34          33
          30          31          36          35
          31          32          37          36
          32          33          38          37
          33          34          39          38
          35          36          41          40
          36          37          42          41
          37          38          43          42
          38          39          44          43
          40          41          46          45
          41          42          47          46
          42          43          48          47
          43          44          49          48
          50          51          56          55
          51          52          57          56
          52          53          58          57
          53          54          59          58
          55          56          61          60
          56          57          62          61
          57          58          63          62
          58          59          64          63
          60          61          66          65
          61          62          67          66
          62          63          68          67
          63          64          69          68
          65          66          71          70
          66          67          72          71
          67          68          73          72
          68          69          74          73
          75          76          81          80
          76          77          82          81
          77          78          83          82
          78          79          84          83
          80          81          86          85
          81          82          87          86
          82          83          88          87
          83          84          89          88
          85          86          91          90
          86          87          92          91
          87          88          93          92
          88          89          94          93
          90          91          96          95
          91          92          97          96
          92          93          98          97
          93          94          99          98
         100         101         106         105
         101         102         107         106
         102         103         108         107
         103         104         109         108
         105         106         111         110
         106         107         112         111
         107         108         113         112
         108         109         114         113
         110         111         116         115
         111         112         117         116
         112         113         118         117
         113         114         119         118
         115         116         121         120
         116         117         122         121
         117         118         123         122
         118         119         124         123
         125         126         131         130
         126         127         132         131
         127         128         133         132
         128         129         134         133
         130         131         136         135
         131         132         137         136
         132         133         138         137
         133         134         139         138
         135         136         141         140
         136         137         142         141
         137         138         143         142
         138         139         144         143
         140         141         146         145
         141         142         147         146
         142         143         148         147
         143         144         149         148
         150         151         156         155
         151         152         157         156
         152         153         158         157
         153         154         159         158
         155         156         161         160
         156         157         162         161
         157         158         163         162
         158         159         164         163
         160         161         166         165
         161         162         167         166
         162         163         168         167
         163         164         169         168
         165         166         171         170
         166         167         172         171
         167         168         173         172
         168         169         174         173
         175         176         181         180
         176         177         182         181
         177         178         183         182
         178         179         184         183
         180         181         186         185
         181         182         187         186
         182         183         188         187
         183         184         189         188
         185         186         191         190
         186         187         192         191
         187         188         193         192
         188         189         194         193
         190         191         196         195
         191         192         197         196
         192         193         198         197
         193         194         199         198
         200         201         206         205
         201         202         207         206
         202         203         208         207
         203         204         209         208
         205         206         211         210
         206         207         212         211
         207         208         213         212
         208         209         214         213
         210         211         216         215
         211         212         217         216
         212         213         218         217
         213         214         219         218
         215         216         221         220
         216         217         222         221
         217         218         223         222
         218         219         224         223
         225         226         231         230
         226         227         232         231
         227         228         233         232
         228         229         234         233
         230         231         236         235
         231         232         237         236
         232         233         238         237
         233         234         239         238
         235         236         241         240
         236         237         242         241
         237         238         243         242
         238         239         244         243
         240         241         246         245
         241         242         247         246
         242         243         248         247
         243         244         249         248
         250         251         256         255
         251         252         257         256
         252         253         258         257
         253         254         259         258
         255         256         261         260
         256         257         262         261
         257         258         263         262
         258         259         264         263
         260         261         266         265
         261         262         267         266
         262         263         268         267
         263         264         269         268
         265         266         271         270
         266         267         272         271
         267         268         273         272
         268         269         274         273
         275         276         281         280
         276         277         282         281
         277         278         283         282
         278         279         284         283
         280         281         286         285
         281         282         287         286
         282         283         288         287
         283         284         289         288
         285         286         291         290
         286         287         292         291
         287         288         293         292
         288         289         294         293
         290         291         296         295
         291         292         297         296
         292         293         298         297
         293         294         299         298
         300         301         306         305
         301         302         307         306
         302         303         308         307
         303         304         309         308
         305         306         311         310
         306         307         312         311
         307         308         313         312
         308         309         314         313
         310         311         316         315
         311         312         317         316
         312         313         318         317
         313         314         319         318
         315         316         321         320
         316         317         322         321
         317         318         323         322
         318         319         324         323
         325         326         331         330
         326         327         332         331
         327         328         333         332
         328         329         334         333
         330         331         336         335
         331         332         337         336
         332         333         338         337
         333         334         339         338
         335         336         341         340
         336         337         342         341
         337         338         343         342
         338         339         344         343
         340         341         346         345
         341         342         347         346
         342         343         348         347
         343         344         349         348
         350         351         356         355
         351         352         357         356
         352         353         358         357
         353         354         359         358
         355         356         361         360
         356         357         362         361
         357         358         363         362
         358         359         364         363
         360         361         366         365
         361         362         367         366
         362         363         368         367
         363         364         369         368
         365         366         371         370
         366         367         372         371
         367         368         373         372
         368         369         374         373
         375         376         381         380
         376         377         382         381
         377         378         383         382
         378         379         384         383
         380         381         386         385
         381         382         387         386
         382         383         388         387
         383         384         389         388
         385         386         391         390
         386         387         392         391
         387         388         393         392
         388         389         394         393
         390         391         396         395
         391         392         397         396
         392         393         398         397
         393         394         399         398
         400         401         406         405
         401         402         407         406
         402         403         408         407
         403         404         409         408
         405         406         411         410
         406         407         412         411
         407         408         413         412
         408         409         414         413
         410         411         416         415
         411         412         417         416
         412         413         418         417
         413         414         419         418
         415         416         421         420
         416         417         422         421
         417         418         423         422
         418         419         424         423
         425         426         431         430
         426         427         432         431
         427         428         433         432
         428         429         434         433
         430         431         436         435
         431         432         437         436
         432         433         438         437
         433         434         439         438
         435         436         441         440
         436         437         442         441
         437         438         443         442
         438         439         444         443
         440         441         446         445
         441         442         447         446
         442         443         448         447
         443         444         449         448
         450         451         456         455
         451         452         457         456
         452         453         458         457
         453         454         459         458
         455         456         461         460
         456         457         462         461
         457         458         463         462
         458         459         464         463
         460         461         466         465
         461         462         467         466
         462         463         468         467
         463         464         469         468
         465         466         471         470
         466         467         472         471
         467         468         473         472
         468         469         474         473
         475         476         481         480
         476         477         482         481
         477         478         483         482
         478         479         484         483
         480         481         486         485
         481         482         487         486
         482         483         488         487
         483         484         489         488
         485         486         491         490
         486         487         492         491
         487         488         493         492
         488         489         494         493
         490         491         496         495
         491         492         497         496
         492         493         498         497
         493         494         499         498
         500         501         506         505
         501         502         507         506
         502         503         508         507
         503         504         509         508
         505         506         511         510
         506         507         512         511
         507         508         513         512
         508         509         514         513
         510         511         516         515
         511         512         517         516
         512         513         518         517
         513         514         519         518
         515         516         521         520
         516         517         522         521
         517         518         523         522
         518         519         524         523
         525         526         531         530
         526         527         532         531
         527         528         533         532
         528         529         534         533
         530         531         536         535
         531         532         537         536
         532         533         538         537
         533         534         539         538
         535         536         541         540
         536         537         542         541
         537         538         543         542
         538         539         544         543
         540         541         546         545
         541         542         547         546
         542         543         548         547
         543         544         549         548
         550         551         556         555
         551         552         557         556
         552         553         558         557
         553         554         559         558
         555         556         561         560
         556         557         562         561
         557         558         563         562
         558         559         564         563
         560         561         566         565
         561         562         567         566
         562         563         568         567
         563         564         569         568
         565         566         571         570
         566         567         572         571
         567         568         573         572
         568         569         574         573
         575         576         581         580
         576         577         582         581
         577         578         583         582
         578         579         584         583
         580         581         586         585
         581         582         587         586
         582         583         588         587
         583         584         589         588
         585         586         591         590
         586         587         592         591
         587         588         593         592
         588         589         594         593
         590         591         596         595
         591         592         597         596
         592         593         598         597
         593         594         599         598
         600         601         606         605
         601         602         607         606
         602         603         608         607
         603         604         609         608
         605         606         611         610
         606         607         612         611
         607         608         613         612
         608         609         614         613
         610         611         616         615
         611         612         617         616
         612         613         618         617
         613         614         619         618
         615         616         621         620
         616         617         622         621
         617         618         623         622
         618         619         624         623
         625         626         631         630
         626         627         632         631
         627         628         633         632
         628         629         634         633
         630         631         636         635
         631         632         637         636
         632         633         638         637
         633         634         639         638
         635         636         641         640
         636         637         642         641
         637         638         643         642
         638         639         644         643
         640         641         646         645
         641         642         647         646
         642         643         648         647
         643         644         649         648
         650         651         656         655
         651         652         657         656
         652         653         658         657
         653         654         659         658
         655         656         661         660
         656         657         662         661
         657         658         663         662
         658         659         664         663
         660         661         666         665
         661         662         667         666
         662         663         668         667
         663         664         669         668
         665         666         671         670
         666         667         672         671
         667         668         673         672
         668         669         674         673
         675         676         681         680
         676         677         682         681
         677         678         683         682
         678         679         684         683
         680         681         686         685
         681         682         687         686
         682         683         688         687
         683         684         689         688
         685         686         691         690
         686         687         692         691
         687         688         693         692
         688         689         694         693
         690         691         696         695
         691         692         697         696
         692         693         698         697
         693         694         699         698
         700         701         706         705
         701         702         707         706
         702         703         708         707
         703         704         709         708
         705         706         711         710
         706         707         712         711
         707         708         713         712
         708         709         714         713
         710         711         716         715
         711         712         717         716
         712         713         718         717
         713         714         719         718
         715         716         721         720
         716         717         722         721
         717         718         723         722
         718         719         724         723
         725         726         731         730
         726         727         732         731
         727         728         733         732
         728         729         734         733
         730         731         736         735
         731         732         737         736
         732         733         738         737
         733         734         739         738
         735         736         741         740
         736         737         742         741
         737         738         743         742
         738         739         744         743
         740         741         746         745
         741         742         747         746
         742         743         748         747
         743         744         749         748
         750         751         756         755
         751         752         757         756
         752         753         758         757
         753         754         759         758
         755         756         761         760
         756         757         762         761
         757         758         763         762
         758         759         764         763
         760         761         766         765
         761         762         767         766
         762         763         768         767
         763         764         769         768
         765         766         771         770
         766         767         772         771
         767         768         773         772
         768         769         774         773
         775         776         781         780
         776         777         782         781
         777         778         783         782
         778         779         784         783
         780         781         786         785
         781         782         787         786
         782         783         788         787
         783         784         789         788
         785         786         791         790
         786         787         792         791
         787         788         793         792
         788         789         794         793
         790         791         796         795
         791         792         797         796
         792         793         798         797
         793         794         799         798
         800         801         806         805
         801         802         807         806
         802         803         808         807
         803         804         809         808
         805         806         811         810
         806         807         812         811
         807         808         813         812
         808         809         814         813
         810         811         816         815
         811         812         817         816
         812         813         818         817
         813         814         819         818
         815         816         821         820
         816         817         822         821
         817         818         823         822
         818         819         824         823
         825         826         831         830
         826         827         832         831
         827         828         833         832
         828         829         834         833
         830         831         836         835
         831         832         837         836
         832         833         838         837
         833         834         839         838
         835         836         841         840
         836         837         842         841
         837         838         843         842
         838         839         844         843
         840         841         846         845
         841         842         847         846
         842         843         848         847
         843         844         849         848
         850         851         856         855
         851         852         857         856
         852         853         858         857
         853         854         859         858
         855         856         861         860
         856         857         862         861
         857         858         863         862
         858         859         864         863
         860         861         866         865
         861         862         867         866
         862         863         868         867
         863         864         869         868
         865         866         871         870
         866         867         872         871
         867         868         873         872
         868         869         874         873
         875         876         881         880
         876         877         882         881
         877         878         883         882
         878         879         884         883
         880         881         886         885
         881         882         887         886
         882         883         888         887
         883         884         889         888
         885         886         891         890
         886         887         892         891
         887         888         893         892
         888         889         894         893
         890         891         896         895
         891         892         897         896
         892         893         898         897
         893         894         899         898
         900         901         906         905
         901         902         907         906
         902         903         908         907
         903         904         909         908
         905         906         911         910
         906         907         912         911
         907         908         913         912
         908         909         914         913
         910         911         916         915
         911         912         917         916
         912         913         918         917
         913         914         919         918
         915         916         921         920
         916         917         922         921
         917         918         923         922
         918         919         924         923
         925         926         931         930
         926         927         932         931
         927         928         933         932
         928         929         934         933
         930         931         936         935
         931         932         937         936
         932         933         938         937
         933         934         939         938
         935         936         941         940
         936         937         942         941
         937         938         943         942
         938         939         944         943
         940         941         946         945
         941         942         947         946
         942         943         948         947
         943         944         949         948
         950         951         956         955
         951         952         957         956
         952         953         958         957
         953         954         959         958
         955         956         961         960
         956         957         962         961
         957         958         963         962
         958         959         964         963
         960         961         966         965
         961         962         967         966
         962         963         968         967
         963         964         969         968
         965         966         971         970
         966         967         972         971
         967         968         973         972
         968         969         974         973
         975         976         981         980
         976         977         982         981
         977         978         983         982
         978         979         984         983
         980         981         986         985
         981         982         987         986
         982         983         988         987
         983         984         989         988
         985         986         991         990
         986         987         992         991
         987         988         993         992
         988         989         994         993
         990         991         996         995
         991         992         997         996
         992         993         998         997
         993         994         999         998
        1000        1001        1006        1005
        1001        1002        1007        1006
        1002        1003        1008        1007
        1003        1004        1009        1008
        1005        1006        1011        1010
        1006        1007        1012        1011
        1007        1008        1013        1012
        1008        1009        1014        1013
        1010        1011        1016        1015
        1011        1012        1017        1016
        1012        1013        1018        1017
        1013        1014        1019        1018
        1015        1016        1021        1020
        1016        1017        1022        1021
        1017        1018        1023        1022
        1018        1019        1024        1023
        1025        1026        1031        1030
        1026        1027        1032        1031
        1027        1028        1033        1032
        1028        1029        1034        1033
        1030        1031        1036        1035
        1031        1032        1037        1036
        1032        1033        1038        1037
        1033        1034        1039        1038
        1035        1036        1041        1040
        1036        1037        1042        1041
        1037        1038        1043        1042
        1038        1039        1044        1043
        1040        1041        1046        1045
        1041        1042        1047        1046
        1042        1043        1048        1047
        1043        1044        1049        1048
        1050        1051        1056        1055
        1051        1052        1057        1056
        1052        1053        1058        1057
        1053        1054        1059        1058
        1055        1056        1061        1060
        1056        1057        1062        1061
        1057        1058        1063        1062
        1058        1059        1064        1063
        1060        1061        1066        1065
        1061        1062        1067        1066
        1062        1063        1068        1067
        1063        1064        1069        1068
        1065        1066        1071        1070
        1066        1067        1072        1071
        1067        1068        1073        1072
        1068        1069        1074        1073
        1075        1076        1081        1080
        1076        1077        1082        1081
        1077        1078        1083        1082
        1078        1079        1084        1083
        1080        1081        1086        1085
        1081        1082        1087        1086
        1082        1083        1088        1087
        1083        1084        1089        1088
        1085        1086        1091        1090
        1086        1087        1092        1091
        1087        1088        1093        1092
        1088        1089        1094        1093
        1090        1091        1096        1095
        1091        1092        1097        1096
        1092        1093        1098        1097
        1093        1094        1099        1098
        1100        1101        1106        1105
        1101        1102        1107        1106
        1102        1103        1108        1107
        1103        1104        1109        1108
        1105        1106        1111        1110
        1106        1107        1112        1111
        1107        1108        1113        1112
        1108        1109        1114        1113
        1110        1111        1116        1115
        1111        1112        1117        1116
        1112        1113        1118        1117
        1113        1114        1119        1118
        1115        1116        1121        1120
        1116        1117        1122        1121
        1117        1118        1123        1122
        1118        1119        1124        1123
        1125        1126        1131        1130
        1126        1127        1132        1131
        1127        1128        1133        1132
        1128        1129        1134        1133
        1130        1131        1136        1135
        1131        1132        1137        1136
        1132        1133        1138        1137
        1133        1134        1139        1138
        1135        1136        1141        1140
        1136        1137        1142        1141
        1137        1138        1143        1142
        1138        1139        1144        1143
        1140        1141        1146        1145
        1141        1142        1147        1146
        1142        1143        1148        1147
        1143        1144        1149        1148
        1150        1151        1156        1155
        1151        1152        1157        1156
        1152        1153        1158        1157
        1153        1154        1159        1158
        1155        1156        1161        1160
        1156        1157        1162        1161
        1157        1158        1163        1162
        1158        1159        1164        1163
        1160        1161        1166        1165
        1161        1162        1167        1166
        1162        1163        1168        1167
        1163        1164        1169        1168
        1165        1166        1171        1170
        1166        1167        1172        1171
        1167        1168        1173        1172
        1168        1169        1174        1173
        1175        1176        1181        1180
        1176        1177        1182        1181
        1177        1178        1183        1182
        1178        1179        1184        1183
        1180        1181        1186        1185
        1181        1182        1187        1186
        1182        1183        1188        1187
        1183        1184        1189        1188
        1185        1186        1191        1190
        1186        1187        1192        1191
        1187        1188        1193        1192
        1188        1189        1194        1193
        1190        1191        1196        1195
        1191        1192        1197        1196
        1192        1193        1198        1197
        1193        1194        1199        1198
        1200        1201        1206        1205
        1201        1202        1207        1206
        1202        1203        1208        1207
        1203        1204        1209        1208
        1205        1206        1211        1210
        1206        1207        1212        1211
        1207        1208        1213        1212
        1208        1209        1214        1213
        1210        1211        1216        1215
        1211        1212        1217        1216
        1212        1213        1218        1217
        1213        1214        1219        1218
        1215        1216        1221        1220
        1216        1217        1222        1221
        1217        1218        1223        1222
        1218        1219        1224        1223
        1225        1226        1231        1230
        1226        1227        1232        1231
        1227        1228        1233        1232
        1228        1229        1234        1233
        1230        1231        1236        1235
        1231        1232        1237        1236
        1232        1233        1238        1237
        1233        1234        1239        1238
        1235        1236        1241        1240
        1236        1237        1242        1241
        1237        1238        1243        1242
        1238        1239        1244        1243
        1240        1241        1246        1245
        1241        1242        1247        1246
        1242        1243        1248        1247
        1243        1244        1249        1248
        1250        1251        1256        1255
        1251        1252        1257        1256
        1252        1253        1258        1257
        1253        1254        1259        1258
        1255        1256        1261        1260
        1256        1257        1262        1261
        1257        1258        1263        1262
        1258        1259        1264        1263
        1260        1261        1266        1265
        1261        1262        1267        1266
        1262        1263        1268        1267
        1263        1264        1269        1268
        1265        1266        1271        1270
        1266        1267        1272        1271
        1267        1268        1273        1272
        1268        1269        1274        1273
        1275        1276        1281        1280
        1276        1277        1282        1281
        1277        1278        1283        1282
        1278        1279        1284        1283
        1280        1281        1286        1285
        1281        1282        1287        1286
        1282        1283        1288        1287
        1283        1284        1289        1288
        1285        1286        1291        1290
        1286        1287        1292        1291
        1287        1288        1293        1292
        1288        1289        1294        1293
        1290        1291        1296        1295
        1291        1292        1297        1296
        1292        1293        1298        1297
        1293        1294        1299        1298
        1300        1301        1306        1305
        1301        1302        1307        1306
        1302        1303        1308        1307
        1303        1304        1309        1308
        1305        1306        1311        1310
        1306        1307        1312        1311
        1307        1308        1313        1312
        1308        1309        1314        1313
        1310        1311        1316        1315
        1311        1312        1317        1316
        1312        1313        1318        1317
        1313        1314        1319        1318
        1315        1316        1321        1320
        1316        1317        1322        1321
        1317        1318        1323        1322
        1318        1319        1324        1323
        1325        1326        1331        1330
        1326        1327        1332        1331
        1327        1328        1333        1332
        1328        1329        1334        1333
        1330        1331        1336        1335
        1331        1332        1337        1336
        1332        1333        1338        1337
        1333        1334        1339        1338
        1335        1336        1341        1340
        1336        1337        1342        1341
        1337        1338        1343        1342
        1338        1339        1344        1343
        1340        1341        1346        1345
        1341        1342        1347        1346
        1342        1343        1348        1347
        1343        1344        1349        1348
        1350        1351        1356        1355
        1351        1352        1357        1356
        1352        1353        1358        1357
        1353        1354        1359        1358
        1355        1356        1361        1360
        1356        1357        1362        1361
        1357        1358        1363        1362
        1358        1359        1364        1363
        1360        1361        1366        1365
        1361        1362        1367        1366
        1362        1363        1368        1367
        1363        1364        1369        1368
        1365        1366        1371        1370
        1366        1367        1372        1371
        1367        1368        1373        1372
        1368        1369        1374        1373
        1375        1376        1381        1380
        1376        1377        1382        1381
        1377        1378        1383        1382
        1378        1379        1384        1383
        1380        1381        1386        1385
        1381        1382        1387        1386
        1382        1383        1388        1387
        1383        1384        1389        1388
        1385        1386        1391        1390
        1386        1387        1392        1391
        1387        1388        1393        1392
        1388        1389        1394        1393
        1390        1391        1396        1395
        1391        1392        1397        1396
        1392        1393        1398        1397
        1393        1394        1399        1398
        1400        1401        1406        1405
        1401        1402        1407        1406
        1402        1403        1408        1407
        1403        1404        1409        1408
        1405        1406        1411        1410
        1406        1407        1412        1411
        1407        1408        1413        1412
        1408        1409        1414        1413
        1410        1411        1416        1415
        1411        1412        1417        1416
        1412        1413        1418        1417
        1413        1414        1419        1418
        1415        1416        1421        1420
        1416        1417        1422        1421
        1417        1418        1423        1422
        1418        1419        1424        1423
        1425        1426        1431        1430
        1426        1427        1432        1431
        1427        1428        1433        1432
        1428        1429        1434        1433
        1430        1431        1436        1435
        1431        1432        1437        1436
        1432        1433        1438        1437
        1433        1434        1439        1438
        1435        1436        1441        1440
        1436        1437        1442        1441
        1437        1438        1443        1442
        1438        1439        1444        1443
        1440        1441        1446        1445
        1441        1442        1447        1446
        1442        1443        1448        1447
        1443        1444        1449        1448
        1450        1451        1456        1455
        1451        1452        1457        1456
        1452        1453        1458        1457
        1453        1454        1459        1458
        1455        1456        1461        1460
        1456        1457        1462        1461
        1457        1458        1463        1462
        1458        1459        1464        1463
        1460        1461        1466        1465
        1461        1462        1467        1466
        1462        1463        1468        1467
        1463        1464        1469        1468
        1465        1466        1471        1470
        1466        1467        1472        1471
        1467        1468        1473        1472
        1468        1469        1474        1473
        1475        1476        1481        1480
        1476        1477        1482        1481
        1477        1478        1483        1482
        1478        1479        1484        1483
        1480        1481        1486        1485
        1481        1482        1487        1486
        1482        1483        1488        1487
        1483        1484        1489        1488
        1485        1486        1491        1490
        1486        1487        1492        1491
        1487        1488        1493        1492
        1488        1489        1494        1493
        1490        1491        1496        1495
        1491        1492        1497        1496
        1492        1493        1498        1497
        1493        1494        1499        1498
        1500        1501        1506        1505
        1501        1502        1507        1506
        1502        1503        1508        1507
        1503        1504        1509        1508
        1505        1506        1511        1510
        1506        1507        1512        1511
        1507        1508        1513        1512
        1508        1509        1514        1513
        1510        1511        1516        1515
        1511        1512        1517        1516
        1512        1513        1518        1517
        1513        1514        1519        1518
        1515        1516        1521        1520
        1516        1517        1522        1521
        1517        1518        1523        1522
        1518        1519        1524        1523
        1525        1526        1531        1530
        1526        1527        1532        1531
        1527        1528        1533        1532
        1528        1529        1534        1533
        1530        1531        1536        1535
        1531        1532        1537        1536
        1532        1533        1538        1537
        1533        1534        1539        1538
        1535        1536        1541        1540
        1536        1537        1542        1541
        1537        1538        1543        1542
        1538        1539        1544        1543
        1540        1541        1546        1545
        1541        1542        1547        1546
        1542        1543        1548        1547
        1543        1544        1549        1548
        1550        1551        1556        1555
        1551        1552        1557        1556
        1552        1553        1558        1557
        1553        1554        1559        1558
        1555        1556        1561        1560
        1556        1557        1562        1561
        1557        1558        1563        1562
        1558        1559        1564        1563
        1560        1561        1566        1565
        1561        1562        1567        1566
        1562        1563        1568        1567
        1563        1564        1569        1568
        1565        1566        1571        1570
        1566        1567        1572        1571
        1567        1568        1573        1572
        1568        1569        1574        1573
        1575        1576        1581        1580
        1576        1577        1582        1581
        1577        1578        1583        1582
        1578        1579        1584        1583
        1580        1581        1586        1585
        1581        1582        1587        1586
        1582        1583        1588        1587
        1583        1584        1589        1588
        1585        1586        1591        1590
        1586        1587        1592        1591
        1587        1588        1593        1592
        1588        1589        1594        1593
        1590        1591        1596        1595
        1591        1592        1597        1596
        1592        1593        1598        1597
        1593        1594        1599        1598
 </DataArray>
 <DataArray  type="Int32"  Name="offsets"  format="ascii"> 
           4
           8
          12
          16
          20
          24
          28
          32
          36
          40
          44
          48
          52
          56
          60
          64
          68
          72
          76
          80
          84
          88
          92
          96
         100
         104
         108
         112
         116
         120
         124
         128
         132
         136
         140
         144
         148
         152
         156
         160
         164
         168
         172
         176
         180
         184
         188
         192
         196
         200
         204
         208
         212
         216
         220
         224
         228
         232
         236
         240
         244
         248
         252
         256
         260
         264
         268
         272
         276
         280
         284
         288
         292
         296
         300
         304
         308
         312
         316
         320
         324
         328
         332
         336
         340
         344
         348
         352
         356
         360
         364
         368
         372
         376
         380
         384
         388
         392
         396
         400
         404
         408
         412
         416
         420
         424
         428
         432
         436
         440
         444
         448
         452
         456
         460
         464
         468
         472
         476
         480
         484
         488
         492
         496
         500
         504
         508
         512
         516
         520
         524
         528
         532
         536
         540
         544
         548
         552
         556
         560
         564
         568
         572
         576
         580
         584
         588
         592
         596
         600
         604
         608
         612
         616
         620
         624
         628
         632
         636
         640
         644
         648
         652
         656
         660
         664
         668
         672
         676
         680
         684
         688
         692
         696
         700
         704
         708
         712
         716
         720
         724
         728
         732
         736
         740
         744
         748
         752
         756
         760
         764
         768
         772
         776
         780
         784
         788
         792
         796
         800
         804
         808
         812
         816
         820
         824
         828
         832
         836
         840
         844
         848
         852
         856
         860
         864
         868
         872
         876
         880
         884
         888
         892
         896
         900
         904
         908
         912
         916
         920
         924
         928
         932
         936
         940
         944
         948
         952
         956
         960
         964
         968
         972
         976
         980
         984
         988
         992
         996
        1000
        1004
        1008
        1012
        1016
        1020
        1024
        1028
        1032
        1036
        1040
        1044
        1048
        1052
        1056
        1060
        1064
        1068
        1072
        1076
        1080
        1084
        1088
        1092
        1096
        1100
        1104
        1108
        1112
        1116
        1120
        1124
        1128
        1132
        1136
        1140
        1144
        1148
        1152
        1156
        1160
        1164
        1168
        1172
        1176
        1180
        1184
        1188
        1192
        1196
        1200
        1204
        1208
        1212
        1216
        1220
        1224
        1228
        1232
        1236
        1240
        1244
        1248
        1252
        1256
        1260
        1264
        1268
        1272
        1276
        1280
        1284
        1288
        1292
        1296
        1300
        1304
        1308
        1312
        1316
        1320
        1324
        1328
        1332
        1336
        1340
        1344
        1348
        1352
        1356
        1360
        1364
        1368
        1372
        1376
        1380
        1384
        1388
        1392
        1396
        1400
        1404
        1408
        1412
        1416
        1420
        1424
        1428
        1432
        1436
        1440
        1444
        1448
        1452
        1456
        1460
        1464
        1468
        1472
        1476
        1480
        1484
        1488
        1492
        1496
        1500
        1504
        1508
        1512
        1516
        1520
        1524
        1528
        1532
        1536
        1540
        1544
        1548
        1552
        1556
        1560
        1564
        1568
        1572
        1576
        1580
        1584
        1588
        1592
        1596
        1600
        1604
        1608
        1612
        1616
        1620
        1624
        1628
        1632
        1636
        1640
        1644
        1648
        1652
        1656
        1660
        1664
        1668
        1672
        1676
        1680
        1684
        1688
        1692
        1696
        1700
        1704
        1708
        1712
        1716
        1720
        1724
        1728
        1732
        1736
        1740
        1744
        1748
        1752
        1756
        1760
        1764
        1768
        1772
        1776
        1780
        1784
        1788
        1792
        1796
        1800
        1804
        1808
        1812
        1816
        1820
        1824
        1828
        1832
        1836
        1840
        1844
        1848
        1852
        1856
        1860
        1864
        1868
        1872
        1876
        1880
        1884
        1888
        1892
        1896
        1900
        1904
        1908
        1912
        1916
        1920
        1924
        1928
        1932
        1936
        1940
        1944
        1948
        1952
        1956
        1960
        1964
        1968
        1972
        1976
        1980
        1984
        1988
        1992
        1996
        2000
        2004
        2008
        2012
        2016
        2020
        2024
        2028
        2032
        2036
        2040
        2044
        2048
        2052
        2056
        2060
        2064
        2068
        2072
        2076
        2080
        2084
        2088
        2092
        2096
        2100
        2104
        2108
        2112
        2116
        2120
        2124
        2128
        2132
        2136
        2140
        2144
        2148
        2152
        2156
        2160
        2164
        2168
        2172
        2176
        2180
        2184
        2188
        2192
        2196
        2200
        2204
        2208
        2212
        2216
        2220
        2224
        2228
        2232
        2236
        2240
        2244
        2248
        2252
        2256
        2260
        2264
        2268
        2272
        2276
        2280
        2284
        2288
        2292
        2296
        2300
        2304
        2308
        2312
        2316
        2320
        2324
        2328
        2332
        2336
        2340
        2344
        2348
        2352
        2356
        2360
        2364
        2368
        2372
        2376
        2380
        2384
        2388
        2392
        2396
        2400
        2404
        2408
        2412
        2416
        2420
        2424
        2428
        2432
        2436
        2440
        2444
        2448
        2452
        2456
        2460
        2464
        2468
        2472
        2476
        2480
        2484
        2488
        2492
        2496
        2500
        2504
        2508
        2512
        2516
        2520
        2524
        2528
        2532
        2536
        2540
        2544
        2548
        2552
        2556
        2560
        2564
        2568
        2572
        2576
        2580
        2584
        2588
        2592
        2596
        2600
        2604
        2608
        2612
        2616
        2620
        2624
        2628
        2632
        2636
        2640
        2644
        2648
        2652
        2656
        2660
        2664
        2668
        2672
        2676
        2680
        2684
        2688
        2692
        2696
        2700
        2704
        2708
        2712
        2716
        2720
        2724
        2728
        2732
        2736
        2740
        2744
        2748
        2752
        2756
        2760
        2764
        2768
        2772
        2776
        2780
        2784
        2788
        2792
        2796
        2800
        2804
        2808
        2812
        2816
        2820
        2824
        2828
        2832
        2836
        2840
        2844
        2848
        2852
        2856
        2860
        2864
        2868
        2872
        2876
        2880
        2884
        2888
        2892
        2896
        2900
        2904
        2908
        2912
        2916
        2920
        2924
        2928
        2932
        2936
        2940
        2944
        2948
        2952
        2956
        2960
        2964
        2968
        2972
        2976
        2980
        2984
        2988
        2992
        2996
        3000
        3004
        3008
        3012
        3016
        3020
        3024
        3028
        3032
        3036
        3040
        3044
        3048
        3052
        3056
        3060
        3064
        3068
        3072
        3076
        3080
        3084
        3088
        3092
        3096
        3100
        3104
        3108
        3112
        3116
        3120
        3124
        3128
        3132
        3136
        3140
        3144
        3148
        3152
        3156
        3160
        3164
        3168
        3172
        3176
        3180
        3184
        3188
        3192
        3196
        3200
        3204
        3208
        3212
        3216
        3220
        3224
        3228
        3232
        3236
        3240
        3244
        3248
        3252
        3256
        3260
        3264
        3268
        3272
        3276
        3280
        3284
        3288
        3292
        3296
        3300
        3304
        3308
        3312
        3316
        3320
        3324
        3328
        3332
        3336
        3340
        3344
        3348
        3352
        3356
        3360
        3364
        3368
        3372
        3376
        3380
        3384
        3388
        3392
        3396
        3400
        3404
        3408
        3412
        3416
        3420
        3424
        3428
        3432
        3436
        3440
        3444
        3448
        3452
        3456
        3460
        3464
        3468
        3472
        3476
        3480
        3484
        3488
        3492
        3496
        3500
        3504
        3508
        3512
        3516
        3520
        3524
        3528
        3532
        3536
        3540
        3544
        3548
        3552
        3556
        3560
        3564
        3568
        3572
        3576
        3580
        3584
        3588
        3592
        3596
        3600
        3604
        3608
        3612
        3616
        3620
        3624
        3628
        3632
        3636
        3640
        3644
        3648
        3652
        3656
        3660
        3664
        3668
        3672
        3676
        3680
        3684
        3688
        3692
        3696
        3700
        3704
        3708
        3712
        3716
        3720
        3724
        3728
        3732
        3736
        3740
        3744
        3748
        3752
        3756
        3760
        3764
        3768
        3772
        3776
        3780
        3784
        3788
        3792
        3796
        3800
        3804
        3808
        3812
        3816
        3820
        3824
        3828
        3832
        3836
        3840
        3844
        3848
        3852
        3856
        3860
        3864
        3868
        3872
        3876
        3880
        3884
        3888
        3892
        3896
        3900
        3904
        3908
        3912
        3916
        3920
        3924
        3928
        3932
        3936
        3940
        3944
        3948
        3952
        3956
        3960
        3964
        3968
        3972
        3976
        3980
        3984
        3988
        3992
        3996
        4000
        4004
        4008
        4012
        4016
        4020
        4024
        4028
        4032
        4036
        4040
        4044
        4048
        4052
        4056
        4060
        4064
        4068
        4072
        4076
        4080
        4084
        4088
        4092
        4096
 </DataArray>
 <DataArray  type="UInt8"  Name="types"  format="ascii">
 9
 9
 9
 9
 9
 9
 9
 9
 9
 9
 9
 9
 9
 9
 9
 9
 9
 9
 9
 9
 9
 9
 9
 9
 9
 9
 9
 9
 9
 9
 9
 9
 9
 9
 9
 9
 9
 9
 9
 9
 9
 9
 9
 9
 9
 9
 9
 9
 9
 9
 9
 9
 9
 9
 9
 9
 9
 9
 9
 9
 9
 9
 9
 9
 9
 9
 9
 9
 9
 9
 9
 9
 9
 9
 9
 9
 9
 9
 9
 9
 9
 9
 9
 9
 9
 9
 9
 9
 9
 9
 9
 9
 9
 9
 9
 9
 9
 9
 9
 9
 9
 9
 9
 9
 9
 9
 9
 9
 9
 9
 9
 9
 9
 9
 9
 9
 9
 9
 9
 9
 9
 9
 9
 9
 9
 9
 9
 9
 9
 9
 9
 9
 9
 9
 9
 9
 9
 9
 9
 9
 9
 9
 9
 9
 9
 9
 9
 9
 9
 9
 9
 9
 9
 9
 9
 9
 9
 9
 9
 9
 9
 9
 9
 9
 9
 9
 9
 9
 9
 9
 9
 9
 9
 9
 9
 9
 9
 9
 9
 9
 9
 9
 9
 9
 9
 9
 9
 9
 9
 9
 9
 9
 9
 9
 9
 9
 9
 9
 9
 9
 9
 9
 9
 9
 9
 9
 9
 9
 9
 9
 9
 9
 9
 9
 9
 9
 9
 9
 9
 9
 9
 9
 9
 9
 9
 9
 9
 9
 9
 9
 9
 9
 9
 9
 9
 9
 9
 9
 9
 9
 9
 9
 9
 9
 9
 9
 9
 9
 9
 9
 9
 9
 9
 9
 9
 9
 9
 9
 9
 9
 9
 9
 9
 9
 9
 9
 9
 9
 9
 9
 9
 9
 9
 9
 9
 9
 9
 9
 9
 9
 9
 9
 9
 9
 9
 9
 9
 9
 9
 9
 9
 9
 9
 9
 9
 9
 9
 9
 9
 9
 9
 9
 9
 9
 9
 9
 9
 9
 9
 9
 9
 9
 9
 9
 9
 9
 9
 9
 9
 9
 9
 9
 9
 9
 9
 9
 9
 9
 9
 9
 9
 9
 9
 9
 9
 9
 9
 9
 9
 9
 9
 9
 9
 9
 9
 9
 9
 9
 9
 9
 9
 9
 9
 9
 9
 9
 9
 9
 9
 9
 9
 9
 9
 9
 9
 9
 9
 9
 9
 9
 9
 9
 9
 9
 9
 9
 9
 9
 9
 9
 9
 9
 9
 9
 9
 9
 9
 9
 9
 9
 9
 9
 9
 9
 9
 9
 9
 9
 9
 9
 9
 9
 9
 9
 9
 9
 9
 9
 9
 9
 9
 9
 9
 9
 9
 9
 9
 9
 9
 9
 9
 9
 9
 9
 9
 9
 9
 9
 9
 9
 9
 9
 9
 9
 9
 9
 9
 9
 9
 9
 9
 9
 9
 9
 9
 9
 9
 9
 9
 9
 9
 9
 9
 9
 9
 9
 9
 9
 9
 9
 9
 9
 9
 9
 9
 9
 9
 9
 9
 9
 9
 9
 9
 9
 9
 9
 9
 9
 9
 9
 9
 9
 9
 9
 9
 9
 9
 9
 9
 9
 9
 9
 9
 9
 9
 9
 9
 9
 9
 9
 9
 9
 9
 9
 9
 9
 9
 9
 9
 9
 9
 9
 9
 9
 9
 9
 9
 9
 9
 9
 9
 9
 9
 9
 9
 9
 9
 9
 9
 9
 9
 9
 9
 9
 9
 9
 9
 9
 9
 9
 9
 9
 9
 9
 9
 9
 9
 9
 9
 9
 9
 9
 9
 9
 9
 9
 9
 9
 9
 9
 9
 9
 9
 9
 9
 9
 9
 9
 9
 9
 9
 9
 9
 9
 9
 9
 9
 9
 9
 9
 9
 9
 9
 9
 9
 9
 9
 9
 9
 9
 9
 9
 9
 9
 9
 9
 9
 9
 9
 9
 9
 9
 9
 9
 9
 9
 9
 9
 9
 9
 9
 9
 9
 9
 9
 9
 9
 9
 9
 9
 9
 9
 9
 9
 9
 9
 9
 9
 9
 9
 9
 9
 9
 9
 9
 9
 9
 9
 9
 9
 9
 9
 9
 9
 9
 9
 9
 9
 9
 9
 9
 9
 9
 9
 9
 9
 9
 9
 9
 9
 9
 9
 9
 9
 9
 9
 9
 9
 9
 9
 9
 9
 9
 9
 9
 9
 9
 9
 9
 9
 9
 9
 9
 9
 9
 9
 9
 9
 9
 9
 9
 9
 9
 9
 9
 9
 9
 9
 9
 9
 9
 9
 9
 9
 9
 9
 9
 9
 9
 9
 9
 9
 9
 9
 9
 9
 9
 9
 9
 9
 9
 9
 9
 9
 9
 9
 9
 9
 9
 9
 9
 9
 9
 9
 9
 9
 9
 9
 9
 9
 9
 9
 9
 9
 9
 9
 9
 9
 9
 9
 9
 9
 9
 9
 9
 9
 9
 9
 9
 9
 9
 9
 9
 9
 9
 9
 9
 9
 9
 9
 9
 9
 9
 9
 9
 9
 9
 9
 9
 9
 9
 9
 9
 9
 9
 9
 9
 9
 9
 9
 9
 9
 9
 9
 9
 9
 9
 9
 9
 9
 9
 9
 9
 9
 9
 9
 9
 9
 9
 9
 9
 9
 9
 9
 9
 9
 9
 9
 9
 9
 9
 9
 9
 9
 9
 9
 9
 9
 9
 9
 9
 9
 9
 9
 9
 9
 9
 9
 9
 9
 9
 9
 9
 9
 9
 9
 9
 9
 9
 9
 9
 9
 9
 9
 9
 9
 9
 9
 9
 9
 9
 9
 9
 9
 9
 9
 9
 9
 9
 9
 9
 9
 9
 9
 9
 9
 9
 9
 9
 9
 9
 9
 9
 9
 9
 9
 9
 9
 9
 9
 9
 9
 9
 9
 9
 9
 9
 9
 9
 9
 9
 9
 9
 9
 9
 9
 9
 9
 9
 9
 9
 9
 9
 9
 9
 9
 9
 9
 9
 9
 9
 9
 9
 9
 9
 9
 9
 9
 9
 9
 9
 9
 9
 9
 9
 9
 9
 9
 9
 9
 9
 9
 9
 9
 9
 9
 9
 9
 9
 9
 9
 9
 9
 9
 9
 9
 9
 9
 9
 9
 9
 9
 9
 9
 9
 9
 9
 9
 9
 9
 9
 9
 9
 9
 9
 9
 9
 9
 9
 9
 9
 9
 9
 9
 9
 9
 9
 9
 9
 9
 9
 9
 9
 9
 9
 9
 9
 9
 9
 9
 9
 9
 9
 9
 9
 9
 9
 9
 9
 9
 9
 9
 9
 9
 9
 9
 9
 9
 9
 9
 9
 9
 9
 9
 </DataArray>
 </Cells> 
 <PointData>
 <DataArray  type="Float64" Name="disp" NumberOfComponents="3" format="ascii">
   6.6661189426150347E-002   6.0623977826872781E-002   0.0000000000000000     
   7.0551193889683922E-002   6.7495521494159938E-002   0.0000000000000000     
   7.3908198168038425E-002   7.4034006201647309E-002   0.0000000000000000     
   7.6732202261213855E-002   8.0239431949334916E-002   0.0000000000000000     
   7.9023206169210200E-002   8.6111798737222744E-002   0.0000000000000000     
   5.8858703178008454E-002   6.0906090476971375E-002   0.0000000000000000     
   6.3745084536609667E-002   6.7212167137424478E-002   0.0000000000000000     
   6.7752741374819153E-002   7.3384165441495286E-002   0.0000000000000000     
   7.0881673692636926E-002   7.9422085389183786E-002   0.0000000000000000     
   7.3131881490062986E-002   8.5325926980490005E-002   0.0000000000000000     
   5.3668876205354765E-002   6.0888625846391042E-002   0.0000000000000000     
   5.8658422308746419E-002   6.6826450788242536E-002   0.0000000000000000     
   6.2681848009616195E-002   7.2760604973812662E-002   0.0000000000000000     
   6.5739153307964066E-002   7.8691088403101447E-002   0.0000000000000000     
   6.7830338203790058E-002   8.4617901076108892E-002   0.0000000000000000     
   5.1091708508189282E-002   6.0571583935131748E-002   0.0000000000000000     
   5.5291207206094206E-002   6.6338372446614086E-002   0.0000000000000000     
   5.8695518072429537E-002   7.2163324798599493E-002   0.0000000000000000     
   6.1304641107195287E-002   7.8046440991087901E-002   0.0000000000000000     
   6.3118576310391444E-002   8.3987721024079406E-002   0.0000000000000000     
   5.1127200086512010E-002   5.9954964743193520E-002   0.0000000000000000     
   5.3643439228653000E-002   6.5747932112539154E-002   0.0000000000000000     
   5.5793751563259185E-002   7.1592324915855710E-002   0.0000000000000000     
   5.7578137090330557E-002   7.7488143153143160E-002   0.0000000000000000     
   5.8996595809867117E-002   8.3435386824401547E-002   0.0000000000000000     
   7.9023206169210200E-002   8.6111798737222744E-002   0.0000000000000000     
   8.1125124704006749E-002   9.1969105218514161E-002   0.0000000000000000     
   8.3381872677582763E-002   9.8129350046412572E-002   0.0000000000000000     
   8.5793450089938245E-002  0.10459253322091795        0.0000000000000000     
   8.8359856941073178E-002  0.11135865474203027        0.0000000000000000     
   7.3131881490062986E-002   8.5325926980490005E-002   0.0000000000000000     
   7.5026513632668906E-002   9.1288708406280727E-002   0.0000000000000000     
   7.7088718986026275E-002   9.7503447857422806E-002   0.0000000000000000     
   7.9318497550135120E-002  0.10397014533391624        0.0000000000000000     
   8.1715849324995413E-002  0.11068880083576099        0.0000000000000000     
   6.7830338203790058E-002   8.4617901076108892E-002   0.0000000000000000     
   6.9520783190116064E-002   9.0652935585908020E-002   0.0000000000000000     
   7.1375868759964017E-002   9.6908084525571883E-002   0.0000000000000000     
   7.3395594913333903E-002  0.10338334789510051        0.0000000000000000     
   7.5579961650225735E-002  0.11007872569449387        0.0000000000000000     
   6.3118576310391444E-002   8.3987721024079406E-002   0.0000000000000000     
   6.4607933376348264E-002   9.0061786757396012E-002   0.0000000000000000     
   6.6243321999395977E-002   9.6343260050859775E-002   0.0000000000000000     
   6.8024742179534609E-002  0.10283214090447076        0.0000000000000000     
   6.9952193916764133E-002  0.10952842931822888        0.0000000000000000     
   5.8996595809867117E-002   8.3435386824401547E-002   0.0000000000000000     
   6.0287964191365465E-002   8.9515261920744701E-002   0.0000000000000000     
   6.1691078704322153E-002   9.5808974433286509E-002   0.0000000000000000     
   6.3205939348737195E-002  0.10231652436202697        0.0000000000000000     
   6.4832546124610591E-002  0.10903791170696607        0.0000000000000000     
   8.8359856941073178E-002  0.11135865474203027        0.0000000000000000     
   9.0948892377393314E-002  0.11832842342534915        0.0000000000000000     
   9.3428355545304362E-002  0.12540254808647414        0.0000000000000000     
   9.5798246444806293E-002  0.13258102872540520        0.0000000000000000     
   9.8058565075899135E-002  0.13986386534214240        0.0000000000000000     
   8.1715849324995413E-002  0.11068880083576099        0.0000000000000000     
   8.4147320413629767E-002  0.11760384037874946        0.0000000000000000     
   8.6479456919060782E-002  0.12465968997867403        0.0000000000000000     
   8.8712258841288444E-002  0.13185634963553466        0.0000000000000000     
   9.0845726180312739E-002  0.13919381934933142        0.0000000000000000     
   7.5579961650225735E-002  0.11007872569449387        0.0000000000000000     
   7.7803947450909988E-002  0.11696610050435705        0.0000000000000000     
   7.9942530795657218E-002  0.12401735490529510        0.0000000000000000     
   8.1995711684467371E-002  0.13123248889730807        0.0000000000000000     
   8.3963490117340472E-002  0.13861150248039589        0.0000000000000000     
   6.9952193916764133E-002  0.10952842931822888        0.0000000000000000     
   7.1918773489234006E-002  0.11641520380217188        0.0000000000000000     
   7.3817577175093643E-002  0.12347554286633737        0.0000000000000000     
   7.5648604974343087E-002  0.13070944651072530        0.0000000000000000     
   7.7411856886982308E-002  0.13811691473533583        0.0000000000000000     
   6.4832546124610591E-002  0.10903791170696607        0.0000000000000000     
   6.6491798528601750E-002  0.11595115027219398        0.0000000000000000     
   6.8104596057370070E-002  0.12303425386180077        0.0000000000000000     
   6.9670938710915592E-002  0.13028722247578650        0.0000000000000000     
   7.1190826489238260E-002  0.13771005611415119        0.0000000000000000     
   9.8058565075899135E-002  0.13986386534214240        0.0000000000000000     
  0.10018720988027577       0.14725248351105621        0.0000000000000000     
  0.10216207929962901       0.15474830880651724        0.0000000000000000     
  0.10398317333395890       0.16235134122852546        0.0000000000000000     
  0.10565049198326541       0.17006158077708089        0.0000000000000000     
   9.0845726180312739E-002  0.13919381934933142        0.0000000000000000     
   9.2855362182817661E-002  0.14664901443257047        0.0000000000000000     
   9.4716670095487135E-002  0.15419885019775803        0.0000000000000000     
   9.6429649918321161E-002  0.16184332664489404        0.0000000000000000     
   9.7994301651319726E-002  0.16958244377397860        0.0000000000000000     
   8.3963490117340472E-002  0.13861150248039589        0.0000000000000000     
   8.5819935649089671E-002  0.14611597690374989        0.0000000000000000     
   8.7539117834528113E-002  0.15370749341656131        0.0000000000000000     
   8.9121036673655785E-002  0.16138605201883011        0.0000000000000000     
   9.0565692166472700E-002  0.16915165271055629        0.0000000000000000     
   7.7411856886982308E-002  0.13811691473533583        0.0000000000000000     
   7.9080930279091771E-002  0.14565337092459449        0.0000000000000000     
   8.0629422516751925E-002  0.15327423846292706        0.0000000000000000     
   8.2057333599962770E-002  0.16097951735033356        0.0000000000000000     
   8.3364663528724320E-002  0.16876920758681391        0.0000000000000000     
   7.1190826489238260E-002  0.13771005611415119        0.0000000000000000     
   7.2638346072823975E-002  0.14526119649510427        0.0000000000000000     
   7.3987584142158599E-002  0.15289908533685534        0.0000000000000000     
   7.5238540697242132E-002  0.16062372263940441        0.0000000000000000     
   7.6391215738074558E-002  0.16843510840275144        0.0000000000000000     
  0.10565049198326541       0.17006158077708089        0.0000000000000000     
  0.10720455320252120       0.17787642541993262        0.0000000000000000     
  0.10868587494669890       0.18579327312482982        0.0000000000000000     
  0.11009445721579851       0.19381212389177241        0.0000000000000000     
  0.11143030000982004       0.20193297772076046        0.0000000000000000     
   9.7994301651319726E-002  0.16958244377397860        0.0000000000000000     
   9.9448146586241043E-002  0.17742086641970051        0.0000000000000000     
  0.10082870601484331       0.18536325941674855        0.0000000000000000     
  0.10213597993712650       0.19340962276512277        0.0000000000000000     
  0.10336996835309062       0.20155995646482314        0.0000000000000000     
   9.0565692166472700E-002  0.16915165271055629        0.0000000000000000     
   9.1906212112143462E-002  0.17701325054211095        0.0000000000000000     
   9.3175724309832647E-002  0.18497980056386520        0.0000000000000000     
   9.4374228759540255E-002  0.19305130277581900        0.0000000000000000     
   9.5501725461266271E-002  0.20122775717797228        0.0000000000000000     
   8.3364663528724320E-002  0.16876920758681391        0.0000000000000000     
   8.4578749780228391E-002  0.17665357778716398        0.0000000000000000     
   8.5726929831666854E-002  0.18464289656617972        0.0000000000000000     
   8.6809203683039751E-002  0.19273716392386106        0.0000000000000000     
   8.7825571334347013E-002  0.20093637986020799        0.0000000000000000     
   7.6391215738074558E-002  0.16843510840275144        0.0000000000000000     
   7.7465759590495870E-002  0.17634184815485959        0.0000000000000000     
   7.8482322580346001E-002  0.18435254742369211        0.0000000000000000     
   7.9440904707624979E-002  0.19246720620924898        0.0000000000000000     
   8.0341505972332791E-002  0.20068582451153008        0.0000000000000000     
  0.11143030000982004       0.20193297772076046        0.0000000000000000     
  0.11268547668996243       0.21014572946906346        0.0000000000000000     
  0.11385206061742464       0.21844027399395086        0.0000000000000000     
  0.11493005179220667       0.22681661129542272        0.0000000000000000     
  0.11591945021430849       0.23527474137347895        0.0000000000000000     
  0.10336996835309062       0.20155995646482314        0.0000000000000000     
  0.10452538282354322       0.20980105746755057        0.0000000000000000     
  0.10559693490929185       0.21811972272500596        0.0000000000000000     
  0.10658462461033651       0.22651595223718937        0.0000000000000000     
  0.10748845192667718       0.23498974600410072        0.0000000000000000     
   9.5501725461266271E-002  0.20122775717797228        0.0000000000000000     
   9.6553870388500940E-002  0.20949429036976841        0.0000000000000000     
   9.7526319514734422E-002  0.21783602895065055        0.0000000000000000     
   9.8419072839966662E-002  0.22625297292061872        0.0000000000000000     
   9.9232130364197743E-002  0.23474512227967292        0.0000000000000000     
   8.7825571334347013E-002  0.20093637986020799        0.0000000000000000     
   8.8770939384835545E-002  0.20922542817571699        0.0000000000000000     
   8.9640214433752266E-002  0.21758919267088456        0.0000000000000000     
   9.0433396481097134E-002  0.22602767334571075        0.0000000000000000     
   9.1150485526870190E-002  0.23454087020019551        0.0000000000000000     
   8.0341505972332791E-002  0.20068582451153008        0.0000000000000000     
   8.1176589812547065E-002  0.20899447088539624        0.0000000000000000     
   8.1938619666345441E-002  0.21737921388570808        0.0000000000000000     
   8.2627595533727935E-002  0.22584005351246553        0.0000000000000000     
   8.3243517414694518E-002  0.23437698976566862        0.0000000000000000     
  0.11591945021430849       0.23527474137347895        0.0000000000000000     
  0.11685520117030633       0.24383125713255988        0.0000000000000000     
  0.11777224994677631       0.25250275147710566        0.0000000000000000     
  0.11867059654371846       0.26128922440711627        0.0000000000000000     
  0.11955024096113276       0.27019067592259183        0.0000000000000000     
  0.10748845192667718       0.23498974600410072        0.0000000000000000     
  0.10831895311734795       0.24356417978298359        0.0000000000000000     
  0.10908666444138290       0.25226232933108161        0.0000000000000000     
  0.10979158589878202       0.26108419464839477        0.0000000000000000     
  0.11043371748954531       0.27002977573492304        0.0000000000000000     
   9.9232130364197743E-002  0.23474512227967292        0.0000000000000000     
   9.9960379826592560E-002  0.24333825240207521        0.0000000000000000     
  0.10059870896631605       0.25205813866208782        0.0000000000000000     
  0.10114711778336816       0.26090478105971071        0.0000000000000000     
  0.10160560627774895       0.26987817959494387        0.0000000000000000     
   9.1150485526870190E-002  0.23454087020019551        0.0000000000000000     
   9.1779481298040144E-002  0.24315347498983475        0.0000000000000000     
   9.2308383521575679E-002  0.25189017947012432        0.0000000000000000     
   9.2737192197476864E-002  0.26075098364106419        0.0000000000000000     
   9.3065907325743671E-002  0.26973588750265437        0.0000000000000000     
   8.3243517414694518E-002  0.23437698976566862        0.0000000000000000     
   8.3776257531690684E-002  0.24300984754626220        0.0000000000000000     
   8.4215688107161887E-002  0.25175845175519107        0.0000000000000000     
   8.4561809141108182E-002  0.26062280239245517        0.0000000000000000     
   8.4814620633529500E-002  0.26960289945805455        0.0000000000000000     
  0.11955024096113276       0.27019067592259183        0.0000000000000000     
  0.12035093933218796       0.27937091753631138        0.0000000000000000     
  0.12101244779005273       0.28899376076105410        0.0000000000000000     
  0.12153476633472712       0.29905920559681998        0.0000000000000000     
  0.12191789496621108       0.30956725204360902        0.0000000000000000     
  0.11043371748954531       0.27002977573492304        0.0000000000000000     
  0.11099351410555817       0.27923114929680437        0.0000000000000000     
  0.11145143063870606       0.28882039204017684        0.0000000000000000     
  0.11180746708898892       0.29879750396504046        0.0000000000000000     
  0.11206162345640679       0.30916248507139510        0.0000000000000000     
  0.10160560627774895       0.26987817959494387        0.0000000000000000     
  0.10198461685550102       0.27907695431895102        0.0000000000000000     
  0.10229459192266700       0.28859972528289607        0.0000000000000000     
  0.10253553147924691       0.29844649248677896        0.0000000000000000     
  0.10270743552524071       0.30861725593059963        0.0000000000000000     
   9.3065907325743671E-002  0.26973588750265437        0.0000000000000000     
   9.3324247582016448E-002  0.27890833260275139        0.0000000000000000     
   9.3541931641935583E-002  0.28833176048921177        0.0000000000000000     
   9.3718959505501062E-002  0.29800617116203548        0.0000000000000000     
   9.3855331172712886E-002  0.30793156462122273        0.0000000000000000     
   8.4814620633529500E-002  0.26960289945805455        0.0000000000000000     
   8.5012406285104508E-002  0.27872528414820541        0.0000000000000000     
   8.5193449796511805E-002  0.28801649765912396        0.0000000000000000     
   8.5357751167751406E-002  0.29747653999081031        0.0000000000000000     
   8.5505310398823281E-002  0.30710541114326428        0.0000000000000000     
   5.1127200086512010E-002   5.9954964743193520E-002   0.0000000000000000     
   5.3643439228653000E-002   6.5747932112539154E-002   0.0000000000000000     
   5.5793751563259185E-002   7.1592324915855710E-002   0.0000000000000000     
   5.7578137090330557E-002   7.7488143153143160E-002   0.0000000000000000     
   5.8996595809867117E-002   8.3435386824401547E-002   0.0000000000000000     
   5.0955379553808793E-002   5.9170364816884147E-002   0.0000000000000000     
   5.1827280950853913E-002   6.5101625156896673E-002   0.0000000000000000     
   5.2757341099709164E-002   7.1038955938818898E-002   0.0000000000000000     
   5.3745560000374573E-002   7.6982357162650811E-002   0.0000000000000000     
   5.4791937652850127E-002   8.2931828828392423E-002   0.0000000000000000     
   4.7756275523565463E-002   5.8349380702511444E-002   0.0000000000000000     
   4.7954894947128020E-002   6.4445946950565561E-002   0.0000000000000000     
   4.8367079299383532E-002   7.0494568480726563E-002   0.0000000000000000     
   4.8992828580332014E-002   7.6495245292994410E-002   0.0000000000000000     
   4.9832142789973465E-002   8.2447977387369115E-002   0.0000000000000000     
   4.1529887995782021E-002   5.7492012400075419E-002   0.0000000000000000     
   4.2026281217475328E-002   6.3780897493545860E-002   0.0000000000000000     
   4.2622966162282276E-002   6.9959162541578732E-002   0.0000000000000000     
   4.3319942830202872E-002   7.6026807544173999E-002   0.0000000000000000     
   4.4117211221237108E-002   8.1983832501331691E-002   0.0000000000000000     
   3.2276216970458474E-002   5.6598259909576051E-002   0.0000000000000000     
   3.4041439761895838E-002   6.3106476785837529E-002   0.0000000000000000     
   3.5525001688405403E-002   6.9432738121375362E-002   0.0000000000000000     
   3.6726902749987154E-002   7.5577043916189537E-002   0.0000000000000000     
   3.7647142946641100E-002   8.1539394170280069E-002   0.0000000000000000     
   5.8996595809867117E-002   8.3435386824401547E-002   0.0000000000000000     
   6.0287964191365465E-002   8.9515261920744701E-002   0.0000000000000000     
   6.1691078704322153E-002   9.5808974433286509E-002   0.0000000000000000     
   6.3205939348737195E-002  0.10231652436202697        0.0000000000000000     
   6.4832546124610591E-002  0.10903791170696607        0.0000000000000000     
   5.4791937652850127E-002   8.2931828828392423E-002   0.0000000000000000     
   5.5907072452084559E-002   8.8999225843373803E-002   0.0000000000000000     
   5.7101562793026632E-002   9.5296403114924974E-002   0.0000000000000000     
   5.8375408675676352E-002  0.10182336064304598        0.0000000000000000     
   5.9728610100033691E-002  0.10858009842773679        0.0000000000000000     
   4.9832142789973465E-002   8.2447977387369115E-002   0.0000000000000000     
   5.0811454975422422E-002   8.8499543292702945E-002   0.0000000000000000     
   5.1857198183793501E-002   9.4796721537848100E-002   0.0000000000000000     
   5.2969372415086688E-002  0.10133951212280458        0.0000000000000000     
   5.4147977669301982E-002  0.10812791504757240        0.0000000000000000     
   4.4117211221237108E-002   8.1983832501331691E-002   0.0000000000000000     
   4.5001111761379060E-002   8.8016214268732185E-002   0.0000000000000000     
   4.5957984876622761E-002   9.4309929702055872E-002   0.0000000000000000     
   4.6987830566968224E-002  0.10086497880130281        0.0000000000000000     
   4.8090648832415442E-002  0.10768136156647296        0.0000000000000000     
   3.7647142946641100E-002   8.1539394170280069E-002   0.0000000000000000     
   3.8476042809954446E-002   8.7549238771461479E-002   0.0000000000000000     
   3.9403922871514389E-002   9.3836027607548333E-002   0.0000000000000000     
   4.0430783131320938E-002  0.10039976067854063        0.0000000000000000     
   4.1556623589374085E-002  0.10724043798443837        0.0000000000000000     
   6.4832546124610591E-002  0.10903791170696607        0.0000000000000000     
   6.6491798528601750E-002  0.11595115027219398        0.0000000000000000     
   6.8104596057370070E-002  0.12303425386180077        0.0000000000000000     
   6.9670938710915592E-002  0.13028722247578650        0.0000000000000000     
   7.1190826489238260E-002  0.13771005611415119        0.0000000000000000     
   5.9728610100033691E-002  0.10858009842773679        0.0000000000000000     
   6.1107083543669546E-002  0.11553214339090745        0.0000000000000000     
   6.2456745484154759E-002  0.12264502245446796        0.0000000000000000     
   6.3777595921489350E-002  0.12991873561841830        0.0000000000000000     
   6.5069634855673311E-002  0.13735328288275853        0.0000000000000000     
   5.4147977669301982E-002  0.10812791504757240        0.0000000000000000     
   5.5348689509093628E-002  0.11511638663479641        0.0000000000000000     
   5.6527183497115926E-002  0.12225938320712142        0.0000000000000000     
   5.7683459633368850E-002  0.12955690476454740        0.0000000000000000     
   5.8817517917852419E-002  0.13700895130707441        0.0000000000000000     
   4.8090648832415442E-002  0.10768136156647296        0.0000000000000000     
   4.9216616424874036E-002  0.11470388000386088        0.0000000000000000     
   5.0315910096253587E-002  0.12187733611976116        0.0000000000000000     
   5.1388529846554114E-002  0.12920172991417384        0.0000000000000000     
   5.2434475675775596E-002  0.13667706138709892        0.0000000000000000     
   4.1556623589374085E-002  0.10724043798443837        0.0000000000000000     
   4.2710864291010724E-002  0.11429462349810084        0.0000000000000000     
   4.3822925281567733E-002  0.12149888119238722        0.0000000000000000     
   4.4892806561045100E-002  0.12885321106729758        0.0000000000000000     
   4.5920508129442844E-002  0.13635761312283193        0.0000000000000000     
   7.1190826489238260E-002  0.13771005611415119        0.0000000000000000     
   7.2638346072823975E-002  0.14526119649510427        0.0000000000000000     
   7.3987584142158599E-002  0.15289908533685534        0.0000000000000000     
   7.5238540697242132E-002  0.16062372263940441        0.0000000000000000     
   7.6391215738074558E-002  0.16843510840275144        0.0000000000000000     
   6.5069634855673311E-002  0.13735328288275853        0.0000000000000000     
   6.6308318625691018E-002  0.14491353325833936        0.0000000000000000     
   6.7469103570526850E-002  0.15256435575601168        0.0000000000000000     
   6.8551989690180795E-002  0.16030575037577546        0.0000000000000000     
   6.9556976984652880E-002  0.16813771711763065        0.0000000000000000     
   5.8817517917852419E-002  0.13700895130707441        0.0000000000000000     
   5.9906983533097591E-002  0.14458446085735996        0.0000000000000000     
   6.0929481661635379E-002  0.15225237143806167        0.0000000000000000     
   6.1885012303465756E-002  0.16001268304917943        0.0000000000000000     
   6.2773575458588735E-002  0.16786539569071332        0.0000000000000000     
   5.2434475675775596E-002  0.13667706138709892        0.0000000000000000     
   5.3434340795043736E-002  0.14427397929216609        0.0000000000000000     
   5.4368718415484192E-002  0.15196313238300527        0.0000000000000000     
   5.5237608537096979E-002  0.15974452065961633        0.0000000000000000     
   5.6041011159882095E-002  0.16761814412199944        0.0000000000000000     
   4.5920508129442844E-002  0.13635761312283193        0.0000000000000000     
   4.6890390411529419E-002  0.14398208856275771        0.0000000000000000     
   4.7786813832073297E-002  0.15169663859084248        0.0000000000000000     
   4.8609778391074471E-002  0.15950126320708624        0.0000000000000000     
   4.9359284088532962E-002  0.16739596241148899        0.0000000000000000     
   7.6391215738074558E-002  0.16843510840275144        0.0000000000000000     
   7.7465759590495870E-002  0.17634184815485959        0.0000000000000000     
   7.8482322580346001E-002  0.18435254742369211        0.0000000000000000     
   7.9440904707624979E-002  0.19246720620924898        0.0000000000000000     
   8.0341505972332791E-002  0.20068582451153008        0.0000000000000000     
   6.9556976984652880E-002  0.16813771711763065        0.0000000000000000     
   7.0497863241100592E-002  0.17606634603209606        0.0000000000000000     
   7.1388446246681364E-002  0.18409772716969039        0.0000000000000000     
   7.2228726001395224E-002  0.19223186053041369        0.0000000000000000     
   7.3018702505242172E-002  0.20046874611426591        0.0000000000000000     
   6.2773575458588735E-002  0.16786539569071332        0.0000000000000000     
   6.3605682430197263E-002  0.17581535580577162        0.0000000000000000     
   6.4391844521484276E-002  0.18386740983746258        0.0000000000000000     
   6.5132061732449759E-002  0.19202155778578622        0.0000000000000000     
   6.5826334063093739E-002  0.20027779965074261        0.0000000000000000     
   5.6041011159882095E-002  0.16761814412199944        0.0000000000000000     
   5.6789217157785885E-002  0.17558887747588628        0.0000000000000000     
   5.7492517404754716E-002  0.18366159542700866        0.0000000000000000     
   5.8150911900788568E-002  0.19183629797536658        0.0000000000000000     
   5.8764400645887463E-002  0.20011298512096010        0.0000000000000000     
   4.9359284088532962E-002  0.16739596241148899        0.0000000000000000     
   5.0048467423866462E-002  0.17538691104244003        0.0000000000000000     
   5.0690464896492697E-002  0.18348028393832860        0.0000000000000000     
   5.1285276506411653E-002  0.19167608109915477        0.0000000000000000     
   5.1832902253623338E-002  0.19997430252491855        0.0000000000000000     
   8.0341505972332791E-002  0.20068582451153008        0.0000000000000000     
   8.1176589812547065E-002  0.20899447088539624        0.0000000000000000     
   8.1938619666345441E-002  0.21737921388570808        0.0000000000000000     
   8.2627595533727935E-002  0.22584005351246553        0.0000000000000000     
   8.3243517414694518E-002  0.23437698976566862        0.0000000000000000     
   7.3018702505242172E-002  0.20046874611426591        0.0000000000000000     
   7.3748424516612190E-002  0.20879575502622971        0.0000000000000000     
   7.4407940793895247E-002  0.21720025837128776        0.0000000000000000     
   7.4997251337091300E-002  0.22568225614944010        0.0000000000000000     
   7.5516356146200392E-002  0.23424174836068662        0.0000000000000000     
   6.5826334063093739E-002  0.20027779965074261        0.0000000000000000     
   6.6464046342007643E-002  0.20862361712564095        0.0000000000000000     
   6.7034583397782913E-002  0.21704649190379063        0.0000000000000000     
   6.7537945230419533E-002  0.22554642398519170        0.0000000000000000     
   6.7974131839917518E-002  0.23412341336984407        0.0000000000000000     
   5.8764400645887463E-002  0.20011298512096010        0.0000000000000000     
   5.9323455288733423E-002  0.20847805718362994        0.0000000000000000     
   5.9818547478008473E-002  0.21691791448321662        0.0000000000000000     
   6.0249677213712625E-002  0.22543255701972031        0.0000000000000000     
   6.0616844495845874E-002  0.23402198479314090        0.0000000000000000     
   5.1832902253623338E-002  0.19997430252491855        0.0000000000000000     
   5.2326651356789516E-002  0.20835907520019661        0.0000000000000000     
   5.2759833034571921E-002  0.21681452610956573        0.0000000000000000     
   5.3132447286970579E-002  0.22534065525302593        0.0000000000000000     
   5.3444494113985476E-002  0.23393746263057719        0.0000000000000000     
   8.3243517414694518E-002  0.23437698976566862        0.0000000000000000     
   8.3776257531690684E-002  0.24300984754626220        0.0000000000000000     
   8.4215688107161887E-002  0.25175845175519107        0.0000000000000000     
   8.4561809141108182E-002  0.26062280239245517        0.0000000000000000     
   8.4814620633529500E-002  0.26960289945805455        0.0000000000000000     
   7.5516356146200392E-002  0.23424174836068662        0.0000000000000000     
   7.5961014317744519E-002  0.24289180948253597        0.0000000000000000     
   7.6326984948245732E-002  0.25164551399249668        0.0000000000000000     
   7.6614268037703992E-002  0.26050286189056865        0.0000000000000000     
   7.6822863586119325E-002  0.26946385317675203        0.0000000000000000     
   6.7974131839917518E-002  0.23412341336984407        0.0000000000000000     
   6.8344057446402040E-002  0.24278380020983450        0.0000000000000000     
   6.8648636269998314E-002  0.25153392465724977        0.0000000000000000     
   6.8887868310706299E-002  0.26037378671208972        0.0000000000000000     
   6.9061753568526008E-002  0.26930338637435447        0.0000000000000000     
   6.0616844495845874E-002  0.23402198479314090        0.0000000000000000     
   6.0925386917663214E-002  0.24268581972815775        0.0000000000000000     
   6.1180642072419605E-002  0.25142368374945023        0.0000000000000000     
   6.1382609960115082E-002  0.26023557685701831        0.0000000000000000     
   6.1531290580749624E-002  0.26912149905086186        0.0000000000000000     
   5.3444494113985476E-002  0.23393746263057719        0.0000000000000000     
   5.3705002731528027E-002  0.24259786803750583        0.0000000000000000     
   5.3923002355509654E-002  0.25131479126909823        0.0000000000000000     
   5.4098492985930349E-002  0.26008823232535438        0.0000000000000000     
   5.4231474622790099E-002  0.26891819120627425        0.0000000000000000     
   8.4814620633529500E-002  0.26960289945805455        0.0000000000000000     
   8.5012406285104508E-002  0.27872528414820541        0.0000000000000000     
   8.5193449796511805E-002  0.28801649765912396        0.0000000000000000     
   8.5357751167751406E-002  0.29747653999081031        0.0000000000000000     
   8.5505310398823281E-002  0.30710541114326428        0.0000000000000000     
   7.6822863586119325E-002  0.26946385317675203        0.0000000000000000     
   7.6992934287941059E-002  0.27852190785343811        0.0000000000000000     
   7.7164642837618619E-002  0.28767044592301838        0.0000000000000000     
   7.7337989235151963E-002  0.29690946738549284        0.0000000000000000     
   7.7512973480541092E-002  0.30623897224086155        0.0000000000000000     
   6.9061753568526008E-002  0.26930338637435447        0.0000000000000000     
   6.9209672913702058E-002  0.27829230261657467        0.0000000000000000     
   6.9371007216479000E-002  0.28731011441128096        0.0000000000000000     
   6.9545756476856818E-002  0.29635682175847339        0.0000000000000000     
   6.9733920694835555E-002  0.30543242465815190        0.0000000000000000     
   6.1531290580749624E-002  0.26912149905086186        0.0000000000000000     
   6.1662622162387486E-002  0.27803646843761493        0.0000000000000000     
   6.1812542933092941E-002  0.28693550312391158        0.0000000000000000     
   6.1981052892865998E-002  0.29581860310975178        0.0000000000000000     
   6.2168152041706622E-002  0.30468576839513534        0.0000000000000000     
   5.4231474622790099E-002  0.26891819120627425        0.0000000000000000     
   5.4351782033997341E-002  0.27775440531655915        0.0000000000000000     
   5.4489249987460457E-002  0.28654661206091037        0.0000000000000000     
   5.4643878483179455E-002  0.29529481143932790        0.0000000000000000     
   5.4815667521154320E-002  0.30399900345181174        0.0000000000000000     
   3.2276216970458474E-002   5.6598259909576051E-002   0.0000000000000000     
   3.4041439761895838E-002   6.3106476785837529E-002   0.0000000000000000     
   3.5525001688405403E-002   6.9432738121375362E-002   0.0000000000000000     
   3.6726902749987154E-002   7.5577043916189537E-002   0.0000000000000000     
   3.7647142946641100E-002   8.1539394170280069E-002   0.0000000000000000     
   2.3044520051616016E-002   5.5780579828641139E-002   0.0000000000000000     
   2.6096167199695944E-002   6.2492142947259334E-002   0.0000000000000000     
   2.8481432259420316E-002   6.8955411114309195E-002   0.0000000000000000     
   3.0200315230789143E-002   7.5170384329790771E-002   0.0000000000000000     
   3.1252816113802422E-002   8.1137062593704012E-002   0.0000000000000000     
   1.6884054843275872E-002   5.5151428754898452E-002   0.0000000000000000     
   2.0286260150182023E-002   6.2007354097629981E-002   0.0000000000000000     
   2.2900504256994442E-002   6.8567297414572959E-002   0.0000000000000000     
   2.4726787163713123E-002   7.4831258705727349E-002   0.0000000000000000     
   2.5765108870338071E-002   8.0799237971093216E-002   0.0000000000000000     
   1.3794821345438028E-002   5.4710806688347970E-002   0.0000000000000000     
   1.6611718613354084E-002   6.1652110236949470E-002   0.0000000000000000     
   1.8782217681127780E-002   6.8268397022166596E-002   0.0000000000000000     
   2.0306318548759097E-002   7.4559667043999328E-002   0.0000000000000000     
   2.1184021216248055E-002   8.0525920302447679E-002   0.0000000000000000     
   1.3776819558102492E-002   5.4458713628989713E-002   0.0000000000000000     
   1.5072542589212128E-002   6.1426411365217828E-002   0.0000000000000000     
   1.6126572531820323E-002   6.8058709937090150E-002   0.0000000000000000     
   1.6938909385927070E-002   7.4355609344606666E-002   0.0000000000000000     
   1.7509553151532374E-002   8.0317109587767416E-002   0.0000000000000000     
   3.7647142946641100E-002   8.1539394170280069E-002   0.0000000000000000     
   3.8476042809954446E-002   8.7549238771461479E-002   0.0000000000000000     
   3.9403922871514389E-002   9.3836027607548333E-002   0.0000000000000000     
   4.0430783131320938E-002  0.10039976067854063        0.0000000000000000     
   4.1556623589374085E-002  0.10724043798443837        0.0000000000000000     
   3.1252816113802422E-002   8.1137062593704012E-002   0.0000000000000000     
   3.2033637827141345E-002   8.7125115989838464E-002   0.0000000000000000     
   3.2937483289487132E-002   9.3404214601983698E-002   0.0000000000000000     
   3.3964352500839783E-002   9.9974358430139701E-002   0.0000000000000000     
   3.5114245461199282E-002  0.10683554747430647        0.0000000000000000     
   2.5765108870338071E-002   8.0799237971093216E-002   0.0000000000000000     
   2.6471286518932522E-002   8.6770345112810759E-002   0.0000000000000000     
   2.7301137251559728E-002   9.3043690033020224E-002   0.0000000000000000     
   2.8254661068219680E-002   9.9619272731721623E-002   0.0000000000000000     
   2.9331857968912391E-002  0.10649709320891496        0.0000000000000000     
   2.1184021216248055E-002   8.0525920302447679E-002   0.0000000000000000     
   2.1788988885327973E-002   8.6484926140378296E-002   0.0000000000000000     
   2.2494884757732165E-002   9.2754453900657882E-002   0.0000000000000000     
   2.3301708833460649E-002   9.9334503583286382E-002   0.0000000000000000     
   2.4209461112513417E-002  0.10622507518826384        0.0000000000000000     
   1.7509553151532374E-002   8.0317109587767416E-002   0.0000000000000000     
   1.7986744926327687E-002   8.6268859072541143E-002   0.0000000000000000     
   1.8518725808004455E-002   9.2536506204896687E-002   0.0000000000000000     
   1.9105495796562681E-002   9.9120050984834007E-002   0.0000000000000000     
   1.9747054892002361E-002  0.10601949341235312        0.0000000000000000     
   4.1556623589374085E-002  0.10724043798443837        0.0000000000000000     
   4.2710864291010724E-002  0.11429462349810084        0.0000000000000000     
   4.3822925281567733E-002  0.12149888119238722        0.0000000000000000     
   4.4892806561045100E-002  0.12885321106729758        0.0000000000000000     
   4.5920508129442844E-002  0.13635761312283193        0.0000000000000000     
   3.5114245461199282E-002  0.10683554747430647        0.0000000000000000     
   3.6297128078442903E-002  0.11391750058805067        0.0000000000000000     
   3.7422966260447908E-002  0.12114993662493899        0.0000000000000000     
   3.8491760007214298E-002  0.12853285558497143        0.0000000000000000     
   3.9503509318742067E-002  0.13606625746814796        0.0000000000000000     
   2.9331857968912391E-002  0.10649709320891496        0.0000000000000000     
   3.0441102758109750E-002  0.11360139474424484        0.0000000000000000     
   3.1490770240283676E-002  0.12085642061735588        0.0000000000000000     
   3.2480860415434139E-002  0.12826217082824806        0.0000000000000000     
   3.3411373283561183E-002  0.13581864537692143        0.0000000000000000     
   2.4209461112513417E-002  0.10622507518826384        0.0000000000000000     
   2.5142788330011271E-002  0.11334630596668331        0.0000000000000000     
   2.6026337221075023E-002  0.12061833316963790        0.0000000000000000     
   2.6860107785704666E-002  0.12804115679712760        0.0000000000000000     
   2.7644100023900203E-002  0.13561477684915238        0.0000000000000000     
   1.9747054892002361E-002  0.10601949341235312        0.0000000000000000     
   2.0402184794147463E-002  0.11315223425536611        0.0000000000000000     
   2.1029667202821956E-002  0.12043567428178505        0.0000000000000000     
   2.1629502118025841E-002  0.12786981349160995        0.0000000000000000     
   2.2201689539759116E-002  0.13545465188484079        0.0000000000000000     
   4.5920508129442844E-002  0.13635761312283193        0.0000000000000000     
   4.6890390411529419E-002  0.14398208856275771        0.0000000000000000     
   4.7786813832073297E-002  0.15169663859084248        0.0000000000000000     
   4.8609778391074471E-002  0.15950126320708624        0.0000000000000000     
   4.9359284088532962E-002  0.16739596241148899        0.0000000000000000     
   3.9503509318742067E-002  0.13606625746814796        0.0000000000000000     
   4.0446095512739699E-002  0.14371857029712307        0.0000000000000000     
   4.1307399906915669E-002  0.15145822209455120        0.0000000000000000     
   4.2087422501269990E-002  0.15928521286043240        0.0000000000000000     
   4.2786163295802655E-002  0.16719954259476663        0.0000000000000000     
   3.3411373283561183E-002  0.13581864537692143        0.0000000000000000     
   3.4272419228859617E-002  0.14349320612325037        0.0000000000000000     
   3.5054108635524314E-002  0.15125321492710925        0.0000000000000000     
   3.5756441503555260E-002  0.15909867178849810        0.0000000000000000     
   3.6379417832952454E-002  0.16702957670741692        0.0000000000000000     
   2.7644100023900203E-002  0.13561477684915238        0.0000000000000000     
   2.8369361559889193E-002  0.14330599604113964        0.0000000000000000     
   2.9026940017899228E-002  0.15108161708851658        0.0000000000000000     
   2.9616835397930287E-002  0.15894163999128336        0.0000000000000000     
   3.0139047699982390E-002  0.16688606474943990        0.0000000000000000     
   2.2201689539759116E-002  0.13545465188484079        0.0000000000000000     
   2.2736922505828421E-002  0.14315694005079083        0.0000000000000000     
   2.3225894054040415E-002  0.15094342857877327        0.0000000000000000     
   2.3668604184395085E-002  0.15881411746878821        0.0000000000000000     
   2.4065052896892439E-002  0.16676900672083556        0.0000000000000000     
   4.9359284088532962E-002  0.16739596241148899        0.0000000000000000     
   5.0048467423866462E-002  0.17538691104244003        0.0000000000000000     
   5.0690464896492697E-002  0.18348028393832860        0.0000000000000000     
   5.1285276506411653E-002  0.19167608109915477        0.0000000000000000     
   5.1832902253623338E-002  0.19997430252491855        0.0000000000000000     
   4.2786163295802655E-002  0.16719954259476663        0.0000000000000000     
   4.3419741374955363E-002  0.17520908555870446        0.0000000000000000     
   4.4004275823169840E-002  0.18332171601339650        0.0000000000000000     
   4.4539766640446080E-002  0.19153743395884282        0.0000000000000000     
   4.5026213826784081E-002  0.19985623939504329        0.0000000000000000     
   3.6379417832952454E-002  0.16702957670741692        0.0000000000000000     
   3.6939347157568948E-002  0.17505503007795117        0.0000000000000000     
   3.7452539011257759E-002  0.18318413229418645        0.0000000000000000     
   3.7918993394018906E-002  0.19141688335612270        0.0000000000000000     
   3.8338710305852376E-002  0.19975328326375988        0.0000000000000000     
   3.0139047699982390E-002  0.16688606474943990        0.0000000000000000     
   3.0607284771707211E-002  0.17492474460018023        0.0000000000000000     
   3.1035254460756462E-002  0.18306753278069840        0.0000000000000000     
   3.1422956767130132E-002  0.19131442929099446        0.0000000000000000     
   3.1770391690828230E-002  0.19966543413106835        0.0000000000000000     
   2.4065052896892439E-002  0.16676900672083556        0.0000000000000000     
   2.4423554217370164E-002  0.17481822912539158        0.0000000000000000     
   2.4752422171665938E-002  0.18297191747293240        0.0000000000000000     
   2.5051656759779765E-002  0.19123007176345808        0.0000000000000000     
   2.5321257981711649E-002  0.19959269199696866        0.0000000000000000     
   5.1832902253623338E-002  0.19997430252491855        0.0000000000000000     
   5.2326651356789516E-002  0.20835907520019661        0.0000000000000000     
   5.2759833034571921E-002  0.21681452610956573        0.0000000000000000     
   5.3132447286970579E-002  0.22534065525302593        0.0000000000000000     
   5.3444494113985476E-002  0.23393746263057719        0.0000000000000000     
   4.5026213826784081E-002  0.19985623939504329        0.0000000000000000     
   4.5460057063040973E-002  0.20825950108057428        0.0000000000000000     
   4.5837736030073892E-002  0.21672858777401199        0.0000000000000000     
   4.6159250727882843E-002  0.22526349947535654        0.0000000000000000     
   4.6424601156467821E-002  0.23386423618460772        0.0000000000000000     
   3.8338710305852376E-002  0.19975328326375988        0.0000000000000000     
   3.8710094924352852E-002  0.20817216472999617        0.0000000000000000     
   3.9031552427115021E-002  0.21665236046772948        0.0000000000000000     
   3.9303082814138877E-002  0.22519387047695993        0.0000000000000000     
   3.9524686085424428E-002  0.23379669475768744        0.0000000000000000     
   3.1770391690828230E-002  0.19966543413106835        0.0000000000000000     
   3.2076764940725151E-002  0.20809706614846221        0.0000000000000000     
   3.2341282225695309E-002  0.21658584419071819        0.0000000000000000     
   3.2563943545738681E-002  0.22513176825783621        0.0000000000000000     
   3.2744748900855297E-002  0.23373483834981632        0.0000000000000000     
   2.5321257981711649E-002  0.19959269199696866        0.0000000000000000     
   2.5560067112157879E-002  0.20803420533597247        0.0000000000000000     
   2.5766925425814748E-002  0.21652903894297804        0.0000000000000000     
   2.5941832922682262E-002  0.22507719281798536        0.0000000000000000     
   2.6084789602760415E-002  0.23367866696099437        0.0000000000000000     
   5.3444494113985476E-002  0.23393746263057719        0.0000000000000000     
   5.3705002731528027E-002  0.24259786803750583        0.0000000000000000     
   5.3923002355509654E-002  0.25131479126909823        0.0000000000000000     
   5.4098492985930349E-002  0.26008823232535438        0.0000000000000000     
   5.4231474622790099E-002  0.26891819120627425        0.0000000000000000     
   4.6424601156467821E-002  0.23386423618460772        0.0000000000000000     
   4.6645244829680375E-002  0.24251761177435316        0.0000000000000000     
   4.6832639261372044E-002  0.25121044011718008        0.0000000000000000     
   4.6986784451542835E-002  0.25994272121308859        0.0000000000000000     
   4.7107680400192753E-002  0.26871445506207853        0.0000000000000000     
   3.9524686085424428E-002  0.23379669475768744        0.0000000000000000     
   3.9708453153804120E-002  0.24244271757517416        0.0000000000000000     
   3.9866474932110423E-002  0.25111382319468217        0.0000000000000000     
   3.9998751420343329E-002  0.25981001161621137        0.0000000000000000     
   4.0105282618502831E-002  0.26853128283976180        0.0000000000000000     
   3.2744748900855297E-002  0.23373483834981632        0.0000000000000000     
   3.2894627703899275E-002  0.24237318543996894        0.0000000000000000     
   3.3024509367724782E-002  0.25102494050160440        0.0000000000000000     
   3.3134393892331790E-002  0.25969010353472283        0.0000000000000000     
   3.3224281277720341E-002  0.26836867453932400        0.0000000000000000     
   2.6084789602760415E-002  0.23367866696099437        0.0000000000000000     
   2.6203768479965823E-002  0.24230901536873745        0.0000000000000000     
   2.6306742568215101E-002  0.25094379203794692        0.0000000000000000     
   2.6393711867508256E-002  0.25958299696862280        0.0000000000000000     
   2.6464676377845282E-002  0.26822663016076509        0.0000000000000000     
   5.4231474622790099E-002  0.26891819120627425        0.0000000000000000     
   5.4351782033997341E-002  0.27775440531655915        0.0000000000000000     
   5.4489249987460457E-002  0.28654661206091037        0.0000000000000000     
   5.4643878483179455E-002  0.29529481143932790        0.0000000000000000     
   5.4815667521154320E-002  0.30399900345181174        0.0000000000000000     
   4.7107680400192753E-002  0.26871445506207853        0.0000000000000000     
   4.7218466638175527E-002  0.27747454256290927        0.0000000000000000     
   4.7342282696344898E-002  0.28617188461433990        0.0000000000000000     
   4.7479128574700880E-002  0.29480648121637054        0.0000000000000000     
   4.7629004273243465E-002  0.30337833236900097        0.0000000000000000     
   4.0105282618502831E-002  0.26853128283976180        0.0000000000000000     
   4.0203990084565940E-002  0.27722530948616764        0.0000000000000000     
   4.0312795376509655E-002  0.28583976417626306        0.0000000000000000     
   4.0431698494333965E-002  0.29437464691004805        0.0000000000000000     
   4.0560699438038875E-002  0.30282995768752269        0.0000000000000000     
   3.3224281277720341E-002  0.26836867453932400        0.0000000000000000     
   3.3308352373168579E-002  0.27700670608633426        0.0000000000000000     
   3.3400788027954709E-002  0.28555025074667983        0.0000000000000000     
   3.3501588242078689E-002  0.29399930852036066        0.0000000000000000     
   3.3610753015540569E-002  0.30235387940737679        0.0000000000000000     
   2.6464676377845282E-002  0.26822663016076509        0.0000000000000000     
   2.6531553503983455E-002  0.27681873236340909        0.0000000000000000     
   2.6606260650680055E-002  0.28530334432559012        0.0000000000000000     
   2.6688797817935081E-002  0.29368046604730824        0.0000000000000000     
   2.6779165005748524E-002  0.30195009752856328        0.0000000000000000     
   1.3776819558102492E-002   5.4458713628989713E-002   0.0000000000000000     
   1.5072542589212128E-002   6.1426411365217828E-002   0.0000000000000000     
   1.6126572531820323E-002   6.8058709937090150E-002   0.0000000000000000     
   1.6938909385927070E-002   7.4355609344606666E-002   0.0000000000000000     
   1.7509553151532374E-002   8.0317109587767416E-002   0.0000000000000000     
   1.4053978887445029E-002   5.4320613642476576E-002   0.0000000000000000     
   1.3776888727164528E-002   6.1285600784980743E-002   0.0000000000000000     
   1.3675418422061067E-002   6.7914264559530396E-002   0.0000000000000000     
   1.3749567972134643E-002   7.4206604966125578E-002   0.0000000000000000     
   1.3999337377385254E-002   8.0162622004766260E-002   0.0000000000000000     
   1.1850228739641405E-002   5.4221970794461435E-002   0.0000000000000000     
   1.0832913676619664E-002   6.1185021798783906E-002   0.0000000000000000     
   1.0170604964839002E-002   6.7811089289674165E-002   0.0000000000000000     
   9.8633026042994187E-003   7.4100173267132211E-002   0.0000000000000000     
   9.9110065950009148E-003   8.0052273731158044E-002   0.0000000000000000     
   7.1655691146916261E-003   5.4162785084944300E-002   0.0000000000000000     
   6.2406174375775362E-003   6.1124674406627354E-002   0.0000000000000000     
   5.6121321601541284E-003   6.7749184127521456E-002   0.0000000000000000     
   5.2801132824214017E-003   7.4036314247626592E-002   0.0000000000000000     
   5.2445608043793571E-003   7.9986064766942783E-002   0.0000000000000000     
   1.2595686646466042E-011   5.4143056513925175E-002   0.0000000000000000     
   1.0038143927193488E-011   6.1104558608511071E-002   0.0000000000000000     
   8.0064453331085694E-012   6.7728549073072242E-002   0.0000000000000000     
   6.5005916231528071E-012   7.4015027907608721E-002   0.0000000000000000     
   5.5205831225868529E-012   7.9963995112120476E-002   0.0000000000000000     
   1.7509553151532374E-002   8.0317109587767416E-002   0.0000000000000000     
   1.7986744926327687E-002   8.6268859072541143E-002   0.0000000000000000     
   1.8518725808004455E-002   9.2536506204896687E-002   0.0000000000000000     
   1.9105495796562681E-002   9.9120050984834007E-002   0.0000000000000000     
   1.9747054892002361E-002  0.10601949341235312        0.0000000000000000     
   1.3999337377385254E-002   8.0162622004766260E-002   0.0000000000000000     
   1.4340910527461280E-002   8.6110141846435118E-002   0.0000000000000000     
   1.4690471312011094E-002   9.2376990662114855E-002   0.0000000000000000     
   1.5048019731034696E-002   9.8963168451805458E-002   0.0000000000000000     
   1.5413555784532084E-002  0.10586867521550691        0.0000000000000000     
   9.9110065950009148E-003   8.0052273731158044E-002   0.0000000000000000     
   1.0127841574258351E-002   8.5996772399196036E-002   0.0000000000000000     
   1.0327932179386587E-002   9.2263050988690601E-002   0.0000000000000000     
   1.0511278410385622E-002   9.8851109499641723E-002   0.0000000000000000     
   1.0677880267255458E-002  0.10576094793204936        0.0000000000000000     
   5.2445608043793571E-003   7.9986064766942783E-002   0.0000000000000000     
   5.3475380667189010E-003   8.5928750730823927E-002   0.0000000000000000     
   5.4311084101309349E-003   9.2194687184623911E-002   0.0000000000000000     
   5.4952718346154613E-003   9.8783874128342747E-002   0.0000000000000000     
   5.5400283401724794E-003  0.10569631156198042        0.0000000000000000     
   5.5205831225868529E-012   7.9963995112120476E-002   0.0000000000000000     
   4.8429290092077970E-012   8.5906076841318749E-002   0.0000000000000000     
   4.2441384608127297E-012   9.2171899249914785E-002   0.0000000000000000     
   3.7242118026623028E-012   9.8761462337908584E-002   0.0000000000000000     
   3.2831484926554300E-012  0.10567476610530015        0.0000000000000000     
   1.9747054892002361E-002  0.10601949341235312        0.0000000000000000     
   2.0402184794147463E-002  0.11315223425536611        0.0000000000000000     
   2.1029667202821956E-002  0.12043567428178505        0.0000000000000000     
   2.1629502118025841E-002  0.12786981349160995        0.0000000000000000     
   2.2201689539759116E-002  0.13545465188484079        0.0000000000000000     
   1.5413555784532084E-002  0.10586867521550691        0.0000000000000000     
   1.5780737177385321E-002  0.11300911647444825        0.0000000000000000     
   1.6143221614476466E-002  0.12030009774985849        0.0000000000000000     
   1.6501009095805517E-002  0.12774161904173761        0.0000000000000000     
   1.6854099621372472E-002  0.13533368035008558        0.0000000000000000     
   1.0677880267255458E-002  0.10576094793204936        0.0000000000000000     
   1.0839890506591844E-002  0.11290688948808482        0.0000000000000000     
   1.1009461884990537E-002  0.12020325736991938        0.0000000000000000     
   1.1186594402451530E-002  0.12765005157755305        0.0000000000000000     
   1.1371288058974829E-002  0.13524727211098575        0.0000000000000000     
   5.5400283401724794E-003  0.10569631156198042        0.0000000000000000     
   5.5796447817670330E-003  0.11284555329627580        0.0000000000000000     
   5.6283880143641685E-003  0.12014515314196776        0.0000000000000000     
   5.6862580379638860E-003  0.12759511109905627        0.0000000000000000     
   5.7532548525661828E-003  0.13519542716754132        0.0000000000000000     
   3.2831484926554300E-012  0.10567476610530015        0.0000000000000000     
   2.9108876767325320E-012  0.11282510789902123        0.0000000000000000     
   2.5973628629827328E-012  0.12012578506600359        0.0000000000000000     
   2.3425793639966774E-012  0.12757679760624729        0.0000000000000000     
   2.1465329513858933E-012  0.13517814551975224        0.0000000000000000     
   2.2201689539759116E-002  0.13545465188484079        0.0000000000000000     
   2.2736922505828421E-002  0.14315694005079083        0.0000000000000000     
   2.3225894054040415E-002  0.15094342857877327        0.0000000000000000     
   2.3668604184395085E-002  0.15881411746878821        0.0000000000000000     
   2.4065052896892439E-002  0.16676900672083556        0.0000000000000000     
   1.6854099621372472E-002  0.13533368035008558        0.0000000000000000     
   1.7193017539382929E-002  0.14304320847438692        0.0000000000000000     
   1.7508287198042476E-002  0.15083713021412612        0.0000000000000000     
   1.7799908597351102E-002  0.15871544556930314        0.0000000000000000     
   1.8067881737308833E-002  0.16667815453991797        0.0000000000000000     
   1.1371288058974829E-002  0.13524727211098575        0.0000000000000000     
   1.1555562133258351E-002  0.14296197163411095        0.0000000000000000     
   1.1731435904000016E-002  0.15076120281082189        0.0000000000000000     
   1.1898909371199824E-002  0.15864496564111860        0.0000000000000000     
   1.2057982534857774E-002  0.16661326012500116        0.0000000000000000     
   5.7532548525661828E-003  0.13519542716754132        0.0000000000000000     
   5.8245562874546918E-003  0.14291322952996283        0.0000000000000000     
   5.8953401719130435E-003  0.15071564636886062        0.0000000000000000     
   5.9656065059412377E-003  0.15860267768423472        0.0000000000000000     
   6.0353552895392737E-003  0.16657432347608514        0.0000000000000000     
   2.1465329513858933E-012  0.13517814551975224        0.0000000000000000     
   1.9719505976040219E-012  0.14289698216194255        0.0000000000000000     
   1.7815546130353632E-012  0.15070046088824229        0.0000000000000000     
   1.5753465426680130E-012  0.15858858169865142        0.0000000000000000     
   1.3533263051868083E-012  0.16656134459316996        0.0000000000000000     
   2.4065052896892439E-002  0.16676900672083556        0.0000000000000000     
   2.4423554217370164E-002  0.17481822912539158        0.0000000000000000     
   2.4752422171665938E-002  0.18297191747293240        0.0000000000000000     
   2.5051656759779765E-002  0.19123007176345808        0.0000000000000000     
   2.5321257981711649E-002  0.19959269199696866        0.0000000000000000     
   1.8067881737308833E-002  0.16667815453991797        0.0000000000000000     
   1.8314908599924257E-002  0.17473542746126891        0.0000000000000000     
   1.8543691167206004E-002  0.18289743466865421        0.0000000000000000     
   1.8754229439154068E-002  0.19116417616207393        0.0000000000000000     
   1.8946523415768447E-002  0.19953565194152803        0.0000000000000000     
   1.2057982534857774E-002  0.16661326012500116        0.0000000000000000     
   1.2208101024735959E-002  0.17467628341549599        0.0000000000000000     
   1.2348710470596465E-002  0.18284423266562971        0.0000000000000000     
   1.2479810872439294E-002  0.19111710787540231        0.0000000000000000     
   1.2601402230264444E-002  0.19949490904481376        0.0000000000000000     
   6.0353552895392737E-003  0.16657432347608514        0.0000000000000000     
   6.1031314918052644E-003  0.17464079698807286        0.0000000000000000     
   6.1674800818373211E-003  0.18281231146385890        0.0000000000000000     
   6.2284010596354474E-003  0.19108886690344323        0.0000000000000000     
   6.2858944251996387E-003  0.19947046330682586        0.0000000000000000     
   1.3533263051868083E-012  0.16656134459316996        0.0000000000000000     
   1.1321761670540775E-012  0.17462896817899951        0.0000000000000000     
   9.2857763579062835E-013  0.18280167106334178        0.0000000000000000     
   7.4253193112390481E-013  0.19107945324619668        0.0000000000000000     
   5.7403691175461624E-013  0.19946231472756429        0.0000000000000000     
   2.5321257981711649E-002  0.19959269199696866        0.0000000000000000     
   2.5560067112157879E-002  0.20803420533597247        0.0000000000000000     
   2.5766925425814748E-002  0.21652903894297804        0.0000000000000000     
   2.5941832922682262E-002  0.22507719281798536        0.0000000000000000     
   2.6084789602760415E-002  0.23367866696099437        0.0000000000000000     
   1.8946523415768447E-002  0.19953565194152803        0.0000000000000000     
   1.9118776604396842E-002  0.20798455614901215        0.0000000000000000     
   1.9269192512386960E-002  0.21648358292652181        0.0000000000000000     
   1.9397771139738788E-002  0.22503273227405718        0.0000000000000000     
   1.9504512486452338E-002  0.23363200419161811        0.0000000000000000     
   1.2601402230264444E-002  0.19949490904481376        0.0000000000000000     
   1.2711668583187875E-002  0.20794909244406631        0.0000000000000000     
   1.2808793970325546E-002  0.21645111434336223        0.0000000000000000     
   1.2892778391677458E-002  0.22500097474270148        0.0000000000000000     
   1.2963621847243612E-002  0.23359867364208406        0.0000000000000000     
   6.2858944251996387E-003  0.19947046330682586        0.0000000000000000     
   6.3387430485309700E-003  0.20792781422113513        0.0000000000000000     
   6.3857297996305152E-003  0.21643163319349923        0.0000000000000000     
   6.4268546784982698E-003  0.22498192022391833        0.0000000000000000     
   6.4621176851342357E-003  0.23357867531239229        0.0000000000000000     
   5.7403691175461624E-013  0.19946231472756429        0.0000000000000000     
   4.2613200294805420E-013  0.20792072148021842        0.0000000000000000     
   3.0186215940058991E-013  0.21642513947693287        0.0000000000000000     
   2.0122019827283066E-013  0.22497556871770763        0.0000000000000000     
   1.2421053768862933E-013  0.23357200920254276        0.0000000000000000     
   2.6084789602760415E-002  0.23367866696099437        0.0000000000000000     
   2.6203768479965823E-002  0.24230901536873745        0.0000000000000000     
   2.6306742568215101E-002  0.25094379203794692        0.0000000000000000     
   2.6393711867508256E-002  0.25958299696862280        0.0000000000000000     
   2.6464676377845282E-002  0.26822663016076509        0.0000000000000000     
   1.9504512486452338E-002  0.23363200419161811        0.0000000000000000     
   1.9594000866761059E-002  0.24225521245940715        0.0000000000000000     
   1.9670820594898407E-002  0.25087617085762676        0.0000000000000000     
   1.9734971670864389E-002  0.25949487938627702        0.0000000000000000     
   1.9786454094658998E-002  0.26811133804535786        0.0000000000000000     
   1.2963621847243612E-002  0.23359867364208406        0.0000000000000000     
   1.3023450249042265E-002  0.24221678180990544        0.0000000000000000     
   1.3074389509091689E-002  0.25082787001456103        0.0000000000000000     
   1.3116439627391877E-002  0.25943193825605093        0.0000000000000000     
   1.3149600603942831E-002  0.26802898653437501        0.0000000000000000     
   6.4621176851342357E-003  0.23357867531239229        0.0000000000000000     
   6.4921166268094507E-003  0.24219372342023238        0.0000000000000000     
   6.5174493107949451E-003  0.25079888950874979        0.0000000000000000     
   6.5381157370907241E-003  0.25939417357794448        0.0000000000000000     
   6.5541159056967833E-003  0.26797957562781655        0.0000000000000000     
   1.2421053768862933E-013  0.23357200920254276        0.0000000000000000     
   6.2605953407568471E-014  0.24218603729038796        0.0000000000000000     
   8.1766191040166802E-015  0.25078922934019293        0.0000000000000000     
  -3.9075730498550065E-014  0.25938158535195777        0.0000000000000000     
  -7.9151962761869754E-014  0.26796310532568240        0.0000000000000000     
   2.6464676377845282E-002  0.26822663016076509        0.0000000000000000     
   2.6531553503983455E-002  0.27681873236340909        0.0000000000000000     
   2.6606260650680055E-002  0.28530334432559012        0.0000000000000000     
   2.6688797817935081E-002  0.29368046604730824        0.0000000000000000     
   2.6779165005748524E-002  0.30195009752856328        0.0000000000000000     
   1.9786454094658998E-002  0.26811133804535786        0.0000000000000000     
   1.9835296823918026E-002  0.27666765583950764        0.0000000000000000     
   1.9891528816277253E-002  0.28510594177336479        0.0000000000000000     
   1.9955150071736687E-002  0.29342619584692925        0.0000000000000000     
   2.0026160590296320E-002  0.30162841806020096        0.0000000000000000     
   1.3149600603942831E-002  0.26802898653437501        0.0000000000000000     
   1.3181285679879752E-002  0.27655974403674555        0.0000000000000000     
   1.3218908096337838E-002  0.28496493995037464        0.0000000000000000     
   1.3262467853317092E-002  0.29324457427526224        0.0000000000000000     
   1.3311964950817512E-002  0.30139864701140839        0.0000000000000000     
   6.5541159056967833E-003  0.26797957562781655        0.0000000000000000     
   6.5695200718686401E-003  0.27649499695512264        0.0000000000000000     
   6.5883984908618153E-003  0.28488033885661956        0.0000000000000000     
   6.6107511626763010E-003  0.29313560133230715        0.0000000000000000     
   6.6365780873121061E-003  0.30126078438218562        0.0000000000000000     
  -7.9151962761869754E-014  0.26796310532568240        0.0000000000000000     
  -1.1531357466121328E-013  0.27647341459463898        0.0000000000000000     
  -1.5082574945923799E-013  0.28485213849209950        0.0000000000000000     
  -1.8568789084474902E-013  0.29309927701806410        0.0000000000000000     
  -2.1990135407046196E-013  0.30121483017253259        0.0000000000000000     
   1.2595686646466042E-011   5.4143056513925175E-002   0.0000000000000000     
   1.0038143927193488E-011   6.1104558608511071E-002   0.0000000000000000     
   8.0064453331085694E-012   6.7728549073072242E-002   0.0000000000000000     
   6.5005916231528071E-012   7.4015027907608721E-002   0.0000000000000000     
   5.5205831225868529E-012   7.9963995112120476E-002   0.0000000000000000     
  -7.1655690907552073E-003   5.4162785081389053E-002   0.0000000000000000     
  -6.2406174184481012E-003   6.1124674404409496E-002   0.0000000000000000     
  -5.6121321448516261E-003   6.7749184126295464E-002   0.0000000000000000     
  -5.2801132699657714E-003   7.4036314247046944E-002   0.0000000000000000     
  -5.2445607937905443E-003   7.9986064766663922E-002   0.0000000000000000     
  -1.1850228719469846E-002   5.4221970787320932E-002   0.0000000000000000     
  -1.0832913660330793E-002   6.1185021794297099E-002   0.0000000000000000     
  -1.0170604951667658E-002   6.7811089287160009E-002   0.0000000000000000     
  -9.8633025934804480E-003   7.4100173265909633E-002   0.0000000000000000     
  -9.9110065857691589E-003   8.0052273730545964E-002   0.0000000000000000     
  -1.4053978873548235E-002   5.4320613631720825E-002   0.0000000000000000     
  -1.3776888715609927E-002   6.1285600778173882E-002   0.0000000000000000     
  -1.3675418412441661E-002   6.7914264555665863E-002   0.0000000000000000     
  -1.3749567964043438E-002   7.4206604964196773E-002   0.0000000000000000     
  -1.3999337370415260E-002   8.0162622003766601E-002   0.0000000000000000     
  -1.3776819552990371E-002   5.4458713614588712E-002   0.0000000000000000     
  -1.5072542584285503E-002   6.1426411356039816E-002   0.0000000000000000     
  -1.6126572527173626E-002   6.8058709931813038E-002   0.0000000000000000     
  -1.6938909381654745E-002   7.4355609341908380E-002   0.0000000000000000     
  -1.7509553147728847E-002   8.0317109586325833E-002   0.0000000000000000     
   5.5205831225868529E-012   7.9963995112120476E-002   0.0000000000000000     
   4.8429290092077970E-012   8.5906076841318749E-002   0.0000000000000000     
   4.2441384608127297E-012   9.2171899249914785E-002   0.0000000000000000     
   3.7242118026623028E-012   9.8761462337908584E-002   0.0000000000000000     
   3.2831484926554300E-012  0.10567476610530015        0.0000000000000000     
  -5.2445607937905443E-003   7.9986064766663922E-002   0.0000000000000000     
  -5.3475380574308819E-003   8.5928750730659240E-002   0.0000000000000000     
  -5.4311084019917372E-003   9.2194687184545696E-002   0.0000000000000000     
  -5.4952718274730956E-003   9.8783874128323290E-002   0.0000000000000000     
  -5.5400283338749709E-003  0.10569631156199201        0.0000000000000000     
  -9.9110065857691589E-003   8.0052273730545964E-002   0.0000000000000000     
  -1.0127841566163859E-002   8.5996772398824126E-002   0.0000000000000000     
  -1.0327932172294619E-002   9.2263050988499101E-002   0.0000000000000000     
  -1.0511278404161438E-002   9.8851109499570919E-002   0.0000000000000000     
  -1.0677880261764316E-002  0.10576094793203958        0.0000000000000000     
  -1.3999337370415260E-002   8.0162622003766601E-002   0.0000000000000000     
  -1.4340910521355993E-002   8.6110141845813351E-002   0.0000000000000000     
  -1.4690471306664512E-002   9.2376990661774974E-002   0.0000000000000000     
  -1.5048019726340806E-002   9.8963168451651498E-002   0.0000000000000000     
  -1.5413555780384888E-002  0.10586867521544285        0.0000000000000000     
  -1.7509553147728847E-002   8.0317109586325833E-002   0.0000000000000000     
  -1.7986744923007288E-002   8.6268859071626958E-002   0.0000000000000000     
  -1.8518725805101409E-002   9.2536506204373356E-002   0.0000000000000000     
  -1.9105495794011208E-002   9.9120050984564945E-002   0.0000000000000000     
  -1.9747054889736684E-002  0.10601949341220181        0.0000000000000000     
   3.2831484926554300E-012  0.10567476610530015        0.0000000000000000     
   2.9108876767325320E-012  0.11282510789902123        0.0000000000000000     
   2.5973628629827328E-012  0.12012578506600359        0.0000000000000000     
   2.3425793639966774E-012  0.12757679760624729        0.0000000000000000     
   2.1465329513858933E-012  0.13517814551975224        0.0000000000000000     
  -5.5400283338749709E-003  0.10569631156199201        0.0000000000000000     
  -5.5796447761825435E-003  0.11284555329630359        0.0000000000000000     
  -5.6283880093810044E-003  0.12014515314200977        0.0000000000000000     
  -5.6862580334703485E-003  0.12759511109911056        0.0000000000000000     
  -5.7532548484505869E-003  0.13519542716760594        0.0000000000000000     
  -1.0677880261764316E-002  0.10576094793203958        0.0000000000000000     
  -1.0839890501719206E-002  0.11290688948810552        0.0000000000000000     
  -1.1009461880642056E-002  0.12020325736996922        0.0000000000000000     
  -1.1186594398532869E-002  0.12765005157763065        0.0000000000000000     
  -1.1371288055391645E-002  0.13524727211108983        0.0000000000000000     
  -1.5413555780384888E-002  0.10586867521544285        0.0000000000000000     
  -1.5780737173699100E-002  0.11300911647442703        0.0000000000000000     
  -1.6143221611185792E-002  0.12030009774988194        0.0000000000000000     
  -1.6501009092844979E-002  0.12774161904180759        0.0000000000000000     
  -1.6854099618676639E-002  0.13533368035020396        0.0000000000000000     
  -1.9747054889736684E-002  0.10601949341220181        0.0000000000000000     
  -2.0402184792122226E-002  0.11315223425526807        0.0000000000000000     
  -2.1029667201012223E-002  0.12043567428174792        0.0000000000000000     
  -2.1629502116406667E-002  0.12786981349164131        0.0000000000000000     
  -2.2201689538305570E-002  0.13545465188494826        0.0000000000000000     
   2.1465329513858933E-012  0.13517814551975224        0.0000000000000000     
   1.9719505976040219E-012  0.14289698216194255        0.0000000000000000     
   1.7815546130353632E-012  0.15070046088824229        0.0000000000000000     
   1.5753465426680130E-012  0.15858858169865142        0.0000000000000000     
   1.3533263051868083E-012  0.16656134459316996        0.0000000000000000     
  -5.7532548484505869E-003  0.13519542716760594        0.0000000000000000     
  -5.8245562836761015E-003  0.14291322953003999        0.0000000000000000     
  -5.8953401685012874E-003  0.15071564636895687        0.0000000000000000     
  -5.9656065029261391E-003  0.15860267768435651        0.0000000000000000     
  -6.0353552869506655E-003  0.16657432347623896        0.0000000000000000     
  -1.1371288055391645E-002  0.13524727211108983        0.0000000000000000     
  -1.1555562129975690E-002  0.14296197163424498        0.0000000000000000     
  -1.1731435901042316E-002  0.15076120281099434        0.0000000000000000     
  -1.1898909368591519E-002  0.15864496564133790        0.0000000000000000     
  -1.2057982532623301E-002  0.16661326012527566        0.0000000000000000     
  -1.6854099618676639E-002  0.13533368035020396        0.0000000000000000     
  -1.7193017536926817E-002  0.14304320847455751        0.0000000000000000     
  -1.7508287195841528E-002  0.15083713021435471        0.0000000000000000     
  -1.7799908595420785E-002  0.15871544556959555        0.0000000000000000     
  -1.8067881735664575E-002  0.16667815454028001        0.0000000000000000     
  -2.2201689538305570E-002  0.13545465188494826        0.0000000000000000     
  -2.2736922504529477E-002  0.14315694005097757        0.0000000000000000     
  -2.3225894052898932E-002  0.15094342857903797        0.0000000000000000     
  -2.3668604183413940E-002  0.15881411746912943        0.0000000000000000     
  -2.4065052896074496E-002  0.16676900672125200        0.0000000000000000     
   1.3533263051868083E-012  0.16656134459316996        0.0000000000000000     
   1.1321761670540775E-012  0.17462896817899951        0.0000000000000000     
   9.2857763579062835E-013  0.18280167106334178        0.0000000000000000     
   7.4253193112390481E-013  0.19107945324619668        0.0000000000000000     
   5.7403691175461624E-013  0.19946231472756429        0.0000000000000000     
  -6.0353552869506655E-003  0.16657432347623896        0.0000000000000000     
  -6.1031314896414154E-003  0.17464079698825508        0.0000000000000000     
  -6.1674800800649437E-003  0.18281231146405566        0.0000000000000000     
  -6.2284010582212522E-003  0.19108886690364077        0.0000000000000000     
  -6.2858944241103460E-003  0.19947046330701046        0.0000000000000000     
  -1.2057982532623301E-002  0.16661326012527566        0.0000000000000000     
  -1.2208101022873613E-002  0.17467628341581865        0.0000000000000000     
  -1.2348710469078417E-002  0.18284423266597802        0.0000000000000000     
  -1.2479810871237706E-002  0.19111710787575373        0.0000000000000000     
  -1.2601402229351487E-002  0.19949490904514577        0.0000000000000000     
  -1.8067881735664575E-002  0.16667815454028001        0.0000000000000000     
  -1.8314908598564425E-002  0.17473542746169035        0.0000000000000000     
  -1.8543691166111837E-002  0.18289743466910885        0.0000000000000000     
  -1.8754229438306829E-002  0.19116417616253542        0.0000000000000000     
  -1.8946523415149383E-002  0.19953565194197015        0.0000000000000000     
  -2.4065052896074496E-002  0.16676900672125200        0.0000000000000000     
  -2.4423554216713845E-002  0.17481822912587006        0.0000000000000000     
  -2.4752422171165217E-002  0.18297191747344804        0.0000000000000000     
  -2.5051656759428612E-002  0.19123007176398593        0.0000000000000000     
  -2.5321257981504038E-002  0.19959269199748372        0.0000000000000000     
   5.7403691175461624E-013  0.19946231472756429        0.0000000000000000     
   4.2613200294805420E-013  0.20792072148021842        0.0000000000000000     
   3.0186215940058991E-013  0.21642513947693287        0.0000000000000000     
   2.0122019827283066E-013  0.22497556871770763        0.0000000000000000     
   1.2421053768862933E-013  0.23357200920254276        0.0000000000000000     
  -6.2858944241103460E-003  0.19947046330701046        0.0000000000000000     
  -6.3387430477273984E-003  0.20792781422130183        0.0000000000000000     
  -6.3857297990676043E-003  0.21643163319365211        0.0000000000000000     
  -6.4268546781309525E-003  0.22498192022406124        0.0000000000000000     
  -6.4621176849174490E-003  0.23357867531252929        0.0000000000000000     
  -1.2601402229351487E-002  0.19949490904514577        0.0000000000000000     
  -1.2711668582530393E-002  0.20794909244437093        0.0000000000000000     
  -1.2808793969885069E-002  0.21645111434364597        0.0000000000000000     
  -1.2892778391415519E-002  0.22500097474297084        0.0000000000000000     
  -1.2963621847121732E-002  0.23359867364234566        0.0000000000000000     
  -1.8946523415149383E-002  0.19953565194197015        0.0000000000000000     
  -1.9118776603982840E-002  0.20798455614942568        0.0000000000000000     
  -1.9269192512150535E-002  0.21648358292691447        0.0000000000000000     
  -1.9397771139652471E-002  0.22503273227443657        0.0000000000000000     
  -1.9504512486488643E-002  0.23363200419199193        0.0000000000000000     
  -2.5321257981504038E-002  0.19959269199748372        0.0000000000000000     
  -2.5560067112084750E-002  0.20803420533646608        0.0000000000000000     
  -2.5766925425864010E-002  0.21652903894345757        0.0000000000000000     
  -2.5941832922841815E-002  0.22507719281845828        0.0000000000000000     
  -2.6084789603018164E-002  0.23367866696146811        0.0000000000000000     
   1.2421053768862933E-013  0.23357200920254276        0.0000000000000000     
   6.2605953407568471E-014  0.24218603729038796        0.0000000000000000     
   8.1766191040166802E-015  0.25078922934019293        0.0000000000000000     
  -3.9075730498550065E-014  0.25938158535195777        0.0000000000000000     
  -7.9151962761869754E-014  0.26796310532568240        0.0000000000000000     
  -6.4621176849174490E-003  0.23357867531252929        0.0000000000000000     
  -6.4921166267136506E-003  0.24219372342036743        0.0000000000000000     
  -6.5174493108061107E-003  0.25079888950888685        0.0000000000000000     
  -6.5381157371948292E-003  0.25939417357808758        0.0000000000000000     
  -6.5541159058798096E-003  0.26797957562796959        0.0000000000000000     
  -1.2963621847121732E-002  0.23359867364234566        0.0000000000000000     
  -1.3023450249034703E-002  0.24221678181016607        0.0000000000000000     
  -1.3074389509185410E-002  0.25082787001482770        0.0000000000000000     
  -1.3116439627573851E-002  0.25943193825633071        0.0000000000000000     
  -1.3149600604200029E-002  0.26802898653467483        0.0000000000000000     
  -1.9504512486488643E-002  0.23363200419199193        0.0000000000000000     
  -1.9594000866900555E-002  0.24225521245978390        0.0000000000000000     
  -1.9670820595129718E-002  0.25087617085801567        0.0000000000000000     
  -1.9734971671176143E-002  0.25949487938668708        0.0000000000000000     
  -1.9786454095039818E-002  0.26811133804579829        0.0000000000000000     
  -2.6084789603018164E-002  0.23367866696146811        0.0000000000000000     
  -2.6203768480311199E-002  0.24230901536922089        0.0000000000000000     
  -2.6306742568639040E-002  0.25094379203845046        0.0000000000000000     
  -2.6393711868001699E-002  0.25958299696915682        0.0000000000000000     
  -2.6464676378399162E-002  0.26822663016133991        0.0000000000000000     
  -7.9151962761869754E-014  0.26796310532568240        0.0000000000000000     
  -1.1531357466121328E-013  0.27647341459463898        0.0000000000000000     
  -1.5082574945923799E-013  0.28485213849209950        0.0000000000000000     
  -1.8568789084474902E-013  0.29309927701806410        0.0000000000000000     
  -2.1990135407046196E-013  0.30121483017253259        0.0000000000000000     
  -6.5541159058798096E-003  0.26797957562796959        0.0000000000000000     
  -6.5695200721229852E-003  0.27649499695529123        0.0000000000000000     
  -6.5883984911863005E-003  0.28488033885681086        0.0000000000000000     
  -6.6107511630697537E-003  0.29313560133252842        0.0000000000000000     
  -6.6365780877733448E-003  0.30126078438244397        0.0000000000000000     
  -1.3149600604200029E-002  0.26802898653467483        0.0000000000000000     
  -1.3181285680205252E-002  0.27655974403707601        0.0000000000000000     
  -1.3218908096730833E-002  0.28496493995074962        0.0000000000000000     
  -1.3262467853776766E-002  0.29324457427569567        0.0000000000000000     
  -1.3311964951343059E-002  0.30139864701191438        0.0000000000000000     
  -1.9786454095039818E-002  0.26811133804579829        0.0000000000000000     
  -1.9835296824362119E-002  0.27666765583999320        0.0000000000000000     
  -1.9891528816784423E-002  0.28510594177391579        0.0000000000000000     
  -1.9955150072306728E-002  0.29342619584756591        0.0000000000000000     
  -2.0026160590929043E-002  0.30162841806094365        0.0000000000000000     
  -2.6464676378399162E-002  0.26822663016133991        0.0000000000000000     
  -2.6531553504593575E-002  0.27681873236404303        0.0000000000000000     
  -2.6606260651347066E-002  0.28530334432630938        0.0000000000000000     
  -2.6688797818659647E-002  0.29368046604813897        0.0000000000000000     
  -2.6779165006531300E-002  0.30195009752953195        0.0000000000000000     
  -1.3776819552990371E-002   5.4458713614588712E-002   0.0000000000000000     
  -1.5072542584285503E-002   6.1426411356039816E-002   0.0000000000000000     
  -1.6126572527173626E-002   6.8058709931813038E-002   0.0000000000000000     
  -1.6938909381654745E-002   7.4355609341908380E-002   0.0000000000000000     
  -1.7509553147728847E-002   8.0317109586325833E-002   0.0000000000000000     
  -1.3794821348737706E-002   5.4710806671177503E-002   0.0000000000000000     
  -1.6611718614928987E-002   6.1652110225979842E-002   0.0000000000000000     
  -1.8782217681499142E-002   6.8268397015828097E-002   0.0000000000000000     
  -2.0306318548448162E-002   7.4559667040722297E-002   0.0000000000000000     
  -2.1184021215776051E-002   8.0525920300662440E-002   0.0000000000000000     
  -1.6884054851731688E-002   5.5151428736740102E-002   0.0000000000000000     
  -2.0286260156111843E-002   6.2007354086078839E-002   0.0000000000000000     
  -2.2900504261053778E-002   6.8567297407937614E-002   0.0000000000000000     
  -2.4726787166557501E-002   7.4831258702316397E-002   0.0000000000000000     
  -2.5765108872623003E-002   8.0799237969215232E-002   0.0000000000000000     
  -2.3044520061972322E-002   5.5780579811276494E-002   0.0000000000000000     
  -2.6096167207834066E-002   6.2492142936336828E-002   0.0000000000000000     
  -2.8481432265837547E-002   6.8955411108141546E-002   0.0000000000000000     
  -3.0200315235982756E-002   7.5170384326690681E-002   0.0000000000000000     
  -3.1252816118269695E-002   8.1137062591984194E-002   0.0000000000000000     
  -3.2276216979459607E-002   5.6598259894786687E-002   0.0000000000000000     
  -3.4041439770095661E-002   6.3106476776753795E-002   0.0000000000000000     
  -3.5525001695850440E-002   6.9432738116439949E-002   0.0000000000000000     
  -3.6726902756723932E-002   7.5577043913845149E-002   0.0000000000000000     
  -3.7647142952716151E-002   8.1539394168969354E-002   0.0000000000000000     
  -1.7509553147728847E-002   8.0317109586325833E-002   0.0000000000000000     
  -1.7986744923007288E-002   8.6268859071626958E-002   0.0000000000000000     
  -1.8518725805101409E-002   9.2536506204373356E-002   0.0000000000000000     
  -1.9105495794011208E-002   9.9120050984564945E-002   0.0000000000000000     
  -1.9747054889736684E-002  0.10601949341220181        0.0000000000000000     
  -2.1184021215776051E-002   8.0525920300662440E-002   0.0000000000000000     
  -2.1788988884943621E-002   8.6484926139217988E-002   0.0000000000000000     
  -2.2494884757411664E-002   9.2754453899958456E-002   0.0000000000000000     
  -2.3301708833180185E-002   9.9334503582883815E-002   0.0000000000000000     
  -2.4209461112249191E-002  0.10622507518799409        0.0000000000000000     
  -2.5765108872623003E-002   8.0799237969215232E-002   0.0000000000000000     
  -2.6471286520990862E-002   8.6770345111539471E-002   0.0000000000000000     
  -2.7301137253401629E-002   9.3043690032194579E-002   0.0000000000000000     
  -2.8254661069855302E-002   9.9619272731180541E-002   0.0000000000000000     
  -2.9331857970351899E-002  0.10649709320849732        0.0000000000000000     
  -3.1252816118269695E-002   8.1137062591984194E-002   0.0000000000000000     
  -3.2033637831149014E-002   8.7125115988591448E-002   0.0000000000000000     
  -3.2937483293071293E-002   9.3404214601081739E-002   0.0000000000000000     
  -3.3964352504036552E-002   9.9974358429455110E-002   0.0000000000000000     
  -3.5114245464044791E-002  0.10683554747371149        0.0000000000000000     
  -3.7647142952716151E-002   8.1539394168969354E-002   0.0000000000000000     
  -3.8476042815418054E-002   8.7549238770373877E-002   0.0000000000000000     
  -3.9403922876420652E-002   9.3836027606619923E-002   0.0000000000000000     
  -4.0430783135723923E-002  0.10039976067770751        0.0000000000000000     
  -4.1556623593327895E-002  0.10724043798363662        0.0000000000000000     
  -1.9747054889736684E-002  0.10601949341220181        0.0000000000000000     
  -2.0402184792122226E-002  0.11315223425526807        0.0000000000000000     
  -2.1029667201012223E-002  0.12043567428174792        0.0000000000000000     
  -2.1629502116406667E-002  0.12786981349164131        0.0000000000000000     
  -2.2201689538305570E-002  0.13545465188494826        0.0000000000000000     
  -2.4209461112249191E-002  0.10622507518799409        0.0000000000000000     
  -2.5142788329758782E-002  0.11334630596647180        0.0000000000000000     
  -2.6026337220849058E-002  0.12061833316949953        0.0000000000000000     
  -2.6860107785520029E-002  0.12804115679707725        0.0000000000000000     
  -2.7644100023771694E-002  0.13561477684920500        0.0000000000000000     
  -2.9331857970351899E-002  0.10649709320849732        0.0000000000000000     
  -3.0441102759378957E-002  0.11360139474388142        0.0000000000000000     
  -3.1490770241424035E-002  0.12085642061706930        0.0000000000000000     
  -3.2480860416487137E-002  0.12826217082806093        0.0000000000000000     
  -3.3411373284568273E-002  0.13581864537685637        0.0000000000000000     
  -3.5114245464044791E-002  0.10683554747371149        0.0000000000000000     
  -3.6297128080982753E-002  0.11391750058749685        0.0000000000000000     
  -3.7422966262737140E-002  0.12114993662445712        0.0000000000000000     
  -3.8491760009308006E-002  0.12853285558459232        0.0000000000000000     
  -3.9503509320695282E-002  0.13606625746790235        0.0000000000000000     
  -4.1556623593327895E-002  0.10724043798363662        0.0000000000000000     
  -4.2710864294570175E-002  0.11429462349731818        0.0000000000000000     
  -4.3822925284788407E-002  0.12149888119166312        0.0000000000000000     
  -4.4892806563982604E-002  0.12885321106667139        0.0000000000000000     
  -4.5920508132152746E-002  0.13635761312234301        0.0000000000000000     
  -2.2201689538305570E-002  0.13545465188494826        0.0000000000000000     
  -2.2736922504529477E-002  0.14315694005097757        0.0000000000000000     
  -2.3225894052898932E-002  0.15094342857903797        0.0000000000000000     
  -2.3668604183413940E-002  0.15881411746912943        0.0000000000000000     
  -2.4065052896074496E-002  0.16676900672125200        0.0000000000000000     
  -2.7644100023771694E-002  0.13561477684920500        0.0000000000000000     
  -2.8369361559820436E-002  0.14330599604129818        0.0000000000000000     
  -2.9026940017882634E-002  0.15108161708877224        0.0000000000000000     
  -2.9616835397958292E-002  0.15894163999162719        0.0000000000000000     
  -3.0139047700047404E-002  0.16688606474986301        0.0000000000000000     
  -3.3411373284568273E-002  0.13581864537685637        0.0000000000000000     
  -3.4272419229836454E-002  0.14349320612331234        0.0000000000000000     
  -3.5054108636460760E-002  0.15125321492728569        0.0000000000000000     
  -3.5756441504441142E-002  0.15909867178877637        0.0000000000000000     
  -3.6379417833777634E-002  0.16702957670778434        0.0000000000000000     
  -3.9503509320695282E-002  0.13606625746790235        0.0000000000000000     
  -4.0446095514577535E-002  0.14371857029702009        0.0000000000000000     
  -4.1307399908633281E-002  0.15145822209457832        0.0000000000000000     
  -4.2087422502862501E-002  0.15928521286057690        0.0000000000000000     
  -4.2786163297265201E-002  0.16719954259501604        0.0000000000000000     
  -4.5920508132152746E-002  0.13635761312234301        0.0000000000000000     
  -4.6890390414043678E-002  0.14398208856242145        0.0000000000000000     
  -4.7786813834400220E-002  0.15169663859065008        0.0000000000000000     
  -4.8609778393222350E-002  0.15950126320702895        0.0000000000000000     
  -4.9359284090510096E-002  0.16739596241155802        0.0000000000000000     
  -2.4065052896074496E-002  0.16676900672125200        0.0000000000000000     
  -2.4423554216713845E-002  0.17481822912587006        0.0000000000000000     
  -2.4752422171165217E-002  0.18297191747344804        0.0000000000000000     
  -2.5051656759428612E-002  0.19123007176398593        0.0000000000000000     
  -2.5321257981504038E-002  0.19959269199748372        0.0000000000000000     
  -3.0139047700047404E-002  0.16688606474986301        0.0000000000000000     
  -3.0607284771808976E-002  0.17492474460066762        0.0000000000000000     
  -3.1035254460902013E-002  0.18306753278122881        0.0000000000000000     
  -3.1422956767326524E-002  0.19131442929154663        0.0000000000000000     
  -3.1770391691082492E-002  0.19966543413162108        0.0000000000000000     
  -3.6379417833777634E-002  0.16702957670778434        0.0000000000000000     
  -3.6939347158336931E-002  0.17505503007839265        0.0000000000000000     
  -3.7452539011985718E-002  0.18318413229468411        0.0000000000000000     
  -3.7918993394723995E-002  0.19141688335665885        0.0000000000000000     
  -3.8338710306551775E-002  0.19975328326431674        0.0000000000000000     
  -4.2786163297265201E-002  0.16719954259501604        0.0000000000000000     
  -4.3419741376297699E-002  0.17520908555904519        0.0000000000000000     
  -4.4004275824416315E-002  0.18332171601381406        0.0000000000000000     
  -4.4539766641621049E-002  0.19153743395932266        0.0000000000000000     
  -4.5026213827911901E-002  0.19985623939557090        0.0000000000000000     
  -4.9359284090510096E-002  0.16739596241155802        0.0000000000000000     
  -5.0048467425691301E-002  0.17538691104262524        0.0000000000000000     
  -5.0690464898193816E-002  0.18348028393861857        0.0000000000000000     
  -5.1285276508017681E-002  0.19167608109953796        0.0000000000000000     
  -5.1832902255162856E-002  0.19997430252538337        0.0000000000000000     
  -2.5321257981504038E-002  0.19959269199748372        0.0000000000000000     
  -2.5560067112084750E-002  0.20803420533646608        0.0000000000000000     
  -2.5766925425864010E-002  0.21652903894345757        0.0000000000000000     
  -2.5941832922841815E-002  0.22507719281845828        0.0000000000000000     
  -2.6084789603018164E-002  0.23367866696146811        0.0000000000000000     
  -3.1770391691082492E-002  0.19966543413162108        0.0000000000000000     
  -3.2076764941042259E-002  0.20809706614900778        0.0000000000000000     
  -3.2341282226078155E-002  0.21658584419126248        0.0000000000000000     
  -3.2563943546190181E-002  0.22513176825838507        0.0000000000000000     
  -3.2744748901378344E-002  0.23373483835037567        0.0000000000000000     
  -3.8338710306551775E-002  0.19975328326431674        0.0000000000000000     
  -3.8710094925061507E-002  0.20817216473056641        0.0000000000000000     
  -3.9031552427845659E-002  0.21665236046831621        0.0000000000000000     
  -3.9303082814904217E-002  0.22519387047756612        0.0000000000000000     
  -3.9524686086237201E-002  0.23379669475831627        0.0000000000000000     
  -4.5026213827911901E-002  0.19985623939557090        0.0000000000000000     
  -4.5460057064142502E-002  0.20825950108114188        0.0000000000000000     
  -4.5837736031166518E-002  0.21672858777461870        0.0000000000000000     
  -4.6159250728983928E-002  0.22526349947600133        0.0000000000000000     
  -4.6424601157594746E-002  0.23386423618528981        0.0000000000000000     
  -5.1832902255162856E-002  0.19997430252538337        0.0000000000000000     
  -5.2326651358285244E-002  0.20835907520073429        0.0000000000000000     
  -5.2759833036040718E-002  0.21681452611017007        0.0000000000000000     
  -5.3132447288429294E-002  0.22534065525369074        0.0000000000000000     
  -5.3444494115450963E-002  0.23393746263129639        0.0000000000000000     
  -2.6084789603018164E-002  0.23367866696146811        0.0000000000000000     
  -2.6203768480311199E-002  0.24230901536922089        0.0000000000000000     
  -2.6306742568639040E-002  0.25094379203845046        0.0000000000000000     
  -2.6393711868001699E-002  0.25958299696915682        0.0000000000000000     
  -2.6464676378399162E-002  0.26822663016133991        0.0000000000000000     
  -3.2744748901378344E-002  0.23373483835037567        0.0000000000000000     
  -3.2894627704492127E-002  0.24237318544054712        0.0000000000000000     
  -3.3024509368381041E-002  0.25102494050221213        0.0000000000000000     
  -3.3134393893045067E-002  0.25969010353537098        0.0000000000000000     
  -3.3224281278484223E-002  0.26836867454002339        0.0000000000000000     
  -3.9524686086237201E-002  0.23379669475831627        0.0000000000000000     
  -3.9708453154668845E-002  0.24244271757583241        0.0000000000000000     
  -3.9866474933023366E-002  0.25111382319538056        0.0000000000000000     
  -3.9998751421300792E-002  0.25981001161696055        0.0000000000000000     
  -4.0105282619501109E-002  0.26853128284057254        0.0000000000000000     
  -4.6424601157594746E-002  0.23386423618528981        0.0000000000000000     
  -4.6645244830841336E-002  0.24251761177507697        0.0000000000000000     
  -4.6832639262566048E-002  0.25121044011795557        0.0000000000000000     
  -4.6986784452768889E-002  0.25994272121392564        0.0000000000000000     
  -4.7107680401449852E-002  0.26871445506298730        0.0000000000000000     
  -5.3444494115450963E-002  0.23393746263129639        0.0000000000000000     
  -5.3705002733009592E-002  0.24259786803828060        0.0000000000000000     
  -5.3923002357009045E-002  0.25131479126993728        0.0000000000000000     
  -5.4098492987449329E-002  0.26008823232626632        0.0000000000000000     
  -5.4231474624330443E-002  0.26891819120726773        0.0000000000000000     
  -2.6464676378399162E-002  0.26822663016133991        0.0000000000000000     
  -2.6531553504593575E-002  0.27681873236404303        0.0000000000000000     
  -2.6606260651347066E-002  0.28530334432630938        0.0000000000000000     
  -2.6688797818659647E-002  0.29368046604813897        0.0000000000000000     
  -2.6779165006531300E-002  0.30195009752953195        0.0000000000000000     
  -3.3224281278484223E-002  0.26836867454002339        0.0000000000000000     
  -3.3308352373980638E-002  0.27700670608710598        0.0000000000000000     
  -3.3400788028816485E-002  0.28555025074755502        0.0000000000000000     
  -3.3501588242991778E-002  0.29399930852137068        0.0000000000000000     
  -3.3610753016506484E-002  0.30235387940855285        0.0000000000000000     
  -4.0105282619501109E-002  0.26853128284057254        0.0000000000000000     
  -4.0203990085604324E-002  0.27722530948706270        0.0000000000000000     
  -4.0312795377590409E-002  0.28583976417727724        0.0000000000000000     
  -4.0431698495459384E-002  0.29437464691121629        0.0000000000000000     
  -4.0560699439211242E-002  0.30282995768887999        0.0000000000000000     
  -4.7107680401449852E-002  0.26871445506298730        0.0000000000000000     
  -4.7218466639464628E-002  0.27747454256391324        0.0000000000000000     
  -4.7342282697668825E-002  0.28617188461547616        0.0000000000000000     
  -4.7479128576062492E-002  0.29480648121767622        0.0000000000000000     
  -4.7629004274645594E-002  0.30337833237051343        0.0000000000000000     
  -5.4231474624330443E-002  0.26891819120726773        0.0000000000000000     
  -5.4351782035561527E-002  0.27775440531765760        0.0000000000000000     
  -5.4489249989051740E-002  0.28654661206215176        0.0000000000000000     
  -5.4643878484801067E-002  0.29529481144075020        0.0000000000000000     
  -5.4815667522809516E-002  0.30399900345345304        0.0000000000000000     
  -3.2276216979459607E-002   5.6598259894786687E-002   0.0000000000000000     
  -3.4041439770095661E-002   6.3106476776753795E-002   0.0000000000000000     
  -3.5525001695850440E-002   6.9432738116439949E-002   0.0000000000000000     
  -3.6726902756723932E-002   7.5577043913845149E-002   0.0000000000000000     
  -3.7647142952716151E-002   8.1539394168969354E-002   0.0000000000000000     
  -4.1529888002606395E-002   5.7492012389985109E-002   0.0000000000000000     
  -4.2026281225049568E-002   6.3780897487618990E-002   0.0000000000000000     
  -4.2622966170178522E-002   6.9959162538596145E-002   0.0000000000000000     
  -4.3319942837993272E-002   7.6026807542916547E-002   0.0000000000000000     
  -4.4117211228493824E-002   8.1983832500580223E-002   0.0000000000000000     
  -4.7756275529825587E-002   5.8349380699586138E-002   0.0000000000000000     
  -4.7954894954848719E-002   6.4445946949221636E-002   0.0000000000000000     
  -4.8367079307907866E-002   7.0494568480373498E-002   0.0000000000000000     
  -4.8992828589003036E-002   7.6495245293041719E-002   0.0000000000000000     
  -4.9832142798134235E-002   8.2447977387226298E-002   0.0000000000000000     
  -5.0955379561117148E-002   5.9170364823589817E-002   0.0000000000000000     
  -5.1827280959493120E-002   6.5101625161561760E-002   0.0000000000000000     
  -5.2757341109038486E-002   7.1038955941772008E-002   0.0000000000000000     
  -5.3745560009753231E-002   7.6982357164220624E-002   0.0000000000000000     
  -5.4791937661637383E-002   8.2931828828907581E-002   0.0000000000000000     
  -5.1127200096481105E-002   5.9954964761996132E-002   0.0000000000000000     
  -5.3643439238982779E-002   6.5747932124639308E-002   0.0000000000000000     
  -5.5793751573570353E-002   7.1592324922791703E-002   0.0000000000000000     
  -5.7578137100243849E-002   7.7488143156453304E-002   0.0000000000000000     
  -5.8996595819003267E-002   8.3435386825624097E-002   0.0000000000000000     
  -3.7647142952716151E-002   8.1539394168969354E-002   0.0000000000000000     
  -3.8476042815418054E-002   8.7549238770373877E-002   0.0000000000000000     
  -3.9403922876420652E-002   9.3836027606619923E-002   0.0000000000000000     
  -4.0430783135723923E-002  0.10039976067770751        0.0000000000000000     
  -4.1556623593327895E-002  0.10724043798363662        0.0000000000000000     
  -4.4117211228493824E-002   8.1983832500580223E-002   0.0000000000000000     
  -4.5001111767923437E-002   8.8016214267886264E-002   0.0000000000000000     
  -4.5957984882525379E-002   9.4309929701133763E-002   0.0000000000000000     
  -4.6987830572299660E-002  0.10086497880032279        0.0000000000000000     
  -4.8090648837246279E-002  0.10768136156545324        0.0000000000000000     
  -4.9832142798134235E-002   8.2447977387226298E-002   0.0000000000000000     
  -5.0811454982790563E-002   8.8499543292128099E-002   0.0000000000000000     
  -5.1857198190461140E-002   9.4796721536947959E-002   0.0000000000000000     
  -5.2969372421145966E-002  0.10133951212168589        0.0000000000000000     
  -5.4147977674845034E-002  0.10812791504634191        0.0000000000000000     
  -5.4791937661637383E-002   8.2931828828907581E-002   0.0000000000000000     
  -5.5907072460019441E-002   8.8999225843099369E-002   0.0000000000000000     
  -5.7101562800227927E-002   9.5296403114062456E-002   0.0000000000000000     
  -5.8375408682262840E-002  0.10182336064179688        0.0000000000000000     
  -5.9728610106124180E-002  0.10858009842630256        0.0000000000000000     
  -5.8996595819003267E-002   8.3435386825624097E-002   0.0000000000000000     
  -6.0287964199610064E-002   8.9515261920800102E-002   0.0000000000000000     
  -6.1691078711825734E-002   9.5808974432477309E-002   0.0000000000000000     
  -6.3205939355650290E-002  0.10231652436065571        0.0000000000000000     
  -6.4832546131083704E-002  0.10903791170533532        0.0000000000000000     
  -4.1556623593327895E-002  0.10724043798363662        0.0000000000000000     
  -4.2710864294570175E-002  0.11429462349731818        0.0000000000000000     
  -4.3822925284788407E-002  0.12149888119166312        0.0000000000000000     
  -4.4892806563982604E-002  0.12885321106667139        0.0000000000000000     
  -4.5920508132152746E-002  0.13635761312234301        0.0000000000000000     
  -4.8090648837246279E-002  0.10768136156545324        0.0000000000000000     
  -4.9216616429263720E-002  0.11470388000283342        0.0000000000000000     
  -5.0315910100250522E-002  0.12187733611877159        0.0000000000000000     
  -5.1388529850206643E-002  0.12920172991326773        0.0000000000000000     
  -5.2434475679132120E-002  0.13667706138632185        0.0000000000000000     
  -5.4147977674845034E-002  0.10812791504634191        0.0000000000000000     
  -5.5348689514185929E-002  0.11511638663353069        0.0000000000000000     
  -5.6527183501796197E-002  0.12225938320586706        0.0000000000000000     
  -5.7683459637675849E-002  0.12955690476335097        0.0000000000000000     
  -5.8817517921824873E-002  0.13700895130598240        0.0000000000000000     
  -5.9728610106124180E-002  0.10858009842630256        0.0000000000000000     
  -6.1107083549336777E-002  0.11553214338940999        0.0000000000000000     
  -6.2456745489425446E-002  0.12264502245294948        0.0000000000000000     
  -6.3777595926390179E-002  0.12991873561692102        0.0000000000000000     
  -6.5069634860230985E-002  0.13735328288132467        0.0000000000000000     
  -6.4832546131083704E-002  0.10903791170533532        0.0000000000000000     
  -6.6491798534716262E-002  0.11595115027047131        0.0000000000000000     
  -6.8104596063138248E-002  0.12303425386001887        0.0000000000000000     
  -6.9670938716349662E-002  0.13028722247397800        0.0000000000000000     
  -7.1190826494350490E-002  0.13771005611234868        0.0000000000000000     
  -4.5920508132152746E-002  0.13635761312234301        0.0000000000000000     
  -4.6890390414043678E-002  0.14398208856242145        0.0000000000000000     
  -4.7786813834400220E-002  0.15169663859065008        0.0000000000000000     
  -4.8609778393222350E-002  0.15950126320702895        0.0000000000000000     
  -4.9359284090510096E-002  0.16739596241155802        0.0000000000000000     
  -5.2434475679132120E-002  0.13667706138632185        0.0000000000000000     
  -5.3434340798139149E-002  0.14427397929154162        0.0000000000000000     
  -5.4368718418339915E-002  0.15196313238253478        0.0000000000000000     
  -5.5237608539734431E-002  0.15974452065930134        0.0000000000000000     
  -5.6041011162322699E-002  0.16761814412184126        0.0000000000000000     
  -5.8817517921824873E-002  0.13700895130598240        0.0000000000000000     
  -5.9906983536768196E-002  0.14458446085640592        0.0000000000000000     
  -6.0929481665030732E-002  0.15225237143726614        0.0000000000000000     
  -6.1885012306612454E-002  0.16001268304856303        0.0000000000000000     
  -6.2773575461513395E-002  0.16786539569029654        0.0000000000000000     
  -6.5069634860230985E-002  0.13735328288132467        0.0000000000000000     
  -6.6308318629930835E-002  0.14491353325701442        0.0000000000000000     
  -6.7469103574472652E-002  0.15256435575484414        0.0000000000000000     
  -6.8551989693856438E-002  0.16030575037481404        0.0000000000000000     
  -6.9556976988082206E-002  0.16813771711692393        0.0000000000000000     
  -7.1190826494350490E-002  0.13771005611234868        0.0000000000000000     
  -7.2638346077627036E-002  0.14526119649336697        0.0000000000000000     
  -7.3987584146665689E-002  0.15289908533526886        0.0000000000000000     
  -7.5238540701466364E-002  0.16062372263805433        0.0000000000000000     
  -7.6391215742029131E-002  0.16843510840172343        0.0000000000000000     
  -4.9359284090510096E-002  0.16739596241155802        0.0000000000000000     
  -5.0048467425691301E-002  0.17538691104262524        0.0000000000000000     
  -5.0690464898193816E-002  0.18348028393861857        0.0000000000000000     
  -5.1285276508017681E-002  0.19167608109953796        0.0000000000000000     
  -5.1832902255162856E-002  0.19997430252538337        0.0000000000000000     
  -5.6041011162322699E-002  0.16761814412184126        0.0000000000000000     
  -5.6789217160055944E-002  0.17558887747588031        0.0000000000000000     
  -5.7492517406885393E-002  0.18366159542714408        0.0000000000000000     
  -5.8150911902811055E-002  0.19183629797563273        0.0000000000000000     
  -5.8764400647832934E-002  0.20011298512134609        0.0000000000000000     
  -6.2773575461513395E-002  0.16786539569029654        0.0000000000000000     
  -6.3605682432929869E-002  0.17581535580555763        0.0000000000000000     
  -6.4391844524058203E-002  0.18386740983743702        0.0000000000000000     
  -6.5132061734898383E-002  0.19202155778593477        0.0000000000000000     
  -6.5826334065450409E-002  0.20027779965105089        0.0000000000000000     
  -6.9556976988082206E-002  0.16813771711692393        0.0000000000000000     
  -7.0497863244313105E-002  0.17606634603165727        0.0000000000000000     
  -7.1388446249712245E-002  0.18409772716949735        0.0000000000000000     
  -7.2228726004279639E-002  0.19223186053044422        0.0000000000000000     
  -7.3018702508015315E-002  0.20046874611449780        0.0000000000000000     
  -7.6391215742029131E-002  0.16843510840172343        0.0000000000000000     
  -7.7465759594205624E-002  0.17634184815417930        0.0000000000000000     
  -7.8482322583847547E-002  0.18435254742332516        0.0000000000000000     
  -7.9440904710954857E-002  0.19246720620916100        0.0000000000000000     
  -8.0341505975527611E-002  0.20068582451168684        0.0000000000000000     
  -5.1832902255162856E-002  0.19997430252538337        0.0000000000000000     
  -5.2326651358285244E-002  0.20835907520073429        0.0000000000000000     
  -5.2759833036040718E-002  0.21681452611017007        0.0000000000000000     
  -5.3132447288429294E-002  0.22534065525369074        0.0000000000000000     
  -5.3444494115450963E-002  0.23393746263129639        0.0000000000000000     
  -5.8764400647832934E-002  0.20011298512134609        0.0000000000000000     
  -5.9323455290624647E-002  0.20847805718412415        0.0000000000000000     
  -5.9818547479859790E-002  0.21691791448380673        0.0000000000000000     
  -6.0249677215538415E-002  0.22543255702039383        0.0000000000000000     
  -6.0616844497660471E-002  0.23402198479388536        0.0000000000000000     
  -6.5826334065450409E-002  0.20027779965105089        0.0000000000000000     
  -6.6464046344295591E-002  0.20862361712609215        0.0000000000000000     
  -6.7034583400015238E-002  0.21704649190436509        0.0000000000000000     
  -6.7537945232609323E-002  0.22554642398586983        0.0000000000000000     
  -6.7974131842077859E-002  0.23412341337060633        0.0000000000000000     
  -7.3018702508015315E-002  0.20046874611449780        0.0000000000000000     
  -7.3748424519298139E-002  0.20879575502663816        0.0000000000000000     
  -7.4407940796507047E-002  0.21720025837184517        0.0000000000000000     
  -7.4997251339642051E-002  0.22568225615011889        0.0000000000000000     
  -7.5516356148703126E-002  0.23424174836145925        0.0000000000000000     
  -8.0341505975527611E-002  0.20068582451168684        0.0000000000000000     
  -8.1176589815632222E-002  0.20899447088576228        0.0000000000000000     
  -8.1938619669335230E-002  0.21737921388624695        0.0000000000000000     
  -8.2627595536636567E-002  0.22584005351314090        0.0000000000000000     
  -8.3243517417536272E-002  0.23437698976644411        0.0000000000000000     
  -5.3444494115450963E-002  0.23393746263129639        0.0000000000000000     
  -5.3705002733009592E-002  0.24259786803828060        0.0000000000000000     
  -5.3923002357009045E-002  0.25131479126993728        0.0000000000000000     
  -5.4098492987449329E-002  0.26008823232626632        0.0000000000000000     
  -5.4231474624330443E-002  0.26891819120726773        0.0000000000000000     
  -6.0616844497660471E-002  0.23402198479388536        0.0000000000000000     
  -6.0925386919475993E-002  0.24268581972897080        0.0000000000000000     
  -6.1180642074234959E-002  0.25142368375033936        0.0000000000000000     
  -6.1382609961937382E-002  0.26023557685799104        0.0000000000000000     
  -6.1531290582583262E-002  0.26912149905192595        0.0000000000000000     
  -6.7974131842077859E-002  0.23412341337060633        0.0000000000000000     
  -6.8344057448542855E-002  0.24278380021067486        0.0000000000000000     
  -6.8648636272126334E-002  0.25153392465817570        0.0000000000000000     
  -6.8887868312828282E-002  0.26037378671310873        0.0000000000000000     
  -6.9061753570648712E-002  0.26930338637547407        0.0000000000000000     
  -7.5516356148703126E-002  0.23424174836145925        0.0000000000000000     
  -7.5961014320210199E-002  0.24289180948339284        0.0000000000000000     
  -7.6326984950683144E-002  0.25164551399344615        0.0000000000000000     
  -7.6614268040122016E-002  0.26050286189161914        0.0000000000000000     
  -7.6822863588526774E-002  0.26946385317791199        0.0000000000000000     
  -8.3243517417536272E-002  0.23437698976644411        0.0000000000000000     
  -8.3776257534478010E-002  0.24300984754712474        0.0000000000000000     
  -8.4215688109905443E-002  0.25175845175615086        0.0000000000000000     
  -8.4561809143818611E-002  0.26062280239352253        0.0000000000000000     
  -8.4814620636217461E-002  0.26960289945923976        0.0000000000000000     
  -5.4231474624330443E-002  0.26891819120726773        0.0000000000000000     
  -5.4351782035561527E-002  0.27775440531765760        0.0000000000000000     
  -5.4489249989051740E-002  0.28654661206215176        0.0000000000000000     
  -5.4643878484801067E-002  0.29529481144075020        0.0000000000000000     
  -5.4815667522809516E-002  0.30399900345345304        0.0000000000000000     
  -6.1531290582583262E-002  0.26912149905192595        0.0000000000000000     
  -6.1662622164236548E-002  0.27803646843879287        0.0000000000000000     
  -6.1812542934961155E-002  0.28693550312524085        0.0000000000000000     
  -6.1981052894757083E-002  0.29581860311126990        0.0000000000000000     
  -6.2168152043624338E-002  0.30468576839687983        0.0000000000000000     
  -6.9061753570648712E-002  0.26930338637547407        0.0000000000000000     
  -6.9209672915831133E-002  0.27829230261781646        0.0000000000000000     
  -6.9371007218619038E-002  0.28731011441268067        0.0000000000000000     
  -6.9545756479012455E-002  0.29635682176006678        0.0000000000000000     
  -6.9733920697011370E-002  0.30543242465997478        0.0000000000000000     
  -7.6822863588526774E-002  0.26946385317791199        0.0000000000000000     
  -7.6992934290345288E-002  0.27852190785472802        0.0000000000000000     
  -7.7164642840025430E-002  0.28767044592447100        0.0000000000000000     
  -7.7337989237567198E-002  0.29690946738714097        0.0000000000000000     
  -7.7512973482970607E-002  0.30623897224273777        0.0000000000000000     
  -8.4814620636217461E-002  0.26960289945923976        0.0000000000000000     
  -8.5012406287779035E-002  0.27872528414952780        0.0000000000000000     
  -8.5193449799180310E-002  0.28801649766061205        0.0000000000000000     
  -8.5357751170421325E-002  0.29747653999249241        0.0000000000000000     
  -8.5505310401502055E-002  0.30710541114516887        0.0000000000000000     
  -5.1127200096481105E-002   5.9954964761996132E-002   0.0000000000000000     
  -5.3643439238982779E-002   6.5747932124639308E-002   0.0000000000000000     
  -5.5793751573570353E-002   7.1592324922791703E-002   0.0000000000000000     
  -5.7578137100243849E-002   7.7488143156453304E-002   0.0000000000000000     
  -5.8996595819003267E-002   8.3435386825624097E-002   0.0000000000000000     
  -5.1091708519604373E-002   6.0571583965701198E-002   0.0000000000000000     
  -5.5291207216953034E-002   6.6338372465925263E-002   0.0000000000000000     
  -5.8695518082663989E-002   7.2163324809379814E-002   0.0000000000000000     
  -6.1304641116737224E-002   7.8046440996064892E-002   0.0000000000000000     
  -6.3118576319172753E-002   8.3987721025980455E-002   0.0000000000000000     
  -5.3668876214173857E-002   6.0888625885601150E-002   0.0000000000000000     
  -5.8658422317039258E-002   6.6826450812890528E-002   0.0000000000000000     
  -6.2681848017479877E-002   7.2760604987483671E-002   0.0000000000000000     
  -6.5739153315495708E-002   7.8691088409380591E-002   0.0000000000000000     
  -6.7830338211086763E-002   8.4617901078581262E-002   0.0000000000000000     
  -5.8858703180189584E-002   6.0906090521695995E-002   0.0000000000000000     
  -6.3745084539241451E-002   6.7212167165535117E-002   0.0000000000000000     
  -6.7752741378018011E-002   7.3384165457103259E-002   0.0000000000000000     
  -7.0881673696519265E-002   7.9422085396400388E-002   0.0000000000000000     
  -7.3131881494745254E-002   8.5325926983426573E-002   0.0000000000000000     
  -6.6661189417651534E-002   6.0623977873985734E-002   0.0000000000000000     
  -7.0551193883559599E-002   6.7495521523859014E-002   0.0000000000000000     
  -7.3908198164278405E-002   7.4034006218238538E-002   0.0000000000000000     
  -7.6732202259807952E-002   8.0239431957124310E-002   0.0000000000000000     
  -7.9023206170148241E-002   8.6111798740516318E-002   0.0000000000000000     
  -5.8996595819003267E-002   8.3435386825624097E-002   0.0000000000000000     
  -6.0287964199610064E-002   8.9515261920800102E-002   0.0000000000000000     
  -6.1691078711825734E-002   9.5808974432477309E-002   0.0000000000000000     
  -6.3205939355650290E-002  0.10231652436065571        0.0000000000000000     
  -6.4832546131083704E-002  0.10903791170533532        0.0000000000000000     
  -6.3118576319172753E-002   8.3987721025980455E-002   0.0000000000000000     
  -6.4607933384400767E-002   9.0061786757782175E-002   0.0000000000000000     
  -6.6243322006851471E-002   9.6343260050125751E-002   0.0000000000000000     
  -6.8024742186524836E-002  0.10283214090301115        0.0000000000000000     
  -6.9952193923420905E-002  0.10952842931643839        0.0000000000000000     
  -6.7830338211086763E-002   8.4617901078581262E-002   0.0000000000000000     
  -6.9520783197229888E-002   9.0652935586597497E-002   0.0000000000000000     
  -7.1375868766902009E-002   9.6908084524941054E-002   0.0000000000000000     
  -7.3395594920103044E-002  0.10338334789361191        0.0000000000000000     
  -7.5579961656833061E-002  0.11007872569261008        0.0000000000000000     
  -7.3131881494745254E-002   8.5325926983426573E-002   0.0000000000000000     
  -7.5026513638097411E-002   9.1288708407246053E-002   0.0000000000000000     
  -7.7088718991977306E-002   9.7503447856923192E-002   0.0000000000000000     
  -7.9318497556384898E-002  0.10397014533245799        0.0000000000000000     
  -8.1715849331320201E-002  0.11068880083385040        0.0000000000000000     
  -7.9023206170148241E-002   8.6111798740516318E-002   0.0000000000000000     
  -8.1125124707003365E-002   9.1969105219727842E-002   0.0000000000000000     
  -8.3381872682077418E-002   9.8129350046072220E-002   0.0000000000000000     
  -8.5793450095370385E-002  0.10459253321954937        0.0000000000000000     
  -8.8359856946882281E-002  0.11135865474015935        0.0000000000000000     
  -6.4832546131083704E-002  0.10903791170533532        0.0000000000000000     
  -6.6491798534716262E-002  0.11595115027047131        0.0000000000000000     
  -6.8104596063138248E-002  0.12303425386001887        0.0000000000000000     
  -6.9670938716349662E-002  0.13028722247397800        0.0000000000000000     
  -7.1190826494350490E-002  0.13771005611234868        0.0000000000000000     
  -6.9952193923420905E-002  0.10952842931643839        0.0000000000000000     
  -7.1918773495622410E-002  0.11641520380025948        0.0000000000000000     
  -7.3817577181212179E-002  0.12347554286432637        0.0000000000000000     
  -7.5648604980190146E-002  0.13070944650863911        0.0000000000000000     
  -7.7411856892556363E-002  0.13811691473319768        0.0000000000000000     
  -7.5579961656833061E-002  0.11007872569261008        0.0000000000000000     
  -7.7803947457353223E-002  0.11696610050231926        0.0000000000000000     
  -7.9942530801924705E-002  0.12401735490312314        0.0000000000000000     
  -8.1995711690547521E-002  0.13123248889502170        0.0000000000000000     
  -8.3963490123221671E-002  0.13861150247801496        0.0000000000000000     
  -8.1715849331320201E-002  0.11068880083385040        0.0000000000000000     
  -8.4147320419908675E-002  0.11760384037665073        0.0000000000000000     
  -8.6479456925275880E-002  0.12465968997640917        0.0000000000000000     
  -8.8712258847421746E-002  0.13185634963312579        0.0000000000000000     
  -9.0845726186346357E-002  0.13919381934680047        0.0000000000000000     
  -8.8359856946882281E-002  0.11135865474015935        0.0000000000000000     
  -9.0948892383288793E-002  0.11832842342325384        0.0000000000000000     
  -9.3428355551265677E-002  0.12540254808418450        0.0000000000000000     
  -9.5798246450812877E-002  0.13258102872295130        0.0000000000000000     
  -9.8058565081930449E-002  0.13986386533955425        0.0000000000000000     
  -7.1190826494350490E-002  0.13771005611234868        0.0000000000000000     
  -7.2638346077627036E-002  0.14526119649336697        0.0000000000000000     
  -7.3987584146665689E-002  0.15289908533526886        0.0000000000000000     
  -7.5238540701466364E-002  0.16062372263805433        0.0000000000000000     
  -7.6391215742029131E-002  0.16843510840172343        0.0000000000000000     
  -7.7411856892556363E-002  0.13811691473319768        0.0000000000000000     
  -7.9080930284391268E-002  0.14565337092247668        0.0000000000000000     
  -8.0629422521775296E-002  0.15327423846095073        0.0000000000000000     
  -8.2057333604708418E-002  0.16097951734861982        0.0000000000000000     
  -8.3364663533190692E-002  0.16876920758548392        0.0000000000000000     
  -8.3963490123221671E-002  0.13861150247801496        0.0000000000000000     
  -8.5819935654757873E-002  0.14611597690135664        0.0000000000000000     
  -8.7539117839966901E-002  0.15370749341430037        0.0000000000000000     
  -8.9121036678848770E-002  0.16138605201684628        0.0000000000000000     
  -9.0565692171403436E-002  0.16915165270899435        0.0000000000000000     
  -9.0845726186346357E-002  0.13919381934680047        0.0000000000000000     
  -9.2855362188726864E-002  0.14664901443000672        0.0000000000000000     
  -9.4716670101240547E-002  0.15419885019531782        0.0000000000000000     
  -9.6429649923887389E-002  0.16184332664273382        0.0000000000000000     
  -9.7994301656667379E-002  0.16958244377225468        0.0000000000000000     
  -9.8058565081930449E-002  0.13986386533955425        0.0000000000000000     
 -0.10018720988629826       0.14725248350842696        0.0000000000000000     
 -0.10216207930559620       0.15474830880400298        0.0000000000000000     
 -0.10398317333982429       0.16235134122628234        0.0000000000000000     
 -0.10565049198898252       0.17006158077526501        0.0000000000000000     
  -7.6391215742029131E-002  0.16843510840172343        0.0000000000000000     
  -7.7465759594205624E-002  0.17634184815417930        0.0000000000000000     
  -7.8482322583847547E-002  0.18435254742332516        0.0000000000000000     
  -7.9440904710954857E-002  0.19246720620916100        0.0000000000000000     
  -8.0341505975527611E-002  0.20068582451168684        0.0000000000000000     
  -8.3364663533190692E-002  0.16876920758548392        0.0000000000000000     
  -8.4578749784431168E-002  0.17665357778625543        0.0000000000000000     
  -8.5726929835638968E-002  0.18464289656564675        0.0000000000000000     
  -8.6809203686814093E-002  0.19273716392365797        0.0000000000000000     
  -8.7825571337956529E-002  0.20093637986028898        0.0000000000000000     
  -9.0565692171403436E-002  0.16915165270899435        0.0000000000000000     
  -9.1906212116813490E-002  0.17701325054101744        0.0000000000000000     
  -9.3175724314261493E-002  0.18497980056318866        0.0000000000000000     
  -9.4374228763747445E-002  0.19305130277550794        0.0000000000000000     
  -9.5501725465271331E-002  0.20122775717797534        0.0000000000000000     
  -9.7994301656667379E-002  0.16958244377225468        0.0000000000000000     
  -9.9448146591352593E-002  0.17742086641846541        0.0000000000000000     
 -0.10082870601971509       0.18536325941595080        0.0000000000000000     
 -0.10213597994175488       0.19340962276471099        0.0000000000000000     
 -0.10336996835747198       0.20155995646474589        0.0000000000000000     
 -0.10565049198898252       0.17006158077526501        0.0000000000000000     
 -0.10720455320804848       0.17787642541859922        0.0000000000000000     
 -0.10868587495199980       0.18579327312393323        0.0000000000000000     
 -0.11009445722083645       0.19381212389126706        0.0000000000000000     
 -0.11143030001455848       0.20193297772060070        0.0000000000000000     
  -8.0341505975527611E-002  0.20068582451168684        0.0000000000000000     
  -8.1176589815632222E-002  0.20899447088576228        0.0000000000000000     
  -8.1938619669335230E-002  0.21737921388624695        0.0000000000000000     
  -8.2627595536636567E-002  0.22584005351314090        0.0000000000000000     
  -8.3243517417536272E-002  0.23437698976644411        0.0000000000000000     
  -8.7825571337956529E-002  0.20093637986028898        0.0000000000000000     
  -8.8770939388305534E-002  0.20922542817603693        0.0000000000000000     
  -8.9640214437100338E-002  0.21758919267139890        0.0000000000000000     
  -9.0433396484340928E-002  0.22602767334637494        0.0000000000000000     
  -9.1150485530027275E-002  0.23454087020096498        0.0000000000000000     
  -9.5501725465271331E-002  0.20122775717797534        0.0000000000000000     
  -9.6553870392325672E-002  0.20949429037003453        0.0000000000000000     
  -9.7526319518402876E-002  0.21783602895112938        0.0000000000000000     
  -9.8419072843503042E-002  0.22625297292125987        0.0000000000000000     
  -9.9232130367626140E-002  0.23474512228042596        0.0000000000000000     
 -0.10336996835747198       0.20155995646474589        0.0000000000000000     
 -0.10452538282769255       0.20980105746775521        0.0000000000000000     
 -0.10559693491324290       0.21811972272543850        0.0000000000000000     
 -0.10658462461412296       0.22651595223779583        0.0000000000000000     
 -0.10748845193033281       0.23498974600482705        0.0000000000000000     
 -0.11143030001455848       0.20193297772060070        0.0000000000000000     
 -0.11268547669440630       0.21014572946919885        0.0000000000000000     
 -0.11385206062162037       0.21844027399432614        0.0000000000000000     
 -0.11493005179620072       0.22681661129598263        0.0000000000000000     
 -0.11591945021814731       0.23527474137416826        0.0000000000000000     
  -8.3243517417536272E-002  0.23437698976644411        0.0000000000000000     
  -8.3776257534478010E-002  0.24300984754712474        0.0000000000000000     
  -8.4215688109905443E-002  0.25175845175615086        0.0000000000000000     
  -8.4561809143818611E-002  0.26062280239352253        0.0000000000000000     
  -8.4814620636217461E-002  0.26960289945923976        0.0000000000000000     
  -9.1150485530027275E-002  0.23454087020096498        0.0000000000000000     
  -9.1779481301125967E-002  0.24315347499069334        0.0000000000000000     
  -9.2308383524603382E-002  0.25189017947108422        0.0000000000000000     
  -9.2737192200459603E-002  0.26075098364213767        0.0000000000000000     
  -9.3065907328694533E-002  0.26973588750385358        0.0000000000000000     
  -9.9232130367626140E-002  0.23474512228042596        0.0000000000000000     
  -9.9960379829933665E-002  0.24333825240292165        0.0000000000000000     
 -0.10059870896958711       0.25205813866304083        0.0000000000000000     
 -0.10114711778658650       0.26090478106078357        0.0000000000000000     
 -0.10160560628093182       0.26987817959614979        0.0000000000000000     
 -0.10748845193033281       0.23498974600482705        0.0000000000000000     
 -0.10831895312090113       0.24356417978380965        0.0000000000000000     
 -0.10908666444485664       0.25226232933202064        0.0000000000000000     
 -0.10979158590219934       0.26108419464946020        0.0000000000000000     
 -0.11043371749292928       0.27002977573612830        0.0000000000000000     
 -0.11591945021814731       0.23527474137416826        0.0000000000000000     
 -0.11685520117402834       0.24383125713335724        0.0000000000000000     
 -0.11777224995041195       0.25250275147802370        0.0000000000000000     
 -0.11867059654729815       0.26128922440816765        0.0000000000000000     
 -0.11955024096468694       0.27019067592378909        0.0000000000000000     
  -8.4814620636217461E-002  0.26960289945923976        0.0000000000000000     
  -8.5012406287779035E-002  0.27872528414952780        0.0000000000000000     
  -8.5193449799180310E-002  0.28801649766061205        0.0000000000000000     
  -8.5357751170421325E-002  0.29747653999249241        0.0000000000000000     
  -8.5505310401502055E-002  0.30710541114516887        0.0000000000000000     
  -9.3065907328694533E-002  0.26973588750385358        0.0000000000000000     
  -9.3324247584946340E-002  0.27890833260409448        0.0000000000000000     
  -9.3541931644853041E-002  0.28833176049072251        0.0000000000000000     
  -9.3718959508414634E-002  0.29800617116373773        0.0000000000000000     
  -9.3855331175631135E-002  0.30793156462314020        0.0000000000000000     
 -0.10160560628093182       0.26987817959614979        0.0000000000000000     
 -0.10198461685866125       0.27907695432030666        0.0000000000000000     
 -0.10229459192581299       0.28859972528442129        0.0000000000000000     
 -0.10253553148238699       0.29844649248849364        0.0000000000000000     
 -0.10270743552838327       0.30861725593252387        0.0000000000000000     
 -0.11043371749292928       0.27002977573612830        0.0000000000000000     
 -0.11099351410892375       0.27923114929816450        0.0000000000000000     
 -0.11145143064206013       0.28882039204170851        0.0000000000000000     
 -0.11180746709233835       0.29879750396676019        0.0000000000000000     
 -0.11206162345975848       0.30916248507331978        0.0000000000000000     
 -0.11955024096468694       0.27019067592378909        0.0000000000000000     
 -0.12035093933573386       0.27937091753766785        0.0000000000000000     
 -0.12101244779359448       0.28899376076258393        0.0000000000000000     
 -0.12153476633826876       0.29905920559853733        0.0000000000000000     
 -0.12191789496975675       0.30956725204552799        0.0000000000000000     
 </DataArray>
 <DataArray  type="Float64" Name="stress" NumberOfComponents="3" format="ascii">
   9043147133.0205555        3542194617.5472698       -1529163868.5776935     
   7498237952.2610111        1803698533.4948554       -709527676.27753949     
   6100979158.8900738        557370407.40448236       -240578421.88794366     
   4851370752.9077415       -196789760.72388768       -122316105.40891565     
   3749412734.3140211       -458781970.89021516       -354740726.84044462     
   11320490524.957853        3650209256.2248869       -90860877.602614805     
   9170971764.4330406        2108983651.6492102        216112018.55498141     
   7125698940.8459330        915244503.53252697        363163603.69368917     
   5184672054.1965151        68991811.874830008        350293877.81351995     
   3347891104.4848032       -429774423.32385707        177502840.91445976     
   11440732110.860657        3111093353.0921516        1518397281.2917559     
   9231648418.8325119        1930651622.4717774        1262068355.7807415     
   7083406213.2911549        953014846.80737615        1036583746.1425155     
   4996005494.2365885        178183026.09893394        841943452.37707245     
   2969446261.6688142       -393843839.65353036        678147474.48441637     
   9403871890.7289810        1924846908.1490715        3298610608.1054330     
   7680267915.4594269        1268702445.9625881        2428341335.3997402     
   5974100976.2257538        670681437.22904730        1779682005.4585178     
   4285371073.0279555        130783881.94843435        1352632618.2817485     
   2614078205.8660407       -350990219.87923896        1147193173.8694439     
   5209909864.5628109        91469921.395645857        5249779102.8384161     
   4516830254.3137760        123136122.12162781        3714930957.4119911     
   3797783229.6497102        68244274.797519684        2592458381.6417003     
   3052768790.5706172       -73205620.576686502        1882361375.5275481     
   2281786937.0764980       -301213564.00097847        1584639939.0695350     
   3749412734.3140211       -458781970.89021516       -354740726.84044462     
   4153362169.8190351       -103192260.72874141       -285249770.68463814     
   4518986284.3737926        124646379.59853339       -200559820.13664848     
   4846285077.9783201        224733950.09170699       -100670875.19647376     
   5135258550.6325855        197070450.75068235        14417064.135890517     
   3347891104.4848032       -429774423.32385707        177502840.91445976     
   3757700155.9716473       -136212800.51040030        211635457.12324458     
   4141296803.0389609        69974140.904636621        249390649.85233688     
   4498681045.6867638        188786400.92129707        290768419.10172927     
   4829852883.9150429        220223979.53954458        335768764.87141061     
   2969446261.6688142       -393843839.65353036        678147474.48441637     
   3352039449.5035100       -172232948.07828903        691053486.69871271     
   3720533149.4494171        2379650.5343122482        696005657.56142080     
   4074927361.5065384        129993956.18429947        693003987.07253516     
   4415222085.6748676        210609968.87164021        682048475.23206079     
   2614078205.8660407       -350990219.87923896        1147193173.8694439     
   2936380050.4146309       -211252703.43239784        1153004318.0417657     
   3256695323.6051579       -78137091.512426376        1139285202.9906049     
   3575024025.4376292        48356615.880690098        1106035828.7159619     
   3891366155.9120378        168228418.74692774        1053256195.2178460     
   2281786937.0764980       -301213564.00097847        1584639939.0695350     
   2510721958.7050099       -253272066.57272589        1597487951.1523941     
   2749783325.5061960       -171576085.23556578        1579229286.1398861     
   2998971037.4800434       -56125619.989519477        1529863944.0320086     
   3258285094.6265702        93079329.165433884        1449391924.8287604     
   5135258550.6325855        197070450.75068235        14417064.135890517     
   4860865924.8624306       -16309117.331640959       -6442923.3699690402     
   4613783517.2640686       -138654624.84130073       -21106875.792401217     
   4394011327.8375044       -169966071.77831316       -29574793.131406650     
   4201549356.5827432       -110243458.14264774       -31846675.386998795     
   4829852883.9150429        220223979.53954458        335768764.87141061     
   4594191526.4362860        70427453.778462172        304964018.37405431     
   4377368411.3986340       -16574930.512282133        283083510.32790643     
   4179383538.8021007       -40783173.332628727        270127240.73297471     
   4000236908.6466665       -2197274.6826338768        266095209.58925402     
   4415222085.6748676        210609968.87164021        682048475.23206079     
   4226086863.2526183        126734945.46130300        631414998.05740249     
   4047317907.5407815        77414144.419019222        592433962.70174050     
   3878915218.5393777        62647565.744833231        565105369.16509223     
   3720878796.2484021        82435209.438743830        549429217.44743097     
   3891366155.9120378        168228418.74692774        1053256195.2178460     
   3756551935.3114071        152613357.71687698        972910015.68008208     
   3623632005.6905155        143312599.95261252        906944481.32910824     
   3492606367.0493531        140326145.45412457        855359592.16492295     
   3363475019.3879323        143653994.22142971        818155348.18753982     
   3258285094.6265702        93079329.165433884        1449391924.8287604     
   3185586742.6126719        148062690.54521012        1329449071.2420943     
   3106310705.8478169        181120436.08845294        1226615066.2100024     
   3020456984.3320208        192252565.79521930        1140889909.7324967     
   2928025578.0652699        181459079.66548121        1072273601.8095664     
   4201549356.5827432       -110243458.14264774       -31846675.386998795     
   3924715581.6146317       -48860243.886790037       -27940834.807917468     
   3638355418.1895509       -19231657.820864916       -22086511.014414337     
   3342468866.3075333       -21357699.944720745       -14283704.006470192     
   3037055925.9685273       -55238370.258517981       -4532413.7841170533     
   4000236908.6466665       -2197274.6826338768        266095209.58925402     
   3723947533.6958108        26137917.094690561        235479366.36572364     
   3441276256.8967495        33200102.711318016        210960275.89760026     
   3152223078.2494926        18989282.167305708        192537938.18491980     
   2856787997.7540269       -16494544.537403822        180212353.22765151     
   3720878796.2484021        82435209.438743830        549429217.44743097     
   3456986020.0033431        81278038.344067216        487960258.13150537     
   3189855828.5188537        69329483.117945671        436736321.11199379     
   2919488221.7949309        46589543.760382533        395757406.38890010     
   2645883199.8315639        13058220.271341562        365023513.96223325     
   3363475019.3879323        143653994.22142971        818155348.18753982     
   3123831040.5372419        116560119.86137211        729501840.48943651     
   2884094133.0558753        89156483.399048686        655241624.62875104     
   2644264296.9438348        61443084.834488869        595374700.60547543     
   2404341532.2011189        33419924.167669058        549901068.41962779     
   2928025578.0652699        181459079.66548121        1072273601.8095664     
   2724482595.2974949        131984161.64656341        960104113.43951643     
   2523991170.5078182        92681103.554648876        866476186.44787335     
   2326551303.6962204        63549905.389658213        791389820.83464718     
   2132162994.8627067        44590567.151619792        734845016.59982085     
   3037055925.9685273       -55238370.258517981       -4532413.7841170533     
   2898635210.3751578       -51108115.069993615        1627190.0330232771     
   2761771602.8510332       -41787499.650633097        6340940.7816717746     
   2626465103.3961377       -27276524.000528216        9608838.4618681502     
   2492715712.0104938       -7575188.1195635796        11430883.073595751     
   2856787997.7540269       -16494544.537403822        180212353.22765151     
   2716960246.3406601       -13559808.806592584        178144450.11403212     
   2578065845.3760686       -7513904.9131989479        176715953.92837128     
   2440104794.8602600        1643167.1427925825        175926864.67063633     
   2303077094.7932005        13911407.361305475        175777182.34085357     
   2645883199.8315639        13058220.271341562        365023513.96223325     
   2510606298.3022251        16584802.255613923        354000386.69399142     
   2375638989.6012001        21143360.334265590        345701926.35011685     
   2240981273.7284899        26733894.507292986        340128132.93058407     
   2106633150.6840715        33356404.774637103        337279006.43540835     
   2404341532.2011189        33419924.167669058        549901068.41962779     
   2279573366.2598457        39325718.116643906        529194999.77288574     
   2154491035.5264235        44184296.091770172        513298858.04691166     
   2029094540.0008340        47995658.093014121        502212643.24171048     
   1903383879.6830888        50759804.120406032        495936355.35727096     
   2132162994.8627067        44590567.151619792        734845016.59982085     
   2023861450.2135370        54662938.776508451        703728289.35070753     
   1914621983.1517310        61608902.359275103        679506749.01877332     
   1804444593.6773155        65428457.900013328        662180395.60401559     
   1693329281.7902606        66121605.398614705        651749229.10643184     
   2492715712.0104938       -7575188.1195635796        11430883.073595751     
   2324662085.8841176       -760324.72097432613       -543836.68612536858     
   2153340229.4510450       -4839562.3447167873       -8817195.1316828858     
   1978750142.7112617       -19812900.990816832       -13389192.263092175     
   1800891825.6647832       -45680340.659245014       -14259828.080337860     
   2303077094.7932005        13911407.361305475        175777182.34085357     
   2143157619.0727570        17565750.398594260        158089830.91249835     
   1981153343.7923605        14270761.569396377        143687507.79638445     
   1817064268.9520509        4026440.8737865686        132570212.99251252     
   1650890394.5518038       -13167211.688258529        124737946.50088321     
   2106633150.6840715        33356404.774637103        337279006.43540835     
   1953658302.5069342        33493370.591814280        315259692.54298127     
   1799782085.5166380        30625773.698454499        296109073.96087134     
   1645004499.7131627        24753614.094501078        279827150.68909389     
   1489325545.0965261        15876891.779998481        266413922.72765279     
   1903383879.6830888        50759804.120406032        495936355.35727096     
   1756164136.1866531        47022535.858688295        470965748.20531702     
   1609226454.6238225        44225474.042316437        448447503.36178166     
   1462570834.9945986        42368618.671292305        428381620.82666618     
   1316197277.2989745        41451969.745599985        410768100.59996003     
   1693329281.7902606        66121605.398614705        651749229.10643184     
   1550675120.1119232        58153246.199241042        625207997.89952743     
   1409486451.1139619        55069862.601116657        600702795.99912298     
   1269763274.7963603        56871454.604184151        578233623.40521932     
   1131505591.1591280        63558022.208499551        557800480.11782217     
   1800891825.6647832       -45680340.659245014       -14259828.080337860     
   1772527471.2492313       -20534239.732889533       -8182436.1204988565     
   1751496414.2649236        29056185.964255929       -40923236.882549874     
   1737798654.7118502        103090936.43218386       -112482230.36649092     
   1731434192.5899696        201570011.67077684       -222859416.57232711     
   1650890394.5518038       -13167211.688258529        124737946.50088321     
   1529998518.3933089       -14284985.747264802        139481347.66785887     
   1412834043.3533690       -2978089.4111108780        127928819.05877872     
   1299396969.4319839        20753477.320238471        90080360.673632488     
   1189687296.6291325        56909714.446698368        25935972.512427859     
   1489325545.0965261        15876891.779998481        266413922.72765279     
   1311684041.3260276       -771389.02506774664        285616454.07031518     
   1134164042.3614032       -17014653.810564399        291045318.58275145     
   956765548.20264292       -32852902.576536953        282700516.26494622     
   779488558.84972715       -48286135.322977155        260582047.11690590     
   1316197277.2989745        41451969.745599985        410768100.59996003     
   1117584040.0474036        20006550.433736563        430222883.08685213     
   915486411.28901792       -13053507.234188676        448426261.68933052     
   709904391.02381122       -57728203.258179069        465378236.40741140     
   500837979.25179136       -114017537.63821176        481078807.24108332     
   1131505591.1591280        63558022.208499551        557800480.11782217     
   947698514.55742431        48048832.629121035        573300634.71747220     
   756801150.13621521        8905350.3180684149        600071648.37854218     
   558813497.89551568       -53872424.724622101        638113521.10103965     
   353735557.83531708       -140284492.49898130        687426252.88494921     
   1731434192.5899696        201570011.67077684       -222859416.57232711     
   1458645000.4954889        183088149.10775435       -96108402.967339709     
   1154104806.2599204        58769612.741094768        59843196.002811864     
   817813609.88329411       -171385597.42909634        244995380.33810714     
   449771411.36561942       -507377481.40275943        459348150.03854614     
   1189687296.6291325        56909714.446698368        25935972.512427859     
   980596941.31267619        11974393.727877140        156662336.70163295     
   733969941.08132315       -158083076.70729992        313291864.92935652     
   449806295.93503976       -453262696.85885036        495824557.19558054     
   128106005.87384707       -873564466.72683191        704260413.50033331     
   779488558.84972715       -48286135.322977155        260582047.11690590     
   624675836.52096307       -122501275.33456364        388533845.32081109     
   426540826.50341809       -341124040.97543365        539091386.23659146     
   185083528.79711273       -704154432.24550617        712254669.86426127     
  -99696056.597984552       -1211592449.1448689        908023696.20380366     
   500837979.25179136       -114017537.63821176        481078807.24108332     
   390881686.12031752       -220338858.07973745        599506122.89018989     
   231817462.52619961       -490353280.06338811        737241759.92455411     
   23645308.469460309       -924060803.58913279        894285718.34414327     
  -233634776.04990810       -1521461428.6569731        1070637998.1490164     
   353735557.83531708       -140284492.49898130        687426252.88494921     
   279214490.11073625       -281538354.50757855        789579169.40977859     
   149799849.14966685       -605770793.97114336        907742985.99320698     
  -34508365.047869802       -1112981810.8896213        1041917702.6352576     
  -273710152.48191959       -1803171405.2631040        1192103319.3359072     
   5209909864.5628109        91469921.395645857        5249779102.8384161     
   4516830254.3137760        123136122.12162781        3714930957.4119911     
   3797783229.6497102        68244274.797519684        2592458381.6417003     
   3052768790.5706172       -73205620.576686502        1882361375.5275481     
   2281786937.0764980       -301213564.00097847        1584639939.0695350     
   1270120963.5961010       -1160324389.9759593        3133117172.3700209     
   1488913579.5779862       -803231681.62124479        2281863448.7666807     
   1676257180.4644420       -550969023.58465040        1644575904.6935959     
   1832151766.2554657       -403536415.86616874        1221254540.1507621     
   1956597336.9510512       -360933858.46580327        1011899355.1381816     
  -337404982.79785919       -1712439814.9757395        1039600857.5906321     
   226375887.62672579       -1199985790.5287590        865546355.01657200     
   753226142.27546167       -810633818.66792798        707048641.84687412     
   1243145781.1483512       -544383899.39323854        564107718.08154953     
   1696134804.2454033       -401236032.70468855        436723583.72059512     
   387332025.38094378       -1564876353.6036899       -1030769841.4997563     
   729217178.45996714       -1067126204.6009240       -534020323.83835113     
   1028690115.0827434       -710750110.45232487       -220123406.89846206     
   1285750835.2492709       -495748071.15790039       -89079090.680089653     
   1500399338.9595480       -422120086.71763277       -140887375.18322712     
   3444331988.1324973       -717634005.85981655       -3077994924.9011369     
   2997437452.0777330       -404652923.83772862       -1916836587.7980795     
   2502649098.8863077       -251317898.93784404       -1136940241.5424135     
   1959966928.5582268       -257628931.16014898       -738305886.13414562     
   1369390941.0934868       -423586020.50464523       -720933521.57328165     
   2281786937.0764980       -301213564.00097847        1584639939.0695350     
   2510721958.7050099       -253272066.57272589        1597487951.1523941     
   2749783325.5061960       -171576085.23556578        1579229286.1398861     
   2998971037.4800434       -56125619.989519477        1529863944.0320086     
   3258285094.6265702        93079329.165433884        1449391924.8287604     
   1956597336.9510512       -360933858.46580327        1011899355.1381816     
   2115069417.2455268       -340569057.74642134        1066362487.6022794     
   2283597737.1009378       -286683458.49058723        1104093887.6837671     
   2462182296.5172830       -199277060.69830549        1125093555.3826385     
   2650823095.4945698       -78349864.369543552        1129361490.6988962     
   1696134804.2454033       -401236032.70468855        436723583.72059512     
   1825215213.8137000       -396126547.51183498        532720046.68558466     
   1964281757.3312039       -357729949.15495813        626359721.98070908     
   2113334434.7979116       -286046237.63406456        717642609.60597825     
   2272373246.2138281       -181075412.94914508        806568709.56137955     
   1500399338.9595480       -422120086.71763277       -140887375.18322712     
   1641159348.4095368       -419944535.86893857       -3439371.5977034420     
   1791835386.1969995       -384715557.22866499        146026789.03071162     
   1952427452.3219390       -316433150.79680240        307511106.70202017     
   2122935546.7843513       -215097316.57336283        481013581.41621840     
   1369390941.0934868       -423586020.50464523       -720933521.57328165     
   1562901821.0330322       -412023022.81775129       -542115767.24757516     
   1766258623.6983209       -367640282.71171415       -336904911.16622758     
   1979461349.0893497       -290437800.18653941       -105300953.32923184     
   2202509997.2061243       -180415575.24221241        152696106.26340750     
   3258285094.6265702        93079329.165433884        1449391924.8287604     
   3185586742.6126719        148062690.54521012        1329449071.2420943     
   3106310705.8478169        181120436.08845294        1226615066.2100024     
   3020456984.3320208        192252565.79521930        1140889909.7324967     
   2928025578.0652699        181459079.66548121        1072273601.8095664     
   2650823095.4945698       -78349864.369543552        1129361490.6988962     
   2613844001.3029971       -17219891.510752439        1078824002.6669695     
   2572010037.5377545        27727182.769131899        1037235569.4486321     
   2525321204.1988392        56491358.470117569        1004596191.0438793     
   2473777501.2862554        69072635.592203140        980905867.45270562     
   2272373246.2138281       -181075412.94914508        806568709.56137955     
   2247799713.4417357       -120792937.53218591        827446538.12436438     
   2220094126.2732511       -70950643.436531544        849113627.75993776     
   2189256484.7083759       -31548530.662171841        871569978.46810079     
   2155286788.7471161       -2586599.2091041803        894815590.24885213     
   2122935546.7843513       -215097316.57336283        481013581.41621840     
   2087453879.0288887       -162656447.51909578        575316677.61426973     
   2050562972.0543191       -114913042.52851677        662249241.14391792     
   2012262825.8606324       -71867101.601650596        741811272.00515461     
   1972553440.4478505       -33518624.738456726        814002770.19799030     
   2202509997.2061243       -180415575.24221241        152696106.26340750     
   2132806498.0644486       -142810421.47148383        322434421.13668883     
   2063416574.8809481       -104160014.50684047        476642409.60057074     
   1994340227.6556139       -64464354.348302603        615320071.65504646     
   1925577456.3884587       -23723440.995833874        738467407.30012083     
   2928025578.0652699        181459079.66548121        1072273601.8095664     
   2724482595.2974949        131984161.64656341        960104113.43951643     
   2523991170.5078182        92681103.554648876        866476186.44787335     
   2326551303.6962204        63549905.389658213        791389820.83464718     
   2132162994.8627067        44590567.151619792        734845016.59982085     
   2473777501.2862554        69072635.592203140        980905867.45270562     
   2317131980.8670793        45473382.025611281        915585353.91757977     
   2162275405.5578218        27837278.825404286        861826942.86012626     
   2009207775.3584769        16164325.991578937        819630634.28034627     
   1857929090.2690449        10454523.524128795        788996428.17822695     
   2155286788.7471161       -2586599.2091041803        894815590.24885213     
   2025597419.5315781       -6292581.6668733358        874871003.20244157     
   1896434382.5577836       -8244123.3188332319        859509059.73296916     
   1767797677.8257272       -8441224.1649957895        848729759.84043336     
   1639687305.3354166       -6883884.2053455114        842533103.52482462     
   1972553440.4478505       -33518624.738456726        814002770.19799030     
   1849878911.2909839       -23313729.430895567        837961061.29410124     
   1726468101.5076895       -15563102.878094077        859522537.06640863     
   1602321011.0979652       -10266745.080070913        878687197.51491714     
   1477437640.0618012       -7424656.0368225574        895455042.63961875     
   1925577456.3884587       -23723440.995833874        738467407.30012083     
   1789976456.1453054       -5590061.2664300203        804855528.19255292     
   1652376562.4075458        5880340.1476253271        861867374.86043620     
   1512777775.1751869        10687763.246346176        909502947.30378783     
   1371180094.4482231        8832208.0297182202        947762245.52260208     
   2132162994.8627067        44590567.151619792        734845016.59982085     
   2023861450.2135370        54662938.776508451        703728289.35070753     
   1914621983.1517310        61608902.359275103        679506749.01877332     
   1804444593.6773155        65428457.900013328        662180395.60401559     
   1693329281.7902606        66121605.398614705        651749229.10643184     
   1857929090.2690449        10454523.524128795        788996428.17822695     
   1765473291.2197678        24209332.241442323        775359836.95795143     
   1672427060.4931366        35996035.367586911        766167300.72217250     
   1578790398.0891514        45814632.902545810        761418819.47087777     
   1484563304.0078111        53665124.846326411        761114393.20406151     
   1639687305.3354166       -6883884.2053455114        842533103.52482462     
   1556074017.7926278        8452391.3763849735        846782054.19122028     
   1472217789.3077579        22978863.817842722        853023927.90940773     
   1388118619.8808091        36695533.119044602        861258724.67938864     
   1303776509.5117855        49602399.279988766        871486444.50117195     
   1477437640.0618012       -7424656.0368225574        895455042.63961875     
   1395663629.9321043        7392116.1812959313        917994941.05049205     
   1313994169.5955968        22557387.710067570        940076630.58046818     
   1232429259.0522892        38071158.549497068        961700111.22955680     
   1150968898.3021691        53933428.699558794        982865382.99773467     
   1371180094.4482231        8832208.0297182202        947762245.52260208     
   1284242127.6382074        21028506.656211555        988998497.53577483     
   1197756201.3566625        34731607.044273734        1027325408.7353629     
   1111722315.6035750        49941509.193861008        1062742979.1213708     
   1026140470.3789715        66658213.105061114        1095251208.6937823     
   1693329281.7902606        66121605.398614705        651749229.10643184     
   1550675120.1119232        58153246.199241042        625207997.89952743     
   1409486451.1139619        55069862.601116657        600702795.99912298     
   1269763274.7963603        56871454.604184151        578233623.40521932     
   1131505591.1591280        63558022.208499551        557800480.11782217     
   1484563304.0078111        53665124.846326411        761114393.20406151     
   1348200960.7663794        48440678.864848018        745465398.08582830     
   1212142655.8986087        44229694.128897727        731987023.25458646     
   1076388389.4045022        41032170.638493657        720679268.71032405     
   940938161.28406274        38848108.393655449        711542134.45305812     
   1303776509.5117855        49602399.279988766        871486444.50117195     
   1174090530.3657701        47237230.213908613        865374655.44711959     
   1043547135.2867247        42014008.037713766        861568077.66054857     
   912146324.27463996        33932732.751395464        860066711.14144874     
   779888097.32952499        22993404.354976237        860870555.88981187     
   1150968898.3021691        53933428.699558794        982865382.99773467     
   1028343828.9101156        54542900.246488869        984935769.98339677     
   903699889.27831650        48422804.327595502        989445959.21701503     
   777037079.40678382        35573140.942925721        996395950.69859171     
   648355399.29550648        15993910.092439473        1005785744.4281169     
   1026140470.3789715        66658213.105061114        1095251208.6937823     
   910960856.39939117        70357688.962505043        1104148741.6946659     
   792600917.87336826        63456082.998478562        1115620667.9239845     
   671060654.80091417        45953395.213009357        1129666987.3817444     
   546340067.18201745        17849625.606081545        1146287700.0679469     
   1131505591.1591280        63558022.208499551        557800480.11782217     
   947698514.55742431        48048832.629121035        573300634.71747220     
   756801150.13621521        8905350.3180684149        600071648.37854218     
   558813497.89551568       -53872424.724622101        638113521.10103965     
   353735557.83531708       -140284492.49898130        687426252.88494921     
   940938161.28406274        38848108.393655449        711542134.45305812     
   783628590.18939757        18083134.086252272        727962663.33097422     
   618087655.99338555       -30119717.225660205        754707903.09013152     
   444315358.69603616       -105760445.54201549        791777853.73051894     
   262311698.29734439       -208839050.86285621        839172515.25214088     
   779888097.32952499        22993404.354976237        860870555.88981187     
   646372751.22708333       -3838338.8349159956        876880204.55052495     
   503484966.74145103       -61911543.302113652        902268415.91227031     
   351224743.87263817       -151226209.04657781        937035189.97507083     
   189592082.62063235       -271782336.06835294        981180526.73892283     
   648355399.29550648        15993910.092439473        1005785744.4281169     
   535930997.67047340       -17715586.134369701        1020053258.3761194     
   412993082.38040835       -86470127.911296189        1042753186.8449765     
   279541653.42530549       -190269715.23833713        1073885529.8346994     
   135576710.80518371       -329114348.11546397        1113450287.3452847     
   546340067.18201745        17849625.606081545        1146287700.0679469     
   452303329.51957649       -23548607.812109470        1157481824.8077636     
   346612002.91025805       -103795471.05321430        1176162215.8882451     
   229266087.35406229       -222890964.11724377        1202328873.3094072     
   100265582.85098884       -380835087.00419885        1235981797.0712523     
   353735557.83531708       -140284492.49898130        687426252.88494921     
   279214490.11073625       -281538354.50757855        789579169.40977859     
   149799849.14966685       -605770793.97114336        907742985.99320698     
  -34508365.047869802       -1112981810.8896213        1041917702.6352576     
  -273710152.48191959       -1803171405.2631040        1192103319.3359072     
   262311698.29734439       -208839050.86285621        839172515.25214088     
   223526813.54909256       -348604226.30078769        887578846.10361230     
   140455355.98204932       -635991311.13468778        947120105.36195719     
   13097325.596214652       -1071000305.3645469        1017796293.0271665     
  -158547277.60840070       -1653631208.9903803        1099607409.0992441     
   189592082.62063235       -271782336.06835294        981180526.73892283     
   172612033.27229756       -414238229.20852232        988215105.73769522     
   121952411.52286980       -668959363.68568075        1001508641.4915899     
   37613217.372337699       -1035945739.4998343        1021061134.0006088     
  -80405549.179287016       -1515197356.6509786        1046872583.2647531     
   135576710.80518371       -329114348.11546397        1113450287.3452847     
   126470149.28034768       -478440363.23080665        1091487948.3120079     
   94291015.772110671       -704674951.62416434        1070908594.3820986     
   39039310.280465245       -1007818113.2955469        1051712225.5555624     
  -39284967.194568455       -1387869848.2448952        1033898841.8324285     
   100265582.85098884       -380835087.00419885        1235981797.0712523     
   85101161.573241830       -541210628.36765110        1197397373.8265536     
   57471168.729794741       -743138074.95009816        1155319964.0334923     
   17375604.320624590       -986617426.75161934        1109749567.6920533     
  -35185531.654238522       -1271648683.7721281        1060686184.8022466     
   3444331988.1324973       -717634005.85981655       -3077994924.9011369     
   2997437452.0777330       -404652923.83772862       -1916836587.7980795     
   2502649098.8863077       -251317898.93784404       -1136940241.5424135     
   1959966928.5582268       -257628931.16014898       -738305886.13414562     
   1369390941.0934868       -423586020.50464523       -720933521.57328165     
   6683738413.8325605        616163615.65926242       -635350500.32414436     
   5387789434.3828030        561179049.63558197       -214282458.84765992     
   4055752951.9674444        385902807.05991042        19843920.413715485     
   2687628966.5864921        90334887.932249665        67028637.459975041     
   1283417478.2399421       -325524707.74739981       -72728307.708876431     
   7670969535.1047974        1274308645.8499973        1756849478.7964196     
   6081167051.2094383        1017918713.4653689        1451601257.8459020     
   4467083378.5195408        680591485.09895563        1153731703.3125577     
   2828718517.0351071        262326960.75075340        863240815.19638860     
   1166072466.7561407       -236874859.57923132        580128593.49739647     
   6406025351.9492197        1256801084.7123857        4098605012.4605618     
   5077570302.5576448        965566067.65162349        3080814562.2826080     
   3736640378.5425987        632748135.17928481        2264723107.1541176     
   2383235579.9040756        258347287.29535955        1650330647.0750878     
   1017355906.6420788       -157636476.00014442        1237637182.0455217     
   2888905864.3658166        563640932.24642634        6389916100.6682739     
   2376999188.4274220        404121112.19434947        4673357454.4624567     
   1864423952.0366161        242372757.30090737        3352818131.9383917     
   1351180155.1933942        78395867.566072345        2428298133.0960774     
   837267797.89776146       -87809557.010127366        1899797457.9355087     
   1369390941.0934868       -423586020.50464523       -720933521.57328165     
   1562901821.0330322       -412023022.81775129       -542115767.24757516     
   1766258623.6983209       -367640282.71171415       -336904911.16622758     
   1979461349.0893497       -290437800.18653941       -105300953.32923184     
   2202509997.2061243       -180415575.24221241        152696106.26340750     
   1283417478.2399421       -325524707.74739981       -72728307.708876431     
   1530724302.1603467       -288520621.65660971        96884572.525949374     
   1786036115.6993372       -224833236.83719325        275614825.97412026     
   2049352918.8569024       -134462553.28919470        463462452.63563341     
   2320674711.6330571       -17408571.012565851        660427452.51050377     
   1166072466.7561407       -236874859.57923132        580128593.49739647     
   1417816010.2508395       -189237452.40650636        738388844.34964919     
   1675723610.2569625       -121053190.19570959        888490739.87295032     
   1939795266.7745075       -32322072.946834207        1030434280.0673019     
   2210030979.8034768        76955899.340116858        1164219464.9327061     
   1017355906.6420788       -157636476.00014442        1237637182.0455217     
   1224176945.3045125       -114173515.06745136        1382397048.2235174     
   1435321107.3712056       -56300142.787229061        1501722830.5302689     
   1650788392.8421626        15983640.840544522        1595614528.9657719     
   1870578801.7173817        102677835.81585026        1664072143.5300288     
   837267797.89776146       -87809557.010127366        1899797457.9355087     
   949807107.32136226       -63328809.639445066        2028909184.1475616     
   1064828607.0420610       -30574094.611769736        2115311097.9460716     
   1182332297.0598674        10454588.072929442        2159003199.3310375     
   1302318177.3747721        59757238.414625943        2159985488.3024578     
   2202509997.2061243       -180415575.24221241        152696106.26340750     
   2132806498.0644486       -142810421.47148383        322434421.13668883     
   2063416574.8809481       -104160014.50684047        476642409.60057074     
   1994340227.6556139       -64464354.348302603        615320071.65504646     
   1925577456.3884587       -23723440.995833874        738467407.30012083     
   2320674711.6330571       -17408571.012565851        660427452.51050377     
   2216178116.6683021       -646168.70126020908        754939428.08549607     
   2111887918.6939662        16804223.578104734        843027675.92739165     
   2007804117.7100334        34942605.825483561        924692196.03618574     
   1903926713.7165124        53768978.040899158        999932988.41188300     
   2210030979.8034768        76955899.340116858        1164219464.9327061     
   2096760142.3765173        80681206.200286984        1183380059.0803549     
   1983588522.9722061        84737239.802616596        1205223524.1712062     
   1870516121.5905349        89124000.147081137        1229749860.2052643     
   1757542938.2315135        93841487.233712852        1256959067.1825240     
   1870578801.7173817        102677835.81585026        1664072143.5300288     
   1774552575.1890836        101171703.23314208        1607756314.1212695     
   1678518387.7156639        99639034.166693807        1563229954.3320186     
   1582476239.2971244        98079828.616514921        1530493064.1622772     
   1486426129.9334681        96494086.582607627        1509545643.6120396     
   1302318177.3747721        59757238.414625943        2159985488.3024578     
   1249555415.1059978        60825322.397281468        2028068193.2082369     
   1196677512.9243422        61509606.670335472        1917046966.4098287     
   1143684470.8297999        61810091.233763993        1826921807.9072280     
   1090576288.8223808        61726776.087606549        1757692717.7004426     
   1925577456.3884587       -23723440.995833874        738467407.30012083     
   1789976456.1453054       -5590061.2664300203        804855528.19255292     
   1652376562.4075458        5880340.1476253271        861867374.86043620     
   1512777775.1751869        10687763.246346176        909502947.30378783     
   1371180094.4482231        8832208.0297182202        947762245.52260208     
   1903926713.7165124        53768978.040899158        999932988.41188300     
   1748282222.0533414        55157524.688934565        1024243733.0708187     
   1591173509.7075891        51665335.728357613        1046376873.8807451     
   1432600576.6792436        43292411.159141004        1066332410.8416724     
   1272563422.9683084        30038750.981287003        1084110343.9535956     
   1757542938.2315135        93841487.233712852        1256959067.1825240     
   1602422584.7927158        84655489.693704128        1239816220.5553143     
   1446372683.4833457        72370999.251783311        1227694440.4546318     
   1289393234.3034053        56988015.907963932        1220593726.8804848     
   1131484237.2528868        38506539.662216902        1218514079.8328643     
   1486426129.9334681        96494086.582607627        1509545643.6120396     
   1352397544.3634329        82903833.747881353        1451572990.6460338     
   1217974083.7348318        67997330.717938185        1405820074.5820973     
   1083155748.0476770        51774577.492818117        1372286895.4202228     
   947942537.30196273        34235574.072492778        1350973453.1604178     
   1090576288.8223808        61726776.087606549        1757692717.7004426     
   998207100.76548469        49902556.851459026        1659514043.3429921     
   905977710.46203959        38544330.126807034        1580753776.2631452     
   813888117.91205871        27652095.913709730        1521411916.4608991     
   721938323.11552680        17225854.212108463        1481488463.9362552     
   1371180094.4482231        8832208.0297182202        947762245.52260208     
   1284242127.6382074        21028506.656211555        988998497.53577483     
   1197756201.3566625        34731607.044273734        1027325408.7353629     
   1111722315.6035750        49941509.193861008        1062742979.1213708     
   1026140470.3789715        66658213.105061114        1095251208.6937823     
   1272563422.9683084        30038750.981287003        1084110343.9535956     
   1180006932.4172766        35396353.815910697        1112511933.1688855     
   1087838001.4924698        42045822.071279585        1141079082.4258714     
   996056630.19387197        49987155.747351110        1169811791.7245607     
   904662818.52150071        59220354.844169855        1198710061.0649478     
   1131484237.2528868        38506539.662216902        1218514079.8328643     
   1042094653.9759457        39661076.009521484        1234005778.5309763     
   953028149.42297339        41892541.436714202        1252737938.1260703     
   864284723.59396088        45200935.943772107        1274710558.6181548     
   775864376.48891604        49586259.530731112        1299923640.0072098     
   947942537.30196273        34235574.072492778        1350973453.1604178     
   870505292.31420898        33822673.236994743        1353480033.6220593     
   793326645.14816797        34271765.140542746        1362301975.8359666     
   716406595.80384374        35582849.783147991        1377439279.8021419     
   639745144.28122568        37755927.164767295        1398891945.5205836     
   721938323.11552680        17225854.212108463        1481488463.9362552     
   665238847.43206096        17881145.498344630        1470934698.4421232     
   608733488.66805720        19183493.182789713        1469771195.5555470     
   552422246.82350981        21132897.265426368        1477997955.2765224     
   496305121.89842570        23729357.746270627        1495614977.6050472     
   1026140470.3789715        66658213.105061114        1095251208.6937823     
   910960856.39939117        70357688.962505043        1104148741.6946659     
   792600917.87336826        63456082.998478562        1115620667.9239845     
   671060654.80091417        45953395.213009357        1129666987.3817444     
   546340067.18201745        17849625.606081545        1146287700.0679469     
   904662818.52150071        59220354.844169855        1198710061.0649478     
   796957252.46207941        59653124.346181899        1202138564.8733742     
   686288146.59269845        50207427.815003186        1209495798.3970420     
   572655500.91336155        30883265.250638366        1220781761.6359606     
   456059315.42406839        1680636.6530771255        1235996454.5901151     
   775864376.48891604        49586259.530731112        1299923640.0072098     
   679502391.16908669        47913182.523149490        1298136030.1490815     
   580393650.77577722        37084255.270637453        1301631486.4929967     
   478538155.30899531        17099477.773216099        1310410009.0389550     
   373935904.76873052       -12041149.969143897        1324471597.7869539     
   639745144.28122568        37755927.164767295        1398891945.5205836     
   558596272.52041757        35137863.493416607        1392141137.5217857     
   474917430.42260706        24086565.365394503        1392027732.2118337     
   388708617.98781103        4602032.7807486802        1398551729.5907259     
   299969835.21600592       -23315734.260587633        1411713129.6584630     
   496305121.89842570        23729357.746270627        1495614977.6050472     
   434238896.51607233        21327167.256987602        1484153886.9914820     
   369859485.53320098        11214358.099314079        1480684535.5535653     
   303166888.94980377       -6609069.7267789692        1485206923.2912841     
   234161106.76589918       -32143116.221232682        1497721050.2046537     
   546340067.18201745        17849625.606081545        1146287700.0679469     
   452303329.51957649       -23548607.812109470        1157481824.8077636     
   346612002.91025805       -103795471.05321430        1176162215.8882451     
   229266087.35406229       -222890964.11724377        1202328873.3094072     
   100265582.85098884       -380835087.00419885        1235981797.0712523     
   456059315.42406839        1680636.6530771255        1235996454.5901151     
   381355217.09509212       -34537878.709878147        1236795454.0978789     
   296702452.25948322       -103918615.76160872        1243784128.7395082     
   202101020.91723859       -206461574.50212634        1256962478.5149941     
   97550923.068356633       -342166754.93143231        1276330503.4243405     
   373935904.76873052       -12041149.969143897        1324471597.7869539     
   314859899.46802366       -44191311.168432012        1316865714.9096246     
   247541150.10092515       -103817285.92235637        1314152915.9593453     
   171979656.66743708       -190919074.23091507        1316333200.9361014     
   88175419.167553201       -305496676.09412378        1323406569.8399036     
   299969835.21600592       -23315734.260587633        1411713129.6584630     
   252817376.63837606       -52508905.187754631        1397692607.2429960     
   199128096.43459812       -103491481.53541887        1387268577.5477588     
   138901994.60466826       -176263463.30358759        1380441040.5727360     
   72139071.148587108       -270824850.49226075        1377209996.3179386     
   234161106.76589918       -32143116.221232682        1497721050.2046537     
   195227648.60614696       -59490660.767855048        1479276131.0979970     
   151463291.26048931       -102941202.60082594        1463131113.5047414     
   102868034.72892687       -162494741.72014767        1449285997.4248877     
   49441879.011452392       -238151278.12584832        1437740782.8584406     
   100265582.85098884       -380835087.00419885        1235981797.0712523     
   85101161.573241830       -541210628.36765110        1197397373.8265536     
   57471168.729794741       -743138074.95009816        1155319964.0334923     
   17375604.320624590       -986617426.75161934        1109749567.6920533     
  -35185531.654238522       -1271648683.7721281        1060686184.8022466     
   97550923.068356633       -342166754.93143231        1276330503.4243405     
   80042423.245406836       -483919270.20219350        1222020037.9679878     
   51278316.797722667       -663190474.22206104        1165101800.3115368     
   11258603.725312889       -879980366.99102235        1105575790.4549806     
  -40016715.971840382       -1134288948.5091257        1043442008.3983209     
   88175419.167553201       -305496676.09412378        1323406569.8399036     
   70852024.651585221       -427867410.11653864        1254781687.9363694     
   43482988.451860011       -583723616.41814291        1184434248.1810036     
   6068310.5683781207       -773065294.99893272        1112364250.5738037     
  -41392008.998859584       -995892445.85892224        1038571695.1147667     
   72139071.148587108       -270824850.49226075        1377209996.3179386     
   57529965.791786343       -373055048.11066693        1295682323.7317023     
   34085183.692196518       -504737501.53836739        1213317307.6418893     
   1804724.8498229980       -665872210.77534544        1130114948.0485208     
  -39311410.735318929       -856459175.82155728        1046075244.9515500     
   49441879.011452392       -238151278.12584832        1437740782.8584406     
   40076246.665998682       -319482184.18461180        1344721945.3539746     
   23084902.518733501       -426232129.58273852        1251750978.6941943     
  -1532153.4303269684       -558401114.32018852        1158827882.8791099     
  -33774921.181207001       -715989138.39703405        1065952657.9087112     
   2888905864.3658166        563640932.24642634        6389916100.6682739     
   2376999188.4274220        404121112.19434947        4673357454.4624567     
   1864423952.0366161        242372757.30090737        3352818131.9383917     
   1351180155.1933942        78395867.566072345        2428298133.0960774     
   837267797.89776146       -87809557.010127366        1899797457.9355087     
  -844824291.26665998       -480720408.52714813        4556199446.5852518     
  -475756309.78194666       -374460876.71114427        3453792740.1088090     
  -107189748.66427746       -269872746.11861885        2571705826.7680693     
   260875392.08634686       -166956016.74957770        1909938706.5630279     
   628439112.46992767       -65710688.604016870        1468491379.4936893     
  -2570885321.7170053       -922781011.74608159        2722957199.7503104     
  -1822841341.5121765       -701341725.67289639        2234897429.7695026     
  -1075131641.5890234       -481016707.20529366        1791457922.3783498     
  -327756221.94754809       -261805956.34328359        1392638677.5768499     
   419284917.41225260       -43709473.086855441        1038439695.3650037     
  -2289277226.9852195       -762540877.41037655        890189360.16344750     
  -1664255906.7632697       -576521434.69090915        1016671523.4445385     
  -1039401726.7376261       -391059125.95912570        1012074418.7692356     
  -414714686.90829068       -206153951.21503806        876398046.13754117     
   209805212.72473744       -21805910.458641097        609642405.54945004     
  -7.0713028839024599       -5.5200322335058587       -942104072.17533839     
  -5.5352244765738172       -3.7651788280597049       -200884978.86608252     
  -4.1100846169707212       -2.3801178061411497        233555315.94072872     
  -2.7958851351311269       -1.3648580434342641        361216812.24509895     
  -1.5926232859981044      -0.71939038974928393        182099510.04702908     
   837267797.89776146       -87809557.010127366        1899797457.9355087     
   949807107.32136226       -63328809.639445066        2028909184.1475616     
   1064828607.0420610       -30574094.611769736        2115311097.9460716     
   1182332297.0598674        10454588.072929442        2159003199.3310375     
   1302318177.3747721        59757238.414625943        2159985488.3024578     
   628439112.46992767       -65710688.604016870        1468491379.4936893     
   642997379.46968567       -68303992.570399135        1608171805.0261898     
   659417289.19024599       -64691820.800775558        1721439868.3393710     
   677698841.63161159       -54874173.295132279        1808295569.4332333     
   697842036.79377973       -38851050.053483278        1868738908.3077748     
   419284917.41225260       -43709473.086855441        1038439695.3650037     
   382426285.40024155       -59407585.366676003        1187964848.0456026     
   346808748.53273308       -70968713.831490785        1327375088.7011068     
   312432306.80973184       -78392858.481281176        1456670417.3315165     
   279296960.23123223       -81680019.316063955        1575850833.9368348     
   209805212.72473744       -21805910.458641097        609642405.54945004     
   168093825.11302757       -36639588.028287567        768288313.20579600     
   127002985.06952316       -49404773.703916788        933116759.03127563     
   86532692.594226524       -60101467.485519387        1104127743.0258870     
   46682947.687132344       -68729669.373112887        1281321265.1896267     
  -1.5926232859981044      -0.71939038974928393        182099510.04702908     
  -1.3919562389166582      -0.55522843648743814        349142200.50677586     
  -1.1993831294432689      -0.41804835692061937        538664879.32988012     
  -1.0149018072833418      -0.30783951395322762        750667546.51634169     
 -0.83851707628650285      -0.22462000208551997        985150202.06615698     
   1302318177.3747721        59757238.414625943        2159985488.3024578     
   1249555415.1059978        60825322.397281468        2028068193.2082369     
   1196677512.9243422        61509606.670335472        1917046966.4098287     
   1143684470.8297999        61810091.233763993        1826921807.9072280     
   1090576288.8223808        61726776.087606549        1757692717.7004426     
   697842036.79377973       -38851050.053483278        1868738908.3077748     
   692109784.36219573       -27898041.281366676        1797831968.0477381     
   686291176.99568939       -17232882.292323738        1739925138.2613840     
   680386214.69426239       -6855573.0863500535        1695018418.9487236     
   674394897.45791972        3233886.3365711272        1663111810.1097600     
   279296960.23123223       -81680019.316063955        1575850833.9368348     
   298035338.14506662       -67610049.602029637        1565987830.9852619     
   316716146.10194331       -53731979.744516671        1561228980.6852601     
   335339384.10186476       -40045809.743522003        1561574283.0368299     
   353905052.14482880       -26551539.599054858        1567023738.0399759     
   46682947.687132344       -68729669.373112887        1281321265.1896267     
   67332076.454617560       -58310702.564683571        1332535782.0208149     
   87952420.243106678       -47987685.686237194        1380958493.6814573     
   108543979.05260766       -37760618.737751886        1426589400.1715508     
   129106752.88310900       -27629501.719265349        1469428501.4910965     
 -0.83851707628650285      -0.22462000208551997        985150202.06615698     
 -0.70915196791732937      -0.16932865366269512        1097475821.1543982     
 -0.58081959571580133      -0.11748045302141229        1199113677.2499719     
 -0.45351101537142496       -6.9044198014578270E-002   1290063770.3528776     
 -0.32723915152724126       -2.4064358564443167E-002   1370326100.4631176     
   1090576288.8223808        61726776.087606549        1757692717.7004426     
   998207100.76548469        49902556.851459026        1659514043.3429921     
   905977710.46203959        38544330.126807034        1580753776.2631452     
   813888117.91205871        27652095.913709730        1521411916.4608991     
   721938323.11552680        17225854.212108463        1481488463.9362552     
   674394897.45791972        3233886.3365711272        1663111810.1097600     
   628427658.90043521        1358617.6574490070        1595848427.6198599     
   582565268.65873480       -167156.63572168350        1542564533.4925971     
   536807726.73282248       -1343436.5429365039        1503260127.7279661     
   491155033.12268996       -2170222.0642145574        1477935210.3259609     
   353905052.14482880       -26551539.599054858        1567023738.0399759     
   338799994.75827426       -23139788.219684422        1530634873.0736811     
   323764836.24983382       -19495040.579933062        1502786577.5550489     
   308799576.61950612       -15617296.679806873        1483478851.4840825     
   293904215.86729032       -11506556.519306451        1472711694.8607769     
   129106752.88310900       -27629501.719265349        1469428501.4910965     
   129324108.33900352       -23592660.779942513        1463873379.7044532     
   129576413.23533709       -19439321.705821283        1461419908.4505064     
   129863667.57210827       -15169484.496908292        1462068087.7292528     
   130185871.34932825       -10783149.153167047        1465817917.5406868     
 -0.32723915152724126       -2.4064358564443167E-002   1370326100.4631176     
 -0.35738509221602666       -2.3352611053697556E-002   1395563947.5121772     
 -0.38475843390460607       -1.3397479096817613E-002   1418464526.1789632     
 -0.40936523859369767        5.7804836924406078E-003   1439027836.4634728     
 -0.43119756849368168        3.4203226331772058E-002   1457253878.3657036     
   721938323.11552680        17225854.212108463        1481488463.9362552     
   665238847.43206096        17881145.498344630        1470934698.4421232     
   608733488.66805720        19183493.182789713        1469771195.5555470     
   552422246.82350981        21132897.265426368        1477997955.2765224     
   496305121.89842570        23729357.746270627        1495614977.6050472     
   491155033.12268996       -2170222.0642145574        1477935210.3259609     
   457029327.74875313        840916.82489502430        1478336099.4838371     
   423049210.06312972        4337348.0083829165        1486167507.5946693     
   389214680.06580603        8319071.4862030596        1501429434.6584623     
   355525737.75678134        12786087.258355930        1524121880.6752226     
   293904215.86729032       -11506556.519306451        1472711694.8607769     
   276753013.21833754       -7819350.3026801944        1484010621.2343030     
   259698869.02653736       -3808615.8955434114        1500780322.9062006     
   242741783.29188600        525646.70208823681        1523020799.8764663     
   225881756.01438516        5183437.4902223200        1550732052.1451011     
   130185871.34932825       -10783149.153167047        1465817917.5406868     
   124409903.84080805       -8099655.8843962625        1487958263.6935234     
   118682465.55828848       -5254398.5289566666        1513609641.4901395     
   113003556.50176406       -2247377.0868671611        1542772050.9305339     
   107373176.67123207        921408.44186498225        1575445492.0147002     
 -0.43119756849368168        3.4203226331772058E-002   1457253878.3657036     
 -0.38382859162084998        7.9768838055085250E-002   1490179026.8615084     
 -0.34162050477836781       0.10812870745300499        1524655463.3464916     
 -0.30456935050916256       0.11929984244075398        1560683187.8206632     
 -0.27267748498709832       0.11327404216075676        1598262200.2840183     
   496305121.89842570        23729357.746270627        1495614977.6050472     
   434238896.51607233        21327167.256987602        1484153886.9914820     
   369859485.53320098        11214358.099314079        1480684535.5535653     
   303166888.94980377       -6609069.7267789692        1485206923.2912841     
   234161106.76589918       -32143116.221232682        1497721050.2046537     
   355525737.75678134        12786087.258355930        1524121880.6752226     
   313461340.53274852        12330025.929925859        1513673522.2241755     
   269662054.10870254        6091000.6014479697        1510170339.5283098     
   224127878.48463026       -5930988.7271133512        1513612332.5876107     
   176858813.66054511       -23735942.055719122        1523999501.4020944     
   225881756.01438516        5183437.4902223200        1550732052.1451011     
   200829005.74733356        5776450.9622467905        1541971104.9904981     
   174619662.68076172        2514155.1025358513        1539108770.1705992     
   147253726.81467214       -4603450.0889031217        1542145047.6854079     
   118731198.14906660       -15576364.612056218        1551079937.5349195     
   107373176.67123207        921408.44186498225        1575445492.0147002     
   96341892.159817472        1666442.3539257161        1569046635.2904556     
   84732311.249393135        483821.60262202844        1567499827.4804428     
   72544433.939934328       -2626453.8121301085        1570805068.5846653     
   59778260.231472053       -7664383.8902281187        1578962358.6031258     
 -0.27267748498709832       0.11327404216075676        1598262200.2840183     
 -0.22978944754329828       0.10499403544386141        1594900113.1240435     
 -0.18542196166760394       0.10164760516811851        1595343511.4578376     
 -0.13957642276395410       0.10322767137419861        1599592395.2853916     
  -9.2241507472516610E-002  0.10977093776079015        1607646764.6067226     
   234161106.76589918       -32143116.221232682        1497721050.2046537     
   195227648.60614696       -59490660.767855048        1479276131.0979970     
   151463291.26048931       -102941202.60082594        1463131113.5047414     
   102868034.72892687       -162494741.72014767        1449285997.4248877     
   49441879.011452392       -238151278.12584832        1437740782.8584406     
   176858813.66054511       -23735942.055719122        1523999501.4020944     
   146255515.56551245       -44667561.809058286        1500497883.7237401     
   112029043.08138517       -77676429.526043504        1479623581.9371588     
   74179396.208198160       -122762545.20656106        1461376596.0423563     
   32706574.945927121       -179925908.85069486        1445756926.0393288     
   118731198.14906660       -15576364.612056218        1551079937.5349195     
   97393529.771237224       -29811418.676392056        1523930633.5478346     
   73640411.801155716       -52097971.381567039        1499736059.8309000     
   47471844.238827050       -82436022.727567583        1478496216.3841102     
   18887827.084243521       -120825572.71441555        1460211103.2074692     
   59778260.231472053       -7664383.8902281187        1578962358.6031258     
   48641691.223344415       -14922231.369788621        1549574380.5702817     
   36297397.419787869       -26205828.167447895        1523468547.1859484     
   22745378.820815273       -41515174.283159420        1500644858.4501410     
   7985635.4264170974       -60850269.716959149        1481103314.3628511     
  -9.2241507472516610E-002  0.10977093776079015        1607646764.6067226     
  -7.8177574304282182E-002  0.11071940068071476        1577429124.7910743     
  -6.2718603204720669E-002  0.11631799003839628        1550821044.0023165     
  -4.5843045476939293E-002  0.12663853482347737        1527822522.2404559     
  -2.7568332232437320E-002  0.14162293133096046        1508433559.5054920     
   49441879.011452392       -238151278.12584832        1437740782.8584406     
   40076246.665998682       -319482184.18461180        1344721945.3539746     
   23084902.518733501       -426232129.58273852        1251750978.6941943     
  -1532153.4303269684       -558401114.32018852        1158827882.8791099     
  -33774921.181207001       -715989138.39703405        1065952657.9087112     
   32706574.945927121       -179925908.85069486        1445756926.0393288     
   28882521.620239228       -239964037.11095151        1345600949.1334946     
   19339184.443776026       -319066444.87378693        1244746136.5215969     
   4076563.4165525734       -417233132.13916212        1143192488.2036376     
  -16905341.461451560       -534464098.90713680        1040940004.1796161     
   18887827.084243521       -120825572.71441555        1460211103.2074692     
   18471905.490449823       -160210957.36252347        1355142152.8431480     
   14243127.996920750       -212305861.67641801        1248627660.2220035     
   6201494.6036614031       -277110285.65608013        1140667625.3440390     
  -5652994.6893343180       -354624229.30153096        1031262048.2092659     
   7985635.4264170974       -60850269.716959149        1481103314.3628511     
   8844398.2766415775       -80222944.939296097        1373345556.4829144     
   7796733.1781723946       -105950379.99061033        1263395549.7954018     
   4842640.1310055703       -138032574.87091431        1151253294.3003085     
  -17880.864859141409       -176469529.58021766        1036918789.9976461     
  -2.7568332232437320E-002  0.14162293133096046        1508433559.5054920     
  -2.1183604321233784E-002  0.15874618469563689        1400211160.0528069     
  -1.2474819712025784E-002  0.18361768149910906        1289049805.2417974     
  -1.4168611339127613E-003  0.21631906430954081        1174949495.0724599     
   1.1976500377511329E-002  0.25680373578556215        1057910229.5447904     
  -7.0713028839024599       -5.5200322335058587       -942104072.17533839     
  -5.5352244765738172       -3.7651788280597049       -200884978.86608252     
  -4.1100846169707212       -2.3801178061411497        233555315.94072872     
  -2.7958851351311269       -1.3648580434342641        361216812.24509895     
  -1.5926232859981044      -0.71939038974928393        182099510.04702908     
   2289277213.5492506        762540866.52470171        890189359.42517400     
   1664255896.2349627        576521427.22508264        1016671522.9061430     
   1039401718.9014409        391059121.19467562        1012074418.3249228     
   414714681.54867899        206153948.43347377        876398045.68151224     
  -209805215.82331535        21805908.941494405        609642404.97591007     
   2570885310.4389195        922781001.45017362        2722957198.2544937     
   1822841332.6749873        701341718.61629605        2234897428.6808271     
   1075131634.9835219        481016702.69063729        1791457921.4852278     
   327756217.36451805        261805953.67319137        1392638676.6676841     
  -419284920.18201661        43709471.563968122        1038439694.2282028     
   844824283.59771121        480720399.25638235        4556199444.3126097     
   475756303.78484964        374460870.40846097        3453792738.4579706     
   107189744.13615908        269872742.10776842        2571705825.4216337     
  -260875395.34836897        166956014.35428950        1909938705.2036157     
  -628439114.66872799        65710687.148037940        1468491377.8039081     
  -2888905866.9743848       -563640940.05667853        6389916097.5995350     
  -2376999190.4354534       -404121117.39842790        4673357452.2375631     
  -1864423953.6406507       -242372760.55393791        3352818130.1341524     
  -1351180156.5899839       -78395869.523235738        2428298131.2893081     
  -837267799.28344309        87809555.693713307        1899797455.7030265     
  -1.5926232859981044      -0.71939038974928393        182099510.04702908     
  -1.3919562389166582      -0.55522843648743814        349142200.50677586     
  -1.1993831294432689      -0.41804835692061937        538664879.32988012     
  -1.0149018072833418      -0.30783951395322762        750667546.51634169     
 -0.83851707628650285      -0.22462000208551997        985150202.06615698     
  -209805215.82331535        21805908.941494405        609642404.97591007     
  -168093827.81494686        36639586.860657826        768288312.69230056     
  -127002987.39367148        49404772.822843909        933116758.56933546     
  -86532694.559510455        60101466.827984288        1104127742.6070142     
  -46682949.312445477        68729668.876133949        1281321264.8053362     
  -419284920.18201661        43709471.563968122        1038439694.2282028     
  -382426287.80226243        59407584.207262412        1187964847.0257268     
  -346808750.58861917        70968712.963521734        1327375087.7811782     
  -312432308.54108900        78392857.832733750        1456670416.4945626     
  -279296961.65967363        81680018.814899638        1575850833.1658769     
  -628439114.66872799        65710687.148037940        1468491377.8039081     
  -642997381.35391140        68303991.484560758        1608171803.5070508     
  -659417290.78421831        64691820.004007518        1721439866.9654131     
  -677698842.95964718        54874172.706380993        1808295568.1789935     
  -697842037.88019681        38851049.591682673        1868738907.1477895     
  -837267799.28344309        87809555.693713307        1899797455.7030265     
  -949807108.46989202        63328808.692556262        2028909182.1362774     
  -1064828607.9804702        30574093.944299817        2115311096.1220353     
  -1182332297.8151793       -10454588.551055729        2159003197.6602974     
  -1302318177.9740250       -59757238.793539166        2159985486.7510657     
 -0.83851707628650285      -0.22462000208551997        985150202.06615698     
 -0.70915196791732937      -0.16932865366269512        1097475821.1543982     
 -0.58081959571580133      -0.11748045302141229        1199113677.2499719     
 -0.45351101537142496       -6.9044198014578270E-002   1290063770.3528776     
 -0.32723915152724126       -2.4064358564443167E-002   1370326100.4631176     
  -46682949.312445477        68729668.876133949        1281321264.8053362     
  -67332077.834622726        58310702.170559451        1332535781.6816061     
  -87952421.378229588        47987685.393553294        1380958493.3787866     
  -108543979.94327307        37760618.545092128        1426589399.8968790     
  -129106753.52975143        27629501.625180207        1469428501.2358792     
  -279296961.65967363        81680018.814899638        1575850833.1658769     
  -298035339.36602461        67610049.188685715        1565987830.3063729     
  -316716147.11421585        53731979.423007071        1561228980.0813568     
  -335339384.90424562        40045809.517865181        1561574282.4908288     
  -353905052.73611367        26551539.473259792        1567023737.5347841     
  -697842037.88019681        38851049.591682673        1868738907.1477895     
  -692109785.30336380        27898040.885025382        1797831967.0287013     
  -686291177.78877556        17232881.970885724        1739925137.3576839     
  -680386215.33642805        6855572.8492753506        1695018418.1347258     
  -674394897.94632626       -3233886.4798173904        1663111809.3598368     
  -1302318177.9740250       -59757238.793539166        2159985486.7510657     
  -1249555415.6466413       -60825322.740421474        2028068191.8485925     
  -1196677513.4019043       -61509606.962793112        1917046965.2077632     
  -1143684471.2398205       -61810091.460675895        1826921806.8285761     
  -1090576289.1603818       -61726776.234040797        1757692716.7110302     
 -0.32723915152724126       -2.4064358564443167E-002   1370326100.4631176     
 -0.35738509221602666       -2.3352611053697556E-002   1395563947.5121772     
 -0.38475843390460607       -1.3397479096817613E-002   1418464526.1789632     
 -0.40936523859369767        5.7804836924406078E-003   1439027836.4634728     
 -0.43119756849368168        3.4203226331772058E-002   1457253878.3657036     
  -129106753.52975143        27629501.625180207        1469428501.2358792     
  -129324109.03908849        23592660.698609084        1463873379.4719853     
  -129576413.98620623        19439321.646105841        1461419908.2434354     
  -129863668.37109199        15169484.467705488        1462068087.5502362     
  -130185872.19376393        10783149.163352214        1465817917.3923843     
  -353905052.73611367        26551539.473259792        1567023737.5347841     
  -338799995.38857555        23139788.120227337        1530634872.6106298     
  -323764836.91936010        19495040.506114796        1502786577.1394427     
  -308799577.32847422        15617296.630904093        1483478851.1212294     
  -293904216.61591357        11506556.494612902        1472711694.5559866     
  -674394897.94632626       -3233886.4798173904        1663111809.3598368     
  -628427659.40583897       -1358617.7584797740        1595848426.9281068     
  -582565269.18423045        167156.56660011411        1542564532.8669775     
  -536807727.28149486        1343436.4954326749        1503260127.1764421     
  -491155033.69763392        2170222.0280190110        1477935209.8564963     
  -1090576289.1603818       -61726776.234040797        1757692716.7110302     
  -998207101.09088600       -49902556.937532067        1659514042.4244280     
  -905977710.78081369       -38544330.172431827        1580753775.4260473     
  -813888118.23016679       -27652095.938751549        1521411915.7158833     
  -721938323.43893993       -17225854.236470550        1481488463.2939382     
 -0.43119756849368168        3.4203226331772058E-002   1457253878.3657036     
 -0.38382859162084998        7.9768838055085250E-002   1490179026.8615084     
 -0.34162050477836781       0.10812870745300499        1524655463.3464916     
 -0.30456935050916256       0.11929984244075398        1560683187.8206632     
 -0.27267748498709832       0.11327404216075676        1598262200.2840183     
  -130185872.19376393        10783149.163352214        1465817917.3923843     
  -124409904.59977257        8099655.9664524719        1487958263.5609512     
  -118682466.23890287        5254398.6591465473        1513609641.3706160     
  -113003557.11116675        2247377.2413944229        1542772050.8213742     
  -107373177.21655180       -921408.28675916791        1575445491.9132240     
  -293904216.61591357        11506556.494612902        1472711694.5559866     
  -276753013.89840746        7819350.3283521682        1484010620.9646897     
  -259698869.64200336        3808615.9584189355        1500780322.6663976     
  -242741783.84669167       -525646.61515595019        1523020799.6611049     
  -225881756.51248243       -5183437.3924059272        1550732051.9488144     
  -491155033.69763392        2170222.0280190110        1477935209.8564963     
  -457029328.27974391       -840916.83456698060        1478336099.0727119     
  -423049210.55092204       -4337347.9940507412        1486167507.2338328     
  -389214680.51116318       -8319071.4504102916        1501429434.3398643     
  -355525738.16047585       -12786087.203673199        1524121880.3908014     
  -721938323.43893993       -17225854.236470550        1481488463.2939382     
  -665238847.74377918       -17881145.522299021        1470934697.8850214     
  -608733488.96566153       -19183493.198271751        1469771195.0729227     
  -552422247.10457182       -21132897.264338642        1477997954.8576427     
  -496305122.16053039       -23729357.720565498        1495614977.2391782     
 -0.27267748498709832       0.11327404216075676        1598262200.2840183     
 -0.22978944754329828       0.10499403544386141        1594900113.1240435     
 -0.18542196166760394       0.10164760516811851        1595343511.4578376     
 -0.13957642276395410       0.10322767137419861        1599592395.2853916     
  -9.2241507472516610E-002  0.10977093776079015        1607646764.6067226     
  -107373177.21655180       -921408.28675916791        1575445491.9132240     
  -96341892.618729860       -1666442.1992083192        1569046635.2068038     
  -84732311.619826332       -483821.44138652086        1567499827.4113767     
  -72544434.219825402        2626453.9867600910        1570805068.5269406     
  -59778260.418742910        7664384.0851793066        1578962358.5534904     
  -225881756.51248243       -5183437.3924059272        1550732051.9488144     
  -200829006.16766360       -5776450.8514103293        1541971104.8288267     
  -174619663.02215230       -2514154.9747771397        1539108770.0370514     
  -147253727.07594046        4603450.2375260293        1542145047.5734925     
  -118731198.32904129        15576364.785451919        1551079937.4381461     
  -355525738.16047585       -12786087.203673199        1524121880.3908014     
  -313461340.87659144       -12330025.851609737        1513673521.9901152     
  -269662054.39240170       -6091000.4985281229        1510170339.3348713     
  -224127878.70792106        5930988.8555223197        1513612332.4250638     
  -176858813.82313320        23735942.210598119        1523999501.2606838     
  -496305122.16053039       -23729357.720565498        1495614977.2391782     
  -434238896.74551135       -21327167.199800104        1484153886.6906712     
  -369859485.73059499       -11214358.012710601        1480684535.3048232     
  -303166889.11576116        6609069.8407719880        1485206923.0816395     
  -234161106.90103000        32143116.360576212        1497721050.0211108     
  -9.2241507472516610E-002  0.10977093776079015        1607646764.6067226     
  -7.8177574304282182E-002  0.11071940068071476        1577429124.7910743     
  -6.2718603204720669E-002  0.11631799003839628        1550821044.0023165     
  -4.5843045476939293E-002  0.12663853482347737        1527822522.2404559     
  -2.7568332232437320E-002  0.14162293133096046        1508433559.5054920     
  -59778260.418742910        7664384.0851793066        1578962358.5534904     
  -48641691.381333306        14922231.572604306        1549574380.5268662     
  -36297397.546281956        26205828.385500729        1523468547.1482694     
  -22745378.913585760        41515174.523879081        1500644858.4177094     
  -7985635.4832345359        60850269.987776980        1481103314.3351841     
  -118731198.32904129        15576364.785451919        1551079937.4381461     
  -97393529.922178984        29811418.863168903        1523930633.4628212     
  -73640411.921427667        52097971.587181285        1499736059.7566736     
  -47471844.326790228        82436022.957480893        1478496216.3196938     
  -18887827.138254985        120825572.97410476        1460211103.1518905     
  -176858813.82313320        23735942.210598119        1523999501.2606838     
  -146255515.70070577        44667561.982442483        1500497883.5989501     
  -112029043.18814033        77676429.721412152        1479623581.8275268     
  -74179396.285451531        122762545.42745911        1461376595.9464099     
  -32706574.992623925        179925909.10063800        1445756925.9556100     
  -234161106.90103000        32143116.360576212        1497721050.0211108     
  -195227648.71692163        59490660.930396035        1479276130.9352450     
  -151463291.34643066        102941202.78815639        1463131113.3608296     
  -102868034.78958404        162494741.93376929        1449285997.2978661     
  -49441879.046346739        238151278.36735174        1437740782.7463458     
  -2.7568332232437320E-002  0.14162293133096046        1508433559.5054920     
  -2.1183604321233784E-002  0.15874618469563689        1400211160.0528069     
  -1.2474819712025784E-002  0.18361768149910906        1289049805.2417974     
  -1.4168611339127613E-003  0.21631906430954081        1174949495.0724599     
   1.1976500377511329E-002  0.25680373578556215        1057910229.5447904     
  -7985635.4832345359        60850269.987776980        1481103314.3351841     
  -8844398.3212937377        80222945.243128359        1373345556.4620314     
  -7796733.2062491700        105950380.34216101        1263395549.7811241     
  -4842640.1380790472        138032575.28494313        1151253294.2924588     
   17880.883191317320        176469530.07139549        1036918789.9960364     
  -18887827.138254985        120825572.97410476        1460211103.1518905     
  -18471905.533395492        160210957.65391636        1355142152.8008325     
  -14243128.024655744        212305862.01332638        1248627660.1925957     
  -6201494.6120287776        277110286.05236053        1140667625.3271732     
   5652994.7044865340        354624229.77102470        1031262048.2045722     
  -32706574.992623925        179925909.10063800        1445756925.9556100     
  -28882521.657496512        239964037.39108962        1345600949.0692127     
  -19339184.467704266        319066445.19708663        1244746136.4762218     
  -4076563.4232550263        417233132.51861185        1143192488.1766102     
   16905341.475855649        534464099.35566944        1040940004.1704093     
  -49441879.046346739        238151278.36735174        1437740782.7463458     
  -40076246.693578526        319482184.45470190        1344721945.2671926     
  -23084902.535388738        426232129.89345938        1251750978.6320031     
   1532153.4282390177        558401114.68367672        1158827882.8407879     
   33774921.197300166        715989138.82533669        1065952657.8935336     
  -2888905866.9743848       -563640940.05667853        6389916097.5995350     
  -2376999190.4354534       -404121117.39842790        4673357452.2375631     
  -1864423953.6406507       -242372760.55393791        3352818130.1341524     
  -1351180156.5899839       -78395869.523235738        2428298131.2893081     
  -837267799.28344309        87809555.693713307        1899797455.7030265     
  -6406025348.9493914       -1256801087.4194834        4098605012.6095023     
  -5077570300.2194891       -965566069.22838438        3080814562.2735720     
  -3736640376.9830017       -632748136.01531696        2264723106.7799301     
  -2383235579.2399220       -258347287.78027606        1650330646.1285820     
  -1017355906.9902464        157636475.47674257        1237637180.3195269     
  -7670969529.1451330       -1274308644.2485101        1756849481.6945841     
  -6081167046.5564747       -1017918712.0242335        1451601259.6772053     
  -4467083375.2105036       -680591483.94223571        1153731704.0858426     
  -2828718515.1072135       -262326960.00252080        863240814.92050195     
  -1166072466.2466106        236874859.79491174        580128592.18118048     
  -6683738407.5616131       -616163610.54375863       -635350495.14522541     
  -5387789429.4463997       -561179045.78595781       -214282455.55154237     
  -4055752948.3231521       -385902804.33469963        19843922.051885616     
  -2687628964.1918640       -90334886.189980507        67028637.665061548     
  -1283417477.0525360        325524708.64821184       -72728308.712013751     
  -3444331984.1988297        717634013.69477344       -3077994917.9099193     
  -2997437448.8892722        404652929.48642504       -1916836583.4126668     
  -2502649096.3209524        251317902.80728924       -1136940239.3219364     
  -1959966926.4938700        257628933.65736079       -738305885.63773215     
  -1369390939.4080253        423586022.03663945       -720933522.36005235     
  -837267799.28344309        87809555.693713307        1899797455.7030265     
  -949807108.46989202        63328808.692556262        2028909182.1362774     
  -1064828607.9804702        30574093.944299817        2115311096.1220353     
  -1182332297.8151793       -10454588.551055729        2159003197.6602974     
  -1302318177.9740250       -59757238.793539166        2159985486.7510657     
  -1017355906.9902464        157636475.47674257        1237637180.3195269     
  -1224176945.5773404        114173514.64282215        1382397046.6384418     
  -1435321107.5764687        56300142.435453892        1501722829.0580728     
  -1650788392.9876244       -15983641.145331681        1595614527.5784163     
  -1870578801.8108072       -102677836.09955502        1664072142.1994710     
  -1166072466.2466106        236874859.79491174        580128592.18118048     
  -1417816009.8109045        189237452.45524341        738388843.11654484     
  -1675723609.8751197        121053190.11582601        888490738.70083356     
  -1939795266.4392638        32322072.776647568        1030434278.9340461     
  -2210030979.5033383       -76955899.562292337        1164219463.8161769     
  -1283417477.0525360        325524708.64821184       -72728308.712013751     
  -1530724301.1705685        288520622.12984306        96884571.570587695     
  -1786036114.8764255        224833236.98539472        275614825.05032152     
  -2049352918.1701105        134462553.21485806        463462451.72718507     
  -2320674711.0516148        17408570.818245053        660427451.60117924     
  -1369390939.4080253        423586022.03663945       -720933522.36005235     
  -1562901819.6563485        412023023.66659939       -542115767.99942827     
  -1766258622.5803897        367640283.04416084       -336904911.89346540     
  -1979461348.1801546        290437800.16931117       -105300954.04216284     
  -2202509996.4556427        180415575.04205382        152696105.55447972     
  -1302318177.9740250       -59757238.793539166        2159985486.7510657     
  -1249555415.6466413       -60825322.740421474        2028068191.8485925     
  -1196677513.4019043       -61509606.962793112        1917046965.2077632     
  -1143684471.2398205       -61810091.460675895        1826921806.8285761     
  -1090576289.1603818       -61726776.234040797        1757692716.7110302     
  -1870578801.8108072       -102677836.09955502        1664072142.1994710     
  -1774552575.3134356       -101171703.52521467        1607756312.9533737     
  -1678518387.8661995       -99639034.451322019        1563229953.3022671     
  -1582476239.4690971       -98079828.877878666        1530493063.2461493     
  -1486426130.1221216       -96494086.804859579        1509545642.7850242     
  -2210030979.5033383       -76955899.562292337        1164219463.8161769     
  -2096760142.1692739       -80681206.466728568        1183380058.0977216     
  -1983588522.8528237       -84737240.096549869        1205223523.3076060     
  -1870516121.5539927       -89124000.451760530        1229749859.4458237     
  -1757542938.2727735       -93841487.532355189        1256959066.5123830     
  -2320674711.0516148        17408570.818245053        660427451.60117924     
  -2216178116.2141490        646168.43504679203        754939427.28163671     
  -2111887918.3617797       -16804223.898478746        843027675.22377980     
  -2007804117.4945085       -34942606.182328343        924692195.42760861     
  -1903926713.6123416       -53768978.416524053        999932987.89312041     
  -2202509996.4556427        180415575.04205382        152696105.55447972     
  -2132806497.4480600        142810421.18011975        322434420.50511587     
  -2063416574.3930633        104160014.14289999        476642409.05078745     
  -1994340227.2906458        64464353.930414557        615320071.19148970     
  -1925577456.1408167        23723440.542634964        738467406.92722940     
  -1090576289.1603818       -61726776.234040797        1757692716.7110302     
  -998207101.09088600       -49902556.937532067        1659514042.4244280     
  -905977710.78081369       -38544330.172431827        1580753775.4260473     
  -813888118.23016679       -27652095.938751549        1521411915.7158833     
  -721938323.43893993       -17225854.236470550        1481488463.2939382     
  -1486426130.1221216       -96494086.804859579        1509545642.7850242     
  -1352397544.5209708       -82903833.914898634        1451572989.8807094     
  -1217974083.8648279       -67997330.841628015        1405820073.8832691     
  -1083155748.1536994       -51774577.585076988        1372286894.7927067     
  -947942537.38758028       -34235574.145217061        1350973452.6090157     
  -1757542938.2727735       -93841487.532355189        1256959066.5123830     
  -1602422584.8009510       -84655489.947228849        1239816219.9405079     
  -1446372683.4597254       -72370999.464095831        1227694439.8941603     
  -1289393234.2491002       -56988016.082962871        1220593726.3733428     
  -1131484237.1690738       -38506539.803826272        1218514079.3780532     
  -1903926713.6123416       -53768978.416524053        999932987.89312041     
  -1748282221.9308276       -55157525.034527123        1024243732.6038281     
  -1591173509.5655062       -51665336.039822102        1046376873.4587176     
  -1432600576.5163693       -43292411.432409286        1066332410.4577971     
  -1272563422.7834246       -30038751.212299407        1084110343.6010566     
  -1925577456.1408167        23723440.542634964        738467406.92722940     
  -1789976455.9106100        5590060.8231894970        804855527.87066817     
  -1652376562.1821654       -5880340.5688084364        861867374.57694376     
  -1512777774.9555047       -10687763.633414626        909502947.04605937     
  -1371180094.2306225       -8832208.3706131577        947762245.27801311     
  -721938323.43893993       -17225854.236470550        1481488463.2939382     
  -665238847.74377918       -17881145.522299021        1470934697.8850214     
  -608733488.96566153       -19183493.198271751        1469771195.0729227     
  -552422247.10457182       -21132897.264338642        1477997954.8576427     
  -496305122.16053039       -23729357.720565498        1495614977.2391782     
  -947942537.38758028       -34235574.145217061        1350973452.6090157     
  -870505292.41091204       -33822673.301613003        1353480033.1357687     
  -793326645.25368190       -34271765.189464808        1362301975.4062233     
  -716406595.91588628       -35582849.808772534        1377439279.4203827     
  -639745144.39753580       -37755927.159552455        1398891945.1782477     
  -1131484237.1690738       -38506539.803826272        1218514079.3780532     
  -1042094653.9197900       -39661076.133445561        1234005778.1210051     
  -953028149.39234400       -41892541.535857856        1252737937.7545485     
  -864284723.58673596       -45200936.011060596        1274710558.2786825     
  -775864376.50297046       -49586259.559071481        1299923639.6934090     
  -1272563422.7834246       -30038751.212299407        1084110343.6010566     
  -1180006932.2704144       -35396354.017797887        1112511932.8407383     
  -1087838001.3816469       -42045822.237436056        1141079082.1178999     
  -996056630.11712074       -49987155.871215641        1169811791.4325411     
  -904662818.47683668       -59220354.919131666        1198710060.7846587     
  -1371180094.2306225       -8832208.3706131577        947762245.27801311     
  -1284242127.4627891       -21028506.954688549        988998497.29496241     
  -1197756201.2215917       -34731607.294216871        1027325408.4962798     
  -1111722315.5070369       -49941509.389217675        1062742978.8819578     
  -1026140470.3191223       -66658213.239690959        1095251208.4520066     
  -496305122.16053039       -23729357.720565498        1495614977.2391782     
  -434238896.74551135       -21327167.199800104        1484153886.6906712     
  -369859485.73059499       -11214358.012710601        1480684535.3048232     
  -303166889.11576116        6609069.8407719880        1485206923.0816395     
  -234161106.90103000        32143116.360576212        1497721050.0211108     
  -639745144.39753580       -37755927.159552455        1398891945.1782477     
  -558596272.63181460       -35137863.453245431        1392141137.2300181     
  -474917430.53048003       -24086565.294897825        1392027731.9614718     
  -388708618.09353292       -4602032.6845048815        1398551729.3726053     
  -299969835.32096714        23315734.377946883        1411713129.4634194     
  -775864376.50297046       -49586259.559071481        1299923639.6934090     
  -679502391.19506121       -47913182.509783715        1298136029.8704569     
  -580393650.81583393       -37084255.222758234        1301631486.2442036     
  -478538155.36527646       -17099477.697973073        1310410008.8146482     
  -373935904.84339941        12041150.064549029        1324471597.5817974     
  -904662818.47683668       -59220354.919131666        1198710060.7846587     
  -796957252.43525183       -59653124.369393587        1202138564.6119771     
  -686288146.58663416       -50207427.796226233        1209495798.1530077     
  -572655500.93098879       -30883265.199625403        1220781761.4077652     
  -456059315.46831328       -1680636.5795933306        1235996454.3762321     
  -1026140470.3191223       -66658213.239690959        1095251208.4520066     
  -910960856.35238481       -70357689.032102793        1104148741.4545836     
  -792600917.84290087       -63456083.015359193        1115620667.6878991     
  -671060654.79068041       -45953395.189492702        1129666987.1519570     
  -546340067.19571161       -17849625.554467678        1146287699.8467495     
  -234161106.90103000        32143116.360576212        1497721050.0211108     
  -195227648.71692163        59490660.930396035        1479276130.9352450     
  -151463291.34643066        102941202.78815639        1463131113.3608296     
  -102868034.78958404        162494741.93376929        1449285997.2978661     
  -49441879.046346739        238151278.36735174        1437740782.7463458     
  -299969835.32096714        23315734.377946883        1411713129.4634194     
  -252817376.72359031        52508905.329981148        1397692607.0691116     
  -199128096.49995756        103491481.70286392        1387268577.3930540     
  -138901994.65007645        176263463.49657965        1380441040.4352412     
  -72139071.173945695        270824850.71112198        1377209996.1956761     
  -373935904.84339941        12041150.064549029        1324471597.5817974     
  -314859899.52760798        44191311.290374875        1316865714.7255700     
  -247541150.14569011        103817286.06994975        1314152915.7943876     
  -171979656.69765073        190919074.40326545        1316333200.7882431     
  -88175419.183488920        305496676.29032898        1323406569.7071457     
  -456059315.46831328       -1680636.5795933306        1235996454.3762321     
  -381355217.12898183        34537878.811545104        1236795453.9046130     
  -296702452.28365010        103918615.88934067        1243784128.5648253     
  -202101020.93231738        206461574.65381688        1256962478.3568814     
  -97550923.074985296        342166755.10494667        1276330503.2807717     
  -546340067.19571161       -17849625.554467678        1146287699.8467495     
  -452303329.52770042        23548607.893531889        1157481824.6062453     
  -346612002.91382575        103795471.16108187        1176162215.7043729     
  -229266087.35406339        222890964.24825495        1202328873.1411412     
  -100265582.84844032        380835087.15496337        1235981796.9165401     
  -49441879.046346739        238151278.36735174        1437740782.7463458     
  -40076246.693578526        319482184.45470190        1344721945.2671926     
  -23084902.535388738        426232129.89345938        1251750978.6320031     
   1532153.4282390177        558401114.68367672        1158827882.8407879     
   33774921.197300166        715989138.82533669        1065952657.8935336     
  -72139071.173945695        270824850.71112198        1377209996.1956761     
  -57529965.812435925        373055048.35516489        1295682323.6384921     
  -34085183.705409288        504737501.81759799        1213317307.5771356     
  -1804724.8528638482        665872211.09843016        1130114948.0115891     
   39311410.745213419        856459176.19770050        1046075244.9418943     
  -88175419.183488920        305496676.29032898        1323406569.7071457     
  -70852024.665078580        427867410.33548892        1254781687.8353765     
  -43482988.461057842        583723616.66601980        1184434248.1112857     
  -6068310.5714198649        773065295.28194714        1112364250.5348871     
   41392009.003841817        995892446.18327868        1038571695.1061684     
  -97550923.074985296        342166755.10494667        1276330503.2807717     
  -80042423.251504600        483919270.39568627        1222020037.8578584     
  -51278316.802322447        663190474.43876421        1165101800.2344825     
  -11258603.727427661        879980367.23422217        1105575790.4106517     
   40016715.973185539        1134288948.7820716        1043442008.3863626     
  -100265582.84844032        380835087.15496337        1235981796.9165401     
  -85101161.571717948        541210628.53574741        1197397373.7059166     
  -57471168.729204237        743138075.13583350        1155319963.9467027     
  -17375604.320884168        986617426.95527506        1109749567.6388893     
   35185531.653244495        1271648683.9940789        1060686184.7824777     
  -3444331984.1988297        717634013.69477344       -3077994917.9099193     
  -2997437448.8892722        404652929.48642504       -1916836583.4126668     
  -2502649096.3209524        251317902.80728924       -1136940239.3219364     
  -1959966926.4938700        257628933.65736079       -738305885.63773215     
  -1369390939.4080253        423586022.03663945       -720933522.36005235     
  -387332023.65963709        1564876365.5095820       -1030769836.9629995     
  -729217177.14120948        1067126212.4267628       -534020321.03705293     
  -1028690113.8605535        710750115.21803832       -220123405.57287821     
  -1285750833.8176618        495748073.88342559       -89079090.570475563     
  -1500399337.0125465        422120088.42289472       -140887376.02984703     
   337404984.33881044        1712439831.5621734        1039600858.7977412     
  -226375886.66316462        1199985800.9860976        865546355.57309604     
  -753226141.39945149        810633824.62900400        707048641.83142853     
  -1243145779.8700380        544383902.49090695        564107717.57274151     
  -1696134802.0749283        401236034.57179677        436723582.79703194     
  -1270120960.2034783        1160324411.8525410        3133117169.3723021     
  -1488913577.4551547        803231695.16441572        2281863446.4177771     
  -1676257178.9376602        550969031.04017127        1644575902.8909805     
  -1832151764.6510069        403536419.47980642        1221254538.7919147     
  -1956597334.5951827        360933860.48333287        1011899354.1205789     
  -5209909857.2865133       -91469893.619315624        5249779094.7606878     
  -4516830249.5171566       -123136105.03826308        3714930951.4969907     
  -3797783226.4751730       -68244265.548447132        2592458377.6057787     
  -3052768788.1605473        73205624.850152016        1882361373.0870478     
  -2281786934.5732942        301213566.15751851        1584639937.9407983     
  -1369390939.4080253        423586022.03663945       -720933522.36005235     
  -1562901819.6563485        412023023.66659939       -542115767.99942827     
  -1766258622.5803897        367640283.04416084       -336904911.89346540     
  -1979461348.1801546        290437800.16931117       -105300954.04216284     
  -2202509996.4556427        180415575.04205382        152696105.55447972     
  -1500399337.0125465        422120088.42289472       -140887376.02984703     
  -1641159346.8187695        419944536.83842003       -3439372.3639239427     
  -1791835384.9084637        384715557.64237440        146026788.33083773     
  -1952427451.2816277        316433150.83476567        307511106.05443579     
  -2122935545.9382625        215097316.41558301        481013580.80687118     
  -1696134802.0749283        401236034.57179677        436723582.79703194     
  -1825215212.0576363        396126548.58730257        532720045.89254963     
  -1964281755.9315586        357729949.63208175        626359721.30040050     
  -2113334433.6966996        286046237.70613372        717642609.02058613     
  -2272373245.3530569        181075412.80946136        806568709.05310762     
  -1956597334.5951827        360933860.48333287        1011899354.1205789     
  -2115069415.3729448        340569058.91325641        1066362486.7699832     
  -2283597735.6496816        286683459.01327729        1104093887.0152221     
  -2462182295.4253778        199277060.78342664        1125093554.8562942     
  -2650823094.7000422        78349864.223680019        1129361490.2931957     
  -2281786934.5732942        301213566.15751851        1584639937.9407983     
  -2510721956.7646995        253272067.81627321        1597487950.2683876     
  -2749783324.0628233        171576085.78596532        1579229285.4753067     
  -2998971036.4676538        56125620.066636443        1529863943.5615535     
  -3258285093.9792023       -93079329.341750383        1449391924.5271299     
  -2202509996.4556427        180415575.04205382        152696105.55447972     
  -2132806497.4480600        142810421.18011975        322434420.50511587     
  -2063416574.3930633        104160014.14289999        476642409.05078745     
  -1994340227.2906458        64464353.930414557        615320071.19148970     
  -1925577456.1408167        23723440.542634964        738467406.92722940     
  -2122935545.9382625        215097316.41558301        481013580.80687118     
  -2087453878.3020499        162656447.27340591        575316677.05942416     
  -2050562971.4444723        114913042.20245206        662249240.64979041     
  -2012262825.3655229        71867101.202734828        741811271.57797027     
  -1972553440.0652077        33518624.274238467        814002769.84396160     
  -2272373245.3530569        181075412.80946136        806568709.05310762     
  -2247799712.6802812        120792937.30941892        827446537.64385581     
  -2220094125.6121888        70950643.127109289        849113627.31519687     
  -2189256484.1487699        31548530.262540817        871569978.06712925     
  -2155286788.2900305        2586598.7157125473        894815589.89965105     
  -2650823094.7000422        78349864.223680019        1129361490.2931957     
  -2613844000.5827599        17219891.288156390        1078824002.2584164     
  -2572010036.8962073       -27727183.083129525        1037235569.0470110     
  -2525321203.6403770       -56491358.890152693        1004596190.6589724     
  -2473777500.8152757       -69072636.132940292        980905867.09430552     
  -3258285093.9792023       -93079329.341750383        1449391924.5271299     
  -3185586742.0094786       -148062690.79037797        1329449070.9031026     
  -3106310705.2965283       -181120436.42824984        1226615065.8452249     
  -3020456983.8403497       -192252566.25536382        1140889909.3534937     
  -2928025577.6409478       -181459080.27172446        1072273601.4279152     
  -1925577456.1408167        23723440.542634964        738467406.92722940     
  -1789976455.9106100        5590060.8231894970        804855527.87066817     
  -1652376562.1821654       -5880340.5688084364        861867374.57694376     
  -1512777774.9555047       -10687763.633414626        909502947.04605937     
  -1371180094.2306225       -8832208.3706131577        947762245.27801311     
  -1972553440.0652077        33518624.274238467        814002769.84396160     
  -1849878910.9581804        23313728.937659383        837961060.98034203     
  -1726468101.2154367        15563102.386793971        859522536.78616357     
  -1602321010.8369882        10266744.621607006        878687197.26142204     
  -1477437639.8228295        7424655.6421371102        895455042.40612102     
  -2155286788.2900305        2586598.7157125473        894815589.89965105     
  -2025597419.1444662        6292581.1105115414        874871002.88937974     
  -1896434382.2257073        8244122.7492934465        859509059.45514345     
  -1767797677.5337582        8441223.6320526600        848729759.59694958     
  -1639687305.0686061        6883883.7587997913        842533103.31478882     
  -2473777500.8152757       -69072636.132940292        980905867.09430552     
  -2317131980.4694638       -45473382.658255100        915585353.59777117     
  -2162275405.2129803       -27837279.481309414        861826942.58387911     
  -2009207775.0458074       -16164326.602080464        819630634.05262387     
  -1857929089.9679654       -10454524.020603895        788996428.00401056     
  -2928025577.6409478       -181459080.27172446        1072273601.4279152     
  -2724482594.9331775       -131984162.36862326        960104113.10552335     
  -2523991170.1772509       -92681104.305009007        866476186.17237961     
  -2326551303.3731542       -63549906.080822110        791389820.62846208     
  -2132162994.5208881       -44590567.696076632        734845016.47379088     
  -1371180094.2306225       -8832208.3706131577        947762245.27801311     
  -1284242127.4627891       -21028506.954688549        988998497.29496241     
  -1197756201.2215917       -34731607.294216871        1027325408.4962798     
  -1111722315.5070369       -49941509.389217675        1062742978.8819578     
  -1026140470.3191223       -66658213.239690959        1095251208.4520066     
  -1477437639.8228295        7424655.6421371102        895455042.40612102     
  -1395663629.7315154       -7392116.5044125915        917994940.82372034     
  -1313994169.4342830       -22557387.964566588        940076630.35866141     
  -1232429258.9311416       -38071158.738365591        961700111.01094520     
  -1150968898.2220886       -53933428.825776160        982865382.78057456     
  -1639687305.0686061        6883883.7587997913        842533103.31478882     
  -1556074017.5595856       -8452391.7219331861        846782053.98767889     
  -1472217789.1121080       -22978864.074476361        853023927.71088803     
  -1388118619.7261586       -36695533.298773825        861258724.48442459     
  -1303776509.4017458       -49602399.394861937        871486444.30827367     
  -1857929089.9679654       -10454524.020603895        788996428.00401056     
  -1765473290.9470148       -24209332.607285023        775359836.78683710     
  -1672427060.2550519       -35996035.623891830        766167300.55296612     
  -1578790397.8920734       -45814633.070468068        761418819.30239356     
  -1484563303.8580739       -53665124.946952224        761114393.03511834     
  -2132162994.5208881       -44590567.696076632        734845016.47379088     
  -2023861449.8937905       -54662939.160403848        703728289.22119963     
  -1914621982.8631363       -61608902.612892866        679506748.88488686     
  -1804444593.4288948       -65428458.053411901        662180395.46485388     
  -1693329281.5910866       -66121605.482048035        651749228.96109426     
  -1026140470.3191223       -66658213.239690959        1095251208.4520066     
  -910960856.35238481       -70357689.032102793        1104148741.4545836     
  -792600917.84290087       -63456083.015359193        1115620667.6878991     
  -671060654.79068041       -45953395.189492702        1129666987.1519570     
  -546340067.19571161       -17849625.554467678        1146287699.8467495     
  -1150968898.2220886       -53933428.825776160        982865382.78057456     
  -1028343828.8381625       -54542900.307916641        984935769.76625454     
  -903699889.21874297       -48422804.338417560        989445959.00127828     
  -777037079.36381710       -35573140.917244345        996395950.48565042     
  -648355399.27341163       -15993910.044450790        1005785744.2193657     
  -1303776509.4017458       -49602399.394861937        871486444.30827367     
  -1174090530.2617545       -47237230.265092909        865374655.25193787     
  -1043547135.1935151       -42014008.041149080        861568077.46355486     
  -912146324.19702625       -33932732.723044604        860066710.94311953     
  -779888097.27228785       -22993404.310770065        860870555.69063461     
  -1484563303.8580739       -53665124.946952224        761114393.03511834     
  -1348200960.6231542       -48440678.903602540        745465397.91164446     
  -1212142655.7672236       -44229694.123567820        731987023.07472968     
  -1076388389.2902853       -41032170.606843054        720679268.52436781     
  -940938161.19235229       -38848108.353447497        711542134.26057184     
  -1693329281.5910866       -66121605.482048035        651749228.96109426     
  -1550675119.9223561       -58153246.223459423        625207997.74536347     
  -1409486450.9398642       -55069862.585666180        600702795.83480060     
  -1269763274.6436098       -56871454.568672836        578233623.22939396     
  -1131505591.0336049       -63558022.172494650        557800479.92915773     
  -546340067.19571161       -17849625.554467678        1146287699.8467495     
  -452303329.52770042        23548607.893531889        1157481824.6062453     
  -346612002.91382575        103795471.16108187        1176162215.7043729     
  -229266087.35406339        222890964.24825495        1202328873.1411412     
  -100265582.84844032        380835087.15496337        1235981796.9165401     
  -648355399.27341163       -15993910.044450790        1005785744.2193657     
  -535930997.65050691        17715586.203355908        1020053258.1861129     
  -412993082.36294591        86470127.999994814        1042753186.6718823     
  -279541653.41072762        190269715.34550244        1073885529.6766772     
  -135576710.79385236        329114348.23986655        1113450287.2004852     
  -779888097.27228785       -22993404.310770065        860870555.69063461     
  -646372751.17910171        3838338.8914434910        876880204.36988544     
  -503484966.70247161        61911543.371791899        902268415.74854708     
  -351224743.84240556        151226209.13027227        937035189.82661283     
  -189592082.59889686        271782336.16689330        981180526.60408461     
  -940938161.19235229       -38848108.353447497        711542134.26057184     
  -783628590.11350083       -18083134.042216927        727962663.15756762     
  -618087655.93241572        30119717.276453972        754707902.93435705     
  -444315358.64910740        105760445.60253498        791777853.59094512     
  -262311698.26357657        208839050.93602949        839172515.12731743     
  -1131505591.0336049       -63558022.172494650        557800479.92915773     
  -947698514.45369124       -48048832.597598046        573300634.54915559     
  -756801150.05276179       -8905350.2859880328        600071648.22932565     
  -558813497.83083987        53872424.762272745        638113520.96968186     
  -353735557.78789639        140284492.54726028        687426252.77021027     
  -100265582.84844032        380835087.15496337        1235981796.9165401     
  -85101161.571717948        541210628.53574741        1197397373.7059166     
  -57471168.729204237        743138075.13583350        1155319963.9467027     
  -17375604.320884168        986617426.95527506        1109749567.6388893     
   35185531.653244495        1271648683.9940789        1060686184.7824777     
  -135576710.79385236        329114348.23986655        1113450287.2004852     
  -126470149.27144971        478440363.37104595        1091487948.2013538     
  -94291015.766352713        704674951.77786517        1070908594.3050935     
  -39039310.278567910        1007818113.4603294        1051712225.5117122     
   39284967.191920221        1387869848.4184411        1033898841.8212074     
  -189592082.59889686        271782336.16689330        981180526.60408461     
  -172612033.25516731        414238229.32116205        988215105.63614058     
  -121952411.51186115        668959363.80737698        1001508641.4225521     
  -37613217.368964732        1035945739.6255534        1021061133.9633210     
   80405549.173512518        1515197356.7756648        1046872583.2584274     
  -262311698.26357657        208839050.93602949        839172515.12731743     
  -223526813.52288717        348604226.38609070        887578846.01028192     
  -140455355.96572399        635991311.22438180        947120105.29906797     
  -13097325.592081547        1071000305.4509563        1017796292.9936725     
   158547277.59803909        1653631209.0657690        1099607409.0941117     
  -353735557.78789639        140284492.54726028        687426252.77021027     
  -279214490.07459885        281538354.56580853        789579169.32377553     
  -149799849.12793368        605770794.02889907        907742985.93464100     
   34508365.052094519        1112981810.9365580        1041917702.6028041     
   273710152.46549749        1803171405.2887661        1192103319.3282826     
  -5209909857.2865133       -91469893.619315624        5249779094.7606878     
  -4516830249.5171566       -123136105.03826308        3714930951.4969907     
  -3797783226.4751730       -68244265.548447132        2592458377.6057787     
  -3052768788.1605473        73205624.850152016        1882361373.0870478     
  -2281786934.5732942        301213566.15751851        1584639937.9407983     
  -9403871883.1685600       -1924846886.2897444        3298610599.2091842     
  -7680267910.2427292       -1268702432.3516507        2428341328.8450999     
  -5974100972.7049847       -670681429.70720315        1779682001.0695806     
  -4285371070.5553408       -130783878.35639834        1352632615.8826261     
  -2614078203.7937913        350990221.70074892        1147193173.2842350     
  -11440732105.167969       -3111093337.7953806        1518397272.6239154     
  -9231648415.0397053       -1930651612.8864522        1262068349.3885922     
  -7083406210.9602699       -953014841.47359824        1036583741.9579184     
  -4996005492.9296532       -178183023.55681276        841943450.33189380     
  -2969446260.9478550        393843840.86390460        678147474.51051700     
  -11320490523.284727       -3650209248.1362205       -90860884.995122164     
  -9170971763.9080944       -2108983646.6426816        216112013.12747282     
  -7125698941.2410097       -915244500.84762287        363163600.27079803     
  -5184672055.2834730       -68991810.751064539        350293876.43485403     
  -3347891106.0354776        429774423.64701152        177502841.61963692     
  -9043147137.5188541       -3542194617.3122740       -1529163873.6479275     
  -7498237956.8478956       -1803698533.6203344       -709527679.93826509     
  -6100979163.5472116       -557370407.82930613       -240578423.99178702     
  -4851370757.6168032        196789760.06082153       -122316105.80849522     
  -3749412739.0566669        458781970.05002213       -354740725.38839591     
  -2281786934.5732942        301213566.15751851        1584639937.9407983     
  -2510721956.7646995        253272067.81627321        1597487950.2683876     
  -2749783324.0628233        171576085.78596532        1579229285.4753067     
  -2998971036.4676538        56125620.066636443        1529863943.5615535     
  -3258285093.9792023       -93079329.341750383        1449391924.5271299     
  -2614078203.7937913        350990221.70074892        1147193173.2842350     
  -2936380048.8152919        211252704.52090180        1153004317.4863286     
  -3256695322.4280844        78137092.036752462        1139285202.5179276     
  -3575024024.6321692       -48356615.751712084        1106035828.3790329     
  -3891366155.4275513       -168228418.84449244        1053256195.0696436     
  -2969446260.9478550        393843840.86390460        678147474.51051700     
  -3352039448.9417949        172232948.80277729        691053486.52176797     
  -3720533149.0116057       -2379650.1779253483        696005657.31269920     
  -4074927361.1573024       -129993956.07823896        693003986.88332105     
  -4415222085.3788652       -210609968.89812708        682048475.23361850     
  -3347891106.0354776        429774423.64701152        177502841.61963692     
  -3757700157.1442089        136212800.66188240        211635457.37470660     
  -4141296803.8134093       -69974140.858133078        249390649.85962841     
  -4498681046.0430517       -188786400.91295028        290768419.07441598     
  -4829852883.8331518       -220223979.50263882        335768765.01905686     
  -3749412739.0566669        458781970.05002213       -354740725.38839591     
  -4153362173.4225497        103192260.09817648       -285249769.95486552     
  -4518986286.8334570       -124646380.00374866       -200559819.84129053     
  -4846285079.2894239       -224733950.25586081       -100670875.04768012     
  -5135258550.7904100       -197070450.65806198        14417064.425963610     
  -3258285093.9792023       -93079329.341750383        1449391924.5271299     
  -3185586742.0094786       -148062690.79037797        1329449070.9031026     
  -3106310705.2965283       -181120436.42824984        1226615065.8452249     
  -3020456983.8403497       -192252566.25536382        1140889909.3534937     
  -2928025577.6409478       -181459080.27172446        1072273601.4279152     
  -3891366155.4275513       -168228418.84449244        1053256195.0696436     
  -3756551934.8432980       -152613357.87895119        972910015.47730207     
  -3623632005.2428484       -143312600.19274497        906944481.08056569     
  -3492606366.6262016       -140326145.78589761        855359591.87943256     
  -3363475018.9933672       -143653994.65840256        818155347.87390482     
  -4415222085.3788652       -210609968.89812708        682048475.23361850     
  -4226086862.9530678       -126734945.55031157        631414997.99142838     
  -4047317907.2381043       -77414144.571927309        592433962.57429719     
  -3878915218.2339778       -62647565.963008642        565105368.98223019     
  -3720878795.9406829       -82435209.723534584        549429217.21521831     
  -4829852883.8331518       -220223979.50263882        335768765.01905686     
  -4594191526.3387890       -70427453.804439545        304964018.44548416     
  -4377368411.2823009        16574930.434197903        283083510.32642406     
  -4179383538.6636639        40783173.213320732        270127240.66188103     
  -4000236908.4828978        2197274.5328760147        266095209.45185646     
  -5135258550.7904100       -197070450.65806198        14417064.425963610     
  -4860865925.0004740        16309117.358616352       -6442923.1605276018     
  -4613783517.3754253        138654624.82567286       -21106875.663054682     
  -4394011327.9152784        169966071.74304867       -29574793.081599697     
  -4201549356.6200314        110243458.11077118       -31846675.416185703     
  -2928025577.6409478       -181459080.27172446        1072273601.4279152     
  -2724482594.9331775       -131984162.36862326        960104113.10552335     
  -2523991170.1772509       -92681104.305009007        866476186.17237961     
  -2326551303.3731542       -63549906.080822110        791389820.62846208     
  -2132162994.5208881       -44590567.696076632        734845016.47379088     
  -3363475018.9933672       -143653994.65840256        818155347.87390482     
  -3123831040.1638947       -116560120.37911260        729501840.22974765     
  -2884094132.6850405       -89156483.935223699        655241624.43392849     
  -2644264296.5568104       -61443085.326757431        595374700.48643899     
  -2404341531.7792058       -33419924.553685188        549901068.38728738     
  -3720878795.9406829       -82435209.723534584        549429217.21521831     
  -3456986019.6778021       -81278038.674552441        487960257.95071155     
  -3189855828.1643314       -69329483.456918240        436736320.99363315     
  -2919488221.4002638       -46589544.070634961        395757406.34398866     
  -2645883199.3856006       -13058220.515716910        365023514.00177789     
  -4000236908.4828978        2197274.5328760147        266095209.45185646     
  -3723947533.4749041       -26137917.254917383        235479366.26840436     
  -3441276256.6151056       -33200102.870036125        210960275.85149553     
  -3152223077.9034972       -18989282.312451482        192537938.20110655     
  -2856787997.3400812        16494544.417825937        180212353.31725162     
  -4201549356.6200314        110243458.11077118       -31846675.416185703     
  -3924715581.5552101        48860243.879716635       -27940834.817151107     
  -3638355418.0373821        19231657.825361729       -22086510.992487006     
  -3342468866.0665207        21357699.947786570       -14283703.942199487     
  -3037055925.6426353        55238370.246946335       -4532413.6662831055     
  -2132162994.5208881       -44590567.696076632        734845016.47379088     
  -2023861449.8937905       -54662939.160403848        703728289.22119963     
  -1914621982.8631363       -61608902.612892866        679506748.88488686     
  -1804444593.4288948       -65428458.053411901        662180395.46485388     
  -1693329281.5910866       -66121605.482048035        651749228.96109426     
  -2404341531.7792058       -33419924.553685188        549901068.38728738     
  -2279573365.8691964       -39325718.396128416        529194999.71261346     
  -2154491035.1724358       -44184296.282766223        513298857.96500999     
  -2029094539.6889362       -47995658.213589191        502212643.14447051     
  -1903383879.4186997       -50759804.188638091        495936355.25100148     
  -2645883199.3856006       -13058220.515716910        365023514.00177789     
  -2510606297.8761196       -16584802.441279769        354000386.68538004     
  -2375638989.1967239       -21143360.467135906        345701926.30684316     
  -2240981273.3474302       -26733894.593322396        340128132.86616844     
  -2106633150.3282206       -33356404.819800496        337279006.36334419     
  -2856787997.3400812        16494544.417825937        180212353.31725162     
  -2716960245.9145880        13559808.704090953        178144450.13949516     
  -2578065844.9360056        7513904.8339793682        176715953.91039094     
  -2440104794.4043627       -1643167.1925836802        175926864.62993380     
  -2303077094.3196321       -13911407.375540018        175777182.29813164     
  -3037055925.6426353        55238370.246946335       -4532413.6662831055     
  -2898635209.9845839        51108115.040016890        1627190.0749653678     
  -2761771602.3902702        41787499.620626450        6340940.7756496686     
  -2626465102.8597360        27276523.988634467        9608838.4357810058     
  -2492715711.3929467        7575188.1441693306        11430883.055348810     
  -1693329281.5910866       -66121605.482048035        651749228.96109426     
  -1550675119.9223561       -58153246.223459423        625207997.74536347     
  -1409486450.9398642       -55069862.585666180        600702795.83480060     
  -1269763274.6436098       -56871454.568672836        578233623.22939396     
  -1131505591.0336049       -63558022.172494650        557800479.92915773     
  -1903383879.4186997       -50759804.188638091        495936355.25100148     
  -1756164135.9424353       -47022535.881321311        470965748.09225619     
  -1609226454.4041991       -44225474.034120023        448447503.23828745     
  -1462570834.8039856       -42368618.646984637        428381620.68909246     
  -1316197277.1417992       -41451969.719936907        410768100.44467080     
  -2106633150.3282206       -33356404.819800496        337279006.36334419     
  -1953658302.1883841       -33493370.606960654        315259692.46783817     
  -1799782085.2383642       -30625773.693509459        296109073.87671047     
  -1645004499.4781489       -24753614.079412460        279827150.58996934     
  -1489325544.9077668       -15876891.764737606        266413922.60761803     
  -2303077094.3196321       -13911407.375540018        175777182.29813164     
  -2143157618.6601868       -17565750.400331259        158089830.87209943     
  -1981153343.4423542       -14270761.563839793        143687507.75006920     
  -1817064268.6661267       -4026440.8660148382        132570212.93202309     
  -1650890394.3314958        13167211.693126559        124737946.41799438     
  -2492715711.3929467        7575188.1441693306        11430883.055348810     
  -2324662085.3578696        760324.73850095272       -543836.69495676574     
  -2153340229.0161924        4839562.3548420668       -8817195.1416479927     
  -1978750142.3678868        19812900.993263006       -13389192.284730956     
  -1800891825.4129863        45680340.653688908       -14259828.124210458     
  -1131505591.0336049       -63558022.172494650        557800479.92915773     
  -947698514.45369124       -48048832.597598046        573300634.54915559     
  -756801150.05276179       -8905350.2859880328        600071648.22932565     
  -558813497.83083987        53872424.762272745        638113520.96968186     
  -353735557.78789639        140284492.54726028        687426252.77021027     
  -1316197277.1417992       -41451969.719936907        410768100.44467080     
  -1117584039.9159656       -20006550.409726143        430222882.95271200     
  -915486411.18237877        13053507.259680688        448426261.57390428     
  -709904390.94103372        57728203.288280219        465378236.30823958     
  -500837979.19192481        114017537.67607588        481078807.15571892     
  -1489325544.9077668       -15876891.764737606        266413922.60761803     
  -1311684041.1703856        771389.04049366713        285616453.97158390     
  -1134164042.2385011        17014653.827429354        291045318.50165862     
  -956765548.11211157        32852902.596028686        282700516.19784576     
  -779488558.79121614        48286135.346325785        260582047.06015003     
  -1650890394.3314958        13167211.693126559        124737946.41799438     
  -1529998518.2169430        14284985.753096461        139481347.60575119     
  -1412834043.2211559        2978089.4171825051        127928819.01259051     
  -1299396969.3441010       -20753477.314506054        90080360.638504982     
  -1189687296.5857944       -56909714.442023695        25935972.483514130     
  -1800891825.4129863        45680340.653688908       -14259828.124210458     
  -1772527471.0556479        20534239.728021741       -8182436.1447858391     
  -1751496414.1303127       -29056185.970978379       -40923236.893315621     
  -1737798654.6369710       -103090936.44330573       -112482230.36977930     
  -1731434192.5756266       -201570011.68893594       -222859416.57421276     
  -353735557.78789639        140284492.54726028        687426252.77021027     
  -279214490.07459885        281538354.56580853        789579169.32377553     
  -149799849.12793368        605770794.02889907        907742985.93464100     
   34508365.052094519        1112981810.9365580        1041917702.6028041     
   273710152.46549749        1803171405.2887661        1192103319.3282826     
  -500837979.19192481        114017537.67607588        481078807.15571892     
  -390881686.07456589        220338858.12530741        599506122.82583201     
  -231817462.49724594        490353280.10772902        737241759.88085186     
  -23645308.459989905        924060803.62324977        894285718.32076478     
   233634776.03719190        1521461428.6718900        1070637998.1455755     
  -779488558.79121614        48286135.346325785        260582047.06015003     
  -624675836.47663319        122501275.36424950        388533845.27781981     
  -426540826.47553420        341124041.00385773        539091386.20797467     
  -185083528.78792709        704154432.26518869        712254669.85064876     
   99696056.586182237        1211592449.1482160        908023696.20580721     
  -1189687296.5857944       -56909714.442023695        25935972.483514130     
  -980596941.28084135       -11974393.717474043        156662336.67971554     
  -733969941.06281805        158083076.71732539        313291864.91602856     
  -449806295.93172514        453262696.86235452        495824557.19243890     
  -128106005.88752383        873564466.71773279        704260413.50893855     
  -1731434192.5756266       -201570011.68893594       -222859416.57421276     
  -1458645000.4871924       -183088149.11986697       -96108402.968446523     
  -1154104806.2591012       -58769612.751986802        59843196.004998580     
  -817813609.89134002        171385597.41480541        244995380.34616706     
  -449771411.38393736        507377481.38042414        459348150.05500990     
 </DataArray>
 <DataArray  type="Float64" Name="VM" NumberOfComponents="1" format="ascii">
   8325148172.1742229     
   6889312633.3750925     
   5857109966.5397043     
   4957227871.5698748     
   4045523781.0223503     
   10009003004.191738     
   8327857998.2920971     
   6744417285.1719313     
   5186135523.0245543     
   3595335957.4330420     
   10577932613.276960     
   8712410735.4030914     
   6896071866.0548697     
   5121349728.6227045     
   3394388631.2208238     
   10328568354.581923     
   8279050149.8220530     
   6452501961.0347376     
   4828032434.9491854     
   3438353009.7433405     
   10457318938.590132     
   7827060057.5229692     
   5859279747.5234537     
   4492002808.2794828     
   3676661205.8281498     
   4045523781.0223503     
   4234827397.1100597     
   4471484228.1800108     
   4741124707.4774418     
   5039675880.6816730     
   3595335957.4330420     
   3845137182.3474374     
   4129411458.5414720     
   4436002758.4670038     
   4759259401.3281298     
   3394388631.2208238     
   3643601111.5830984     
   3909832558.5968728     
   4187240031.2865386     
   4472608098.9164495     
   3438353009.7433405     
   3643560154.7668252     
   3841946233.0504293     
   4034873584.6868353     
   4224267844.6532779     
   3676661205.8281498     
   3828794914.1905608     
   3942643676.9125800     
   4023275722.5201502     
   4077256109.6676826     
   5039675880.6816730     
   4869053757.4854774     
   4684792671.2363539     
   4481705129.1476450     
   4258098939.5140204     
   4759259401.3281298     
   4589881017.4072866     
   4413002644.0210066     
   4225904013.7562971     
   4027792168.7070723     
   4472608098.9164495     
   4305384272.4365349     
   4138404226.5032344     
   3970508233.0497322     
   3801397184.2226558     
   4224267844.6532779     
   4049856166.7288442     
   3885817824.6802583     
   3731327748.7914076     
   3585883235.1886430     
   4077256109.6676826     
   3873050917.5640998     
   3692303891.3291459     
   3533315751.0377250     
   3394739516.9847379     
   4258098939.5140204     
   3949668891.3445163     
   3648209842.3845472     
   3353289995.4080462     
   3065058502.3891425     
   4027792168.7070723     
   3733293959.5590982     
   3444233806.2237768     
   3160415328.2947264     
   2882023703.5356555     
   3801397184.2226558     
   3520042195.8087626     
   3245158173.4467802     
   2976480507.6893916     
   2714045761.5648155     
   3585883235.1886430     
   3317274682.1279082     
   3058894721.3172750     
   2810133497.1148791     
   2570757814.0047350     
   3394739516.9847379     
   3137839448.6770616     
   2897850560.9772959     
   2673559610.2450423     
   2464350744.8017535     
   3065058502.3891425     
   2924525576.4606748     
   2782922337.0264344     
   2640261497.6320682     
   2496590432.9884844     
   2882023703.5356555     
   2741186722.0977774     
   2599910938.5904417     
   2458242338.5445399     
   2316249434.2494226     
   2714045761.5648155     
   2576379233.1642690     
   2439755751.1080718     
   2304314009.3713684     
   2170257486.5118814     
   2570757814.0047350     
   2438954166.8495464     
   2310631159.9562731     
   2186045087.5432949     
   2065596757.3435762     
   2464350744.8017535     
   2339673803.6932383     
   2221891874.5719943     
   2111323702.4651182     
   2008507317.7887201     
   2496590432.9884844     
   2325042532.2921753     
   2155818178.3758469     
   1988865825.1367757     
   1824328216.4803679     
   2316249434.2494226     
   2151921036.6296029     
   1989682878.9895031     
   1829520989.7686870     
   1671534851.4099255     
   2170257486.5118814     
   2012618689.2998686     
   1856899438.7283273     
   1703185968.0334396     
   1551652644.4840615     
   2065596757.3435762     
   1915507898.4402540     
   1767402716.3701248     
   1621565256.2951376     
   1478420057.4460163     
   2008507317.7887201     
   1868275530.5509241     
   1730490123.5786488     
   1595738769.8613825     
   1464872825.3259766     
   1824328216.4803679     
   1782939609.7863114     
   1738596065.6655993     
   1699816864.0452440     
   1684781463.9091828     
   1671534851.4099255     
   1556059341.1479626     
   1431577380.8691792     
   1298552886.7135475     
   1163145665.4424698     
   1551652644.4840615     
   1402233117.0284579     
   1249014457.2349143     
   1089803146.6592014     
   922649155.48451889     
   1478420057.4460163     
   1335032035.0322971     
   1205609558.8193238     
   1094535976.3800457     
   1007597861.1676366     
   1464872825.3259766     
   1356807359.5042529     
   1283100018.0468895     
   1251737192.5097980     
   1269683722.9754729     
   1684781463.9091828     
   1386295917.1226709     
   1130632169.6338503     
   1009168869.3142534     
   1149318183.0344396     
   1163145665.4424698     
   1011731662.4361144     
   987008479.16404474     
   1161541719.2424667     
   1542524901.2723775     
   922649155.48451889     
   966760413.29565763     
   1147024231.0112481     
   1477273471.1120524     
   1957198425.2357411     
   1007597861.1676366     
   1168626075.1141319     
   1427737499.0020626     
   1809844747.5379519     
   2335114763.0383315     
   1269683722.9754729     
   1451254615.4774463     
   1718177700.0791955     
   2111466233.0242932     
   2663856042.6493874     
   10457318938.590132     
   7827060057.5229692     
   5859279747.5234537     
   4492002808.2794828     
   3676661205.8281498     
   5820874670.6847620     
   4436066922.0129070     
   3485808442.9443269     
   2955224127.8991489     
   2781468951.8719816     
   2389731437.9080849     
   2002591138.1226938     
   1826149155.7978277     
   1863643303.7893393     
   2071375507.6359859     
   2528329532.6958561     
   1817750232.7613990     
   1562009483.9939265     
   1600042221.3662479     
   1766997453.4479365     
   6578172196.4498062     
   4624292876.7387552     
   3291393785.3604422     
   2459283220.0922618     
   2047912828.5044091     
   3676661205.8281498     
   3828794914.1905608     
   3942643676.9125800     
   4023275722.5201502     
   4077256109.6676826     
   2781468951.8719816     
   2953171174.5608592     
   3099797681.4301910     
   3223385795.1302829     
   3326719937.8478932     
   2071375507.6359859     
   2250047769.2522011     
   2421989978.4767752     
   2587962324.4301496     
   2749472431.0213332     
   1766997453.4479365     
   1886528242.2386279     
   2027806334.3446264     
   2193992914.3411651     
   2388280160.9714308     
   2047912828.5044091     
   2034218553.0283918     
   2060264905.4243634     
   2147276558.9033358     
   2313204590.6727715     
   4077256109.6676826     
   3873050917.5640998     
   3692303891.3291459     
   3533315751.0377250     
   3394739516.9847379     
   3326719937.8478932     
   3220104157.3419509     
   3126061854.3228965     
   3043915267.1746793     
   2973214554.2131033     
   2749472431.0213332     
   2718954971.3518653     
   2693390222.1194620     
   2672416466.9939551     
   2655734835.5970507     
   2388280160.9714308     
   2390904951.6738315     
   2401951729.7201390     
   2418642997.0978160     
   2438444049.3568716     
   2313204590.6727715     
   2277221385.2354712     
   2272669516.3129764     
   2290408003.7186322     
   2321657812.9232044     
   3394739516.9847379     
   3137839448.6770616     
   2897850560.9772959     
   2673559610.2450423     
   2464350744.8017535     
   2973214554.2131033     
   2789388864.6772165     
   2616152713.1514535     
   2453585704.7355042     
   2302201583.0903463     
   2655734835.5970507     
   2532198364.3697767     
   2414214829.5298119     
   2302418049.8303785     
   2197611284.1647620     
   2438444049.3568716     
   2360563346.6552553     
   2285637874.1063728     
   2213653591.5196366     
   2144613198.7489324     
   2321657812.9232044     
   2270997645.1289263     
   2224660077.7875185     
   2180373694.6002216     
   2136085703.7074795     
   2464350744.8017535     
   2339673803.6932383     
   2221891874.5719943     
   2111323702.4651182     
   2008507317.7887201     
   2302201583.0903463     
   2208685069.1327152     
   2121118629.8037121     
   2040005454.6743870     
   1965966488.2206578     
   2197611284.1647620     
   2135276278.8597574     
   2077756679.6917911     
   2025483123.7832606     
   1978911066.8800344     
   2144613198.7489324     
   2113234212.9961166     
   2085349239.7269495     
   2061070739.6341064     
   2040498861.5199130     
   2136085703.7074795     
   2134729123.5067115     
   2135513683.1675181     
   2138028879.6274707     
   2141899279.2867877     
   2008507317.7887201     
   1868275530.5509241     
   1730490123.5786488     
   1595738769.8613825     
   1464872825.3259766     
   1965966488.2206578     
   1849821758.8255088     
   1739266624.7070963     
   1635317974.2335520     
   1539219529.0182455     
   1978911066.8800344     
   1889941540.7913182     
   1809367530.3923004     
   1738204525.5460992     
   1677532771.8469968     
   2040498861.5199130     
   1978553137.1494269     
   1926724810.0296609     
   1885689553.7950046     
   1856088813.0894666     
   2141899279.2867877     
   2104314643.0736620     
   2077444575.4222770     
   2061562298.0186424     
   2056934755.0350542     
   1464872825.3259766     
   1356807359.5042529     
   1283100018.0468895     
   1251737192.5097980     
   1269683722.9754729     
   1539219529.0182455     
   1479871353.8149741     
   1452689997.9818313     
   1461618592.2071488     
   1509911796.5614386     
   1677532771.8469968     
   1651378255.7017210     
   1652503121.1188617     
   1683284710.1144431     
   1746277255.5527687     
   1856088813.0894666     
   1848933789.4523637     
   1864337565.9469626     
   1904527449.2367332     
   1972468546.4190290     
   2056934755.0350542     
   2057930143.8154507     
   2077730206.4360592     
   2118992406.4814143     
   2185457894.9595375     
   1269683722.9754729     
   1451254615.4774463     
   1718177700.0791955     
   2111466233.0242932     
   2663856042.6493874     
   1509911796.5614386     
   1616415837.2822270     
   1790153770.7170050     
   2066148183.4663398     
   2474846268.0878110     
   1746277255.5527687     
   1789580401.4336712     
   1884945332.2306876     
   2059432227.5070231     
   2338436320.0948324     
   1972468546.4190290     
   1969630962.3678322     
   2003107024.7602813     
   2091617019.7753916     
   2253895305.5285125     
   2185457894.9595375     
   2155803844.8869314     
   2145357500.5704174     
   2164599556.8226147     
   2224578681.3354745     
   6578172196.4498062     
   4624292876.7387552     
   3291393785.3604422     
   2459283220.0922618     
   2047912828.5044091     
   6491898885.0260086     
   5143678963.2599239     
   3877384154.1064463     
   2646167361.9088554     
   1478776209.7607453     
   7742868564.4404259     
   6176411264.3300076     
   4622885494.9341726     
   3092566711.7499022     
   1643683516.8697479     
   9217445378.7275600     
   7091231452.9754305     
   5233107255.3505716     
   3647139486.9329333     
   2411528992.6623316     
   11381047663.543388     
   8388900592.5051289     
   6066885851.0722818     
   4406336602.3182020     
   3407336077.0058761     
   2047912828.5044091     
   2034218553.0283918     
   2060264905.4243634     
   2147276558.9033358     
   2313204590.6727715     
   1478776209.7607453     
   1701812688.5089877     
   1967212715.7122865     
   2266689463.8069921     
   2595135269.3377938     
   1643683516.8697479     
   1987453445.6077130     
   2322456149.4799018     
   2648005478.4929032     
   2964170222.5241141     
   2411528992.6623316     
   2717439634.4130955     
   2984901933.0358605     
   3215109541.0704107     
   3409537960.6241059     
   3407336077.0058761     
   3649069972.6501875     
   3819813350.3477540     
   3920400822.1247640     
   3952011203.6630449     
   2313204590.6727715     
   2277221385.2354712     
   2272669516.3129764     
   2290408003.7186322     
   2321657812.9232044     
   2595135269.3377938     
   2573456529.1652060     
   2560654469.7472520     
   2554898711.3320146     
   2554418482.6462116     
   2964170222.5241141     
   2904291394.9843559     
   2851562947.1541734     
   2806585100.3419018     
   2769958709.2536278     
   3409537960.6241059     
   3276336238.2281666     
   3160881148.4155641     
   3063636525.5571613     
   2985218010.0049996     
   3952011203.6630449     
   3718637604.4456301     
   3519576757.6206794     
   3354709121.7171092     
   3224019253.6355424     
   2321657812.9232044     
   2270997645.1289263     
   2224660077.7875185     
   2180373694.6002216     
   2136085703.7074795     
   2554418482.6462116     
   2471907731.8654079     
   2395205130.6531768     
   2324519809.1665068     
   2260083956.3760557     
   2769958709.2536278     
   2655316102.8083572     
   2552304249.5037651     
   2462082395.6107550     
   2385895948.7669091     
   2985218010.0049996     
   2836357816.6357293     
   2708183111.4883857     
   2601795729.9172077     
   2518472073.5078321     
   3224019253.6355424     
   3034972022.0722442     
   2878143234.2379985     
   2754043473.3741946     
   2663358758.1211600     
   2136085703.7074795     
   2134729123.5067115     
   2135513683.1675181     
   2138028879.6274707     
   2141899279.2867877     
   2260083956.3760557     
   2250544317.2398839     
   2246242360.6194539     
   2247268647.1714234     
   2253678070.1801572     
   2385895948.7669091     
   2369496667.6192112     
   2361810723.2040462     
   2363181278.3571124     
   2373890588.2652507     
   2518472073.5078321     
   2495036117.0451298     
   2484140301.0750780     
   2486167667.3252206     
   2501447823.6259642     
   2663358758.1211600     
   2630953037.9917555     
   2615325779.6613073     
   2616749228.1355224     
   2635469092.6593060     
   2141899279.2867877     
   2104314643.0736620     
   2077444575.4222770     
   2061562298.0186424     
   2056934755.0350542     
   2253678070.1801572     
   2219587744.3534203     
   2197201789.1858244     
   2186807480.2542467     
   2188672693.8948989     
   2373890588.2652507     
   2342420438.1119657     
   2323669973.4335966     
   2317893781.2256913     
   2325328086.2082529     
   2501447823.6259642     
   2471397868.7969661     
   2455180486.3104739     
   2452991549.0325689     
   2465019558.5061784     
   2635469092.6593060     
   2605358989.1895876     
   2590377220.7212791     
   2590651715.0020695     
   2606318534.6748972     
   2056934755.0350542     
   2057930143.8154507     
   2077730206.4360592     
   2118992406.4814143     
   2185457894.9595375     
   2188672693.8948989     
   2179170680.0377913     
   2184184334.8772950     
   2205688399.7002883     
   2246559951.4530993     
   2325328086.2082529     
   2305950917.3833170     
   2297552471.6054912     
   2301534396.8123059     
   2319968807.6362329     
   2465019558.5061784     
   2437331091.1197968     
   2417542733.0265651     
   2406594755.8162637     
   2405869763.7783666     
   2606318534.6748972     
   2572555307.7481914     
   2543892253.8231592     
   2520910866.2120085     
   2504442224.0163345     
   2185457894.9595375     
   2155803844.8869314     
   2145357500.5704174     
   2164599556.8226147     
   2224578681.3354745     
   2246559951.4530993     
   2181586037.7761860     
   2132802142.1065841     
   2109808768.1128759     
   2123472606.9002130     
   2319968807.6362329     
   2223024303.8409595     
   2139312866.9535613     
   2077118353.1249464     
   2046505942.0210876     
   2405869763.7783666     
   2280420939.6805382     
   2165535149.2720890     
   2067866088.9062314     
   1996050936.9065521     
   2504442224.0163345     
   2353998714.8099108     
   2211942089.2420139     
   2083171808.1328764     
   1974427492.1088648     
   11381047663.543388     
   8388900592.5051289     
   6066885851.0722818     
   4406336602.3182020     
   3407336077.0058761     
   7925626543.5010633     
   5997871769.5952578     
   4460538748.6028013     
   3329126399.9041500     
   2628678294.2092276     
   5228011066.3442612     
   4185749113.9798012     
   3240076125.6895828     
   2430737630.3329625     
   1852325048.5672245     
   2540453234.6135883     
   2289870835.7773442     
   1974765693.9859750     
   1559876039.1861467     
   1078916264.8844416     
   1631772119.0252228     
   347942989.87345511     
   404529673.58714348     
   625645871.35657918     
   315405603.43485361     
   3407336077.0058761     
   3649069972.6501875     
   3819813350.3477540     
   3920400822.1247640     
   3952011203.6630449     
   2628678294.2092276     
   2867172826.5103946     
   3061329900.3850555     
   3210805764.5732541     
   3315442674.9044614     
   1852325048.5672245     
   2099114000.6527841     
   2331458624.0256176     
   2548316691.9357481     
   2749074198.9103780     
   1078916264.8844416     
   1344082467.1797762     
   1623873702.4699554     
   1916662477.8114228     
   2221590448.8672600     
   315405603.43485361     
   604732030.34413600     
   932994939.25231063     
   1300194330.1593773     
   1706330203.0653298     
   3952011203.6630449     
   3718637604.4456301     
   3519576757.6206794     
   3354709121.7171092     
   3224019253.6355424     
   3315442674.9044614     
   3193070954.0590868     
   3092755694.7142372     
   3014448400.4833126     
   2958117762.7122049     
   2749074198.9103780     
   2733221547.1796932     
   2726265177.6360002     
   2728191311.2736530     
   2738985337.8463678     
   2221590448.8672600     
   2310587535.3108697     
   2394869132.7742710     
   2474424841.7704649     
   2549246841.9592357     
   1706330203.0653298     
   1900883882.3177922     
   2076925813.0476999     
   2234455995.2550526     
   2373474428.9398532     
   3224019253.6355424     
   3034972022.0722442     
   2878143234.2379985     
   2754043473.3741946     
   2663358758.1211600     
   2958117762.7122049     
   2834478080.2132773     
   2734592422.9776664     
   2658619668.6003308     
   2606756864.3199387     
   2738985337.8463678     
   2674264383.0374079     
   2624236656.1457434     
   2588928774.8951755     
   2568371687.0729098     
   2549246841.9592357     
   2539509451.4258223     
   2535139297.5779743     
   2536137600.7180586     
   2542505644.6786871     
   2373474428.9398532     
   2417187662.3024769     
   2456852628.0760779     
   2492469326.2606525     
   2524037756.8561954     
   2663358758.1211600     
   2630953037.9917555     
   2615325779.6613073     
   2616749228.1355224     
   2635469092.6593060     
   2606756864.3199387     
   2600946954.2887001     
   2608301385.3779483     
   2628914302.7414684     
   2662866645.6637034     
   2568371687.0729098     
   2585668186.9742928     
   2612560398.1987958     
   2649070275.3629222     
   2695215814.0698762     
   2542505644.6786871     
   2580428353.8766155     
   2624457883.4005060     
   2674596347.0188642     
   2730845365.1642189     
   2524037756.8561954     
   2581065786.8976793     
   2640780726.5535917     
   2703182575.8239493     
   2768271334.7087445     
   2635469092.6593060     
   2605358989.1895876     
   2590377220.7212791     
   2590651715.0020695     
   2606318534.6748972     
   2662866645.6637034     
   2639728707.7915502     
   2629250002.4063592     
   2631475757.5447946     
   2646462504.2288575     
   2695215814.0698762     
   2678101985.3449454     
   2671446564.2986112     
   2675260131.5194030     
   2689560566.1244416     
   2730845365.1642189     
   2719346616.4051981     
   2716303725.7979894     
   2721717439.0877151     
   2735590747.2368851     
   2768271334.7087445     
   2762448028.9281936     
   2763216017.3703160     
   2770575300.0350971     
   2784525876.9225664     
   2606318534.6748972     
   2572555307.7481914     
   2543892253.8231592     
   2520910866.2120085     
   2504442224.0163345     
   2646462504.2288575     
   2604688165.8599758     
   2568101240.7888188     
   2537034556.9559832     
   2511964784.8875289     
   2689560566.1244416     
   2642039247.8564157     
   2599922762.7778101     
   2563360265.2486358     
   2532565319.8584313     
   2735590747.2368851     
   2684558960.5080552     
   2639284882.8127084     
   2599805783.8803797     
   2566174884.3789306     
   2784525876.9225664     
   2732187389.4770474     
   2686100841.6590214     
   2646266233.4685006     
   2612683564.9054837     
   2504442224.0163345     
   2353998714.8099108     
   2211942089.2420139     
   2083171808.1328764     
   1974427492.1088648     
   2511964784.8875289     
   2344626505.1343575     
   2180946289.6373463     
   2023973363.8322096     
   1878182803.2446711     
   2532565319.8584313     
   2353337826.8007941     
   2173824658.7004395     
   1995473618.3214388     
   1820519114.8960845     
   2566174884.3789306     
   2380222157.8007536     
   2191031100.7924547     
   1998974068.8381445     
   1804644028.8635113     
   2612683564.9054837     
   2425236870.5364184     
   2232699756.1655593     
   2035072221.7928989     
   1832354267.4184306     
   1631772119.0252228     
   347942989.87345511     
   404529673.58714348     
   625645871.35657918     
   315405603.43485361     
   2540453225.3836851     
   2289870829.5670815     
   1974765690.2645898     
   1559876037.3488865     
   1078916264.3678892     
   5228011060.1705427     
   4185749109.4820061     
   3240076122.5854039     
   2430737628.2915740     
   1852325047.1066432     
   7925626538.9285555     
   5997871766.3114071     
   4460538746.1076469     
   3329126397.6878815     
   2628678291.7199912     
   11381047658.367630     
   8388900588.8207617     
   6066885848.1719952     
   4406336599.4816895     
   3407336073.4343300     
   315405603.43485361     
   604732030.34413600     
   932994939.25231063     
   1300194330.1593773     
   1706330203.0653298     
   1078916264.3678892     
   1344082466.5691140     
   1623873701.8294961     
   1916662477.1716046     
   2221590448.2410293     
   1852325047.1066432     
   2099113999.2544045     
   2331458622.7005129     
   2548316690.6796808     
   2749074197.7105670     
   2628678291.7199912     
   2867172824.2515593     
   3061329898.3247900     
   3210805762.6735849     
   3315442673.1240201     
   3407336073.4343300     
   3649069969.4645715     
   3819813347.4844203     
   3920400819.5204453     
   3952011201.2555285     
   1706330203.0653298     
   1900883882.3177922     
   2076925813.0476999     
   2234455995.2550526     
   2373474428.9398532     
   2221590448.2410293     
   2310587534.7659345     
   2394869132.2925034     
   2474424841.3340926     
   2549246841.5507526     
   2749074197.7105670     
   2733221546.1282692     
   2726265176.7010641     
   2728191310.4234190     
   2738985337.0491986     
   3315442673.1240201     
   3193070952.4995022     
   3092755693.3297668     
   3014448399.2285628     
   2958117761.5422487     
   3952011201.2555285     
   3718637602.3462729     
   3519576755.7700462     
   3354709120.0563669     
   3224019252.1064339     
   2373474428.9398532     
   2417187662.3024769     
   2456852628.0760779     
   2492469326.2606525     
   2524037756.8561954     
   2549246841.5507526     
   2539509451.0598888     
   2535139297.2591400     
   2536137600.4508319     
   2542505644.4675198     
   2738985337.0491986     
   2674264382.3177338     
   2624236655.5117316     
   2588928774.3549118     
   2568371686.6344271     
   2958117761.5422487     
   2834478079.1456590     
   2734592422.0235415     
   2658619667.7708907     
   2606756863.6265593     
   3224019252.1064339     
   3034972020.6570497     
   2878143232.9503675     
   2754043472.2284541     
   2663358757.1327724     
   2524037756.8561954     
   2581065786.8976793     
   2640780726.5535917     
   2703182575.8239493     
   2768271334.7087445     
   2542505644.4675198     
   2580428353.6872983     
   2624457883.2283707     
   2674596346.8593640     
   2730845365.0129375     
   2568371686.6344271     
   2585668186.5853400     
   2612560397.8503780     
   2649070275.0462198     
   2695215813.7762437     
   2606756863.6265593     
   2600946953.6800408     
   2608301384.8410015     
   2628914302.2633615     
   2662866645.2316456     
   2663358757.1327724     
   2630953037.1322412     
   2615325778.9141154     
   2616749227.4840508     
   2635469092.0867872     
   2768271334.7087445     
   2762448028.9281936     
   2763216017.3703160     
   2770575300.0350971     
   2784525876.9225664     
   2730845365.0129375     
   2719346616.2791624     
   2716303725.6924295     
   2721717438.9978604     
   2735590747.1579690     
   2695215813.7762437     
   2678101985.1006722     
   2671446564.0939970     
   2675260131.3448153     
   2689560565.9703102     
   2662866645.2316456     
   2639728707.4332170     
   2629250002.1068492     
   2631475757.2893338     
   2646462504.0027170     
   2635469092.0867872     
   2605358988.7171125     
   2590377220.3282938     
   2590651714.6680984     
   2606318534.3794308     
   2784525876.9225664     
   2732187389.4770474     
   2686100841.6590214     
   2646266233.4685006     
   2612683564.9054837     
   2735590747.1579690     
   2684558960.4391408     
   2639284882.7534928     
   2599805783.8306694     
   2566174884.3387189     
   2689560565.9703102     
   2642039247.7212744     
   2599922762.6610036     
   2563360265.1497393     
   2532565319.7773447     
   2646462504.0027170     
   2604688165.6609025     
   2568101240.6157656     
   2537034556.8082290     
   2511964784.7647867     
   2606318534.3794308     
   2572555307.4870467     
   2543892253.5948577     
   2520910866.0154905     
   2504442223.8509784     
   2612683564.9054837     
   2425236870.5364184     
   2232699756.1655593     
   2035072221.7928989     
   1832354267.4184306     
   2566174884.3387189     
   2380222157.7763290     
   2191031100.7861600     
   1998974068.8539343     
   1804644028.9078686     
   2532565319.7773447     
   2353337826.7504740     
   2173824658.6853085     
   1995473618.3487701     
   1820519114.9774044     
   2511964784.7647867     
   2344626505.0564437     
   2180946289.6103482     
   2023973363.8657205     
   1878182803.3530614     
   2504442223.8509784     
   2353998714.7024846     
   2211942089.1997051     
   2083171808.1665022     
   1974427492.2332926     
   11381047658.367630     
   8388900588.8207617     
   6066885848.1719952     
   4406336599.4816895     
   3407336073.4343300     
   9217445376.4743195     
   7091231451.0988264     
   5233107253.6480446     
   3647139485.1134953     
   2411528990.0185466     
   7742868561.5290279     
   6176411261.8953609     
   4622885492.9477777     
   3092566710.1159577     
   1643683515.1854932     
   6491898879.4946022     
   5143678959.5427513     
   3877384151.6550689     
   2646167360.3584719     
   1478776209.3367205     
   6578172187.2677116     
   4624292871.4040775     
   3291393782.7774024     
   2459283219.1485214     
   2047912828.8630590     
   3407336073.4343300     
   3649069969.4645715     
   3819813347.4844203     
   3920400819.5204453     
   3952011201.2555285     
   2411528990.0185466     
   2717439632.0092006     
   2984901930.8232737     
   3215109539.0024290     
   3409537958.6564837     
   1643683515.1854932     
   1987453443.9205632     
   2322456147.8162231     
   2648005476.8578901     
   2964170220.9115777     
   1478776209.3367205     
   1701812687.6647050     
   1967212714.6140678     
   2266689462.5704246     
   2595135268.0334730     
   2047912828.8630590     
   2034218552.9303780     
   2060264904.9248111     
   2147276558.0983219     
   2313204589.6776452     
   3952011201.2555285     
   3718637602.3462729     
   3519576755.7700462     
   3354709120.0563669     
   3224019252.1064339     
   3409537958.6564837     
   3276336236.5041995     
   3160881146.8987226     
   3063636524.2111006     
   2985218008.7931380     
   2964170220.9115777     
   2904291393.5476885     
   2851562945.8843942     
   2806585099.2279892     
   2769958708.2821865     
   2595135268.0334730     
   2573456527.9519014     
   2560654468.6494250     
   2554898710.3679943     
   2554418481.8283734     
   2313204589.6776452     
   2277221384.2158532     
   2272669515.3310218     
   2290408002.8284039     
   2321657812.1681480     
   3224019252.1064339     
   3034972020.6570497     
   2878143232.9503675     
   2754043472.2284541     
   2663358757.1327724     
   2985218008.7931380     
   2836357815.4985881     
   2708183110.4322228     
   2601795728.9499950     
   2518472072.6394196     
   2769958708.2821865     
   2655316101.8835869     
   2552304248.6277924     
   2462082394.7869139     
   2385895947.9997077     
   2554418481.8283734     
   2471907731.0851278     
   2395205129.9104791     
   2324519808.4602380     
   2260083955.7039022     
   2321657812.1681480     
   2270997644.4256496     
   2224660077.1356215     
   2180373693.9934416     
   2136085703.1346805     
   2663358757.1327724     
   2630953037.1322412     
   2615325778.9141154     
   2616749227.4840508     
   2635469092.0867872     
   2518472072.6394196     
   2495036116.2764239     
   2484140300.3938961     
   2486167666.7188482     
   2501447823.0810843     
   2385895947.9997077     
   2369496666.9292831     
   2361810722.5825334     
   2363181277.7941828     
   2373890587.7501531     
   2260083955.7039022     
   2250544316.6276450     
   2246242360.0603528     
   2247268646.6575327     
   2253678069.7024899     
   2136085703.1346805     
   2134729122.9805059     
   2135513682.6817853     
   2138028879.1751609     
   2141899278.8600941     
   2635469092.0867872     
   2605358988.7171125     
   2590377220.3282938     
   2590651714.6680984     
   2606318534.3794308     
   2501447823.0810843     
   2471397868.3322630     
   2455180485.9110904     
   2452991548.6835895     
   2465019558.1925950     
   2373890587.7501531     
   2342420437.6576710     
   2323669973.0304041     
   2317893780.8638830     
   2325328085.8780565     
   2253678069.7024899     
   2219587743.9158831     
   2197201788.7835016     
   2186807479.8825283     
   2188672693.5493464     
   2141899278.8600941     
   2104314642.6634424     
   2077444575.0280688     
   2061562297.6409814     
   2056934754.6752326     
   2606318534.3794308     
   2572555307.4870467     
   2543892253.5948577     
   2520910866.0154905     
   2504442223.8509784     
   2465019558.1925950     
   2437331090.8408513     
   2417542732.7810869     
   2406594755.6036477     
   2405869763.5985093     
   2325328085.8780565     
   2305950917.0873604     
   2297552471.3428879     
   2301534396.5828562     
   2319968807.4402614     
   2188672693.5493464     
   2179170679.7254314     
   2184184334.5974860     
   2205688399.4532113     
   2246559951.2393909     
   2056934754.6752326     
   2057930143.4871304     
   2077730206.1388700     
   2118992406.2158573     
   2185457894.7264380     
   2504442223.8509784     
   2353998714.7024846     
   2211942089.1997051     
   2083171808.1665022     
   1974427492.2332926     
   2405869763.5985093     
   2280420939.5669498     
   2165535149.2322750     
   2067866088.9503500     
   1996050937.0471337     
   2319968807.4402614     
   2223024303.7173028     
   2139312866.9093583     
   2077118353.1687441     
   2046505942.1614470     
   2246559951.2393909     
   2181586037.6384888     
   2132802142.0511191     
   2109808768.1457262     
   2123472607.0254774     
   2185457894.7264380     
   2155803844.7311821     
   2145357500.4969106     
   2164599556.8345504     
   2224578681.4325852     
   6578172187.2677116     
   4624292871.4040775     
   3291393782.7774024     
   2459283219.1485214     
   2047912828.8630590     
   2528329534.6316900     
   1817750235.5403144     
   1562009486.0883350     
   1600042221.9152975     
   1766997452.8960013     
   2389731449.8635554     
   2002591145.3039587     
   1826149159.0996451     
   1863643304.2259054     
   2071375506.1904271     
   5820874671.5133247     
   4436066922.2085085     
   3485808442.5091190     
   2955224126.7238622     
   2781468949.9227109     
   10457318929.507540     
   7827060051.0308905     
   5859279743.0169325     
   4492002805.0756731     
   3676661203.5584984     
   2047912828.8630590     
   2034218552.9303780     
   2060264904.9248111     
   2147276558.0983219     
   2313204589.6776452     
   1766997452.8960013     
   1886528241.3194005     
   2027806333.1938779     
   2193992913.0904441     
   2388280159.7287302     
   2071375506.1904271     
   2250047767.7353883     
   2421989976.9744091     
   2587962323.0204430     
   2749472429.7673492     
   2781468949.9227109     
   2953171172.7625399     
   3099797679.8204517     
   3223385793.7491040     
   3326719936.7307019     
   3676661203.5584984     
   3828794912.2375164     
   3942643675.2917943     
   4023275721.2515888     
   4077256108.7696385     
   2313204589.6776452     
   2277221384.2158532     
   2272669515.3310218     
   2290408002.8284039     
   2321657812.1681480     
   2388280159.7287302     
   2390904950.4900174     
   2401951728.6214275     
   2418642996.1076813     
   2438444048.4960175     
   2749472429.7673492     
   2718954970.1647739     
   2693390221.0095577     
   2672416465.9714994     
   2655734834.6722107     
   3326719936.7307019     
   3220104156.2532263     
   3126061853.2717357     
   3043915266.1690063     
   2973214553.2595944     
   4077256108.7696385     
   3873050916.6389670     
   3692303890.3890586     
   3533315750.0920210     
   3394739516.0394015     
   2321657812.1681480     
   2270997644.4256496     
   2224660077.1356215     
   2180373693.9934416     
   2136085703.1346805     
   2438444048.4960175     
   2360563345.8605332     
   2285637873.3795633     
   2213653590.8602076     
   2144613198.1540906     
   2655734834.6722107     
   2532198363.5112338     
   2414214828.7460151     
   2302418049.1298552     
   2197611283.5557089     
   2973214553.2595944     
   2789388863.7827864     
   2616152712.3311887     
   2453585704.0063348     
   2302201582.4708538     
   3394739516.0394015     
   3137839447.7787180     
   2897850560.1447601     
   2673559609.5003519     
   2464350744.1706800     
   2136085703.1346805     
   2134729122.9805059     
   2135513682.6817853     
   2138028879.1751609     
   2141899278.8600941     
   2144613198.1540906     
   2113234212.4628909     
   2085349239.2487772     
   2061070739.2037916     
   2040498861.1297355     
   2197611283.5557089     
   2135276278.3236954     
   2077756679.2216537     
   2025483123.3716419     
   1978911066.5191038     
   2302201582.4708538     
   2208685068.5937757     
   2121118629.3379602     
   2040005454.2742140     
   1965966487.8781679     
   2464350744.1706800     
   2339673803.1464572     
   2221891874.1022344     
   2111323702.0649199     
   2008507317.4501719     
   2141899278.8600941     
   2104314642.6634424     
   2077444575.0280688     
   2061562297.6409814     
   2056934754.6752326     
   2040498861.1297355     
   1978553136.7744672     
   1926724809.6678348     
   1885689553.4449577     
   1856088812.7504544     
   1978911066.5191038     
   1889941540.4452691     
   1809367530.0573053     
   1738204525.2186122     
   1677532771.5238099     
   1965966487.8781679     
   1849821758.4993052     
   1739266624.3918393     
   1635317973.9235773     
   1539219528.7076697     
   2008507317.4501719     
   1868275530.2324660     
   1730490123.2742937     
   1595738769.5642838     
   1464872825.0285645     
   2056934754.6752326     
   2057930143.4871304     
   2077730206.1388700     
   2118992406.2158573     
   2185457894.7264380     
   1856088812.7504544     
   1848933789.1426611     
   1864337565.6661844     
   1904527448.9851296     
   1972468546.1971211     
   1677532771.5238099     
   1651378255.4063203     
   1652503120.8513012     
   1683284709.8751011     
   1746277255.3421185     
   1539219528.7076697     
   1479871353.5304685     
   1452689997.7243311     
   1461618591.9779358     
   1509911796.3615921     
   1464872825.0285645     
   1356807359.2301674     
   1283100017.7978408     
   1251737192.2886660     
   1269683722.7853370     
   2185457894.7264380     
   2155803844.7311821     
   2145357500.4969106     
   2164599556.8345504     
   2224578681.4325852     
   1972468546.1971211     
   1969630962.2207882     
   2003107024.6931794     
   2091617019.7896886     
   2253895305.6191907     
   1746277255.3421185     
   1789580401.2933047     
   1884945332.1651046     
   2059432227.5150394     
   2338436320.1666560     
   1509911796.3615921     
   1616415837.1463282     
   1790153770.6483898     
   2066148183.4608090     
   2474846268.1317258     
   1269683722.7853370     
   1451254615.3435121     
   1718177700.0035255     
   2111466232.9995630     
   2663856042.6590743     
   10457318929.507540     
   7827060051.0308905     
   5859279743.0169325     
   4492002805.0756731     
   3676661203.5584984     
   10328568345.756752     
   8279050143.8421965     
   6452501957.0266581     
   4828032432.2683935     
   3438353008.3547053     
   10577932607.997717     
   8712410731.9808121     
   6896071863.9369259     
   5121349727.5133228     
   3394388631.2337999     
   10009003004.430183     
   8327857998.8467550     
   6744417286.0635958     
   5186135524.3713875     
   3595335959.2632046     
   8325148178.9250526     
   6889312638.8625660     
   5857109971.2475729     
   4957227875.9506502     
   4045523784.8201709     
   3676661203.5584984     
   3828794912.2375164     
   3942643675.2917943     
   4023275721.2515888     
   4077256108.7696385     
   3438353008.3547053     
   3643560153.4059629     
   3841946231.8530822     
   4034873583.7565165     
   4224267844.0647111     
   3394388631.2337999     
   3643601111.3198805     
   3909832558.2169127     
   4187240030.9064593     
   4472608098.6201010     
   3595335959.2632046     
   3845137183.6350102     
   4129411459.3354392     
   4436002758.8192511     
   4759259401.2951880     
   4045523784.8201709     
   4234827400.2161074     
   4471484230.3983145     
   4741124708.7009583     
   5039675880.8854618     
   4077256108.7696385     
   3873050916.6389670     
   3692303890.3890586     
   3533315750.0920210     
   3394739516.0394015     
   4224267844.0647111     
   4049856166.0882525     
   3885817823.9939141     
   3731327748.0641532     
   3585883234.4243469     
   4472608098.6201010     
   4305384272.0768194     
   4138404226.0834069     
   3970508232.5725803     
   3801397183.6909003     
   4759259401.2951880     
   4589881017.3120823     
   4413002643.8660889     
   4225904013.5449343     
   4027792168.4426999     
   5039675880.8854618     
   4869053757.6362429     
   4684792671.3377647     
   4481705129.2057619     
   4258098939.5353990     
   3394739516.0394015     
   3137839447.7787180     
   2897850560.1447601     
   2673559609.5003519     
   2464350744.1706800     
   3585883234.4243469     
   3317274681.3859849     
   3058894720.6106982     
   2810133496.4584274     
   2570757813.4166274     
   3801397183.6909003     
   3520042195.2629728     
   3245158172.8949428     
   2976480507.1401563     
   2714045761.0291376     
   4027792168.4426999     
   3733293959.2423120     
   3444233805.8574996     
   3160415327.8821135     
   2882023703.0810080     
   4258098939.5353990     
   3949668891.2816968     
   3648209842.2342558     
   3353289995.1677704     
   3065058502.0568275     
   2464350744.1706800     
   2339673803.1464572     
   2221891874.1022344     
   2111323702.0649199     
   2008507317.4501719     
   2570757813.4166274     
   2438954166.3222380     
   2310631159.4896154     
   2186045087.1368842     
   2065596756.9968944     
   2714045761.0291376     
   2576379232.6575952     
   2439755750.6340451     
   2304314008.9336338     
   2170257486.1143737     
   2882023703.0810080     
   2741186721.6280766     
   2599910938.1102686     
   2458242338.0587411     
   2316249433.7632518     
   3065058502.0568275     
   2924525576.0548363     
   2782922336.5503330     
   2640261497.0893745     
   2496590432.3830667     
   2008507317.4501719     
   1868275530.2324660     
   1730490123.2742937     
   1595738769.5642838     
   1464872825.0285645     
   2065596756.9968944     
   1915507898.1261349     
   1767402716.0824275     
   1621565256.0269997     
   1478420057.1895571     
   2170257486.1143737     
   2012618688.9508905     
   1856899438.4229608     
   1703185967.7663720     
   1551652644.2491889     
   2316249433.7632518     
   2151921036.2106419     
   1989682878.6349444     
   1829520989.4757171     
   1671534851.1753561     
   2496590432.3830667     
   2325042531.7747011     
   2155818177.9462070     
   1988865824.7951152     
   1824328216.2268007     
   1464872825.0285645     
   1356807359.2301674     
   1283100017.7978408     
   1251737192.2886660     
   1269683722.7853370     
   1478420057.1895571     
   1335032034.8032596     
   1205609558.6189258     
   1094535976.2090247     
   1007597861.0259151     
   1551652644.2491889     
   1402233116.8297162     
   1249014457.0736742     
   1089803146.5352821     
   922649155.39655185     
   1671534851.1753561     
   1556059340.9599597     
   1431577380.7291858     
   1298552886.6217759     
   1163145665.3994310     
   1824328216.2268007     
   1782939609.5906022     
   1738596065.5286009     
   1699816863.9666045     
   1684781463.8888905     
   1269683722.7853370     
   1451254615.3435121     
   1718177700.0035255     
   2111466232.9995630     
   2663856042.6590743     
   1007597861.0259151     
   1168626075.0116820     
   1427737498.9435184     
   1809844747.5183971     
   2335114763.0454421     
   922649155.39655185     
   966760413.22572398     
   1147024230.9701221     
   1477273471.0996377     
   1957198425.2435684     
   1163145665.3994310     
   1011731662.4001845     
   987008479.14144385     
   1161541719.2385592     
   1542524901.2836416     
   1684781463.8888905     
   1386295917.1099467     
   1130632169.6283898     
   1009168869.3191093     
   1149318183.0511611     
 </DataArray>
 <DataArray  type="Float64" Name="strain" NumberOfComponents="3" format="ascii">
  0.13300814579593956        1.3820841294018393E-002  -6.6263767638366722E-002
  0.11595213987020925       -7.4295475363908015E-003  -3.0746199305360045E-002
   9.8896133944478826E-002  -2.1215389004375668E-002  -1.0425064948477558E-002
   8.1840128018748459E-002  -2.7536683109936837E-002  -5.3003645677196787E-003
   6.4784122093018093E-002  -2.6393429853073691E-002  -1.5372098163085934E-002
  0.17042379580150646        4.2343683122921805E-003  -3.9373046961133085E-003
  0.14230461114897131       -1.0705131294678372E-002   9.3648541373825278E-003
  0.11418542649643626       -2.0374419645354219E-002   1.5737089493393197E-002
   8.6066241843901103E-002  -2.4773496739735411E-002   1.5179401371919199E-002
   5.7947057191366003E-002  -2.3902362577821634E-002   7.6917897729599227E-003
  0.17512340174888352       -5.3521046694340879E-003   6.5797215522642755E-002
  0.14420754886818299       -1.3980715052966275E-002   5.4689628750498792E-002
  0.11329169598748237       -1.9533450286332840E-002   4.4918628999509005E-002
   8.2375843106781810E-002  -2.2010310369534044E-002   3.6484216269673138E-002
   5.1459990226081220E-002  -2.1411295302569577E-002   2.9386390560991377E-002
  0.14710696363807099       -1.4938577651160384E-002  0.14293979301790211     
  0.12166095302784417       -1.7256298811253998E-002  0.10522812453398875     
   9.6214942417617327E-002  -1.8692480927311315E-002   7.7119553569869104E-002
   7.0768931807390426E-002  -1.9247123999332538E-002   5.8614080125542437E-002
   4.5322921197163538E-002  -1.8920228027317521E-002   4.9711704201009239E-002
   8.6374481469068620E-002  -2.4525050632886625E-002  0.22749042778966472     
   7.4664823627954791E-002  -2.0531882569541748E-002  0.16098034148785295     
   6.2955165786840905E-002  -1.7851511568289888E-002  0.11233986320447367     
   5.1245507945727048E-002  -1.6483937629131192E-002   8.1568992939527088E-002
   3.9535850104613190E-002  -1.6429160752065464E-002   6.8667730693013185E-002
   6.4784122093018093E-002  -2.6393429853073691E-002  -1.5372098163085934E-002
   6.9738664133960959E-002  -2.2486681861240865E-002  -1.2360823396334319E-002
   7.4693206174903881E-002  -2.0517491761893408E-002  -8.6909255392547680E-003
   7.9647748215846803E-002  -2.0485859555029816E-002  -4.3624045918471965E-003
   8.4602290256789670E-002  -2.2391785240651552E-002   6.2473944588858910E-004
   5.7947057191366003E-002  -2.3902362577821634E-002   7.6917897729599227E-003
   6.3309399935412791E-002  -2.1058714121698241E-002   9.1708698086739315E-003
   6.8671742679459497E-002  -1.9540248333450860E-002   1.0806928160267931E-002
   7.4034085423506243E-002  -1.9346965213078868E-002   1.2599964827741603E-002
   7.9396428167552990E-002  -2.0478864760582804E-002   1.4549979811094460E-002
   5.1459990226081220E-002  -2.1411295302569577E-002   2.9386390560991377E-002
   5.6728488898783277E-002  -1.9630746382155700E-002   2.9945651090277553E-002
   6.1996987571485390E-002  -1.8563004905008548E-002   3.0160245160994900E-002
   6.7265486244187475E-002  -1.8208070871127701E-002   3.0030172773143189E-002
   7.2533984916889588E-002  -1.8565944280513669E-002   2.9555433926722635E-002
   4.5322921197163538E-002  -1.8920228027317521E-002   4.9711704201009239E-002
   4.9995931024072501E-002  -1.8202778642613118E-002   4.9963520448476517E-002
   5.4668940850981430E-002  -1.7585761476566229E-002   4.9369025462926208E-002
   5.9341950677890373E-002  -1.7069176529176645E-002   4.7928219244358354E-002
   6.4014960504799323E-002  -1.6653023800444727E-002   4.5641101792773330E-002
   3.9535850104613190E-002  -1.6429160752065464E-002   6.8667730693013185E-002
   4.3111726311280463E-002  -1.6774810903070481E-002   6.9224477883270408E-002
   4.6687602517947763E-002  -1.6608518048123744E-002   6.8433269066061730E-002
   5.0263478724614993E-002  -1.5930282187225545E-002   6.6294104241387042E-002
   5.3839354931282335E-002  -1.4740103320375619E-002   6.2806983409246286E-002
   8.4602290256789670E-002  -2.2391785240651552E-002   6.2473944588858910E-004
   8.1095977667698715E-002  -2.4576148246506169E-002  -2.7919334603199175E-004
   7.7589665078607650E-002  -2.5379828000342025E-002  -9.1463128433738605E-004
   7.4083352489516641E-002  -2.4802824502159405E-002  -1.2815743690276216E-003
   7.0577039900425631E-002  -2.2845137751957845E-002  -1.3800226001032811E-003
   7.9396428167552990E-002  -2.0478864760582804E-002   1.4549979811094460E-002
   7.6217721505045799E-002  -2.1797166735873730E-002   1.3215107462875686E-002
   7.3039014842538635E-002  -2.2163090898864535E-002   1.2266952114209279E-002
   6.9860308180031486E-002  -2.1576637249554317E-002   1.1705513765095571E-002
   6.6681601517524280E-002  -2.0037805787943896E-002   1.1530792415534341E-002
   7.2533984916889588E-002  -1.8565944280513669E-002   2.9555433926722635E-002
   6.9801106326903783E-002  -1.9018185225241374E-002   2.7361316582487444E-002
   6.7068227736917924E-002  -1.8946353797386919E-002   2.5672138383742091E-002
   6.4335349146932133E-002  -1.8350449996949670E-002   2.4487899330487332E-002
   6.1602470556946315E-002  -1.7230473823929615E-002   2.3808599422722010E-002
   6.4014960504799323E-002  -1.6653023800444727E-002   4.5641101792773330E-002
   6.1846132133272405E-002  -1.6239203714609088E-002   4.2159434012803559E-002
   5.9677303761745529E-002  -1.5729616695909034E-002   3.9300927524261356E-002
   5.7508475390218597E-002  -1.5124262744344691E-002   3.7065582327146664E-002
   5.5339647018691727E-002  -1.4423141859915833E-002   3.5453398421460058E-002
   5.3839354931282335E-002  -1.4740103320375619E-002   6.2806983409246286E-002
   5.2352798924151817E-002  -1.3460222203976524E-002   5.7609459753824088E-002
   5.0866242917021354E-002  -1.2512879594431536E-002   5.3153319535766769E-002
   4.9379686909890919E-002  -1.1898075491739782E-002   4.9438562755074855E-002
   4.7893130902760428E-002  -1.1615809895901663E-002   4.6465189411747876E-002
   7.0577039900425631E-002  -2.2845137751957845E-002  -1.3800226001032811E-003
   6.5656227579677817E-002  -2.0437915306186327E-002  -1.2107695083430903E-003
   6.0735415258930170E-002  -1.8512304721295503E-002  -9.5708214395795466E-004
   5.5814602938182495E-002  -1.7068305997283012E-002  -6.1896050694704163E-004
   5.0893790617434709E-002  -1.6105919134151270E-002  -1.9640459731173898E-004
   6.6681601517524280E-002  -2.0037805787943896E-002   1.1530792415534341E-002
   6.1935102642790063E-002  -1.8184105716900878E-002   1.0204105875848024E-002
   5.7188603768055901E-002  -1.6653046239295116E-002   9.1416119555626785E-003
   5.2442104893321684E-002  -1.5444627355125702E-002   8.3433106546798586E-003
   4.7695606018587466E-002  -1.4558849064393531E-002   7.8092019731982321E-003
   6.1602470556946315E-002  -1.7230473823929615E-002   2.3808599422722010E-002
   5.7210043475002054E-002  -1.5930296127615595E-002   2.1144944519031900E-002
   5.2817616393057834E-002  -1.4793787757295174E-002   1.8925240581519731E-002
   4.8425189311113608E-002  -1.3820948712968281E-002   1.7149487610185671E-002
   4.4032762229169353E-002  -1.3011778994635459E-002   1.5817685605030107E-002
   5.5339647018691727E-002  -1.4423141859915833E-002   3.5453398421460058E-002
   5.1481050076313838E-002  -1.3676486538330007E-002   3.1611746421208918E-002
   4.7622453133936010E-002  -1.2934529275295231E-002   2.8393803733912544E-002
   4.3763856191558134E-002  -1.2197270070811027E-002   2.5799570359570603E-002
   3.9905259249180300E-002  -1.1464708924877776E-002   2.3829046298183873E-002
   4.7893130902760428E-002  -1.1615809895901663E-002   4.6465189411747876E-002
   4.4748122446725436E-002  -1.1422676949044752E-002   4.1604511582379045E-002
   4.1603113990690388E-002  -1.1075270793294942E-002   3.7547301412741180E-002
   3.8458105534655382E-002  -1.0573591428653464E-002   3.4293558902834712E-002
   3.5313097078620348E-002  -9.9176388551198702E-003   3.1843284052658904E-002
   5.0893790617434709E-002  -1.6105919134151270E-002  -1.9640459731173898E-004
   4.8566127414935933E-002  -1.5344977969709017E-002   7.0511568097675337E-005
   4.6238464212437047E-002  -1.4505316341765717E-002   2.7477410053911022E-004
   4.3910801009938272E-002  -1.3586934250322827E-002   4.1638300001428652E-004
   4.1583137807439385E-002  -1.2589831695378528E-002   4.9533826652248258E-004
   4.7695606018587466E-002  -1.4558849064393531E-002   7.8092019731982321E-003
   4.5350469816377303E-002  -1.3810798045146511E-002   7.7195928382747248E-003
   4.3005333614167141E-002  -1.3015560975433660E-002   7.6576913368960886E-003
   4.0660197411957033E-002  -1.2173137855254756E-002   7.6234974690609081E-003
   3.8315061209746815E-002  -1.1283528684610911E-002   7.6170112347703212E-003
   4.4032762229169353E-002  -1.3011778994635459E-002   1.5817685605030107E-002
   4.1760514293759016E-002  -1.2276618120584226E-002   1.5340016756739627E-002
   3.9488266358348678E-002  -1.1525805609101575E-002   1.4980416808505065E-002
   3.7216018422938368E-002  -1.0759341460187567E-002   1.4738885760325310E-002
   3.4943770487528003E-002  -9.9772256738430709E-003   1.4615423612201028E-002
   3.9905259249180300E-002  -1.1464708924877776E-002   2.3829046298183873E-002
   3.7796260847080883E-002  -1.0742438196021831E-002   2.2931783323491717E-002
   3.5687262444981542E-002  -1.0036050242769282E-002   2.2242950515366171E-002
   3.3578264042882167E-002  -9.3455450651206036E-003   2.1762547873807454E-002
   3.1469265640782784E-002  -8.6709226630753422E-003   2.1490575398815076E-002
   3.5313097078620348E-002  -9.9176388551198702E-003   3.1843284052658904E-002
   3.3457709476343078E-002  -9.2082582714592132E-003   3.0494892538530660E-002
   3.1602321874065809E-002  -8.5462948764374047E-003   2.9445292457480177E-002
   2.9746934271788525E-002  -7.9317486700530224E-003   2.8694483809507343E-002
   2.7891546669511269E-002  -7.3646196523077245E-003   2.8242466594612048E-002
   4.1583137807439385E-002  -1.2589831695378528E-002   4.9533826652248258E-004
   3.8748169721673498E-002  -1.1635982508103493E-002  -2.3566256398765972E-005
   3.5913201635907666E-002  -1.0847360519667171E-002  -3.8207845570625842E-004
   3.3078233550141778E-002  -1.0223965730069923E-002  -5.8019833140066090E-004
   3.0243265464375946E-002  -9.7657981393113324E-003  -6.1792588348130728E-004
   3.8315061209746815E-002  -1.1283528684610911E-002   7.6170112347703212E-003
   3.5631464899219645E-002  -1.0423025588720547E-002   6.8505593395415953E-003
   3.2947868588692364E-002  -9.6679206928051986E-003   6.2264586711766601E-003
   3.0264272278165250E-002  -9.0182139968638109E-003   5.7447092296755431E-003
   2.7580675967638024E-002  -8.4739055008966613E-003   5.4053110150382722E-003
   3.4943770487528003E-002  -9.9772256738430709E-003   1.4615423612201028E-002
   3.2393504855489835E-002  -9.2100686693377676E-003   1.3661253343529189E-002
   2.9843239223451695E-002  -8.4884808659422828E-003   1.2831393204971092E-002
   2.7292973591413541E-002  -7.8124622636574631E-003   1.2125843196527403E-002
   2.4742707959375443E-002  -7.1820128624826562E-003   1.1544603318198288E-002
   3.1469265640782784E-002  -8.6709226630753422E-003   2.1490575398815076E-002
   2.9034289590484111E-002  -7.9971117499551270E-003   2.0408515755563739E-002
   2.6599313540185458E-002  -7.3090410390805050E-003   1.9432725145677204E-002
   2.4164337489886851E-002  -6.6067105304514553E-003   1.8563203569155536E-002
   2.1729361439588243E-002  -5.8901202240682071E-003   1.7799951025998267E-002
   2.7891546669511269E-002  -7.3646196523077245E-003   2.8242466594612048E-002
   2.5553819104202513E-002  -6.7841548305722643E-003   2.7092346575646187E-002
   2.3216091538893785E-002  -6.1296012122178667E-003   2.6030454493295330E-002
   2.0878363973585085E-002  -5.4009587972453990E-003   2.5056790347559504E-002
   1.8540636408276301E-002  -4.5982275856539800E-003   2.4171354138438961E-002
   3.0243265464375946E-002  -9.7657981393113324E-003  -6.1792588348130728E-004
   2.9644795719484973E-002  -9.2048746851276508E-003  -3.5457223188828380E-004
   2.9046325974594112E-002  -8.2732123052536855E-003  -1.7733402649104946E-003
   2.8447856229703250E-002  -6.9708109996895196E-003  -4.8742299825479396E-003
   2.7849386484812277E-002  -5.2976707684369018E-003  -9.6572413848008409E-003
   2.7580675967638024E-002  -8.4739055008966613E-003   5.4053110150382722E-003
   2.5571400235291475E-002  -7.8880756877542924E-003   6.0441917322738847E-003
   2.3562124502945037E-002  -7.1138050402853592E-003   5.5435821592137446E-003
   2.1552848770598543E-002  -6.1510935584892790E-003   3.9034822958574078E-003
   1.9543573038252049E-002  -4.9999412423673562E-003   1.1238921422052073E-003
   2.4742707959375443E-002  -7.1820128624826562E-003   1.1544603318198288E-002
   2.1865257633892465E-002  -6.5712766903812669E-003   1.2376713009713658E-002
   1.8987807308409543E-002  -5.9543977753164223E-003   1.2611963805252563E-002
   1.6110356982926732E-002  -5.3313761172888302E-003   1.2250355704814336E-002
   1.3232906657443672E-002  -4.7022117162982546E-003   1.1291888708399256E-002
   2.1729361439588243E-002  -5.8901202240682071E-003   1.7799951025998267E-002
   1.8526367915288042E-002  -5.2544776930080750E-003   1.8642991600430259E-002
   1.5323374390987909E-002  -4.7949905103482349E-003   1.9431804673204323E-002
   1.2120380866687749E-002  -4.5116586760887076E-003   2.0166390244321160E-002
   8.9173873423875824E-003  -4.4044821902291531E-003   2.0846748313780278E-002
   1.8540636408276301E-002  -4.5982275856539800E-003   2.4171354138438961E-002
   1.5554731079478135E-002  -3.9376786956351051E-003   2.4843027504423798E-002
   1.2568825750679913E-002  -3.6355832453799364E-003   2.6003104763070162E-002
   9.5829204218817049E-003  -3.6919412348879466E-003   2.7651585914378385E-002
   6.5970150930835247E-003  -4.1067526641596075E-003   2.9788470958347801E-002
   2.7849386484812277E-002  -5.2976707684369018E-003  -9.6572413848008409E-003
   2.3395309262719377E-002  -4.2417558506815389E-003  -4.1646974619180543E-003
   1.8941232040626532E-002  -4.7910304856146890E-003   2.5932051601218475E-003
   1.4487154818533715E-002  -6.9454946732347422E-003   1.0616466481317977E-002
   1.0033077596440787E-002  -1.0705148413540755E-002   1.9905086501670333E-002
   1.9543573038252049E-002  -4.9999412423673562E-003   1.1238921422052073E-003
   1.6283410386571884E-002  -4.7034114777654290E-003   6.7887012570707617E-003
   1.3023247734891885E-002  -6.3045676505282811E-003   1.3575980813605448E-002
   9.7630850832115812E-003  -9.8034097606560372E-003   2.1485730811808490E-002
   6.5029224315316103E-003  -1.5199937808149766E-002   3.0517951251681108E-002
   1.3232906657443672E-002  -4.7022117162982546E-003   1.1291888708399256E-002
   1.1023770318688869E-002  -5.1650671048475427E-003   1.6836466630568481E-002
   8.8146339799341361E-003  -7.8181048154409849E-003   2.3360626736918966E-002
   6.6054976411794100E-003  -1.2661324848077332E-002   3.0864369027451322E-002
   4.3963613024246007E-003  -1.9694727202757889E-002   3.9347693502164827E-002
   8.9173873423875824E-003  -4.4044821902291531E-003   2.0846748313780278E-002
   7.6163890590706454E-003  -5.6267227319305446E-003   2.5978598658574895E-002
   6.3153907757536008E-003  -9.3316419803541328E-003   3.1947142930064010E-002
   5.0143924924366690E-003  -1.5519239935499515E-002   3.8752381128246208E-002
   3.7133942091197303E-003  -2.4189516597366678E-002   4.6394313253124042E-002
   6.5970150930835247E-003  -4.1067526641596075E-003   2.9788470958347801E-002
   6.0612666077168309E-003  -6.0883783590133245E-003   3.4215097341090406E-002
   5.5255181223501648E-003  -1.0845179145267392E-002   3.9335529393038970E-002
   4.9897696369836098E-003  -1.8377155022921005E-002   4.5149767114194495E-002
   4.4540211516168604E-003  -2.8684305991975467E-002   5.1657810504555979E-002
   8.6374481469068620E-002  -2.4525050632886625E-002  0.22749042778966472     
   7.4664823627954791E-002  -2.0531882569541748E-002  0.16098034148785295     
   6.2955165786840905E-002  -1.7851511568289888E-002  0.11233986320447367     
   5.1245507945727048E-002  -1.6483937629131192E-002   8.1568992939527088E-002
   3.9535850104613190E-002  -1.6429160752065464E-002   6.8667730693013185E-002
   2.6970304676481482E-002  -2.5689344650913160E-002  0.13576841080270091     
   2.8831384734405996E-002  -2.0831762591577346E-002   9.8880749446556171E-002
   3.0692464792330620E-002  -1.7564102962066383E-002   7.1264955870055824E-002
   3.2553544850255273E-002  -1.5886365762380141E-002   5.2921030073199690E-002
   3.4414624908179869E-002  -1.5798550992518645E-002   4.3848972055987867E-002
   2.9387826949143769E-003  -2.6853638668939694E-002   4.5049370495594057E-002
   9.7728604130892238E-003  -2.1131642613612944E-002   3.7507008717384785E-002
   1.6606938131264001E-002  -1.7276694355842774E-002   3.0638774480031210E-002
   2.3441015849438716E-002  -1.5288793895629064E-002   2.4444667783533814E-002
   3.0275093567613501E-002  -1.5167941232971827E-002   1.8924688627892455E-002
   1.4279915524367512E-002  -2.8017932686966215E-002  -4.4666693131656110E-002
   1.7489250664004072E-002  -2.1431522635648570E-002  -2.3140880699661883E-002
   2.0698585803640684E-002  -1.6989285749619134E-002  -9.5386809656000226E-003
   2.3907920943277351E-002  -1.4691222028878029E-002  -3.8600939294705519E-003
   2.7117256082913963E-002  -1.4537331473424953E-002  -6.1051195912731754E-003
   6.0993703164840707E-002  -2.9182226704992764E-002 -0.13337978007904927     
   5.1980555487150859E-002  -2.1731402657684140E-002  -8.3062918804583441E-002
   4.2967407809461011E-002  -1.6701877143395605E-002  -4.9267410466837913E-002
   3.3954260131771191E-002  -1.4093650162126950E-002  -3.1993255065812978E-002
   2.4941112454081343E-002  -1.3906721713878190E-002  -3.1240452601508872E-002
   3.9535850104613190E-002  -1.6429160752065464E-002   6.8667730693013185E-002
   4.3111726311280463E-002  -1.6774810903070481E-002   6.9224477883270408E-002
   4.6687602517947763E-002  -1.6608518048123744E-002   6.8433269066061730E-002
   5.0263478724614993E-002  -1.5930282187225545E-002   6.6294104241387042E-002
   5.3839354931282335E-002  -1.4740103320375619E-002   6.2806983409246286E-002
   3.4414624908179869E-002  -1.5798550992518645E-002   4.3848972055987867E-002
   3.6954002242824219E-002  -1.6251498048667989E-002   4.6209041129432110E-002
   3.9493379577468568E-002  -1.6196046327014477E-002   4.7844068466296574E-002
   4.2032756912112910E-002  -1.5632195827558173E-002   4.8754054066580996E-002
   4.4572134246757211E-002  -1.4559946550298575E-002   4.8938997930285499E-002
   3.0275093567613501E-002  -1.5167941232971827E-002   1.8924688627892455E-002
   3.2400886301120840E-002  -1.5728185194265748E-002   2.3084535356375335E-002
   3.4526679034628187E-002  -1.5783574605905321E-002   2.7142254619164058E-002
   3.6652471768135519E-002  -1.5334109467890635E-002   3.1097846416259060E-002
   3.8778264501642859E-002  -1.4379789780221558E-002   3.4951310747659781E-002
   2.7117256082913963E-002  -1.4537331473424953E-002  -6.1051195912731754E-003
   2.9452378486170307E-002  -1.5204872339863326E-002  -1.4903943590048249E-004
   3.1787500889426654E-002  -1.5371102884796081E-002   6.3278275246641709E-003
   3.4122623292682994E-002  -1.5036023108223068E-002   1.3325481290420875E-002
   3.6457745695939341E-002  -1.4199633010144472E-002   2.0843921861369463E-002
   2.4941112454081343E-002  -1.3906721713878190E-002  -3.1240452601508872E-002
   2.8108478797972625E-002  -1.4681559485461015E-002  -2.3491683247394923E-002
   3.1275845141863920E-002  -1.4958631163686842E-002  -1.4599212817203194E-002
   3.4443211485755194E-002  -1.4737936748555738E-002  -4.5630413109333801E-003
   3.7610577829646469E-002  -1.4019476240067497E-002   6.6168312714143251E-003
   5.3839354931282335E-002  -1.4740103320375619E-002   6.2806983409246286E-002
   5.2352798924151817E-002  -1.3460222203976524E-002   5.7609459753824088E-002
   5.0866242917021354E-002  -1.2512879594431536E-002   5.3153319535766769E-002
   4.9379686909890919E-002  -1.1898075491739782E-002   4.9438562755074855E-002
   4.7893130902760428E-002  -1.1615809895901663E-002   4.6465189411747876E-002
   4.4572134246757211E-002  -1.4559946550298575E-002   4.8938997930285499E-002
   4.3650166145937044E-002  -1.3356218198360859E-002   4.6749040115568685E-002
   4.2728198045116919E-002  -1.2397930474869909E-002   4.4946874676107390E-002
   4.1806229944296731E-002  -1.1685083379825569E-002   4.3532501611901434E-002
   4.0884261843476571E-002  -1.1217676913227892E-002   4.2505920922950580E-002
   3.8778264501642859E-002  -1.4379789780221558E-002   3.4951310747659781E-002
   3.8067293245023191E-002  -1.3252214192745110E-002   3.5856016652055789E-002
   3.7356321988403510E-002  -1.2282981355308448E-002   3.6794923869597304E-002
   3.6645350731783793E-002  -1.1472091267911412E-002   3.7768032400284368E-002
   3.5934379475164119E-002  -1.0819543930553982E-002   3.8775342244116925E-002
   3.6457745695939341E-002  -1.4199633010144472E-002   2.0843921861369463E-002
   3.5604180221410292E-002  -1.3148210187129375E-002   2.4930389363285021E-002
   3.4750614746881237E-002  -1.2168032235746876E-002   2.8697467116236441E-002
   3.3897049272352126E-002  -1.1259099155997338E-002   3.2145155120223368E-002
   3.3043483797823126E-002  -1.0421410947880197E-002   3.5273453375246247E-002
   3.7610577829646469E-002  -1.4019476240067497E-002   6.6168312714143251E-003
   3.6260827075098229E-002  -1.3044206181513640E-002   1.3972158249256517E-002
   3.4911076320550002E-002  -1.2053083116185415E-002   2.0654504416024733E-002
   3.3561325566001741E-002  -1.1046107044083112E-002   2.6663869771718682E-002
   3.2211574811453481E-002  -1.0023277965206190E-002   3.2000254316338572E-002
   4.7893130902760428E-002  -1.1615809895901663E-002   4.6465189411747876E-002
   4.4748122446725436E-002  -1.1422676949044752E-002   4.1604511582379045E-002
   4.1603113990690388E-002  -1.1075270793294942E-002   3.7547301412741180E-002
   3.8458105534655382E-002  -1.0573591428653464E-002   3.4293558902834712E-002
   3.5313097078620348E-002  -9.9176388551198702E-003   3.1843284052658904E-002
   4.0884261843476571E-002  -1.1217676913227892E-002   4.2505920922950580E-002
   3.8391499437656601E-002  -1.0827770203908543E-002   3.9675365336428459E-002
   3.5898737031836672E-002  -1.0347422380699037E-002   3.7345834190605470E-002
   3.3405974626016723E-002  -9.7766334435994036E-003   3.5517327485481670E-002
   3.0913212220196773E-002  -9.1154033926097444E-003   3.4189845221056503E-002
   3.5934379475164119E-002  -1.0819543930553982E-002   3.8775342244116925E-002
   3.3791419900527336E-002  -1.0232863458772445E-002   3.7911076805439134E-002
   3.1648460325890561E-002  -9.6195739681028056E-003   3.7245392588428662E-002
   2.9505500751253768E-002  -8.9796754585452342E-003   3.6778289593085448E-002
   2.7362541176617003E-002  -8.3131679300995076E-003   3.6509767819409067E-002
   3.3043483797823126E-002  -1.0421410947880197E-002   3.5273453375246247E-002
   3.0947883835337545E-002  -9.6379567136365141E-003   3.6311645989411057E-002
   2.8852283872851964E-002  -8.8917255555066819E-003   3.7245976606211040E-002
   2.6756683910366442E-002  -8.1827174734910094E-003   3.8076445225646412E-002
   2.4661083947880798E-002  -7.5109324675893818E-003   3.8803051847716812E-002
   3.2211574811453481E-002  -1.0023277965206190E-002   3.2000254316338572E-002
   2.9860891242087240E-002  -9.0430499685003607E-003   3.4877072888343963E-002
   2.7510207672720971E-002  -8.1638771429106416E-003   3.7347586243952235E-002
   2.5159524103354716E-002  -7.3857594884368313E-003   3.9411794383164139E-002
   2.2808840533988461E-002  -6.7086970050791450E-003   4.1069697305979425E-002
   3.5313097078620348E-002  -9.9176388551198702E-003   3.1843284052658904E-002
   3.3457709476343078E-002  -9.2082582714592132E-003   3.0494892538530660E-002
   3.1602321874065809E-002  -8.5462948764374047E-003   2.9445292457480177E-002
   2.9746934271788525E-002  -7.9317486700530224E-003   2.8694483809507343E-002
   2.7891546669511269E-002  -7.3646196523077245E-003   2.8242466594612048E-002
   3.0913212220196773E-002  -9.1154033926097444E-003   3.4189845221056503E-002
   2.9303508192455585E-002  -8.4238775854081349E-003   3.3598926268177898E-002
   2.7693804164714342E-002  -7.7622013796725675E-003   3.3200583031294140E-002
   2.6084100136973126E-002  -7.1303747754033267E-003   3.2994815510404701E-002
   2.4474396109231883E-002  -6.5283977726002806E-003   3.2981623705509333E-002
   2.7362541176617003E-002  -8.3131679300995076E-003   3.6509767819409067E-002
   2.5892305006328539E-002  -7.6394968993567236E-003   3.6693889014952880E-002
   2.4422068836040083E-002  -6.9781078829080773E-003   3.6964370209407668E-002
   2.2951832665751595E-002  -6.3290008807533014E-003   3.7321211402773509E-002
   2.1481596495463148E-002  -5.6921758928924482E-003   3.7764412595050784E-002
   2.4661083947880798E-002  -7.5109324675893818E-003   3.8803051847716812E-002
   2.3224099917961927E-002  -6.8551162133055898E-003   3.9779780778854655E-002
   2.1787115888042941E-002  -6.1940143861435246E-003   4.0736653991820290E-002
   2.0350131858124006E-002  -5.5276269861031634E-003   4.1673671486614126E-002
   1.8913147828205024E-002  -4.8559540131848655E-003   4.2590833263235171E-002
   2.2808840533988461E-002  -6.7086970050791450E-003   4.1069697305979425E-002
   2.1298892927355734E-002  -6.0707355272541785E-003   4.2856601559883578E-002
   1.9788945320723006E-002  -5.4099208893787498E-003   4.4517434378532394E-002
   1.8278997714090278E-002  -4.7262530914535250E-003   4.6052195761926068E-002
   1.6769050107457550E-002  -4.0197321334771718E-003   4.7460885710063905E-002
   2.7891546669511269E-002  -7.3646196523077245E-003   2.8242466594612048E-002
   2.5553819104202513E-002  -6.7841548305722643E-003   2.7092346575646187E-002
   2.3216091538893785E-002  -6.1296012122178667E-003   2.6030454493295330E-002
   2.0878363973585085E-002  -5.4009587972453990E-003   2.5056790347559504E-002
   1.8540636408276301E-002  -4.5982275856539800E-003   2.4171354138438961E-002
   2.4474396109231883E-002  -6.5283977726002806E-003   3.2981623705509333E-002
   2.2227812618448750E-002  -5.9336601560844304E-003   3.2303500583719225E-002
   1.9981229127665659E-002  -5.3235517106780816E-003   3.1719437674365414E-002
   1.7734645636882568E-002  -4.6980724363809498E-003   3.1229434977447373E-002
   1.5488062146099435E-002  -4.0572223331927226E-003   3.0833492492965853E-002
   2.1481596495463148E-002  -5.6921758928924482E-003   3.7764412595050784E-002
   1.9331989355026627E-002  -5.0831654815970406E-003   3.7499568402708516E-002
   1.7182382214590175E-002  -4.5175022091383937E-003   3.7334616698623771E-002
   1.5032775074153688E-002  -3.9951860755166081E-003   3.7269557482796110E-002
   1.2883167933717202E-002  -3.5162170807313542E-003   3.7304390755225181E-002
   1.8913147828205024E-002  -4.8559540131848655E-003   4.2590833263235171E-002
   1.6866349313936147E-002  -4.2326708071090957E-003   4.2680550032613861E-002
   1.4819550799667298E-002  -3.7114527075983242E-003   4.2875991566070651E-002
   1.2772752285398436E-002  -3.2922997146518241E-003   4.3177157863605639E-002
   1.0725953771129577E-002  -2.9752118282702078E-003   4.3584048925218402E-002
   1.6769050107457550E-002  -4.0197321334771718E-003   4.7460885710063905E-002
   1.4830892495177328E-002  -3.3821761326218724E-003   4.7846445473435528E-002
   1.2892734882897078E-002  -2.9054032060588653E-003   4.8343562276705998E-002
   1.0954577270616855E-002  -2.5894133537877478E-003   4.8952236119875592E-002
   9.0164196583365497E-003  -2.4342065758087283E-003   4.9672467002944365E-002
   1.8540636408276301E-002  -4.5982275856539800E-003   2.4171354138438961E-002
   1.5554731079478135E-002  -3.9376786956351051E-003   2.4843027504423798E-002
   1.2568825750679913E-002  -3.6355832453799364E-003   2.6003104763070162E-002
   9.5829204218817049E-003  -3.6919412348879466E-003   2.7651585914378385E-002
   6.5970150930835247E-003  -4.1067526641596075E-003   2.9788470958347801E-002
   1.5488062146099435E-002  -4.0572223331927226E-003   3.0833492492965853E-002
   1.2970060832725366E-002  -3.6167573828427835E-003   3.1545048744342219E-002
   1.0452059519351395E-002  -3.5924335670612650E-003   3.2704009133905698E-002
   7.9340582059773471E-003  -3.9842508858471057E-003   3.4310373661655819E-002
   5.4160568926033548E-003  -4.7922093392009923E-003   3.6364142327592774E-002
   1.2883167933717202E-002  -3.5162170807313542E-003   3.7304390755225181E-002
   1.0792070881292637E-002  -3.2958360700506839E-003   3.7998142197189416E-002
   8.7009738288680860E-003  -3.5492838887424827E-003   3.9098298022865047E-002
   6.6098767764435247E-003  -4.2765605368061538E-003   4.0604858232253072E-002
   4.5187797240189703E-003  -5.4776660142423772E-003   4.2517822825353324E-002
   1.0725953771129577E-002  -2.9752118282702078E-003   4.3584048925218402E-002
   9.0207612251797381E-003  -2.9749147572585288E-003   4.4202307862965175E-002
   7.3155686792299533E-003  -3.5061342104236448E-003   4.5185971429948985E-002
   5.6103761332801103E-003  -4.5688701877654794E-003   4.6535039626170303E-002
   3.9051835873303818E-003  -6.1631226892836510E-003   4.8249512451629006E-002
   9.0164196583365497E-003  -2.4342065758087283E-003   4.9672467002944365E-002
   7.6561318643868226E-003  -2.6539934444663738E-003   5.0157545741669751E-002
   6.2958440704370400E-003  -3.4629845321048625E-003   5.0967029355157289E-002
   4.9355562764872574E-003  -4.8611798387243749E-003   5.2100917843407646E-002
   3.5752684825374748E-003  -6.8485793643249249E-003   5.3559211206420931E-002
   6.5970150930835247E-003  -4.1067526641596075E-003   2.9788470958347801E-002
   6.0612666077168309E-003  -6.0883783590133245E-003   3.4215097341090406E-002
   5.5255181223501648E-003  -1.0845179145267392E-002   3.9335529393038970E-002
   4.9897696369836098E-003  -1.8377155022921005E-002   4.5149767114194495E-002
   4.4540211516168604E-003  -2.8684305991975467E-002   5.1657810504555979E-002
   5.4160568926033548E-003  -4.7922093392009923E-003   3.6364142327592774E-002
   5.4684680239888150E-003  -6.9277045060919251E-003   3.8461749997823202E-002
   5.5208791553742614E-003  -1.1302131965488377E-002   4.1041871232351479E-002
   5.5732902867596454E-003  -1.7915491717390188E-002   4.4104506031177215E-002
   5.6257014181452236E-003  -2.6767783761797670E-002   4.7649654394300578E-002
   4.5187797240189703E-003  -5.4776660142423772E-003   4.2517822825353324E-002
   4.9480583672475709E-003  -7.7670306531701927E-003   4.2822654581966796E-002
   5.3773370104762339E-003  -1.1759084785709029E-002   4.3398707797968894E-002
   5.8066156537047997E-003  -1.7453828411858927E-002   4.4245982473359716E-002
   6.2358942969334419E-003  -2.4851261531619873E-002   4.5364478608139303E-002
   3.9051835873303818E-003  -6.1631226892836510E-003   4.8249512451629006E-002
   4.5000376374931608E-003  -8.6063568002485158E-003   4.7297811093520346E-002
   5.0948916876559988E-003  -1.2216037605929958E-002   4.6406039089890938E-002
   5.6897457378188229E-003  -1.6992165106328110E-002   4.5574196440741038E-002
   6.2845997879816679E-003  -2.2934739301442075E-002   4.4802283146071903E-002
   3.5752684825374748E-003  -6.8485793643249249E-003   5.3559211206420931E-002
   4.1244058347256196E-003  -9.4456829473270609E-003   5.1887219532483986E-002
   4.6735431869137367E-003  -1.2672990426150610E-002   5.0063865108118000E-002
   5.2226805391018399E-003  -1.6530501800796779E-002   4.8089147933322307E-002
   5.7718178912899987E-003  -2.1018217071264278E-002   4.5963068008097352E-002
   6.0993703164840707E-002  -2.9182226704992764E-002 -0.13337978007904927     
   5.1980555487150859E-002  -2.1731402657684140E-002  -8.3062918804583441E-002
   4.2967407809461011E-002  -1.6701877143395605E-002  -4.9267410466837913E-002
   3.3954260131771191E-002  -1.4093650162126950E-002  -3.1993255065812978E-002
   2.4941112454081343E-002  -1.3906721713878190E-002  -3.1240452601508872E-002
  0.10831482215224636       -2.3149298474841762E-002  -2.7531855014046258E-002
   8.6990595324868802E-002  -1.7585963011320982E-002  -9.2855732167319294E-003
   6.5666368497491190E-002  -1.3847051308838718E-002   8.5990321792767110E-004
   4.4342141670113619E-002  -1.1932563367394965E-002   2.9045742899322519E-003
   2.3017914842736034E-002  -1.1842499186989708E-002  -3.1515600007179789E-003
  0.12147794902249665       -1.7116370244690704E-002   7.6130144081178186E-002
   9.6263190619497133E-002  -1.3440523364957713E-002   6.2902721173322421E-002
   7.1048432216497565E-002  -1.0992225474281775E-002   4.9995040476877500E-002
   4.5833673813498024E-002  -9.7714765726629807E-003   3.7407101991843508E-002
   2.0618915410498505E-002  -9.7782766601012261E-003   2.5138905718220514E-002
  0.10048308377559174       -1.1083442014539674E-002  0.17760621720662434     
   7.9798341371035961E-002  -9.2950837185944990E-003  0.13350196436557968     
   5.9113598966480226E-002  -8.1373996397249154E-003   9.8138001310011769E-002
   3.8428856561924463E-002  -7.6103897779310516E-003   7.1514328039920472E-002
   1.7744114157368700E-002  -7.7140541332127999E-003   5.3630944555305940E-002
   4.5330226411531477E-002  -5.0505137843886438E-003  0.27689636436229187     
   3.7596047579485287E-002  -5.1496440722312853E-003  0.20251215636003977     
   2.9861868747439069E-002  -5.2825738051679588E-003  0.14528878571733031     
   2.2127689915392872E-002  -5.4493029831990981E-003  0.10522625243416335     
   1.4393511083346661E-002  -5.6498316063242626E-003   8.2324556510538716E-002
   2.4941112454081343E-002  -1.3906721713878190E-002  -3.1240452601508872E-002
   2.8108478797972625E-002  -1.4681559485461015E-002  -2.3491683247394923E-002
   3.1275845141863920E-002  -1.4958631163686842E-002  -1.4599212817203194E-002
   3.4443211485755194E-002  -1.4737936748555738E-002  -4.5630413109333801E-003
   3.7610577829646469E-002  -1.4019476240067497E-002   6.6168312714143251E-003
   2.3017914842736034E-002  -1.1842499186989708E-002  -3.1515600007179789E-003
   2.6954674810955495E-002  -1.2462298538411895E-002   4.1983314761244728E-003
   3.0891434779174921E-002  -1.2677401192449908E-002   1.1943309125545212E-002
   3.4828194747394348E-002  -1.2487807149104423E-002   2.0083372947544115E-002
   3.8764954715613781E-002  -1.1893516408374716E-002   2.8618522942121832E-002
   2.0618915410498505E-002  -9.7782766601012261E-003   2.5138905718220514E-002
   2.4576454099546521E-002  -1.0243037591362636E-002   3.1996849921818130E-002
   2.8533992788594590E-002  -1.0396171221213307E-002   3.8501265394494513E-002
   3.2491531477642631E-002  -1.0237677549653108E-002   4.4652152136249748E-002
   3.6449070166690696E-002  -9.7675565766821015E-003   5.0449510147083931E-002
   1.7744114157368700E-002  -7.7140541332127999E-003   5.3630944555305940E-002
   2.0973816663745801E-002  -8.0237766443134184E-003   5.9903872089685756E-002
   2.4203519170122905E-002  -8.1149412499765122E-003   6.5074655989644986E-002
   2.7433221676499989E-002  -7.9875479502017378E-003   6.9143296255183451E-002
   3.0662924182877110E-002  -7.6415967449894040E-003   7.2109792886301247E-002
   1.4393511083346661E-002  -5.6498316063242626E-003   8.2324556510538716E-002
   1.6146762503553264E-002  -5.8045156972642287E-003   8.7919397979727670E-002
   1.7900013923759867E-002  -5.8337112787398004E-003   9.1663480910996437E-002
   1.9653265343966476E-002  -5.7374183507505130E-003   9.3556805304344959E-002
   2.1406516764173072E-002  -5.5156369132967620E-003   9.3599371159773181E-002
   3.7610577829646469E-002  -1.4019476240067497E-002   6.6168312714143251E-003
   3.6260827075098229E-002  -1.3044206181513640E-002   1.3972158249256517E-002
   3.4911076320550002E-002  -1.2053083116185415E-002   2.0654504416024733E-002
   3.3561325566001741E-002  -1.1046107044083112E-002   2.6663869771718682E-002
   3.2211574811453481E-002  -1.0023277965206190E-002   3.2000254316338572E-002
   3.8764954715613781E-002  -1.1893516408374716E-002   2.8618522942121832E-002
   3.6939532787977999E-002  -1.1091660061695846E-002   3.2714041883704831E-002
   3.5114110860342246E-002  -1.0279369200501418E-002   3.6531199290186972E-002
   3.3288688932706471E-002  -9.4566438247921068E-003   4.0069995161568048E-002
   3.1463267005070711E-002  -8.6234839345675773E-003   4.3330429497848266E-002
   3.6449070166690696E-002  -9.7675565766821015E-003   5.0449510147083931E-002
   3.4542596341940519E-002  -9.1391139418778022E-003   5.1279802560148718E-002
   3.2636122517190350E-002  -8.5056552848174205E-003   5.2226352714085600E-002
   3.0729648692440180E-002  -7.8671806055013241E-003   5.3289160608894784E-002
   2.8823174867689996E-002  -7.2236899039290203E-003   5.4468226244576035E-002
   3.0662924182877110E-002  -7.6415967449894040E-003   7.2109792886301247E-002
   2.9070017736985684E-002  -7.1865678220597168E-003   6.9669440278588346E-002
   2.7477111291094265E-002  -6.7319413691334234E-003   6.7739964687720811E-002
   2.5884204845202836E-002  -6.2777173862103748E-003   6.6321366113698682E-002
   2.4291298399311431E-002  -5.8238958732905466E-003   6.5413644556521711E-002
   2.1406516764173072E-002  -5.5156369132967620E-003   9.3599371159773181E-002
   2.0521796973113557E-002  -5.2340217022419644E-003   8.7882955039023603E-002
   1.9637077182054027E-002  -4.9582274534494541E-003   8.3072035211092576E-002
   1.8752357390994512E-002  -4.6882541669195990E-003   7.9166611675979881E-002
   1.7867637599934982E-002  -4.4241018426517953E-003   7.6166684433685850E-002
   3.2211574811453481E-002  -1.0023277965206190E-002   3.2000254316338572E-002
   2.9860891242087240E-002  -9.0430499685003607E-003   3.4877072888343963E-002
   2.7510207672720971E-002  -8.1638771429106416E-003   3.7347586243952235E-002
   2.5159524103354716E-002  -7.3857594884368313E-003   3.9411794383164139E-002
   2.2808840533988461E-002  -6.7086970050791450E-003   4.1069697305979425E-002
   3.1463267005070711E-002  -8.6234839345675773E-003   4.3330429497848266E-002
   2.8862249410777682E-002  -7.8221190321177969E-003   4.4383895099735476E-002
   2.6261231816484695E-002  -7.0947786197319840E-003   4.5342997868165619E-002
   2.3660214222191688E-002  -6.4414626974105341E-003   4.6207737803139137E-002
   2.1059196627898707E-002  -5.8621712651534263E-003   4.6978114904655810E-002
   2.8823174867689996E-002  -7.2236899039290203E-003   5.4468226244576035E-002
   2.6283765631410078E-002  -6.6011880957351776E-003   5.3725369557396957E-002
   2.3744356395130180E-002  -6.0256800965536733E-003   5.3200092419700709E-002
   2.1204947158850272E-002  -5.4971659063842958E-003   5.2892394831487673E-002
   1.8665537922570363E-002  -5.0156455252274856E-003   5.2802276792757452E-002
   2.4291298399311431E-002  -5.8238958732905466E-003   6.5413644556521711E-002
   2.2125439903984474E-002  -5.3802571593524751E-003   6.2901496261328127E-002
   1.9959581408657508E-002  -4.9565815733751892E-003   6.0918869898557548E-002
   1.7793722913330527E-002  -4.5528691153580835E-003   5.9465765468209655E-002
   1.5627864418003581E-002  -4.1691197853016004E-003   5.8542182970284767E-002
   1.7867637599934982E-002  -4.4241018426517953E-003   7.6166684433685850E-002
   1.6387272228500782E-002  -4.1593262229697725E-003   7.1912275211529653E-002
   1.4906906857066624E-002  -3.8874830501967467E-003   6.8499330304736289E-002
   1.3426541485632430E-002  -3.6085723243317984E-003   6.5927849713305633E-002
   1.1946176114198237E-002  -3.3225940453758263E-003   6.4197833437237728E-002
   2.2808840533988461E-002  -6.7086970050791450E-003   4.1069697305979425E-002
   2.1298892927355734E-002  -6.0707355272541785E-003   4.2856601559883578E-002
   1.9788945320723006E-002  -5.4099208893787498E-003   4.4517434378532394E-002
   1.8278997714090278E-002  -4.7262530914535250E-003   4.6052195761926068E-002
   1.6769050107457550E-002  -4.0197321334771718E-003   4.7460885710063905E-002
   2.1059196627898707E-002  -5.8621712651534263E-003   4.6978114904655810E-002
   1.9489800437875057E-002  -5.3100954318212046E-003   4.8208850437318373E-002
   1.7920404247851435E-002  -4.7384263062743570E-003   4.9446760238454429E-002
   1.6351008057827777E-002  -4.1471638885135081E-003   5.0691844308064296E-002
   1.4781611867804162E-002  -3.5363081785380057E-003   5.1944102646147738E-002
   1.8665537922570363E-002  -5.0156455252274856E-003   5.2802276792757452E-002
   1.7169938852884821E-002  -4.5494553363877033E-003   5.3473583736342312E-002
   1.5674339783199320E-002  -4.0669317231696311E-003   5.4285310652129715E-002
   1.4178740713513820E-002  -3.5680746855736023E-003   5.5237457540120036E-002
   1.2683141643828277E-002  -3.0528842235990616E-003   5.6330024400312428E-002
   1.5627864418003581E-002  -4.1691197853016004E-003   5.8542182970284767E-002
   1.4339308172385176E-002  -3.7888152409544656E-003   5.8650801456955906E-002
   1.3050751926766753E-002  -3.3954371400651273E-003   5.9033085619558556E-002
   1.1762195681148323E-002  -2.9889854826334189E-003   5.9689035458092815E-002
   1.0473639435529924E-002  -2.5694602686600065E-003   6.0618650972558627E-002
   1.1946176114198237E-002  -3.3225940453758263E-003   6.4197833437237728E-002
   1.0997908396375961E-002  -3.0281751455212280E-003   6.3740503599158671E-002
   1.0049640678553670E-002  -2.7239425569604570E-003   6.3690085140740371E-002
   9.1013729607313659E-003  -2.4098962796937767E-003   6.4046578061982634E-002
   8.1531052429090756E-003  -2.0860363137209514E-003   6.4809982362885377E-002
   1.6769050107457550E-002  -4.0197321334771718E-003   4.7460885710063905E-002
   1.4830892495177328E-002  -3.3821761326218724E-003   4.7846445473435528E-002
   1.2892734882897078E-002  -2.9054032060588653E-003   4.8343562276705998E-002
   1.0954577270616855E-002  -2.5894133537877478E-003   4.8952236119875592E-002
   9.0164196583365497E-003  -2.4342065758087283E-003   4.9672467002944365E-002
   1.4781611867804162E-002  -3.5363081785380057E-003   5.1944102646147738E-002
   1.2984355252637081E-002  -2.9905675232073659E-003   5.2092671144512881E-002
   1.1187098637469958E-002  -2.5946502693801055E-003   5.2411484597205155E-002
   9.3898420223028356E-003  -2.3485564170561690E-003   5.2900543004224962E-002
   7.5925854071357546E-003  -2.2522859662357231E-003   5.3559846365571651E-002
   1.2683141643828277E-002  -3.0528842235990616E-003   5.6330024400312428E-002
   1.1085473940202366E-002  -2.5989589137929425E-003   5.6252561306460197E-002
   9.4878062365764335E-003  -2.2838973327015955E-003   5.6404031081363187E-002
   7.8901385329505080E-003  -2.1076994803247082E-003   5.6784433725021385E-002
   6.2924708293245618E-003  -2.0703653566627178E-003   5.7393769237434666E-002
   1.0473639435529924E-002  -2.5694602686600065E-003   6.0618650972558627E-002
   9.1342485578732088E-003  -2.2073503043784776E-003   6.0326115959277379E-002
   7.7948576802164792E-003  -1.9731443960231271E-003   6.0321201729179465E-002
   6.4554668025597738E-003  -1.8668425435932438E-003   6.0603908282264793E-002
   5.1160759249030373E-003  -1.8884447470898236E-003   6.1174235618533399E-002
   8.1531052429090756E-003  -2.0860363137209514E-003   6.4809982362885377E-002
   7.1306791056496011E-003  -1.8157416949639016E-003   6.4313335102964220E-002
   6.1082529683901127E-003  -1.6623914593441036E-003   6.4162996540654493E-002
   5.0858268311306243E-003  -1.6259856068620016E-003   6.4358966675955642E-002
   4.0634006938711498E-003  -1.7065241375167073E-003   6.4901245508868333E-002
   9.0164196583365497E-003  -2.4342065758087283E-003   4.9672467002944365E-002
   7.6561318643868226E-003  -2.6539934444663738E-003   5.0157545741669751E-002
   6.2958440704370400E-003  -3.4629845321048625E-003   5.0967029355157289E-002
   4.9355562764872574E-003  -4.8611798387243749E-003   5.2100917843407646E-002
   3.5752684825374748E-003  -6.8485793643249249E-003   5.3559211206420931E-002
   7.5925854071357546E-003  -2.2522859662357231E-003   5.3559846365571651E-002
   6.5286096784675923E-003  -2.4824073973067629E-003   5.3594469677574752E-002
   5.4646339497994301E-003  -3.2154891906575611E-003   5.3897312245378692E-002
   4.4006582211312747E-003  -4.4515313462882983E-003   5.4468374068983083E-002
   3.3366824924631056E-003  -6.1905338641989882E-003   5.5307655148388091E-002
   6.2924708293245618E-003  -2.0703653566627178E-003   5.7393769237434666E-002
   5.4686215469758881E-003  -2.3108213501473185E-003   5.7064180979417067E-002
   4.6447722646272005E-003  -2.9679938492105651E-003   5.6946626358238300E-002
   3.8209229822785268E-003  -4.0418828538524368E-003   5.7041105373897727E-002
   2.9970736999298392E-003  -5.5324883640731626E-003   5.7347618026395819E-002
   5.1160759249030373E-003  -1.8884447470898236E-003   6.1174235618533399E-002
   4.4761674699117081E-003  -2.1392353029877909E-003   6.0566679647196489E-002
   3.8362590149203964E-003  -2.7204985077633054E-003   6.0114971693736217E-002
   3.1963505599290759E-003  -3.6322343614164677E-003   5.9819111758151897E-002
   2.5564421049377554E-003  -4.8744428639472814E-003   5.9679099840444005E-002
   4.0634006938711498E-003  -1.7065241375167073E-003   6.4901245508868333E-002
   3.5512474472750577E-003  -1.9676492558283187E-003   6.4101965680913198E-002
   3.0390942006789518E-003  -2.4730031663162122E-003   6.3402348251872132E-002
   2.5269409540828527E-003  -3.2225858689804293E-003   6.2802393221745134E-002
   2.0147877074867815E-003  -4.2163973638214003E-003   6.2302100590532428E-002
   3.5752684825374748E-003  -6.8485793643249249E-003   5.3559211206420931E-002
   4.1244058347256196E-003  -9.4456829473270609E-003   5.1887219532483986E-002
   4.6735431869137367E-003  -1.2672990426150610E-002   5.0063865108118000E-002
   5.2226805391018399E-003  -1.6530501800796779E-002   4.8089147933322307E-002
   5.7718178912899987E-003  -2.1018217071264278E-002   4.5963068008097352E-002
   3.3366824924631056E-003  -6.1905338641989882E-003   5.5307655148388091E-002
   3.7536367384344155E-003  -8.4655332862635935E-003   5.2954201645279475E-002
   4.1705909844056838E-003  -1.1309566154356299E-002   5.0487744680166591E-002
   4.5875452303769937E-003  -1.4722632468476937E-002   4.7908284253049160E-002
   5.0044994763482897E-003  -1.8704732228626231E-002   4.5215820363927239E-002
   2.9970736999298392E-003  -5.5324883640731626E-003   5.7347618026395819E-002
   3.3202041281091138E-003  -7.4853836252002370E-003   5.4373873143909346E-002
   3.6433345562883815E-003  -9.9461418825616821E-003   5.1325484087843487E-002
   3.9664649844676318E-003  -1.2914763136157435E-002   4.8202450858198159E-002
   4.2895954126469515E-003  -1.6391247385987739E-002   4.5004773454973224E-002
   2.5564421049377554E-003  -4.8744428639472814E-003   5.9679099840444005E-002
   2.8241080037497736E-003  -6.5052339641367141E-003   5.6146234028373765E-002
   3.0917739025617796E-003  -8.5827176107671072E-003   5.2577083331148543E-002
   3.3594398013737778E-003  -1.1106893803838207E-002   4.8971647748769234E-002
   3.6271057001858037E-003  -1.4077762543349359E-002   4.5329927281233834E-002
   2.0147877074867815E-003  -4.2163973638214003E-003   6.2302100590532428E-002
   2.2653483653563705E-003  -5.5250843030735242E-003   5.8271284298672232E-002
   2.5159090232259179E-003  -7.2192933389726432E-003   5.4242542410081751E-002
   2.7664696810954931E-003  -9.2990244715181747E-003   5.0215874924761428E-002
   3.0170303389650543E-003  -1.1764277700711201E-002   4.6191281842710818E-002
   4.5330226411531477E-002  -5.0505137843886438E-003  0.27689636436229187     
   3.7596047579485287E-002  -5.1496440722312853E-003  0.20251215636003977     
   2.9861868747439069E-002  -5.2825738051679588E-003  0.14528878571733031     
   2.2127689915392872E-002  -5.4493029831990981E-003  0.10522625243416335     
   1.4393511083346661E-002  -5.6498316063242626E-003   8.2324556510538716E-002
  -1.1676802811808593E-002  -3.7878853524525025E-003  0.19743530935202758     
  -6.0569674461433895E-003  -3.8622330629426715E-003  0.14966435207138173     
  -4.3713208047819682E-004  -3.9619303586555937E-003  0.11144058582661634     
   5.1827032851870028E-003  -4.0869772395913627E-003   8.2764010617731212E-002
   1.0802538650852213E-002  -4.2373737057499195E-003   6.3634626444726533E-002
  -3.8234183636553010E-002  -2.5252569205163333E-003  0.11799481198918012     
  -2.6873980396838460E-002  -2.5748220536540578E-003   9.6845555290011778E-002
  -1.5513777157123921E-002  -2.6412869121431107E-003   7.7629843303061830E-002
  -4.1535739174093835E-003  -2.7246514959836533E-003   6.0347676028330161E-002
   7.2066293223051539E-003  -2.8249158051755208E-003   4.4999053465816827E-002
  -3.4341916062701774E-002  -1.2626284885801781E-003   3.8574872273749394E-002
  -2.4854991272599949E-002  -1.2874110443654718E-003   4.4055766015930004E-002
  -1.5368066482498140E-002  -1.3206434656306311E-003   4.3856558146666877E-002
  -5.8811416923963212E-003  -1.3623257523758476E-003   3.7977248665960119E-002
   3.6057830977054960E-003  -1.4124579046010388E-003   2.6417837573809499E-002
  -9.0254886897511710E-011  -5.6644022805585337E-011  -4.0824509794264663E-002
  -7.3427847135931756E-011  -3.5076858084792661E-011  -8.7050157508635762E-003
  -5.6600821252139610E-011  -1.9118207017498889E-011   1.0120730357431579E-002
  -3.9773795368347464E-011  -8.7682083815820988E-012   1.5652728530620955E-002
  -2.2946769484555318E-011  -4.0267233991642115E-012   7.8909787687045929E-003
   1.4393511083346661E-002  -5.6498316063242626E-003   8.2324556510538716E-002
   1.6146762503553264E-002  -5.8045156972642287E-003   8.7919397979727670E-002
   1.7900013923759867E-002  -5.8337112787398004E-003   9.1663480910996437E-002
   1.9653265343966476E-002  -5.7374183507505130E-003   9.3556805304344959E-002
   2.1406516764173072E-002  -5.5156369132967620E-003   9.3599371159773181E-002
   1.0802538650852213E-002  -4.2373737057499195E-003   6.3634626444726533E-002
   1.1058142954013424E-002  -4.3533867735217474E-003   6.9687444884468222E-002
   1.1313747257174645E-002  -4.3752834592974896E-003   7.4595727628039413E-002
   1.1569351560335854E-002  -4.3030637630769291E-003   7.8359474675440105E-002
   1.1824955863497078E-002  -4.1367276848602863E-003   8.0978686026670244E-002
   7.2066293223051539E-003  -2.8249158051755208E-003   4.4999053465816827E-002
   6.6708093501707394E-003  -2.9022578497791413E-003   5.1478476748642775E-002
   6.1349893780363388E-003  -2.9168556398551787E-003   5.7519587177047957E-002
   5.5991694059019364E-003  -2.8687091754033452E-003   6.3122384751032379E-002
   5.0633494337675236E-003  -2.7578184564238939E-003   6.8286869470596173E-002
   3.6057830977054960E-003  -1.4124579046010388E-003   2.6417837573809499E-002
   2.9847616920252312E-003  -1.4511289260365975E-003   3.3292493572251163E-002
   2.3637402863449699E-003  -1.4584278204128956E-003   4.0435059558021944E-002
   1.7427188806647055E-003  -1.4343545877297890E-003   4.7845535531121766E-002
   1.1216974749844368E-003  -1.3789092279875431E-003   5.5523921491550492E-002
  -2.2946769484555318E-011  -4.0267233991642115E-012   7.8909787687045929E-003
  -2.0423128466173779E-011  -2.2940260802073453E-012   1.5129495355293621E-002
  -1.7899477039451384E-011  -9.7055696812731185E-013   2.3342144770961470E-002
  -1.5375832551622892E-011  -5.6149529470417292E-014   3.2528927015708142E-002
  -1.2852184594347449E-011   4.4891868000718205E-013   4.2689842089533470E-002
   2.1406516764173072E-002  -5.5156369132967620E-003   9.3599371159773181E-002
   2.0521796973113557E-002  -5.2340217022419644E-003   8.7882955039023603E-002
   1.9637077182054027E-002  -4.9582274534494541E-003   8.3072035211092576E-002
   1.8752357390994512E-002  -4.6882541669195990E-003   7.9166611675979881E-002
   1.7867637599934982E-002  -4.4241018426517953E-003   7.6166684433685850E-002
   1.1824955863497078E-002  -4.1367276848602863E-003   8.0978686026670244E-002
   1.1674653279110096E-002  -3.9255162765004237E-003   7.7906051948735316E-002
   1.1524350694723108E-002  -3.7186705898505090E-003   7.5396755991326642E-002
   1.1374048110336123E-002  -3.5161906249104799E-003   7.3450798154444691E-002
   1.1223745525949139E-002  -3.3180763816800796E-003   7.2068178438089603E-002
   5.0633494337675236E-003  -2.7578184564238939E-003   6.8286869470596173E-002
   5.3053058837612584E-003  -2.6170108507591605E-003   6.7859472676028015E-002
   5.5472623337549723E-003  -2.4791137262516610E-003   6.7653255829694600E-002
   5.7892187837486897E-003  -2.3441270829013573E-003   6.7668218931595969E-002
   6.0311752337424210E-003  -2.2120509207083916E-003   6.7904361981732289E-002
   1.1216974749844368E-003  -1.3789092279875431E-003   5.5523921491550492E-002
   1.4137547870670441E-003  -1.3085054250178141E-003   5.7743217220901984E-002
   1.7058120991496305E-003  -1.2395568626528200E-003   5.9841534726196480E-002
   1.9978694112322204E-003  -1.1720635408922365E-003   6.1818874007433869E-002
   2.2899267233148102E-003  -1.1060254597366342E-003   6.3675235064614186E-002
  -1.2852184594347449E-011   4.4891868000718205E-013   4.2689842089533470E-002
  -1.0972556196975347E-011   7.2361561187506140E-013   4.7557285583357256E-002
  -9.0929243301562934E-012   9.4609042822213496E-013   5.1961592680832114E-002
  -7.2132959327841917E-012   1.1168184432808204E-012   5.5902763381958029E-002
  -5.3336640659651380E-012   1.2351231148954867E-012   5.9380797686735098E-002
   1.7867637599934982E-002  -4.4241018426517953E-003   7.6166684433685850E-002
   1.6387272228500782E-002  -4.1593262229697725E-003   7.1912275211529653E-002
   1.4906906857066624E-002  -3.8874830501967467E-003   6.8499330304736289E-002
   1.3426541485632430E-002  -3.6085723243317984E-003   6.5927849713305633E-002
   1.1946176114198237E-002  -3.3225940453758263E-003   6.4197833437237728E-002
   1.1223745525949139E-002  -3.3180763816800796E-003   7.2068178438089603E-002
   1.0467001226720007E-002  -3.1194946668780255E-003   6.9153431863527265E-002
   9.7102569274908554E-003  -2.9156122872223689E-003   6.6844463118012537E-002
   8.9535126282617242E-003  -2.7064292427130543E-003   6.5141272201545197E-002
   8.1967683290325721E-003  -2.4919455333503593E-003   6.4043859114124968E-002
   6.0311752337424210E-003  -2.2120509207083916E-003   6.7904361981732289E-002
   5.7623655204029935E-003  -2.0796631107861119E-003   6.6327511166526187E-002
   5.4935558070635625E-003  -1.9437415242480535E-003   6.5120751694052126E-002
   5.2247460937241367E-003  -1.8042861610943119E-003   6.4284083564310243E-002
   4.9559363803847040E-003  -1.6612970213248923E-003   6.3817506777300331E-002
   2.2899267233148102E-003  -1.1060254597366342E-003   6.3675235064614186E-002
   2.2733651095497714E-003  -1.0398315546940595E-003   6.3434513120526309E-002
   2.2568034957847248E-003  -9.7187076127370695E-004   6.3328196032855277E-002
   2.2402418820196795E-003  -9.0214307947567973E-004   6.3356283801600952E-002
   2.2236802682546394E-003  -8.3064850929942535E-004   6.3518776426763096E-002
  -5.3336640659651380E-012   1.2351231148954867E-012   5.9380797686735098E-002
  -5.8396551483319570E-012   1.3977152768518408E-012   6.0474437725527685E-002
  -6.3456531695926799E-012   1.7005008512427366E-012   6.1466796134421742E-002
  -6.8516563950238307E-012   2.1431675878424983E-012   6.2357872913417156E-002
  -7.3576422732202218E-012   2.7260416146646094E-012   6.3147668062513818E-002
   1.1946176114198237E-002  -3.3225940453758263E-003   6.4197833437237728E-002
   1.0997908396375961E-002  -3.0281751455212280E-003   6.3740503599158671E-002
   1.0049640678553670E-002  -2.7239425569604570E-003   6.3690085140740371E-002
   9.1013729607313659E-003  -2.4098962796937767E-003   6.4046578061982634E-002
   8.1531052429090756E-003  -2.0860363137209514E-003   6.4809982362885377E-002
   8.1967683290325721E-003  -2.4919455333503593E-003   6.4043859114124968E-002
   7.6129508783547434E-003  -2.2711313583288484E-003   6.4061230977632944E-002
   7.0291334276769146E-003  -2.0429569168426004E-003   6.4400591995769002E-002
   6.4453159769990859E-003  -1.8074222088923127E-003   6.5061942168533365E-002
   5.8614985263212432E-003  -1.5645272344779748E-003   6.6045281495926311E-002
   4.9559363803847040E-003  -1.6612970213248923E-003   6.3817506777300331E-002
   4.6516469718190269E-003  -1.5140875711363577E-003   6.4307126920153126E-002
   4.3473575632533394E-003  -1.3619712767250769E-003   6.5033813992602024E-002
   4.0430681546876589E-003  -1.2049481380912927E-003   6.5997567994646872E-002
   3.7387787461219749E-003  -1.0430181552348872E-003   6.7198388926287711E-002
   2.2236802682546394E-003  -8.3064850929942535E-004   6.3518776426763096E-002
   2.1139966767687824E-003  -7.5704378394397809E-004   6.4478191426719345E-002
   2.0043130852829246E-003  -6.8098563660738687E-004   6.5589751131239382E-002
   1.8946294937970702E-003  -6.0247406728993966E-004   6.6853455540323140E-002
   1.7849459023112097E-003  -5.2150907599174401E-004   6.8269304653970339E-002
  -7.3576422732202218E-012   2.7260416146646094E-012   6.3147668062513818E-002
  -6.7959873839562590E-012   3.2486235923556706E-012   6.4574424497332028E-002
  -6.2343186169044884E-012   3.5102476481085887E-012   6.6068403411681298E-002
  -5.6726550540231457E-012   3.5111774598917123E-012   6.7629604805562071E-002
  -5.1109949605887550E-012   3.2512881276147709E-012   6.9258028678974126E-002
   8.1531052429090756E-003  -2.0860363137209514E-003   6.4809982362885377E-002
   7.1306791056496011E-003  -1.8157416949639016E-003   6.4313335102964220E-002
   6.1082529683901127E-003  -1.6623914593441036E-003   6.4162996540654493E-002
   5.0858268311306243E-003  -1.6259856068620016E-003   6.4358966675955642E-002
   4.0634006938711498E-003  -1.7065241375167073E-003   6.4901245508868333E-002
   5.8614985263212432E-003  -1.5645272344779748E-003   6.6045281495926311E-002
   5.1627055458961790E-003  -1.3618062704983114E-003   6.5592519296380936E-002
   4.4639125654711356E-003  -1.2467935938527130E-003   6.5440714712893422E-002
   3.7651195850460714E-003  -1.2194892045417072E-003   6.5589867745463132E-002
   3.0663266046210141E-003  -1.2798931025647109E-003   6.6039978394090759E-002
   3.7387787461219749E-003  -1.0430181552348872E-003   6.7198388926287711E-002
   3.3182678409776588E-003  -9.0787084603255463E-004   6.6818747882921581E-002
   2.8977569358333496E-003  -8.3119572836154454E-004   6.6694713374059300E-002
   2.4772460306890509E-003  -8.1299280222174586E-004   6.6826285399701008E-002
   2.0567351255447244E-003  -8.5326206761293655E-004   6.7213463959846509E-002
   1.7849459023112097E-003  -5.2150907599174401E-004   6.8269304653970339E-002
   1.5973659908939961E-003  -4.5393542156699218E-004   6.7992020862586405E-002
   1.4097860794767755E-003  -4.1559786286993194E-004   6.7924992524152517E-002
   1.2222061680595558E-003  -4.0649639990184006E-004   6.8068219638668825E-002
   1.0346262566423414E-003  -4.2663103266116220E-004   6.8421702206135457E-002
  -5.1109949605887550E-012   3.2512881276147709E-012   6.9258028678974126E-002
  -4.3547943029409453E-012   2.8988478284475150E-012   6.9112338235375215E-002
  -3.5986040536339914E-012   2.6212365611399946E-012   6.9131552163172960E-002
  -2.8424120696035615E-012   2.4183433033897472E-012   6.9315670462366974E-002
  -2.0862131466792277E-012   2.2907231667090855E-012   6.9664693132957978E-002
   4.0634006938711498E-003  -1.7065241375167073E-003   6.4901245508868333E-002
   3.5512474472750577E-003  -1.9676492558283187E-003   6.4101965680913198E-002
   3.0390942006789518E-003  -2.4730031663162122E-003   6.3402348251872132E-002
   2.5269409540828527E-003  -3.2225858689804293E-003   6.2802393221745134E-002
   2.0147877074867815E-003  -4.2163973638214003E-003   6.2302100590532428E-002
   3.0663266046210141E-003  -1.2798931025647109E-003   6.6039978394090759E-002
   2.6609297351371658E-003  -1.4757369413118671E-003   6.5021574961362072E-002
   2.2555328656533036E-003  -1.8547523741743177E-003   6.4117021883943554E-002
   1.8501359961694414E-003  -2.4169394011503420E-003   6.3326319161835440E-002
   1.4447391266855930E-003  -3.1622980222412167E-003   6.2649466795037578E-002
   2.0567351255447244E-003  -8.5326206761293655E-004   6.7213463959846509E-002
   1.7722825895692476E-003  -9.8382462679605376E-004   6.6036994120406173E-002
   1.4878300535937639E-003  -1.2365015820318959E-003   6.4988562592672328E-002
   1.2033775176182888E-003  -1.6112929333202616E-003   6.4068169376644779E-002
   9.1892498164280328E-004  -2.1081986806614772E-003   6.3275814472323666E-002
   1.0346262566423414E-003  -4.2663103266116220E-004   6.8421702206135457E-002
   8.8530601057134999E-004  -4.9191231227986576E-004   6.7148223158045542E-002
   7.3598576450037076E-004  -6.1825078988973770E-004   6.6016970378057760E-002
   5.8666551842938503E-004  -8.0564646549006677E-004   6.5027943866172777E-002
   4.3734527235841404E-004  -1.0540993390814046E-003   6.4181143622390219E-002
  -2.0862131466792277E-012   2.2907231667090855E-012   6.9664693132957978E-002
  -1.8565565751416102E-012   2.2362112161999903E-012   6.8355262074279888E-002
  -1.6269000036039927E-012   2.2522261833302082E-012   6.7202245240100378E-002
  -1.3972434320663751E-012   2.3398574744426526E-012   6.6205642630419753E-002
  -1.1675868605287576E-012   2.4982238500115272E-012   6.5365454245237986E-002
   2.0147877074867815E-003  -4.2163973638214003E-003   6.2302100590532428E-002
   2.2653483653563705E-003  -5.5250843030735242E-003   5.8271284298672232E-002
   2.5159090232259179E-003  -7.2192933389726432E-003   5.4242542410081751E-002
   2.7664696810954931E-003  -9.2990244715181747E-003   5.0215874924761428E-002
   3.0170303389650543E-003  -1.1764277700711201E-002   4.6191281842710818E-002
   1.4447391266855930E-003  -3.1622980222412167E-003   6.2649466795037578E-002
   1.6811955458920780E-003  -4.1438132266170546E-003   5.8309374462451435E-002
   1.9176519650985352E-003  -5.4144700034486626E-003   5.3938999249269204E-002
   2.1541083843050202E-003  -6.9742683527354646E-003   4.9538341155490967E-002
   2.3905648035114913E-003  -8.8232082744783558E-003   4.5107400181116697E-002
   9.1892498164280328E-004  -2.1081986806614772E-003   6.3275814472323666E-002
   1.1089198783201144E-003  -2.7625421501609737E-003   5.8722826623203078E-002
   1.2989147749974360E-003  -3.6096466679249040E-003   5.4107198609620155E-002
   1.4889096716747575E-003  -4.6495122339529765E-003   4.9428930431575022E-002
   1.6789045683520826E-003  -5.8821388482455106E-003   4.4688022089068191E-002
   4.3734527235841404E-004  -1.0540993390814046E-003   6.4181143622390219E-002
   5.4852136264050676E-004  -1.3812710737048095E-003   5.9511640780926293E-002
   6.5969745292259168E-004  -1.8048233324010343E-003   5.4747140491134078E-002
   7.7087354320466445E-004  -2.3247561151702664E-003   4.9887642753013363E-002
   8.8204963348676932E-004  -2.9410694220126654E-003   4.4933147566564663E-002
  -1.1675868605287576E-012   2.4982238500115272E-012   6.5365454245237986E-002
  -1.1467909954987476E-012   2.7516877665334505E-012   6.0675816935621629E-002
  -1.1260020693626416E-012   3.1226687902119465E-012   5.5858824893811221E-002
  -1.1052096737795836E-012   3.6124020441619109E-012   5.0914478119806594E-002
  -1.0844103393026217E-012   4.2201797612051450E-012   4.5842776613607583E-002
  -9.0254886897511710E-011  -5.6644022805585337E-011  -4.0824509794264663E-002
  -7.3427847135931756E-011  -3.5076858084792661E-011  -8.7050157508635762E-003
  -5.6600821252139610E-011  -1.9118207017498889E-011   1.0120730357431579E-002
  -3.9773795368347464E-011  -8.7682083815820988E-012   1.5652728530620955E-002
  -2.2946769484555318E-011  -4.0267233991642115E-012   7.8909787687045929E-003
   3.4341915893197336E-002   1.2626283743321087E-003   3.8574872241757541E-002
   2.4854991134457299E-002   1.2874109725765637E-003   4.4055765992599527E-002
   1.5368066375717304E-002   1.3206434254040555E-003   4.3856558127413320E-002
   5.8811416169772812E-003   1.3623257328145011E-003   3.7977248646198863E-002
  -3.6057831417627279E-003   1.4124578948081501E-003   2.6417837548956102E-002
   3.8234183500064460E-002   2.5252568053082958E-003  0.11799481192436140     
   2.6873980284834974E-002   2.5748219802299993E-003   9.6845555242835835E-002
   1.5513777069605512E-002   2.6412868699263459E-003   7.7629843264359871E-002
   4.1535738543760099E-003   2.7246514743972661E-003   6.0347675988932981E-002
  -7.2066293608534504E-003   2.8249157936428848E-003   4.4999053416555454E-002
   1.1676802730346608E-002   3.7878852362844828E-003  0.19743530925354644     
   6.0569673777051882E-003   3.8622329878834349E-003  0.14966435199984540     
   4.3713202506380933E-004   3.9619303144486778E-003  0.11144058576827080     
  -5.1827033275775973E-003   4.0869772159800033E-003   8.2764010558823348E-002
  -1.0802538680218989E-002   4.2373736924776056E-003   6.3634626371502689E-002
  -4.5330226415956354E-002   5.0505136672606143E-003  0.27689636422931319     
  -3.7596047586932080E-002   5.1496439955368012E-003  0.20251215626362773     
  -2.9861868757907820E-002   5.2825737589709543E-003  0.14528878563914660     
  -2.2127689928883552E-002   5.4493029575626573E-003  0.10522625235587002     
  -1.4393511099859285E-002   5.6498315913124375E-003   8.2324556413797823E-002
  -2.2946769484555318E-011  -4.0267233991642115E-012   7.8909787687045929E-003
  -2.0423128466173779E-011  -2.2940260802073453E-012   1.5129495355293621E-002
  -1.7899477039451384E-011  -9.7055696812731185E-013   2.3342144770961470E-002
  -1.5375832551622892E-011  -5.6149529470417292E-014   3.2528927015708142E-002
  -1.2852184594347449E-011   4.4891868000718205E-013   4.2689842089533470E-002
  -3.6057831417627279E-003   1.4124578948081501E-003   2.6417837548956102E-002
  -2.9847617312190704E-003   1.4511289200856980E-003   3.3292493549999691E-002
  -2.3637403206754112E-003   1.4584278173490894E-003   4.0435059538004539E-002
  -1.7427189101317624E-003   1.4343545865972904E-003   4.7845535512970612E-002
  -1.1216974995880945E-003   1.3789092278311266E-003   5.5523921474897903E-002
  -7.2066293608534504E-003   2.8249157936428848E-003   4.4999053416555454E-002
  -6.6708093844073529E-003   2.9022578424656859E-003   5.1478476704448162E-002
  -6.1349894079612615E-003   2.9168556356684583E-003   5.7519587137184386E-002
  -5.5991694315151528E-003   2.8687091732510078E-003   6.3122384714764376E-002
  -5.0633494550690588E-003   2.7578184552133622E-003   6.8286869437187994E-002
  -1.0802538680218989E-002   4.2373736924776056E-003   6.3634626371502689E-002
  -1.1058142979987995E-002   4.3533867648455696E-003   6.9687444818638866E-002
  -1.1313747279757008E-002   4.3752834539878827E-003   7.4595727568501233E-002
  -1.1569351579526026E-002   4.3030637599045865E-003   7.8359474621089720E-002
  -1.1824955879295027E-002   4.1367276825956950E-003   8.0978685976404216E-002
  -1.4393511099859285E-002   5.6498315913124375E-003   8.2324556413797823E-002
  -1.6146762517960982E-002   5.8045156872253978E-003   8.7919397892572027E-002
  -1.7900013936062671E-002   5.8337112723073486E-003   9.1663480831954858E-002
  -1.9653265354164375E-002   5.7374183465583005E-003   9.3556805231946219E-002
  -2.1406516772266057E-002   5.5156369099778058E-003   9.3599371092546180E-002
  -1.2852184594347449E-011   4.4891868000718205E-013   4.2689842089533470E-002
  -1.0972556196975347E-011   7.2361561187506140E-013   4.7557285583357256E-002
  -9.0929243301562934E-012   9.4609042822213496E-013   5.1961592680832114E-002
  -7.2132959327841917E-012   1.1168184432808204E-012   5.5902763381958029E-002
  -5.3336640659651380E-012   1.2351231148954867E-012   5.9380797686735098E-002
  -1.1216974995880945E-003   1.3789092278311266E-003   5.5523921474897903E-002
  -1.4137548080965096E-003   1.3085054253491046E-003   5.7743217206202929E-002
  -1.7058121166049264E-003   1.2395568634503695E-003   5.9841534713080749E-002
  -1.9978694251133449E-003   1.1720635421345674E-003   6.1818873995531425E-002
  -2.2899267336217582E-003   1.1060254614017606E-003   6.3675235053554768E-002
  -5.0633494550690588E-003   2.7578184552133622E-003   6.8286869437187994E-002
  -5.3053059020438387E-003   2.6170108499748851E-003   6.7859472646609492E-002
  -5.5472623490186333E-003   2.4791137259545307E-003   6.7653255803525464E-002
  -5.7892187959934201E-003   2.3441270831523146E-003   6.7668218907935909E-002
  -6.0311752429681939E-003   2.2120509215682316E-003   6.7904361959840648E-002
  -1.1824955879295027E-002   4.1367276825956950E-003   8.0978685976404216E-002
  -1.1674653292814524E-002   3.9255162746005753E-003   7.7906051904577056E-002
  -1.1524350706334022E-002   3.7186705884586398E-003   7.5396755952166300E-002
  -1.1374048119853510E-002   3.5161906241700626E-003   7.3450798119171448E-002
  -1.1223745533373018E-002   3.3180763817346748E-003   7.2068178405592931E-002
  -2.1406516772266057E-002   5.5156369099778058E-003   9.3599371092546180E-002
  -2.0521796980408583E-002   5.2340216992261823E-003   8.7882954980105676E-002
  -1.9637077188551108E-002   4.9582274509629709E-003   8.3072035159003077E-002
  -1.8752357396693630E-002   4.6882541651878384E-003   7.9166611629238298E-002
  -1.7867637604836159E-002   4.4241018419012290E-003   7.6166684390811312E-002
  -5.3336640659651380E-012   1.2351231148954867E-012   5.9380797686735098E-002
  -5.8396551483319570E-012   1.3977152768518408E-012   6.0474437725527685E-002
  -6.3456531695926799E-012   1.7005008512427366E-012   6.1466796134421742E-002
  -6.8516563950238307E-012   2.1431675878424983E-012   6.2357872913417156E-002
  -7.3576422732202218E-012   2.7260416146646094E-012   6.3147668062513818E-002
  -2.2899267336217582E-003   1.1060254614017606E-003   6.3675235053554768E-002
  -2.2733651208111869E-003   1.0398315568389271E-003   6.3434513110452700E-002
  -2.2568035080006328E-003   9.7187076403279504E-004   6.3328196023882205E-002
  -2.2402418951900606E-003   9.0214308298388474E-004   6.3356283793843574E-002
  -2.2236802823794935E-003   8.3064851369135662E-004   6.3518776420336653E-002
  -6.0311752429681939E-003   2.2120509215682316E-003   6.7904361959840648E-002
  -5.7623655304107294E-003   2.0796631122800002E-003   6.6327511146460627E-002
  -5.4935558178532424E-003   1.9437415263653807E-003   6.5120751676042518E-002
  -5.2247461052957571E-003   1.8042861638241058E-003   6.4284083548586612E-002
  -4.9559363927382909E-003   1.6612970246564496E-003   6.3817506764092757E-002
  -1.1223745533373018E-002   3.3180763817346748E-003   7.2068178405592931E-002
  -1.0467001234638250E-002   3.1194946677211982E-003   6.9153431833551299E-002
  -9.7102569359035079E-003   2.9156122886978206E-003   6.6844463090902362E-002
  -8.9535126371687451E-003   2.7064292446646859E-003   6.5141272177645829E-002
  -8.1967683384339945E-003   2.4919455356218201E-003   6.4043859093781505E-002
  -1.7867637604836159E-002   4.4241018419012290E-003   7.6166684390811312E-002
  -1.6387272233493774E-002   4.1593262231622297E-003   7.1912275171725215E-002
  -1.4906906862151403E-002   3.8874830510302050E-003   6.8499330268462055E-002
  -1.3426541490809022E-002   3.6085723255049745E-003   6.5927849681021611E-002
  -1.1946176119466648E-002   3.3225940465868575E-003   6.4197833409403993E-002
  -7.3576422732202218E-012   2.7260416146646094E-012   6.3147668062513818E-002
  -6.7959873839562590E-012   3.2486235923556706E-012   6.4574424497332028E-002
  -6.2343186169044884E-012   3.5102476481085887E-012   6.6068403411681298E-002
  -5.6726550540231457E-012   3.5111774598917123E-012   6.7629604805562071E-002
  -5.1109949605887550E-012   3.2512881276147709E-012   6.9258028678974126E-002
  -2.2236802823794935E-003   8.3064851369135662E-004   6.3518776420336653E-002
  -2.1139966898284721E-003   7.5704378910640413E-004   6.4478191420974551E-002
  -2.0043130972774471E-003   6.8098564218029012E-004   6.5589751126060025E-002
  -1.8946295047264179E-003   6.0247407291240743E-004   6.6853455535592882E-002
  -1.7849459121754008E-003   5.2150908130343954E-004   6.8269304649573037E-002
  -4.9559363927382909E-003   1.6612970246564496E-003   6.3817506764092757E-002
  -4.6516469832818845E-003   1.5140875749645732E-003   6.4307126908469889E-002
  -4.3473575738254841E-003   1.3619712808503326E-003   6.5033813982210559E-002
  -4.0430681643690812E-003   1.2049481423141925E-003   6.5997567985314545E-002
  -3.7387787549126774E-003   1.0430181593556465E-003   6.7198388917781959E-002
  -8.1967683384339945E-003   2.4919455356218201E-003   6.4043859093781505E-002
  -7.6129508871562307E-003   2.2711313608226036E-003   6.4061230959817514E-002
  -7.0291334358784461E-003   2.0429569195204306E-003   6.4400591980132760E-002
  -6.4453159846006684E-003   1.8074222117156445E-003   6.5061942154727451E-002
  -5.8614985333228977E-003   1.5645272374078256E-003   6.6045281483601392E-002
  -1.1946176119466648E-002   3.3225940465868575E-003   6.4197833409403993E-002
  -1.0997908401451491E-002   3.0281751466805784E-003   6.3740503575017593E-002
  -1.0049640683436334E-002   2.7239425581904453E-003   6.3690085119826656E-002
  -9.1013729654211700E-003   2.4098962811172145E-003   6.4046578043831182E-002
  -8.1531052474060131E-003   2.0860363154598938E-003   6.4809982347031059E-002
  -5.1109949605887550E-012   3.2512881276147709E-012   6.9258028678974126E-002
  -4.3547943029409453E-012   2.8988478284475150E-012   6.9112338235375215E-002
  -3.5986040536339914E-012   2.6212365611399946E-012   6.9131552163172960E-002
  -2.8424120696035615E-012   2.4183433033897472E-012   6.9315670462366974E-002
  -2.0862131466792277E-012   2.2907231667090855E-012   6.9664693132957978E-002
  -1.7849459121754008E-003   5.2150908130343954E-004   6.8269304649573037E-002
  -1.5973659993161228E-003   4.5393542644017737E-004   6.7992020858961499E-002
  -1.4097860864568396E-003   4.1559786740935634E-004   6.7924992521159661E-002
  -1.2222061735975573E-003   4.0649640421179523E-004   6.8068219636167424E-002
  -1.0346262607382785E-003   4.2663103684670300E-004   6.8421702203984580E-002
  -3.7387787549126774E-003   1.0430181593556465E-003   6.7198388917781959E-002
  -3.3182678485373417E-003   9.0787084998147916E-004   6.6818747875915824E-002
  -2.8977569421619860E-003   8.3119573219780918E-004   6.6694713368272235E-002
  -2.4772460357866378E-003   8.1299280600513613E-004   6.6826285394851345E-002
  -2.0567351294112808E-003   8.5326207140273835E-004   6.7213463955653002E-002
  -5.8614985333228977E-003   1.5645272374078256E-003   6.6045281483601392E-002
  -5.1627055520184753E-003   1.3618062735227948E-003   6.5592519286238327E-002
  -4.4639125707140537E-003   1.2467935969865396E-003   6.5440714704511085E-002
  -3.7651195894096291E-003   1.2194892077983105E-003   6.5589867738419433E-002
  -3.0663266081052106E-003   1.2798931059589680E-003   6.6039978387962966E-002
  -8.1531052474060131E-003   2.0860363154598938E-003   6.4809982347031059E-002
  -7.1306791097595218E-003   1.8157416970642215E-003   6.4313335089929091E-002
  -6.1082529721130305E-003   1.6623914617744651E-003   6.4162996529875671E-002
  -5.0858268344665461E-003   1.6259856095916722E-003   6.4358966666871048E-002
  -4.0634006968200478E-003   1.7065241405147535E-003   6.4901245500914806E-002
  -2.0862131466792277E-012   2.2907231667090855E-012   6.9664693132957978E-002
  -1.8565565751416102E-012   2.2362112161999903E-012   6.8355262074279888E-002
  -1.6269000036039927E-012   2.2522261833302082E-012   6.7202245240100378E-002
  -1.3972434320663751E-012   2.3398574744426526E-012   6.6205642630419753E-002
  -1.1675868605287576E-012   2.4982238500115272E-012   6.5365454245237986E-002
  -1.0346262607382785E-003   4.2663103684670300E-004   6.8421702203984580E-002
  -8.8530601421857660E-004   4.9191231645007161E-004   6.7148223156164200E-002
  -7.3598576769886952E-004   6.1825079415642192E-004   6.6016970376425010E-002
  -5.8666552117915809E-004   8.0564646996591355E-004   6.5027943864767401E-002
  -4.3734527465946055E-004   1.0540993438791224E-003   6.4181143621191317E-002
  -2.0567351294112808E-003   8.5326207140273835E-004   6.7213463955653002E-002
  -1.7722825930188276E-003   9.8382463066370995E-004   6.6036994116722258E-002
  -1.4878300566263675E-003   1.2365015860601597E-003   6.4988562589455859E-002
  -1.2033775202339083E-003   1.6112929375919662E-003   6.4068169373853401E-002
  -9.1892498384144039E-004   2.1081986852596879E-003   6.3275814469915259E-002
  -3.0663266081052106E-003   1.2798931059589680E-003   6.6039978387962966E-002
  -2.6609297382573088E-003   1.4757369448775703E-003   6.5021574955954509E-002
  -2.2555328684093997E-003   1.8547523779642375E-003   6.4117021879192826E-002
  -1.8501359985614876E-003   2.4169394052182425E-003   6.3326319157677766E-002
  -1.4447391287135888E-003   3.1622980266404199E-003   6.2649466791409772E-002
  -4.0634006968200478E-003   1.7065241405147535E-003   6.4901245500914806E-002
  -3.5512474499340071E-003   1.9676492590912087E-003   6.4101965673860617E-002
  -3.0390942030479595E-003   2.4730031698680932E-003   6.3402348245635953E-002
  -2.5269409561619136E-003   3.2225858728440748E-003   6.2802393216240870E-002
  -2.0147877092758712E-003   4.2163973680209299E-003   6.2302100585674980E-002
  -1.1675868605287576E-012   2.4982238500115272E-012   6.5365454245237986E-002
  -1.1467909954987476E-012   2.7516877665334505E-012   6.0675816935621629E-002
  -1.1260020693626416E-012   3.1226687902119465E-012   5.5858824893811221E-002
  -1.1052096737795836E-012   3.6124020441619109E-012   5.0914478119806594E-002
  -1.0844103393026217E-012   4.2201797612051450E-012   4.5842776613607583E-002
  -4.3734527465946055E-004   1.0540993438791224E-003   6.4181143621191317E-002
  -5.4852136490387074E-004   1.3812710789919413E-003   5.9511640780021358E-002
  -6.5969745514829134E-004   1.8048233384005963E-003   5.4747140490515378E-002
  -7.7087354539269980E-004   2.3247561221061142E-003   4.9887642752673211E-002
  -8.8204963563712213E-004   2.9410694301073015E-003   4.4933147566494913E-002
  -9.1892498384144039E-004   2.1081986852596879E-003   6.3275814469915259E-002
  -1.1089198804928400E-003   2.7625421552322504E-003   5.8722826621369406E-002
  -1.2989147771442274E-003   3.6096466736787181E-003   5.4107198608345813E-002
  -1.4889096737956157E-003   4.6495122405994863E-003   4.9428930430844176E-002
  -1.6789045704470144E-003   5.8821388559946453E-003   4.4688022088864798E-002
  -1.4447391287135888E-003   3.1622980266404199E-003   6.2649466791409772E-002
  -1.6811955479137234E-003   4.1438132314723097E-003   5.8309374459665886E-002
  -1.9176519671138376E-003   5.4144700089566317E-003   5.3938999247302950E-002
  -2.1541083863139765E-003   6.9742683590931394E-003   4.9538341154319779E-002
  -2.3905648055140864E-003   8.8232082818818780E-003   4.5107400180717738E-002
  -2.0147877092758712E-003   4.2163973680209299E-003   6.2302100585674980E-002
  -2.2653483671664851E-003   5.5250843077129241E-003   5.8271284294911685E-002
  -2.5159090250571094E-003   7.2192933442346008E-003   5.4242542407386796E-002
  -2.7664696829477337E-003   9.2990244775867509E-003   5.0215874923100812E-002
  -3.0170303408383475E-003   1.1764277707769111E-002   4.6191281842053122E-002
  -4.5330226415956354E-002   5.0505136672606143E-003  0.27689636422931319     
  -3.7596047586932080E-002   5.1496439955368012E-003  0.20251215626362773     
  -2.9861868757907820E-002   5.2825737589709543E-003  0.14528878563914660     
  -2.2127689928883552E-002   5.4493029575626573E-003  0.10522625235587002     
  -1.4393511099859285E-002   5.6498315913124375E-003   8.2324556413797823E-002
 -0.10048308371205911        1.1083441954422235E-002  0.17760621721307843     
  -7.9798341324182898E-002   9.2950836806243720E-003  0.13350196436518813     
  -5.9113598936306785E-002   8.1373996179930630E-003   9.8138001293796975E-002
  -3.8428856548430652E-002   7.6103897665283429E-003   7.1514327998905225E-002
  -1.7744114160554485E-002   7.7140541262302742E-003   5.3630944480512838E-002
 -0.12147794893117633        1.7116370241583828E-002   7.6130144206765310E-002
  -9.6263190549153416E-002   1.3440523365711818E-002   6.2902721252678900E-002
  -7.1048432167130540E-002   1.0992225477015255E-002   4.9995040510386515E-002
  -4.5833673785107623E-002   9.7714765754940563E-003   3.7407101979888419E-002
  -2.0618915403084737E-002   9.7782766611482497E-003   2.5138905661184485E-002
 -0.10831482207330809        2.3149298528745421E-002  -2.7531854789626435E-002
  -8.6990595261843537E-002   1.7585963050799368E-002  -9.2855730739001691E-003
  -6.5666368450379042E-002   1.3847051336037433E-002   8.5990328891504333E-004
  -4.4342141638914499E-002   1.1932563384459645E-002   2.9045742988193339E-003
  -2.3017914827449991E-002   1.1842499196066211E-002  -3.1515600441872627E-003
  -6.0993703138454369E-002   2.9182226815907042E-002 -0.13337977977609650     
  -5.1980555462253331E-002   2.1731402735886779E-002  -8.3062918614548897E-002
  -4.2967407786052320E-002   1.6701877195059583E-002  -4.9267410370617243E-002
  -3.3954260109851309E-002   1.4093650193425365E-002  -3.1993255044301727E-002
  -2.4941112433650284E-002   1.3906721730984117E-002  -3.1240452635602267E-002
  -1.4393511099859285E-002   5.6498315913124375E-003   8.2324556413797823E-002
  -1.6146762517960982E-002   5.8045156872253978E-003   8.7919397892572027E-002
  -1.7900013936062671E-002   5.8337112723073486E-003   9.1663480831954858E-002
  -1.9653265354164375E-002   5.7374183465583005E-003   9.3556805231946219E-002
  -2.1406516772266057E-002   5.5156369099778058E-003   9.3599371092546180E-002
  -1.7744114160554485E-002   7.7140541262302742E-003   5.3630944480512838E-002
  -2.0973816666169785E-002   8.0237766386004050E-003   5.9903872020999144E-002
  -2.4203519171785082E-002   8.1149412451399089E-003   6.5074655925849823E-002
  -2.7433221677400414E-002   7.9875479458492611E-003   6.9143296195064707E-002
  -3.0662924183015677E-002   7.6415967407281182E-003   7.2109792828643743E-002
  -2.0618915403084737E-002   9.7782766611482497E-003   2.5138905661184485E-002
  -2.4576454092457956E-002   1.0243037589975246E-002   3.1996849868383609E-002
  -2.8533992781831125E-002   1.0396171217972698E-002   3.8501265343702788E-002
  -3.2491531471204302E-002   1.0237677545140446E-002   4.4652152087142002E-002
  -3.6449070160577510E-002   9.7675565714784862E-003   5.0449510098700995E-002
  -2.3017914827449991E-002   1.1842499196066211E-002  -3.1515600441872627E-003
  -2.6954674796825354E-002   1.2462298541350225E-002   4.1983314347254670E-003
  -3.0891434766200734E-002   1.2677401190805373E-002   1.1943309085513934E-002
  -3.4828194735576128E-002   1.2487807144431519E-002   2.0083372908178021E-002
  -3.8764954704951476E-002   1.1893516402228826E-002   2.8618522902717769E-002
  -2.4941112433650284E-002   1.3906721730984117E-002  -3.1240452635602267E-002
  -2.8108478779272139E-002   1.4681559492725066E-002  -2.3491683279975223E-002
  -3.1275845124893967E-002   1.4958631163637964E-002  -1.4599212848716833E-002
  -3.4443211470515801E-002   1.4737936743722625E-002  -4.5630413418270566E-003
  -3.7610577816137650E-002   1.4019476232979111E-002   6.6168312406941210E-003
  -2.1406516772266057E-002   5.5156369099778058E-003   9.3599371092546180E-002
  -2.0521796980408583E-002   5.2340216992261823E-003   8.7882954980105676E-002
  -1.9637077188551108E-002   4.9582274509629709E-003   8.3072035159003077E-002
  -1.8752357396693630E-002   4.6882541651878384E-003   7.9166611629238298E-002
  -1.7867637604836159E-002   4.4241018419012290E-003   7.6166684390811312E-002
  -3.0662924183015677E-002   7.6415967407281182E-003   7.2109792828643743E-002
  -2.9070017737597854E-002   7.1865678178135994E-003   6.9669440227979523E-002
  -2.7477111292180049E-002   6.7319413651422966E-003   6.7739964643098241E-002
  -2.5884204846762227E-002   6.2777173827141750E-003   6.6321366073999799E-002
  -2.4291298401344398E-002   5.8238958705296162E-003   6.5413644520684378E-002
  -3.6449070160577510E-002   9.7675565714784862E-003   5.0449510098700995E-002
  -3.4542596337154251E-002   9.1391139364008916E-003   5.1279802517567932E-002
  -3.2636122513730985E-002   8.5056552793216222E-003   5.2226352676662924E-002
  -3.0729648690307743E-002   7.8671806002406225E-003   5.3289160575985692E-002
  -2.8823174866884450E-002   7.2236898991579479E-003   5.4468226215536597E-002
  -3.8764954704951476E-002   1.1893516402228826E-002   2.8618522902717769E-002
  -3.6939532779077716E-002   1.1091660054988191E-002   3.2714041848870924E-002
  -3.5114110853203935E-002   1.0279369193500920E-002   3.6531199259697125E-002
  -3.3288688927330168E-002   9.4566438177670700E-003   4.0069995135196372E-002
  -3.1463267001456408E-002   8.6234839277863073E-003   4.3330429475368554E-002
  -3.7610577816137650E-002   1.4019476232979111E-002   6.6168312406941210E-003
  -3.6260827063368264E-002   1.3044206173575629E-002   1.3972158221888353E-002
  -3.4911076310598886E-002   1.2053083107680315E-002   2.0654504392200790E-002
  -3.3561325557829508E-002   1.1046107035293472E-002   2.6663869751631222E-002
  -3.2211574805060122E-002   1.0023277956414667E-002   3.2000254300179942E-002
  -1.7867637604836159E-002   4.4241018419012290E-003   7.6166684390811312E-002
  -1.6387272233493774E-002   4.1593262231622297E-003   7.1912275171725215E-002
  -1.4906906862151403E-002   3.8874830510302050E-003   6.8499330268462055E-002
  -1.3426541490809022E-002   3.6085723255049745E-003   6.5927849681021611E-002
  -1.1946176119466648E-002   3.3225940465868575E-003   6.4197833409403993E-002
  -2.4291298401344398E-002   5.8238958705296162E-003   6.5413644520684378E-002
  -2.2125439905775021E-002   5.3802571573565439E-003   6.2901496228164072E-002
  -1.9959581410205658E-002   4.9565815719636724E-003   6.0918869868274994E-002
  -1.7793722914636271E-002   4.5528691143505474E-003   5.9465765441017296E-002
  -1.5627864419066918E-002   4.1691197845176164E-003   5.8542182946390686E-002
  -2.8823174866884450E-002   7.2236898991579479E-003   5.4468226215536597E-002
  -2.6283765630279707E-002   6.6011880915509413E-003   5.3725369530755337E-002
  -2.3744356393674941E-002   6.0256800928970289E-003   5.3200092395413609E-002
  -2.1204947157070188E-002   5.4971659031961204E-003   5.2892394809511523E-002
  -1.8665537920465432E-002   5.0156455224482643E-003   5.2802276773048967E-002
  -3.1463267001456408E-002   8.6234839277863073E-003   4.3330429475368554E-002
  -2.8862249407007823E-002   7.8221190257453527E-003   4.4383895079499219E-002
  -2.6261231812559328E-002   7.0947786138304963E-003   4.5342997849877761E-002
  -2.3660214218110778E-002   6.4414626920416933E-003   4.6207737786504541E-002
  -2.1059196623662249E-002   5.8621712603788012E-003   4.6978114889379120E-002
  -3.2211574805060122E-002   1.0023277956414667E-002   3.2000254300179942E-002
  -2.9860891235959447E-002   9.0430499599395420E-003   3.4877072874395620E-002
  -2.7510207666858716E-002   8.1638771347640193E-003   3.7347586231667562E-002
  -2.5159524097758006E-002   7.3857594808872801E-003   3.9411794371995906E-002
  -2.2808840528657309E-002   6.7086969983095601E-003   4.1069697295380569E-002
  -1.1946176119466648E-002   3.3225940465868575E-003   6.4197833409403993E-002
  -1.0997908401451491E-002   3.0281751466805784E-003   6.3740503575017593E-002
  -1.0049640683436334E-002   2.7239425581904453E-003   6.3690085119826656E-002
  -9.1013729654211700E-003   2.4098962811172145E-003   6.4046578043831182E-002
  -8.1531052474060131E-003   2.0860363154598938E-003   6.4809982347031059E-002
  -1.5627864419066918E-002   4.1691197845176164E-003   5.8542182946390686E-002
  -1.4339308173673803E-002   3.7888152403610098E-003   5.8650801435883304E-002
  -1.3050751928280709E-002   3.3954371397773297E-003   5.9033085600936341E-002
  -1.1762195682887574E-002   2.9889854827665555E-003   5.9689035441549923E-002
  -1.0473639437494502E-002   2.5694602693284718E-003   6.0618650957724063E-002
  -1.8665537920465432E-002   5.0156455224482643E-003   5.2802276773048967E-002
  -1.7169938851329274E-002   4.5494553340415245E-003   5.3473583718576884E-002
  -1.5674339782193111E-002   4.0669317213640893E-003   5.4285310636030440E-002
  -1.4178740713056965E-002   3.5680746844160040E-003   5.5237457525409574E-002
  -1.2683141643920818E-002   3.0528842231969944E-003   5.6330024386714389E-002
  -2.1059196623662249E-002   5.8621712603788012E-003   4.6978114889379120E-002
  -1.9489800434417920E-002   5.3100954277221085E-003   4.8208850423098658E-002
  -1.7920404245173601E-002   4.7384263029509668E-003   4.9446760225108993E-002
  -1.6351008055929268E-002   4.1471638860653432E-003   5.0691844295410120E-002
  -1.4781611866684953E-002   3.5363081770653226E-003   5.1944102634001878E-002
  -2.2808840528657309E-002   6.7086969983095601E-003   4.1069697295380569E-002
  -2.1298892922939711E-002   6.0707355214024705E-003   4.2856601549448370E-002
  -1.9788945317222112E-002   5.4099208845376778E-003   4.4517434368172126E-002
  -1.8278997711504527E-002   4.7262530877148906E-003   4.6052195751551506E-002
  -1.6769050105786915E-002   4.0197321309340950E-003   4.7460885699586952E-002
  -8.1531052474060131E-003   2.0860363154598938E-003   6.4809982347031059E-002
  -7.1306791097595218E-003   1.8157416970642215E-003   6.4313335089929091E-002
  -6.1082529721130305E-003   1.6623914617744651E-003   6.4162996529875671E-002
  -5.0858268344665461E-003   1.6259856095916722E-003   6.4358966666871048E-002
  -4.0634006968200478E-003   1.7065241405147535E-003   6.4901245500914806E-002
  -1.0473639437494502E-002   2.5694602693284718E-003   6.0618650957724063E-002
  -9.1342485599306827E-003   2.2073503056049826E-003   6.0326115946634118E-002
  -7.7948576823668441E-003   1.9731443977374363E-003   6.0321201718330442E-002
  -6.4554668048030237E-003   1.8668425457259163E-003   6.0603908272812895E-002
  -5.1160759272391859E-003   1.8884447495706169E-003   6.1174235610081507E-002
  -1.2683141643920818E-002   3.0528842231969944E-003   5.6330024386714389E-002
  -1.1085473940702101E-002   2.5989589141455771E-003   5.6252561294386466E-002
  -9.4878062374834423E-003   2.2838973336998664E-003   5.6404031070582158E-002
  -7.8901385342647415E-003   2.1076994818601640E-003   5.6784433715301418E-002
  -6.2924708310460684E-003   2.0703653586261472E-003   5.7393769228544556E-002
  -1.4781611866684953E-002   3.5363081770653226E-003   5.1944102634001878E-002
  -1.2984355252073896E-002   2.9905675226863659E-003   5.2092671133185678E-002
  -1.1187098637462771E-002   2.5946502696627335E-003   5.2411484586630336E-002
  -9.3898420228516865E-003   2.3485564179945208E-003   5.2900542994336490E-002
  -7.5925854082405878E-003   2.2522859676816775E-003   5.3559846356303398E-002
  -1.6769050105786915E-002   4.0197321309340950E-003   4.7460885699586952E-002
  -1.4830892494045900E-002   3.3821761312268772E-003   4.7846445463031961E-002
  -1.2892734882304885E-002   2.9054032056251844E-003   4.8343562266475626E-002
  -1.0954577270563877E-002   2.5894133541285239E-003   4.8952236109918140E-002
  -9.0164196588228551E-003   2.4342065767374299E-003   4.9672466993359143E-002
  -4.0634006968200478E-003   1.7065241405147535E-003   6.4901245500914806E-002
  -3.5512474499340071E-003   1.9676492590912087E-003   6.4101965673860617E-002
  -3.0390942030479595E-003   2.4730031698680932E-003   6.3402348245635953E-002
  -2.5269409561619136E-003   3.2225858728440748E-003   6.2802393216240870E-002
  -2.0147877092758712E-003   4.2163973680209299E-003   6.2302100585674980E-002
  -5.1160759272391859E-003   1.8884447495706169E-003   6.1174235610081507E-002
  -4.4761674720430779E-003   2.1392353057843039E-003   6.0566679639661503E-002
  -3.8362590168469456E-003   2.7204985108808533E-003   6.0114971687032337E-002
  -3.1963505616508393E-003   3.6322343648600430E-003   5.9819111752193788E-002
  -2.5564421064547052E-003   4.8744428677217622E-003   5.9679099835145966E-002
  -6.2924708310460684E-003   2.0703653586261472E-003   5.7393769228544556E-002
  -5.4686215485786737E-003   2.3108213524776211E-003   5.7064180971441364E-002
  -4.6447722661112504E-003   2.9679938518942794E-003   5.6946626351090129E-002
  -3.8209229836438396E-003   4.0418828568760112E-003   5.7041105367490533E-002
  -2.9970737011764600E-003   5.5324883674229275E-003   5.7347618020642976E-002
  -7.5925854082405878E-003   2.2522859676816775E-003   5.3559846356303398E-002
  -6.5286096795407565E-003   2.4824073991706608E-003   5.3594469669199896E-002
  -5.4646339508408713E-003   3.2154891929072615E-003   5.3897312237809095E-002
  -4.4006582221410408E-003   4.4515313488918684E-003   5.4468374062131522E-002
  -3.3366824934411548E-003   6.1905338671240373E-003   5.5307655142166776E-002
  -9.0164196588228551E-003   2.4342065767374299E-003   4.9672466993359143E-002
  -7.6561318649293331E-003   2.6539934458640335E-003   5.0157545732937292E-002
  -6.2958440710358388E-003   3.4629845339204934E-003   5.0967029347189496E-002
  -4.9355562771423306E-003   4.8611798409078991E-003   5.2100917836116117E-002
  -3.5752684832488224E-003   6.8485793668249251E-003   5.3559211199716739E-002
  -2.0147877092758712E-003   4.2163973680209299E-003   6.2302100585674980E-002
  -2.2653483671664851E-003   5.5250843077129241E-003   5.8271284294911685E-002
  -2.5159090250571094E-003   7.2192933442346008E-003   5.4242542407386796E-002
  -2.7664696829477337E-003   9.2990244775867509E-003   5.0215874923100812E-002
  -3.0170303408383475E-003   1.1764277707769111E-002   4.6191281842053122E-002
  -2.5564421064547052E-003   4.8744428677217622E-003   5.9679099835145966E-002
  -2.8241080053164232E-003   6.5052339683149274E-003   5.6146234024334662E-002
  -3.0917739041781446E-003   8.5827176154870122E-003   5.2577083328342544E-002
  -3.3594398030398816E-003   1.1106893809238155E-002   4.8971647747168862E-002
  -3.6271057019016117E-003   1.4077762549568940E-002   4.5329927280815419E-002
  -2.9970737011764600E-003   5.5324883674229275E-003   5.7347618020642976E-002
  -3.3202041294287544E-003   7.4853836289168751E-003   5.4373873139532986E-002
  -3.6433345576810626E-003   9.9461418867389517E-003   5.1325484084822376E-002
  -3.9664649859334003E-003   1.2914763140889553E-002   4.8202450856511772E-002
  -4.2895954141856964E-003   1.6391247391368768E-002   4.5004773454600633E-002
  -3.3366824934411548E-003   6.1905338671240373E-003   5.5307655142166776E-002
  -3.7536367395035082E-003   8.4655332895189617E-003   5.2954201640507195E-002
  -4.1705909855658625E-003   1.1309566157991016E-002   5.0487744676827574E-002
  -4.5875452316282385E-003   1.4722632472540843E-002   4.7908284251128239E-002
  -5.0044994776905988E-003   1.8704732233168597E-002   4.5215820363409043E-002
  -3.5752684832488224E-003   6.8485793668249251E-003   5.3559211199716739E-002
  -4.1244058355407037E-003   9.4456829501210482E-003   5.1887219527256390E-002
  -4.6735431878325712E-003   1.2672990429243247E-002   5.0063865104357119E-002
  -5.2226805401244455E-003   1.6530501804192341E-002   4.8089147931018539E-002
  -5.7718178924163199E-003   2.1018217074968426E-002   4.5963068007240704E-002
  -6.0993703138454369E-002   2.9182226815907042E-002 -0.13337977977609650     
  -5.1980555462253331E-002   2.1731402735886779E-002  -8.3062918614548897E-002
  -4.2967407786052320E-002   1.6701877195059583E-002  -4.9267410370617243E-002
  -3.3954260109851309E-002   1.4093650193425365E-002  -3.1993255044301727E-002
  -2.4941112433650284E-002   1.3906721730984117E-002  -3.1240452635602267E-002
  -1.4279915555208529E-002   2.8017932876791218E-002  -4.4666692935063312E-002
  -1.7489250681153971E-002   2.1431522759485427E-002  -2.3140880578272294E-002
  -2.0698585807099417E-002   1.6989285822936739E-002  -9.5386809081580565E-003
  -2.3907920933044828E-002   1.4691222067145404E-002  -3.8600939247206076E-003
  -2.7117256058990249E-002   1.4537331492110978E-002  -6.1051196279600373E-003
  -2.9387827521640264E-003   2.6853638937675506E-002   4.5049370547902118E-002
  -9.7728604493165644E-003   2.1131642783084117E-002   3.7507008741500827E-002
  -1.6606938146469213E-002   1.7276694450813992E-002   3.0638774479361905E-002
  -2.3441015843621838E-002   1.5288793940865308E-002   2.4444667761485468E-002
  -3.0275093540774456E-002   1.5167941253237921E-002   1.8924688587871386E-002
  -2.6970304729320674E-002   2.5689344998559738E-002  0.13576841067279977     
  -2.8831384766741325E-002   2.0831762806682703E-002   9.8880749344770341E-002
  -3.0692464804161861E-002   1.7564103078691155E-002   7.1264955791942489E-002
  -3.2553544841582481E-002   1.5886365814585142E-002   5.2921030014316306E-002
  -3.4414624879003042E-002   1.5798551014364795E-002   4.3848972011891751E-002
  -8.6374481486678645E-002   2.4525051059443970E-002  0.22749042743962983     
  -7.4664823633427968E-002   2.0531882830281400E-002  0.16098034123153626     
  -6.2955165780177319E-002   1.7851511706568415E-002  0.11233986302958374     
  -5.1245507926926545E-002   1.6483937688305268E-002   8.1568992833772072E-002
  -3.9535850073675827E-002   1.6429160775491780E-002   6.8667730644101255E-002
  -2.4941112433650284E-002   1.3906721730984117E-002  -3.1240452635602267E-002
  -2.8108478779272139E-002   1.4681559492725066E-002  -2.3491683279975223E-002
  -3.1275845124893967E-002   1.4958631163637964E-002  -1.4599212848716833E-002
  -3.4443211470515801E-002   1.4737936743722625E-002  -4.5630413418270566E-003
  -3.7610577816137650E-002   1.4019476232979111E-002   6.6168312406941210E-003
  -2.7117256058990249E-002   1.4537331492110978E-002  -6.1051196279600373E-003
  -2.9452378464504922E-002   1.5204872348067514E-002  -1.4903946910337085E-004
  -3.1787500870019601E-002   1.5371102885248560E-002   6.3278274943363022E-003
  -3.4122623275534288E-002   1.5036023103654232E-002   1.3325481262358885E-002
  -3.6457745681048953E-002   1.4199633003284362E-002   2.0843921834964418E-002
  -3.0275093540774456E-002   1.5167941253237921E-002   1.8924688587871386E-002
  -3.2400886277230451E-002   1.5728185203409892E-002   2.3084535322010484E-002
  -3.4526679013686383E-002   1.5783574606859155E-002   2.7142254589684021E-002
  -3.6652471750142329E-002   1.5334109463585727E-002   3.1097846390892067E-002
  -3.8778264486598255E-002   1.4379789773589641E-002   3.4951310725634663E-002
  -3.4414624879003042E-002   1.5798551014364795E-002   4.3848972011891751E-002
  -3.6954002217448698E-002   1.6251498058752332E-002   4.6209041093365939E-002
  -3.9493379555894409E-002   1.6196046328469695E-002   4.7844068437326290E-002
  -4.2032756894340093E-002   1.5632195823517332E-002   4.8754054043772747E-002
  -4.4572134232785769E-002   1.4559946543894878E-002   4.8938997912705146E-002
  -3.9535850073675827E-002   1.6429160775491780E-002   6.8667730644101255E-002
  -4.3111726285159691E-002   1.6774810914094718E-002   6.9224477844963467E-002
  -4.6687602496643554E-002   1.6608518050080207E-002   6.8433269037263295E-002
  -5.0263478708127418E-002   1.5930282183448878E-002   6.6294104221000655E-002
  -5.3839354919611282E-002   1.4740103314200170E-002   6.2806983396175631E-002
  -3.7610577816137650E-002   1.4019476232979111E-002   6.6168312406941210E-003
  -3.6260827063368264E-002   1.3044206173575629E-002   1.3972158221888353E-002
  -3.4911076310598886E-002   1.2053083107680315E-002   2.0654504392200790E-002
  -3.3561325557829508E-002   1.1046107035293472E-002   2.6663869751631222E-002
  -3.2211574805060122E-002   1.0023277956414667E-002   3.2000254300179942E-002
  -3.6457745681048953E-002   1.4199633003284362E-002   2.0843921834964418E-002
  -3.5604180208067861E-002   1.3148210179400349E-002   2.4930389339241715E-002
  -3.4750614735086803E-002   1.2168032227263231E-002   2.8697467094824250E-002
  -3.3897049262105725E-002   1.1259099146873196E-002   3.2145155101712043E-002
  -3.3043483789124653E-002   1.0421410938230014E-002   3.5273453359905005E-002
  -3.8778264486598255E-002   1.4379789773589641E-002   3.4951310725634663E-002
  -3.8067293231218449E-002   1.3252214185225056E-002   3.5856016631233750E-002
  -3.7356321975838692E-002   1.2282981346846099E-002   3.6794923850325199E-002
  -3.6645350720458873E-002   1.1472091258452865E-002   3.7768032382908934E-002
  -3.5934379465079068E-002   1.0819543920045360E-002   3.8775342228984877E-002
  -4.4572134232785769E-002   1.4559946543894878E-002   4.8938997912705146E-002
  -4.3650166132820120E-002   1.3356218191049742E-002   4.6749040097864715E-002
  -4.2728198032854478E-002   1.2397930466428880E-002   4.4946874658703811E-002
  -4.1806229932888850E-002   1.1685083370032674E-002   4.3532501595222137E-002
  -4.0884261832923229E-002   1.1217676901860707E-002   4.2505920907419906E-002
  -5.3839354919611282E-002   1.4740103314200170E-002   6.2806983396175631E-002
  -5.2352798912872756E-002   1.3460222196874427E-002   5.7609459739134450E-002
  -5.0866242906134229E-002   1.2512879586011813E-002   5.3153319519959746E-002
  -4.9379686899395675E-002   1.1898075481612352E-002   4.9438562738651395E-002
  -4.7893130892657176E-002   1.1615809883675998E-002   4.6465189395209661E-002
  -3.2211574805060122E-002   1.0023277956414667E-002   3.2000254300179942E-002
  -2.9860891235959447E-002   9.0430499599395420E-003   3.4877072874395620E-002
  -2.7510207666858716E-002   8.1638771347640193E-003   3.7347586231667562E-002
  -2.5159524097758006E-002   7.3857594808872801E-003   3.9411794371995906E-002
  -2.2808840528657309E-002   6.7086969983095601E-003   4.1069697295380569E-002
  -3.3043483789124653E-002   1.0421410938230014E-002   3.5273453359905005E-002
  -3.0947883827324642E-002   9.6379567037518932E-003   3.6311645975814821E-002
  -2.8852283865524582E-002   8.8917255458570849E-003   3.7245976594067087E-002
  -2.6756683903724505E-002   8.1827174645450577E-003   3.8076445214661622E-002
  -2.4661083941924511E-002   7.5109324598164329E-003   3.8803051837598579E-002
  -3.5934379465079068E-002   1.0819543920045360E-002   3.8775342228984877E-002
  -3.3791419891293660E-002   1.0232863447564189E-002   3.7911076791873125E-002
  -3.1648460317508259E-002   9.6195739569500949E-003   3.7245392576389549E-002
  -2.9505500743722900E-002   8.9796754482030020E-003   3.6778289582534485E-002
  -2.7362541169937436E-002   8.3131679213230281E-003   3.6509767810307514E-002
  -4.0884261832923229E-002   1.1217676901860707E-002   4.2505920907419906E-002
  -3.8391499427866453E-002   1.0827770191376401E-002   3.9675365322570086E-002
  -3.5898737022809789E-002   1.0347422368043077E-002   3.7345834178634761E-002
  -3.3405974617753055E-002   9.7766334318610294E-003   3.5517327475613703E-002
  -3.0913212212696405E-002   9.1154033828297620E-003   3.4189845213507125E-002
  -4.7893130892657176E-002   1.1615809883675998E-002   4.6465189395209661E-002
  -4.4748122437043181E-002   1.1422676935188836E-002   4.1604511567906011E-002
  -4.1603113981429130E-002   1.1075270779136101E-002   3.7547301400803118E-002
  -3.8458105525815120E-002   1.0573591415518734E-002   3.4293558893900025E-002
  -3.5313097070201083E-002   9.9176388443364960E-003   3.1843284047197606E-002
  -2.2808840528657309E-002   6.7086969983095601E-003   4.1069697295380569E-002
  -2.1298892922939711E-002   6.0707355214024705E-003   4.2856601549448370E-002
  -1.9788945317222112E-002   5.4099208845376778E-003   4.4517434368172126E-002
  -1.8278997711504527E-002   4.7262530877148906E-003   4.6052195751551506E-002
  -1.6769050105786915E-002   4.0197321309340950E-003   4.7460885699586952E-002
  -2.4661083941924511E-002   7.5109324598164329E-003   3.8803051837598579E-002
  -2.3224099913003192E-002   6.8551162069173666E-003   3.9779780769027884E-002
  -2.1787115884081887E-002   6.1940143810953058E-003   4.0736653982208659E-002
  -2.0350131855160533E-002   5.5276269823496156E-003   4.1673671477140961E-002
  -1.8913147826239263E-002   4.8559540106808408E-003   4.2590833253824900E-002
  -2.7362541169937436E-002   8.3131679213230281E-003   3.6509767810307514E-002
  -2.5892305000716757E-002   7.6394968924323736E-003   3.6693889006132754E-002
  -2.4422068831496085E-002   6.9781078776526007E-003   3.6964370200805147E-002
  -2.2951832662275441E-002   6.3290008769845627E-003   3.7321211394325066E-002
  -2.1481596493054790E-002   5.6921758904276976E-003   3.7764412586691859E-002
  -3.0913212212696405E-002   9.1154033828297620E-003   3.4189845213507125E-002
  -2.9303508186080490E-002   8.4238775779469921E-003   3.3598926260762940E-002
  -2.7693804159464739E-002   7.7622013742103951E-003   3.3200583023961866E-002
  -2.6084100132848884E-002   7.1303747716192321E-003   3.2994815503103722E-002
  -2.4474396106233136E-002   6.5283977701744988E-003   3.2981623698188460E-002
  -3.5313097070201083E-002   9.9176388443364960E-003   3.1843284047197606E-002
  -3.3457709469094488E-002   9.2082582634622212E-003   3.0494892532918649E-002
  -3.1602321867987809E-002   8.5462948707674680E-003   2.9445292451678429E-002
  -2.9746934266881186E-002   7.9317486662542763E-003   2.8694483803477000E-002
  -2.7891546665774536E-002   7.3646196499213001E-003   2.8242466588314086E-002
  -1.6769050105786915E-002   4.0197321309340950E-003   4.7460885699586952E-002
  -1.4830892494045900E-002   3.3821761312268772E-003   4.7846445463031961E-002
  -1.2892734882304885E-002   2.9054032056251844E-003   4.8343562266475626E-002
  -1.0954577270563877E-002   2.5894133541285239E-003   4.8952236109918140E-002
  -9.0164196588228551E-003   2.4342065767374299E-003   4.9672466993359143E-002
  -1.8913147826239263E-002   4.8559540106808408E-003   4.2590833253824900E-002
  -1.6866349312429793E-002   4.2326708057255358E-003   4.2680550023204367E-002
  -1.4819550798620296E-002   3.7114527071200887E-003   4.2875991556722060E-002
  -1.2772752284810729E-002   3.2922997148650129E-003   4.3177157854378187E-002
  -1.0725953771001273E-002   2.9752118289595453E-003   4.3584048916172513E-002
  -2.1481596493054790E-002   5.6921758904276976E-003   3.7764412586691859E-002
  -1.9331989353037107E-002   5.0831654802238890E-003   3.7499568394250643E-002
  -1.7182382213019504E-002   4.5175022086150901E-003   3.7334616690087377E-002
  -1.5032775073001882E-002   3.9951860756010545E-003   3.7269557474201846E-002
  -1.2883167932984281E-002   3.5162170811819382E-003   3.7304390746594168E-002
  -2.4474396106233136E-002   6.5283977701744988E-003   3.2981623698188460E-002
  -2.2227812615867891E-002   5.9336601547223949E-003   3.2303500576171262E-002
  -1.9981229125502552E-002   5.3235517101099875E-003   3.1719437666571620E-002
  -1.7734645635137207E-002   4.6980724363373753E-003   3.1229434969389271E-002
  -1.5488062144771969E-002   4.0572223334043034E-003   3.0833492484624782E-002
  -2.7891546665774536E-002   7.3646196499213001E-003   2.8242466588314086E-002
  -2.5553819100921971E-002   6.7841548292207898E-003   2.7092346568965753E-002
  -2.3216091536069405E-002   6.1296012116048848E-003   2.6030454486174692E-002
  -2.0878363971216798E-002   5.4009587970735018E-003   2.5056790339940405E-002
  -1.8540636406364275E-002   4.5982275856264465E-003   2.4171354130263500E-002
  -9.0164196588228551E-003   2.4342065767374299E-003   4.9672466993359143E-002
  -7.6561318649293331E-003   2.6539934458640335E-003   5.0157545732937292E-002
  -6.2958440710358388E-003   3.4629845339204934E-003   5.0967029347189496E-002
  -4.9355562771423306E-003   4.8611798409078991E-003   5.2100917836116117E-002
  -3.5752684832488224E-003   6.8485793668249251E-003   5.3559211199716739E-002
  -1.0725953771001273E-002   2.9752118289595453E-003   4.3584048916172513E-002
  -9.0207612251918950E-003   2.9749147583084667E-003   4.4202307854731560E-002
  -7.3155686793824060E-003   3.5061342118146432E-003   4.5185971422448235E-002
  -5.6103761335729724E-003   4.5688701894786785E-003   4.6535039619322677E-002
  -3.9051835877635388E-003   6.1631226913003712E-003   4.8249512445354359E-002
  -1.2883167932984281E-002   3.5162170811819382E-003   3.7304390746594168E-002
  -1.0792070880775578E-002   3.2958360707529000E-003   3.7998142189361706E-002
  -8.7009738285668201E-003   3.5492838897088902E-003   3.9098298015770375E-002
  -6.6098767763581208E-003   4.2765605380498985E-003   4.0604858225819891E-002
  -4.5187797241494146E-003   5.4776660157760393E-003   4.2517822819510331E-002
  -1.5488062144771969E-002   4.0572223334043034E-003   3.0833492484624782E-002
  -1.2970060831680596E-002   3.6167573831972222E-003   3.1545048736827931E-002
  -1.0452059518589197E-002   3.5924335676029776E-003   3.2704009127155473E-002
  -7.9340582054977984E-003   3.9842508866211202E-003   3.4310373655607622E-002
  -5.4160568924064238E-003   4.7922093402517074E-003   3.6364142322183754E-002
  -1.8540636406364275E-002   4.5982275856264465E-003   2.4171354130263500E-002
  -1.5554731077906864E-002   3.9376786956418219E-003   2.4843027497130077E-002
  -1.2568825749449425E-002   3.6355832454973425E-003   2.6003104756604112E-002
  -9.5829204209920277E-003   3.6919412351920783E-003   2.7651585908686216E-002
  -6.5970150925345750E-003   4.1067526647271535E-003   2.9788470953375779E-002
  -3.5752684832488224E-003   6.8485793668249251E-003   5.3559211199716739E-002
  -4.1244058355407037E-003   9.4456829501210482E-003   5.1887219527256390E-002
  -4.6735431878325712E-003   1.2672990429243247E-002   5.0063865104357119E-002
  -5.2226805401244455E-003   1.6530501804192341E-002   4.8089147931018539E-002
  -5.7718178924163199E-003   2.1018217074968426E-002   4.5963068007240704E-002
  -3.9051835877635388E-003   6.1631226913003712E-003   4.8249512445354359E-002
  -4.5000376380460588E-003   8.6063568025413484E-003   4.7297811088725328E-002
  -5.0948916883285372E-003   1.2216037608462849E-002   4.6406039086554052E-002
  -5.6897457386111128E-003   1.6992165109064997E-002   4.5574196438840864E-002
  -6.2845997888935357E-003   2.2934739304347751E-002   4.4802283145585653E-002
  -4.5187797241494146E-003   5.4776660157760393E-003   4.2517822819510331E-002
  -4.9480583675252654E-003   7.7670306549618706E-003   4.2822654577566094E-002
  -5.3773370109012376E-003   1.1759084787682256E-002   4.3398707794977259E-002
  -5.8066156542771804E-003   1.7453828413937382E-002   4.4245982471743911E-002
  -6.2358942976531162E-003   2.4851261533726854E-002   4.5364478607865188E-002
  -5.4160568924064238E-003   4.7922093402517074E-003   3.6364142322183754E-002
  -5.4684680239785732E-003   6.9277045073826149E-003   3.8461749993778882E-002
  -5.5208791555506420E-003   1.1302131966901649E-002   4.1041871229626277E-002
  -5.5732902871228080E-003   1.7915491718809681E-002   4.4104506029725807E-002
  -5.6257014186948603E-003   2.6767783763105957E-002   4.7649654394078172E-002
  -6.5970150925345750E-003   4.1067526647271535E-003   2.9788470953375779E-002
  -6.0612666074056909E-003   6.0883783598031371E-003   3.4215097337363609E-002
  -5.5255181222767236E-003   1.0845179146121320E-002   3.9335529390501112E-002
  -4.9897696371478811E-003   1.8377155023682160E-002   4.5149767112788175E-002
  -4.4540211520188722E-003   2.8684305992485282E-002   5.1657810504225576E-002
  -8.6374481486678645E-002   2.4525051059443970E-002  0.22749042743962983     
  -7.4664823633427968E-002   2.0531882830281400E-002  0.16098034123153626     
  -6.2955165780177319E-002   1.7851511706568415E-002  0.11233986302958374     
  -5.1245507926926545E-002   1.6483937688305268E-002   8.1568992833772072E-002
  -3.9535850073675827E-002   1.6429160775491780E-002   6.8667730644101255E-002
 -0.14710696362136061        1.4938577977680390E-002  0.14293979263239798     
 -0.12166095300895391        1.7256299012019471E-002  0.10522812424995434     
  -9.6214942396547071E-002   1.8692481035071540E-002   7.7119553379681821E-002
  -7.0768931784140357E-002   1.9247124046836733E-002   5.8614080021580459E-002
  -4.5322921171733602E-002   1.8920228047314774E-002   4.9711704175650184E-002
 -0.17512340173048924        5.3521048959168371E-003   6.5797215147036334E-002
 -0.14420754885289616        1.3980715193757653E-002   5.4689628473505669E-002
 -0.11329169597530317        1.9533450363574713E-002   4.4918628818176466E-002
  -8.2375843097710164E-002   2.2010310405368057E-002   3.6484216181048731E-002
  -5.1459990220117102E-002   2.1411295319137685E-002   2.9386390562122403E-002
 -0.17042379581406436       -4.2343681858467014E-003  -3.9373050164552940E-003
 -0.14230461116525484        1.0705131375495780E-002   9.3648539021904884E-003
 -0.11418542651644538        2.0374419692078000E-002   1.5737089345067914E-002
  -8.6066241867635881E-002   2.4773496763899620E-002   1.5179401312177009E-002
  -5.7947057218826356E-002   2.3902362590960916E-002   7.6917898035176006E-003
 -0.13300814587208620       -1.3820841267610295E-002  -6.6263767858076861E-002
 -0.11595213994602993        7.4295475572339065E-003  -3.0746199463991486E-002
  -9.8896134019973658E-002   2.1215389020580955E-002  -1.0425065039644105E-002
  -8.1840128093917497E-002   2.7536683122431044E-002  -5.3003645850347933E-003
  -6.4784122167861224E-002   2.6393429862783702E-002  -1.5372098100163822E-002
  -3.9535850073675827E-002   1.6429160775491780E-002   6.8667730644101255E-002
  -4.3111726285159691E-002   1.6774810914094718E-002   6.9224477844963467E-002
  -4.6687602496643554E-002   1.6608518050080207E-002   6.8433269037263295E-002
  -5.0263478708127418E-002   1.5930282183448878E-002   6.6294104221000655E-002
  -5.3839354919611282E-002   1.4740103314200170E-002   6.2806983396175631E-002
  -4.5322921171733602E-002   1.8920228047314774E-002   4.9711704175650184E-002
  -4.9995931002859373E-002   1.8202778652758156E-002   4.9963520424407576E-002
  -5.4668940833985165E-002   1.7585761479419627E-002   4.9369025442443537E-002
  -5.9341950665110929E-002   1.7069176527298981E-002   4.7928219229758096E-002
  -6.4014960496236728E-002   1.6653023796396216E-002   4.5641101786351224E-002
  -5.1459990220117102E-002   2.1411295319137685E-002   2.9386390562122403E-002
  -5.6728488893043799E-002   1.9630746391421927E-002   2.9945651082609943E-002
  -6.1996987565970468E-002   1.8563004908759270E-002   3.0160245150216966E-002
  -6.7265486238897179E-002   1.8208070871149198E-002   3.0030172764943915E-002
  -7.2533984911823779E-002   1.8565944278592206E-002   2.9555433926790137E-002
  -5.7947057218826356E-002   2.3902362590960916E-002   7.6917898035176006E-003
  -6.3309399955712900E-002   2.1058714130085754E-002   9.1708698195706196E-003
  -6.8671742692599486E-002   1.9540248338098164E-002   1.0806928160583897E-002
  -7.4034085429486099E-002   1.9346965214999415E-002   1.2599964826558027E-002
  -7.9396428166372671E-002   2.0478864760788446E-002   1.4549979817492464E-002
  -6.4784122167861224E-002   2.6393429862783702E-002  -1.5372098100163822E-002
  -6.9738664190866717E-002   2.2486681868749026E-002  -1.2360823364710838E-002
  -7.4693206213872210E-002   2.0517491767438140E-002  -8.6909255264559226E-003
  -7.9647748236877758E-002   2.0485859558849441E-002  -4.3624045853994722E-003
  -8.4602290259883195E-002   2.2391785242984352E-002   6.2473945845842316E-004
  -5.3839354919611282E-002   1.4740103314200170E-002   6.2806983396175631E-002
  -5.2352798912872756E-002   1.3460222196874427E-002   5.7609459739134450E-002
  -5.0866242906134229E-002   1.2512879586011813E-002   5.3153319519959746E-002
  -4.9379686899395675E-002   1.1898075481612352E-002   4.9438562738651395E-002
  -4.7893130892657176E-002   1.1615809883675998E-002   4.6465189395209661E-002
  -6.4014960496236728E-002   1.6653023796396216E-002   4.5641101786351224E-002
  -6.1846132124660211E-002   1.6239203709567301E-002   4.2159434004016422E-002
  -5.9677303753083749E-002   1.5729616689668491E-002   3.9300927513491180E-002
  -5.7508475381507204E-002   1.5124262736699381E-002   3.7065582314775414E-002
  -5.5339647009930770E-002   1.4423141850660126E-002   3.5453398407869208E-002
  -7.2533984911823779E-002   1.8565944278592206E-002   2.9555433926790137E-002
  -6.9801106321466244E-002   1.9018185222260148E-002   2.7361316579628564E-002
  -6.7068227731108765E-002   1.8946353793325064E-002   2.5672138378219543E-002
  -6.4335349140751258E-002   1.8350449991786415E-002   2.4487899322563306E-002
  -6.1602470550393709E-002   1.7230473817644504E-002   2.3808599412659462E-002
  -7.9396428166372671E-002   2.0478864760788446E-002   1.4549979817492464E-002
  -7.6217721503290953E-002   2.1797166734953285E-002   1.3215107465970981E-002
  -7.3039014840209332E-002   2.2163090896981468E-002   1.2266952114145043E-002
  -6.9860308177127670E-002   2.1576637246873667E-002   1.1705513762014844E-002
  -6.6681601514046007E-002   2.0037805784629090E-002   1.1530792409580447E-002
  -8.4602290259883195E-002   2.2391785242984352E-002   6.2473945845842316E-004
  -8.1095977670134323E-002   2.4576148247645979E-002  -2.7919333695619608E-004
  -7.7589665080385450E-002   2.5379828000638344E-002  -9.1463127873236960E-004
  -7.4083352490636550E-002   2.4802824501960537E-002  -1.2815743668693202E-003
  -7.0577039900887706E-002   2.2845137751613009E-002  -1.3800226013680472E-003
  -4.7893130892657176E-002   1.1615809883675998E-002   4.6465189395209661E-002
  -4.4748122437043181E-002   1.1422676935188836E-002   4.1604511567906011E-002
  -4.1603113981429130E-002   1.1075270779136101E-002   3.7547301400803118E-002
  -3.8458105525815120E-002   1.0573591415518734E-002   3.4293558893900025E-002
  -3.5313097070201083E-002   9.9176388443364960E-003   3.1843284047197606E-002
  -5.5339647009930770E-002   1.4423141850660126E-002   3.5453398407869208E-002
  -5.1481050067502684E-002   1.3676486527834264E-002   3.1611746409955732E-002
  -4.7622453125074557E-002   1.2934529264504807E-002   2.8393803725470235E-002
  -4.3763856182646388E-002   1.2197270060671429E-002   2.5799570354412354E-002
  -3.9905259240218344E-002   1.1464708916334609E-002   2.3829046296782452E-002
  -6.1602470550393709E-002   1.7230473817644504E-002   2.3808599412659462E-002
  -5.7210043467923938E-002   1.5930296120479803E-002   2.1144944511197500E-002
  -5.2817616385454270E-002   1.4793787749873021E-002   1.8925240576390771E-002
  -4.8425189302984561E-002   1.3820948705824071E-002   1.7149487608239509E-002
  -4.4032762220514762E-002   1.3011778988332723E-002   1.5817685606743709E-002
  -6.6681601514046007E-002   2.0037805784629090E-002   1.1530792409580447E-002
  -6.1935102638307149E-002   1.8184105713125898E-002   1.0204105871630856E-002
  -5.7188603762568242E-002   1.6653046235241591E-002   9.1416119535648061E-003
  -5.2442104886829363E-002   1.5444627350976629E-002   8.3433106553812836E-003
  -4.7695606011090477E-002   1.4558849060330836E-002   7.8092019770809040E-003
  -7.0577039900887706E-002   2.2845137751613009E-002  -1.3800226013680472E-003
  -6.5656227578652082E-002   2.0437915305771326E-002  -1.2107695087432147E-003
  -6.0735415256416514E-002   1.8512304720609607E-002  -9.5708214300777028E-004
  -5.5814602934180946E-002   1.7068305996129046E-002  -6.1896050416197779E-004
  -5.0893790611945322E-002   1.6105919132328950E-002  -1.9640459220560125E-004
  -3.5313097070201083E-002   9.9176388443364960E-003   3.1843284047197606E-002
  -3.3457709469094488E-002   9.2082582634622212E-003   3.0494892532918649E-002
  -3.1602321867987809E-002   8.5462948707674680E-003   2.9445292451678429E-002
  -2.9746934266881186E-002   7.9317486662542763E-003   2.8694483803477000E-002
  -2.7891546665774536E-002   7.3646196499213001E-003   2.8242466588314086E-002
  -3.9905259240218344E-002   1.1464708916334609E-002   2.3829046296782452E-002
  -3.7796260839172632E-002   1.0742438189410508E-002   2.2931783320879917E-002
  -3.5687262438126768E-002   1.0036050237816077E-002   2.2242950511817100E-002
  -3.3578264037080988E-002   9.3455450615515280E-003   2.1762547869593724E-002
  -3.1469265636035137E-002   8.6709226606161982E-003   2.1490575394210065E-002
  -4.4032762220514762E-002   1.3011778988332723E-002   1.5817685606743709E-002
  -4.1760514285728925E-002   1.2276618115359267E-002   1.5340016756366467E-002
  -3.9488266350943046E-002   1.1525805604864686E-002   1.4980416806629870E-002
  -3.7216018416157230E-002   1.0759341456848447E-002   1.4738885757533966E-002
  -3.4943770481371345E-002   9.9772256713110963E-003   1.4615423609078249E-002
  -4.7695606011090477E-002   1.4558849060330836E-002   7.8092019770809040E-003
  -4.5350469808763588E-002   1.3810798041307790E-002   7.7195928393781234E-003
  -4.3005333606436658E-002   1.3015560971913018E-002   7.6576913361169410E-003
  -4.0660197404109796E-002   1.2173137852145421E-002   7.6234974672971315E-003
  -3.8315061201782838E-002   1.1283528682005828E-002   7.6170112329190381E-003
  -5.0893790611945322E-002   1.6105919132328950E-002  -1.9640459220560125E-004
  -4.8566127408276483E-002   1.5344977967256535E-002   7.0511569915165939E-005
  -4.6238464204607643E-002   1.4505316338961793E-002   2.7477410027815230E-004
  -4.3910801000938776E-002   1.3586934247442589E-002   4.1638299888384356E-004
  -4.1583137797269965E-002   1.2589831692700892E-002   4.9533826573178175E-004
  -2.7891546665774536E-002   7.3646196499213001E-003   2.8242466588314086E-002
  -2.5553819100921971E-002   6.7841548292207898E-003   2.7092346568965753E-002
  -2.3216091536069405E-002   6.1296012116048848E-003   2.6030454486174692E-002
  -2.0878363971216798E-002   5.4009587970735018E-003   2.5056790339940405E-002
  -1.8540636406364275E-002   4.5982275856264465E-003   2.4171354130263500E-002
  -3.1469265636035137E-002   8.6709226606161982E-003   2.1490575394210065E-002
  -2.9034289586300652E-002   7.9971117483568221E-003   2.0408515750664435E-002
  -2.6599313536566055E-002   7.3090410381189963E-003   1.9432725140325791E-002
  -2.4164337486831507E-002   6.6067105299035186E-003   1.8563203563194006E-002
  -2.1729361437096972E-002   5.8901202237100492E-003   1.7799951019269067E-002
  -3.4943770481371345E-002   9.9772256713110963E-003   1.4615423609078249E-002
  -3.2393504850104934E-002   9.2100686674925769E-003   1.3661253340272989E-002
  -2.9843239218838524E-002   8.4884808646333298E-003   1.2831393201324121E-002
  -2.7292973587572083E-002   7.8124622627338686E-003   1.2125843192232005E-002
  -2.4742707956305759E-002   7.1820128617932077E-003   1.1544603312996782E-002
  -3.8315061201782838E-002   1.1283528682005828E-002   7.6170112329190381E-003
  -3.5631464892334791E-002   1.0423025586628748E-002   6.8505593377909749E-003
  -3.2947868582886702E-002   9.6679206911477744E-003   6.2264586691696648E-003
  -3.0264272273438704E-002   9.0182139955637189E-003   5.7447092270543343E-003
  -2.7580675963990563E-002   8.4739054998762553E-003   5.4053110114464231E-003
  -4.1583137797269965E-002   1.2589831692700892E-002   4.9533826573178175E-004
  -3.8748169712990332E-002   1.1635982505764364E-002  -2.3566256781459849E-005
  -3.5913201628710756E-002   1.0847360517661664E-002  -3.8207845613807967E-004
  -3.3078233544431096E-002   1.0223965728393819E-002  -5.8019833233834139E-004
  -3.0243265460151547E-002   9.7657981379597469E-003  -6.1792588538245319E-004
  -1.8540636406364275E-002   4.5982275856264465E-003   2.4171354130263500E-002
  -1.5554731077906864E-002   3.9376786956418219E-003   2.4843027497130077E-002
  -1.2568825749449425E-002   3.6355832454973425E-003   2.6003104756604112E-002
  -9.5829204209920277E-003   3.6919412351920783E-003   2.7651585908686216E-002
  -6.5970150925345750E-003   4.1067526647271535E-003   2.9788470953375779E-002
  -2.1729361437096972E-002   5.8901202237100492E-003   1.7799951019269067E-002
  -1.8526367913217462E-002   5.2544776927510584E-003   1.8642991594617520E-002
  -1.5323374389338049E-002   4.7949905102399049E-003   1.9431804668202518E-002
  -1.2120380865458628E-002   4.5116586761765054E-003   2.0166390240023715E-002
  -8.9173873415791249E-003   4.4044821905608877E-003   2.0846748310081153E-002
  -2.4742707956305759E-002   7.1820128617932077E-003   1.1544603312996782E-002
  -2.1865257631375562E-002   6.5712766898601560E-003   1.2376713005435303E-002
  -1.8987807306445496E-002   5.9543977749829946E-003   1.2611963801738540E-002
  -1.6110356981515337E-002   5.3313761171610366E-003   1.2250355701906648E-002
  -1.3232906656585233E-002   4.7022117163948440E-003   1.1291888705939834E-002
  -2.7580675963990563E-002   8.4739054998762553E-003   5.4053110114464231E-003
  -2.5571400232381199E-002   7.8880756869696561E-003   6.0441917295825515E-003
  -2.3562124500771844E-002   7.1138050397254876E-003   5.5435821572122554E-003
  -2.1552848769162487E-002   6.1510935581454047E-003   3.9034822943352157E-003
  -1.9543573037553125E-002   4.9999412422285783E-003   1.1238921409522790E-003
  -3.0243265460151547E-002   9.7657981379597469E-003  -6.1792588538245319E-004
  -2.9644795716234240E-002   9.2048746840786011E-003  -3.5457223294071971E-004
  -2.9046325972316989E-002   8.2732123044685912E-003  -1.7733402653770103E-003
  -2.8447856228399654E-002   6.9708109991297590E-003  -4.8742299826904367E-003
  -2.7849386484482430E-002   5.2976707680625346E-003  -9.6572413848825533E-003
  -6.5970150925345750E-003   4.1067526647271535E-003   2.9788470953375779E-002
  -6.0612666074056909E-003   6.0883783598031371E-003   3.4215097337363609E-002
  -5.5255181222767236E-003   1.0845179146121320E-002   3.9335529390501112E-002
  -4.9897696371478811E-003   1.8377155023682160E-002   4.5149767112788175E-002
  -4.4540211520188722E-003   2.8684305992485282E-002   5.1657810504225576E-002
  -8.9173873415791249E-003   4.4044821905608877E-003   2.0846748310081153E-002
  -7.6163890585359689E-003   5.6267227324612867E-003   2.5978598655786056E-002
  -6.3153907754927435E-003   9.3316419809483797E-003   3.1947142928170247E-002
  -5.0143924924494140E-003   1.5519239936020779E-002   3.8752381127233143E-002
  -3.7133942094062511E-003   2.4189516597678873E-002   4.6394313252974939E-002
  -1.3232906656585233E-002   4.7022117163948440E-003   1.1291888705939834E-002
  -1.1023770318098466E-002   5.1650671051206576E-003   1.6836466628705526E-002
  -8.8146339796115261E-003   7.8181048157753008E-003   2.3360626735678902E-002
  -6.6054976411247281E-003   1.2661324848359447E-002   3.0864369026861446E-002
  -4.3963613026380410E-003   1.9694727202872686E-002   3.9347693502251646E-002
  -1.9543573037553125E-002   4.9999412422285783E-003   1.1238921409522790E-003
  -1.6283410386093319E-002   4.7034114777796399E-003   6.7887012561210075E-003
  -1.3023247734633593E-002   6.3045676506028464E-003   1.3575980813027903E-002
  -9.7630850831738579E-003   9.8034097606978683E-003   2.1485730811672352E-002
  -6.5029224317140616E-003   1.5199937808066499E-002   3.0517951252054004E-002
  -2.7849386484482430E-002   5.2976707680625346E-003  -9.6572413848825533E-003
  -2.3395309262520536E-002   4.2417558504381780E-003  -4.1646974619660160E-003
  -1.8941232040558420E-002   4.7910304854290597E-003   2.5932051602166051E-003
  -1.4487154818596359E-002   6.9454946730367895E-003   1.0616466481667239E-002
  -1.0033077596634410E-002   1.0705148413260090E-002   1.9905086502383762E-002
 </DataArray>
 </PointData>
 </Piece>
 </UnstructuredGrid>
 </VTKFile>
