 <VTKFile type="UnstructuredGrid"  version="0.1"   >
 <UnstructuredGrid>
 <Piece  NumberOfPoints="          1600 "  NumberOfCells="         1024 ">
 <Points>
 <DataArray  type="Float64" NumberOfComponents="3"  format="ascii" >
   0.0000000000000000        0.0000000000000000        0.0000000000000000     
   3.1250000000000000E-002   0.0000000000000000        0.0000000000000000     
   6.2500000000000000E-002   0.0000000000000000        0.0000000000000000     
   9.3750000000000000E-002   0.0000000000000000        0.0000000000000000     
  0.12500000000000000        0.0000000000000000        0.0000000000000000     
   0.0000000000000000        3.1250000000000000E-002   0.0000000000000000     
   3.1250000000000000E-002   3.1250000000000000E-002   0.0000000000000000     
   6.2500000000000000E-002   3.1250000000000000E-002   0.0000000000000000     
   9.3750000000000000E-002   3.1250000000000000E-002   0.0000000000000000     
  0.12500000000000000        3.1250000000000000E-002   0.0000000000000000     
   0.0000000000000000        6.2500000000000000E-002   0.0000000000000000     
   3.1250000000000000E-002   6.2500000000000000E-002   0.0000000000000000     
   6.2500000000000000E-002   6.2500000000000000E-002   0.0000000000000000     
   9.3750000000000000E-002   6.2500000000000000E-002   0.0000000000000000     
  0.12500000000000000        6.2500000000000000E-002   0.0000000000000000     
   0.0000000000000000        9.3750000000000000E-002   0.0000000000000000     
   3.1250000000000000E-002   9.3750000000000000E-002   0.0000000000000000     
   6.2500000000000000E-002   9.3750000000000000E-002   0.0000000000000000     
   9.3750000000000000E-002   9.3750000000000000E-002   0.0000000000000000     
  0.12500000000000000        9.3750000000000000E-002   0.0000000000000000     
   0.0000000000000000       0.12500000000000000        0.0000000000000000     
   3.1250000000000000E-002  0.12500000000000000        0.0000000000000000     
   6.2500000000000000E-002  0.12500000000000000        0.0000000000000000     
   9.3750000000000000E-002  0.12500000000000000        0.0000000000000000     
  0.12500000000000000       0.12500000000000000        0.0000000000000000     
  0.12500000000000000        0.0000000000000000        0.0000000000000000     
  0.15625000000000000        0.0000000000000000        0.0000000000000000     
  0.18750000000000000        0.0000000000000000        0.0000000000000000     
  0.21875000000000000        0.0000000000000000        0.0000000000000000     
  0.25000000000000000        0.0000000000000000        0.0000000000000000     
  0.12500000000000000        3.1250000000000000E-002   0.0000000000000000     
  0.15625000000000000        3.1250000000000000E-002   0.0000000000000000     
  0.18750000000000000        3.1250000000000000E-002   0.0000000000000000     
  0.21875000000000000        3.1250000000000000E-002   0.0000000000000000     
  0.25000000000000000        3.1250000000000000E-002   0.0000000000000000     
  0.12500000000000000        6.2500000000000000E-002   0.0000000000000000     
  0.15625000000000000        6.2500000000000000E-002   0.0000000000000000     
  0.18750000000000000        6.2500000000000000E-002   0.0000000000000000     
  0.21875000000000000        6.2500000000000000E-002   0.0000000000000000     
  0.25000000000000000        6.2500000000000000E-002   0.0000000000000000     
  0.12500000000000000        9.3750000000000000E-002   0.0000000000000000     
  0.15625000000000000        9.3750000000000000E-002   0.0000000000000000     
  0.18750000000000000        9.3750000000000000E-002   0.0000000000000000     
  0.21875000000000000        9.3750000000000000E-002   0.0000000000000000     
  0.25000000000000000        9.3750000000000000E-002   0.0000000000000000     
  0.12500000000000000       0.12500000000000000        0.0000000000000000     
  0.15625000000000000       0.12500000000000000        0.0000000000000000     
  0.18750000000000000       0.12500000000000000        0.0000000000000000     
  0.21875000000000000       0.12500000000000000        0.0000000000000000     
  0.25000000000000000       0.12500000000000000        0.0000000000000000     
  0.25000000000000000        0.0000000000000000        0.0000000000000000     
  0.28125000000000000        0.0000000000000000        0.0000000000000000     
  0.31250000000000000        0.0000000000000000        0.0000000000000000     
  0.34375000000000000        0.0000000000000000        0.0000000000000000     
  0.37500000000000000        0.0000000000000000        0.0000000000000000     
  0.25000000000000000        3.1250000000000000E-002   0.0000000000000000     
  0.28125000000000000        3.1250000000000000E-002   0.0000000000000000     
  0.31250000000000000        3.1250000000000000E-002   0.0000000000000000     
  0.34375000000000000        3.1250000000000000E-002   0.0000000000000000     
  0.37500000000000000        3.1250000000000000E-002   0.0000000000000000     
  0.25000000000000000        6.2500000000000000E-002   0.0000000000000000     
  0.28125000000000000        6.2500000000000000E-002   0.0000000000000000     
  0.31250000000000000        6.2500000000000000E-002   0.0000000000000000     
  0.34375000000000000        6.2500000000000000E-002   0.0000000000000000     
  0.37500000000000000        6.2500000000000000E-002   0.0000000000000000     
  0.25000000000000000        9.3750000000000000E-002   0.0000000000000000     
  0.28125000000000000        9.3750000000000000E-002   0.0000000000000000     
  0.31250000000000000        9.3750000000000000E-002   0.0000000000000000     
  0.34375000000000000        9.3750000000000000E-002   0.0000000000000000     
  0.37500000000000000        9.3750000000000000E-002   0.0000000000000000     
  0.25000000000000000       0.12500000000000000        0.0000000000000000     
  0.28125000000000000       0.12500000000000000        0.0000000000000000     
  0.31250000000000000       0.12500000000000000        0.0000000000000000     
  0.34375000000000000       0.12500000000000000        0.0000000000000000     
  0.37500000000000000       0.12500000000000000        0.0000000000000000     
  0.37500000000000000        0.0000000000000000        0.0000000000000000     
  0.40625000000000000        0.0000000000000000        0.0000000000000000     
  0.43750000000000000        0.0000000000000000        0.0000000000000000     
  0.46875000000000000        0.0000000000000000        0.0000000000000000     
  0.50000000000000000        0.0000000000000000        0.0000000000000000     
  0.37500000000000000        3.1250000000000000E-002   0.0000000000000000     
  0.40625000000000000        3.1250000000000000E-002   0.0000000000000000     
  0.43750000000000000        3.1250000000000000E-002   0.0000000000000000     
  0.46875000000000000        3.1250000000000000E-002   0.0000000000000000     
  0.50000000000000000        3.1250000000000000E-002   0.0000000000000000     
  0.37500000000000000        6.2500000000000000E-002   0.0000000000000000     
  0.40625000000000000        6.2500000000000000E-002   0.0000000000000000     
  0.43750000000000000        6.2500000000000000E-002   0.0000000000000000     
  0.46875000000000000        6.2500000000000000E-002   0.0000000000000000     
  0.50000000000000000        6.2500000000000000E-002   0.0000000000000000     
  0.37500000000000000        9.3750000000000000E-002   0.0000000000000000     
  0.40625000000000000        9.3750000000000000E-002   0.0000000000000000     
  0.43750000000000000        9.3750000000000000E-002   0.0000000000000000     
  0.46875000000000000        9.3750000000000000E-002   0.0000000000000000     
  0.50000000000000000        9.3750000000000000E-002   0.0000000000000000     
  0.37500000000000000       0.12500000000000000        0.0000000000000000     
  0.40625000000000000       0.12500000000000000        0.0000000000000000     
  0.43750000000000000       0.12500000000000000        0.0000000000000000     
  0.46875000000000000       0.12500000000000000        0.0000000000000000     
  0.50000000000000000       0.12500000000000000        0.0000000000000000     
  0.50000000000000000        0.0000000000000000        0.0000000000000000     
  0.53125000000000000        0.0000000000000000        0.0000000000000000     
  0.56250000000000000        0.0000000000000000        0.0000000000000000     
  0.59375000000000000        0.0000000000000000        0.0000000000000000     
  0.62500000000000000        0.0000000000000000        0.0000000000000000     
  0.50000000000000000        3.1250000000000000E-002   0.0000000000000000     
  0.53125000000000000        3.1250000000000000E-002   0.0000000000000000     
  0.56250000000000000        3.1250000000000000E-002   0.0000000000000000     
  0.59375000000000000        3.1250000000000000E-002   0.0000000000000000     
  0.62500000000000000        3.1250000000000000E-002   0.0000000000000000     
  0.50000000000000000        6.2500000000000000E-002   0.0000000000000000     
  0.53125000000000000        6.2500000000000000E-002   0.0000000000000000     
  0.56250000000000000        6.2500000000000000E-002   0.0000000000000000     
  0.59375000000000000        6.2500000000000000E-002   0.0000000000000000     
  0.62500000000000000        6.2500000000000000E-002   0.0000000000000000     
  0.50000000000000000        9.3750000000000000E-002   0.0000000000000000     
  0.53125000000000000        9.3750000000000000E-002   0.0000000000000000     
  0.56250000000000000        9.3750000000000000E-002   0.0000000000000000     
  0.59375000000000000        9.3750000000000000E-002   0.0000000000000000     
  0.62500000000000000        9.3750000000000000E-002   0.0000000000000000     
  0.50000000000000000       0.12500000000000000        0.0000000000000000     
  0.53125000000000000       0.12500000000000000        0.0000000000000000     
  0.56250000000000000       0.12500000000000000        0.0000000000000000     
  0.59375000000000000       0.12500000000000000        0.0000000000000000     
  0.62500000000000000       0.12500000000000000        0.0000000000000000     
  0.62500000000000000        0.0000000000000000        0.0000000000000000     
  0.65625000000000000        0.0000000000000000        0.0000000000000000     
  0.68750000000000000        0.0000000000000000        0.0000000000000000     
  0.71875000000000000        0.0000000000000000        0.0000000000000000     
  0.75000000000000000        0.0000000000000000        0.0000000000000000     
  0.62500000000000000        3.1250000000000000E-002   0.0000000000000000     
  0.65625000000000000        3.1250000000000000E-002   0.0000000000000000     
  0.68750000000000000        3.1250000000000000E-002   0.0000000000000000     
  0.71875000000000000        3.1250000000000000E-002   0.0000000000000000     
  0.75000000000000000        3.1250000000000000E-002   0.0000000000000000     
  0.62500000000000000        6.2500000000000000E-002   0.0000000000000000     
  0.65625000000000000        6.2500000000000000E-002   0.0000000000000000     
  0.68750000000000000        6.2500000000000000E-002   0.0000000000000000     
  0.71875000000000000        6.2500000000000000E-002   0.0000000000000000     
  0.75000000000000000        6.2500000000000000E-002   0.0000000000000000     
  0.62500000000000000        9.3750000000000000E-002   0.0000000000000000     
  0.65625000000000000        9.3750000000000000E-002   0.0000000000000000     
  0.68750000000000000        9.3750000000000000E-002   0.0000000000000000     
  0.71875000000000000        9.3750000000000000E-002   0.0000000000000000     
  0.75000000000000000        9.3750000000000000E-002   0.0000000000000000     
  0.62500000000000000       0.12500000000000000        0.0000000000000000     
  0.65625000000000000       0.12500000000000000        0.0000000000000000     
  0.68750000000000000       0.12500000000000000        0.0000000000000000     
  0.71875000000000000       0.12500000000000000        0.0000000000000000     
  0.75000000000000000       0.12500000000000000        0.0000000000000000     
  0.75000000000000000        0.0000000000000000        0.0000000000000000     
  0.78125000000000000        0.0000000000000000        0.0000000000000000     
  0.81250000000000000        0.0000000000000000        0.0000000000000000     
  0.84375000000000000        0.0000000000000000        0.0000000000000000     
  0.87500000000000000        0.0000000000000000        0.0000000000000000     
  0.75000000000000000        3.1250000000000000E-002   0.0000000000000000     
  0.78125000000000000        3.1250000000000000E-002   0.0000000000000000     
  0.81250000000000000        3.1250000000000000E-002   0.0000000000000000     
  0.84375000000000000        3.1250000000000000E-002   0.0000000000000000     
  0.87500000000000000        3.1250000000000000E-002   0.0000000000000000     
  0.75000000000000000        6.2500000000000000E-002   0.0000000000000000     
  0.78125000000000000        6.2500000000000000E-002   0.0000000000000000     
  0.81250000000000000        6.2500000000000000E-002   0.0000000000000000     
  0.84375000000000000        6.2500000000000000E-002   0.0000000000000000     
  0.87500000000000000        6.2500000000000000E-002   0.0000000000000000     
  0.75000000000000000        9.3750000000000000E-002   0.0000000000000000     
  0.78125000000000000        9.3750000000000000E-002   0.0000000000000000     
  0.81250000000000000        9.3750000000000000E-002   0.0000000000000000     
  0.84375000000000000        9.3750000000000000E-002   0.0000000000000000     
  0.87500000000000000        9.3750000000000000E-002   0.0000000000000000     
  0.75000000000000000       0.12500000000000000        0.0000000000000000     
  0.78125000000000000       0.12500000000000000        0.0000000000000000     
  0.81250000000000000       0.12500000000000000        0.0000000000000000     
  0.84375000000000000       0.12500000000000000        0.0000000000000000     
  0.87500000000000000       0.12500000000000000        0.0000000000000000     
  0.87500000000000000        0.0000000000000000        0.0000000000000000     
  0.90625000000000000        0.0000000000000000        0.0000000000000000     
  0.93750000000000000        0.0000000000000000        0.0000000000000000     
  0.96875000000000000        0.0000000000000000        0.0000000000000000     
   1.0000000000000000        0.0000000000000000        0.0000000000000000     
  0.87500000000000000        3.1250000000000000E-002   0.0000000000000000     
  0.90625000000000000        3.1250000000000000E-002   0.0000000000000000     
  0.93750000000000000        3.1250000000000000E-002   0.0000000000000000     
  0.96875000000000000        3.1250000000000000E-002   0.0000000000000000     
   1.0000000000000000        3.1250000000000000E-002   0.0000000000000000     
  0.87500000000000000        6.2500000000000000E-002   0.0000000000000000     
  0.90625000000000000        6.2500000000000000E-002   0.0000000000000000     
  0.93750000000000000        6.2500000000000000E-002   0.0000000000000000     
  0.96875000000000000        6.2500000000000000E-002   0.0000000000000000     
   1.0000000000000000        6.2500000000000000E-002   0.0000000000000000     
  0.87500000000000000        9.3750000000000000E-002   0.0000000000000000     
  0.90625000000000000        9.3750000000000000E-002   0.0000000000000000     
  0.93750000000000000        9.3750000000000000E-002   0.0000000000000000     
  0.96875000000000000        9.3750000000000000E-002   0.0000000000000000     
   1.0000000000000000        9.3750000000000000E-002   0.0000000000000000     
  0.87500000000000000       0.12500000000000000        0.0000000000000000     
  0.90625000000000000       0.12500000000000000        0.0000000000000000     
  0.93750000000000000       0.12500000000000000        0.0000000000000000     
  0.96875000000000000       0.12500000000000000        0.0000000000000000     
   1.0000000000000000       0.12500000000000000        0.0000000000000000     
   0.0000000000000000       0.12500000000000000        0.0000000000000000     
   3.1250000000000000E-002  0.12500000000000000        0.0000000000000000     
   6.2500000000000000E-002  0.12500000000000000        0.0000000000000000     
   9.3750000000000000E-002  0.12500000000000000        0.0000000000000000     
  0.12500000000000000       0.12500000000000000        0.0000000000000000     
   0.0000000000000000       0.15625000000000000        0.0000000000000000     
   3.1250000000000000E-002  0.15625000000000000        0.0000000000000000     
   6.2500000000000000E-002  0.15625000000000000        0.0000000000000000     
   9.3750000000000000E-002  0.15625000000000000        0.0000000000000000     
  0.12500000000000000       0.15625000000000000        0.0000000000000000     
   0.0000000000000000       0.18750000000000000        0.0000000000000000     
   3.1250000000000000E-002  0.18750000000000000        0.0000000000000000     
   6.2500000000000000E-002  0.18750000000000000        0.0000000000000000     
   9.3750000000000000E-002  0.18750000000000000        0.0000000000000000     
  0.12500000000000000       0.18750000000000000        0.0000000000000000     
   0.0000000000000000       0.21875000000000000        0.0000000000000000     
   3.1250000000000000E-002  0.21875000000000000        0.0000000000000000     
   6.2500000000000000E-002  0.21875000000000000        0.0000000000000000     
   9.3750000000000000E-002  0.21875000000000000        0.0000000000000000     
  0.12500000000000000       0.21875000000000000        0.0000000000000000     
   0.0000000000000000       0.25000000000000000        0.0000000000000000     
   3.1250000000000000E-002  0.25000000000000000        0.0000000000000000     
   6.2500000000000000E-002  0.25000000000000000        0.0000000000000000     
   9.3750000000000000E-002  0.25000000000000000        0.0000000000000000     
  0.12500000000000000       0.25000000000000000        0.0000000000000000     
  0.12500000000000000       0.12500000000000000        0.0000000000000000     
  0.15625000000000000       0.12500000000000000        0.0000000000000000     
  0.18750000000000000       0.12500000000000000        0.0000000000000000     
  0.21875000000000000       0.12500000000000000        0.0000000000000000     
  0.25000000000000000       0.12500000000000000        0.0000000000000000     
  0.12500000000000000       0.15625000000000000        0.0000000000000000     
  0.15625000000000000       0.15625000000000000        0.0000000000000000     
  0.18750000000000000       0.15625000000000000        0.0000000000000000     
  0.21875000000000000       0.15625000000000000        0.0000000000000000     
  0.25000000000000000       0.15625000000000000        0.0000000000000000     
  0.12500000000000000       0.18750000000000000        0.0000000000000000     
  0.15625000000000000       0.18750000000000000        0.0000000000000000     
  0.18750000000000000       0.18750000000000000        0.0000000000000000     
  0.21875000000000000       0.18750000000000000        0.0000000000000000     
  0.25000000000000000       0.18750000000000000        0.0000000000000000     
  0.12500000000000000       0.21875000000000000        0.0000000000000000     
  0.15625000000000000       0.21875000000000000        0.0000000000000000     
  0.18750000000000000       0.21875000000000000        0.0000000000000000     
  0.21875000000000000       0.21875000000000000        0.0000000000000000     
  0.25000000000000000       0.21875000000000000        0.0000000000000000     
  0.12500000000000000       0.25000000000000000        0.0000000000000000     
  0.15625000000000000       0.25000000000000000        0.0000000000000000     
  0.18750000000000000       0.25000000000000000        0.0000000000000000     
  0.21875000000000000       0.25000000000000000        0.0000000000000000     
  0.25000000000000000       0.25000000000000000        0.0000000000000000     
  0.25000000000000000       0.12500000000000000        0.0000000000000000     
  0.28125000000000000       0.12500000000000000        0.0000000000000000     
  0.31250000000000000       0.12500000000000000        0.0000000000000000     
  0.34375000000000000       0.12500000000000000        0.0000000000000000     
  0.37500000000000000       0.12500000000000000        0.0000000000000000     
  0.25000000000000000       0.15625000000000000        0.0000000000000000     
  0.28125000000000000       0.15625000000000000        0.0000000000000000     
  0.31250000000000000       0.15625000000000000        0.0000000000000000     
  0.34375000000000000       0.15625000000000000        0.0000000000000000     
  0.37500000000000000       0.15625000000000000        0.0000000000000000     
  0.25000000000000000       0.18750000000000000        0.0000000000000000     
  0.28125000000000000       0.18750000000000000        0.0000000000000000     
  0.31250000000000000       0.18750000000000000        0.0000000000000000     
  0.34375000000000000       0.18750000000000000        0.0000000000000000     
  0.37500000000000000       0.18750000000000000        0.0000000000000000     
  0.25000000000000000       0.21875000000000000        0.0000000000000000     
  0.28125000000000000       0.21875000000000000        0.0000000000000000     
  0.31250000000000000       0.21875000000000000        0.0000000000000000     
  0.34375000000000000       0.21875000000000000        0.0000000000000000     
  0.37500000000000000       0.21875000000000000        0.0000000000000000     
  0.25000000000000000       0.25000000000000000        0.0000000000000000     
  0.28125000000000000       0.25000000000000000        0.0000000000000000     
  0.31250000000000000       0.25000000000000000        0.0000000000000000     
  0.34375000000000000       0.25000000000000000        0.0000000000000000     
  0.37500000000000000       0.25000000000000000        0.0000000000000000     
  0.37500000000000000       0.12500000000000000        0.0000000000000000     
  0.40625000000000000       0.12500000000000000        0.0000000000000000     
  0.43750000000000000       0.12500000000000000        0.0000000000000000     
  0.46875000000000000       0.12500000000000000        0.0000000000000000     
  0.50000000000000000       0.12500000000000000        0.0000000000000000     
  0.37500000000000000       0.15625000000000000        0.0000000000000000     
  0.40625000000000000       0.15625000000000000        0.0000000000000000     
  0.43750000000000000       0.15625000000000000        0.0000000000000000     
  0.46875000000000000       0.15625000000000000        0.0000000000000000     
  0.50000000000000000       0.15625000000000000        0.0000000000000000     
  0.37500000000000000       0.18750000000000000        0.0000000000000000     
  0.40625000000000000       0.18750000000000000        0.0000000000000000     
  0.43750000000000000       0.18750000000000000        0.0000000000000000     
  0.46875000000000000       0.18750000000000000        0.0000000000000000     
  0.50000000000000000       0.18750000000000000        0.0000000000000000     
  0.37500000000000000       0.21875000000000000        0.0000000000000000     
  0.40625000000000000       0.21875000000000000        0.0000000000000000     
  0.43750000000000000       0.21875000000000000        0.0000000000000000     
  0.46875000000000000       0.21875000000000000        0.0000000000000000     
  0.50000000000000000       0.21875000000000000        0.0000000000000000     
  0.37500000000000000       0.25000000000000000        0.0000000000000000     
  0.40625000000000000       0.25000000000000000        0.0000000000000000     
  0.43750000000000000       0.25000000000000000        0.0000000000000000     
  0.46875000000000000       0.25000000000000000        0.0000000000000000     
  0.50000000000000000       0.25000000000000000        0.0000000000000000     
  0.50000000000000000       0.12500000000000000        0.0000000000000000     
  0.53125000000000000       0.12500000000000000        0.0000000000000000     
  0.56250000000000000       0.12500000000000000        0.0000000000000000     
  0.59375000000000000       0.12500000000000000        0.0000000000000000     
  0.62500000000000000       0.12500000000000000        0.0000000000000000     
  0.50000000000000000       0.15625000000000000        0.0000000000000000     
  0.53125000000000000       0.15625000000000000        0.0000000000000000     
  0.56250000000000000       0.15625000000000000        0.0000000000000000     
  0.59375000000000000       0.15625000000000000        0.0000000000000000     
  0.62500000000000000       0.15625000000000000        0.0000000000000000     
  0.50000000000000000       0.18750000000000000        0.0000000000000000     
  0.53125000000000000       0.18750000000000000        0.0000000000000000     
  0.56250000000000000       0.18750000000000000        0.0000000000000000     
  0.59375000000000000       0.18750000000000000        0.0000000000000000     
  0.62500000000000000       0.18750000000000000        0.0000000000000000     
  0.50000000000000000       0.21875000000000000        0.0000000000000000     
  0.53125000000000000       0.21875000000000000        0.0000000000000000     
  0.56250000000000000       0.21875000000000000        0.0000000000000000     
  0.59375000000000000       0.21875000000000000        0.0000000000000000     
  0.62500000000000000       0.21875000000000000        0.0000000000000000     
  0.50000000000000000       0.25000000000000000        0.0000000000000000     
  0.53125000000000000       0.25000000000000000        0.0000000000000000     
  0.56250000000000000       0.25000000000000000        0.0000000000000000     
  0.59375000000000000       0.25000000000000000        0.0000000000000000     
  0.62500000000000000       0.25000000000000000        0.0000000000000000     
  0.62500000000000000       0.12500000000000000        0.0000000000000000     
  0.65625000000000000       0.12500000000000000        0.0000000000000000     
  0.68750000000000000       0.12500000000000000        0.0000000000000000     
  0.71875000000000000       0.12500000000000000        0.0000000000000000     
  0.75000000000000000       0.12500000000000000        0.0000000000000000     
  0.62500000000000000       0.15625000000000000        0.0000000000000000     
  0.65625000000000000       0.15625000000000000        0.0000000000000000     
  0.68750000000000000       0.15625000000000000        0.0000000000000000     
  0.71875000000000000       0.15625000000000000        0.0000000000000000     
  0.75000000000000000       0.15625000000000000        0.0000000000000000     
  0.62500000000000000       0.18750000000000000        0.0000000000000000     
  0.65625000000000000       0.18750000000000000        0.0000000000000000     
  0.68750000000000000       0.18750000000000000        0.0000000000000000     
  0.71875000000000000       0.18750000000000000        0.0000000000000000     
  0.75000000000000000       0.18750000000000000        0.0000000000000000     
  0.62500000000000000       0.21875000000000000        0.0000000000000000     
  0.65625000000000000       0.21875000000000000        0.0000000000000000     
  0.68750000000000000       0.21875000000000000        0.0000000000000000     
  0.71875000000000000       0.21875000000000000        0.0000000000000000     
  0.75000000000000000       0.21875000000000000        0.0000000000000000     
  0.62500000000000000       0.25000000000000000        0.0000000000000000     
  0.65625000000000000       0.25000000000000000        0.0000000000000000     
  0.68750000000000000       0.25000000000000000        0.0000000000000000     
  0.71875000000000000       0.25000000000000000        0.0000000000000000     
  0.75000000000000000       0.25000000000000000        0.0000000000000000     
  0.75000000000000000       0.12500000000000000        0.0000000000000000     
  0.78125000000000000       0.12500000000000000        0.0000000000000000     
  0.81250000000000000       0.12500000000000000        0.0000000000000000     
  0.84375000000000000       0.12500000000000000        0.0000000000000000     
  0.87500000000000000       0.12500000000000000        0.0000000000000000     
  0.75000000000000000       0.15625000000000000        0.0000000000000000     
  0.78125000000000000       0.15625000000000000        0.0000000000000000     
  0.81250000000000000       0.15625000000000000        0.0000000000000000     
  0.84375000000000000       0.15625000000000000        0.0000000000000000     
  0.87500000000000000       0.15625000000000000        0.0000000000000000     
  0.75000000000000000       0.18750000000000000        0.0000000000000000     
  0.78125000000000000       0.18750000000000000        0.0000000000000000     
  0.81250000000000000       0.18750000000000000        0.0000000000000000     
  0.84375000000000000       0.18750000000000000        0.0000000000000000     
  0.87500000000000000       0.18750000000000000        0.0000000000000000     
  0.75000000000000000       0.21875000000000000        0.0000000000000000     
  0.78125000000000000       0.21875000000000000        0.0000000000000000     
  0.81250000000000000       0.21875000000000000        0.0000000000000000     
  0.84375000000000000       0.21875000000000000        0.0000000000000000     
  0.87500000000000000       0.21875000000000000        0.0000000000000000     
  0.75000000000000000       0.25000000000000000        0.0000000000000000     
  0.78125000000000000       0.25000000000000000        0.0000000000000000     
  0.81250000000000000       0.25000000000000000        0.0000000000000000     
  0.84375000000000000       0.25000000000000000        0.0000000000000000     
  0.87500000000000000       0.25000000000000000        0.0000000000000000     
  0.87500000000000000       0.12500000000000000        0.0000000000000000     
  0.90625000000000000       0.12500000000000000        0.0000000000000000     
  0.93750000000000000       0.12500000000000000        0.0000000000000000     
  0.96875000000000000       0.12500000000000000        0.0000000000000000     
   1.0000000000000000       0.12500000000000000        0.0000000000000000     
  0.87500000000000000       0.15625000000000000        0.0000000000000000     
  0.90625000000000000       0.15625000000000000        0.0000000000000000     
  0.93750000000000000       0.15625000000000000        0.0000000000000000     
  0.96875000000000000       0.15625000000000000        0.0000000000000000     
   1.0000000000000000       0.15625000000000000        0.0000000000000000     
  0.87500000000000000       0.18750000000000000        0.0000000000000000     
  0.90625000000000000       0.18750000000000000        0.0000000000000000     
  0.93750000000000000       0.18750000000000000        0.0000000000000000     
  0.96875000000000000       0.18750000000000000        0.0000000000000000     
   1.0000000000000000       0.18750000000000000        0.0000000000000000     
  0.87500000000000000       0.21875000000000000        0.0000000000000000     
  0.90625000000000000       0.21875000000000000        0.0000000000000000     
  0.93750000000000000       0.21875000000000000        0.0000000000000000     
  0.96875000000000000       0.21875000000000000        0.0000000000000000     
   1.0000000000000000       0.21875000000000000        0.0000000000000000     
  0.87500000000000000       0.25000000000000000        0.0000000000000000     
  0.90625000000000000       0.25000000000000000        0.0000000000000000     
  0.93750000000000000       0.25000000000000000        0.0000000000000000     
  0.96875000000000000       0.25000000000000000        0.0000000000000000     
   1.0000000000000000       0.25000000000000000        0.0000000000000000     
   0.0000000000000000       0.25000000000000000        0.0000000000000000     
   3.1250000000000000E-002  0.25000000000000000        0.0000000000000000     
   6.2500000000000000E-002  0.25000000000000000        0.0000000000000000     
   9.3750000000000000E-002  0.25000000000000000        0.0000000000000000     
  0.12500000000000000       0.25000000000000000        0.0000000000000000     
   0.0000000000000000       0.28125000000000000        0.0000000000000000     
   3.1250000000000000E-002  0.28125000000000000        0.0000000000000000     
   6.2500000000000000E-002  0.28125000000000000        0.0000000000000000     
   9.3750000000000000E-002  0.28125000000000000        0.0000000000000000     
  0.12500000000000000       0.28125000000000000        0.0000000000000000     
   0.0000000000000000       0.31250000000000000        0.0000000000000000     
   3.1250000000000000E-002  0.31250000000000000        0.0000000000000000     
   6.2500000000000000E-002  0.31250000000000000        0.0000000000000000     
   9.3750000000000000E-002  0.31250000000000000        0.0000000000000000     
  0.12500000000000000       0.31250000000000000        0.0000000000000000     
   0.0000000000000000       0.34375000000000000        0.0000000000000000     
   3.1250000000000000E-002  0.34375000000000000        0.0000000000000000     
   6.2500000000000000E-002  0.34375000000000000        0.0000000000000000     
   9.3750000000000000E-002  0.34375000000000000        0.0000000000000000     
  0.12500000000000000       0.34375000000000000        0.0000000000000000     
   0.0000000000000000       0.37500000000000000        0.0000000000000000     
   3.1250000000000000E-002  0.37500000000000000        0.0000000000000000     
   6.2500000000000000E-002  0.37500000000000000        0.0000000000000000     
   9.3750000000000000E-002  0.37500000000000000        0.0000000000000000     
  0.12500000000000000       0.37500000000000000        0.0000000000000000     
  0.12500000000000000       0.25000000000000000        0.0000000000000000     
  0.15625000000000000       0.25000000000000000        0.0000000000000000     
  0.18750000000000000       0.25000000000000000        0.0000000000000000     
  0.21875000000000000       0.25000000000000000        0.0000000000000000     
  0.25000000000000000       0.25000000000000000        0.0000000000000000     
  0.12500000000000000       0.28125000000000000        0.0000000000000000     
  0.15625000000000000       0.28125000000000000        0.0000000000000000     
  0.18750000000000000       0.28125000000000000        0.0000000000000000     
  0.21875000000000000       0.28125000000000000        0.0000000000000000     
  0.25000000000000000       0.28125000000000000        0.0000000000000000     
  0.12500000000000000       0.31250000000000000        0.0000000000000000     
  0.15625000000000000       0.31250000000000000        0.0000000000000000     
  0.18750000000000000       0.31250000000000000        0.0000000000000000     
  0.21875000000000000       0.31250000000000000        0.0000000000000000     
  0.25000000000000000       0.31250000000000000        0.0000000000000000     
  0.12500000000000000       0.34375000000000000        0.0000000000000000     
  0.15625000000000000       0.34375000000000000        0.0000000000000000     
  0.18750000000000000       0.34375000000000000        0.0000000000000000     
  0.21875000000000000       0.34375000000000000        0.0000000000000000     
  0.25000000000000000       0.34375000000000000        0.0000000000000000     
  0.12500000000000000       0.37500000000000000        0.0000000000000000     
  0.15625000000000000       0.37500000000000000        0.0000000000000000     
  0.18750000000000000       0.37500000000000000        0.0000000000000000     
  0.21875000000000000       0.37500000000000000        0.0000000000000000     
  0.25000000000000000       0.37500000000000000        0.0000000000000000     
  0.25000000000000000       0.25000000000000000        0.0000000000000000     
  0.28125000000000000       0.25000000000000000        0.0000000000000000     
  0.31250000000000000       0.25000000000000000        0.0000000000000000     
  0.34375000000000000       0.25000000000000000        0.0000000000000000     
  0.37500000000000000       0.25000000000000000        0.0000000000000000     
  0.25000000000000000       0.28125000000000000        0.0000000000000000     
  0.28125000000000000       0.28125000000000000        0.0000000000000000     
  0.31250000000000000       0.28125000000000000        0.0000000000000000     
  0.34375000000000000       0.28125000000000000        0.0000000000000000     
  0.37500000000000000       0.28125000000000000        0.0000000000000000     
  0.25000000000000000       0.31250000000000000        0.0000000000000000     
  0.28125000000000000       0.31250000000000000        0.0000000000000000     
  0.31250000000000000       0.31250000000000000        0.0000000000000000     
  0.34375000000000000       0.31250000000000000        0.0000000000000000     
  0.37500000000000000       0.31250000000000000        0.0000000000000000     
  0.25000000000000000       0.34375000000000000        0.0000000000000000     
  0.28125000000000000       0.34375000000000000        0.0000000000000000     
  0.31250000000000000       0.34375000000000000        0.0000000000000000     
  0.34375000000000000       0.34375000000000000        0.0000000000000000     
  0.37500000000000000       0.34375000000000000        0.0000000000000000     
  0.25000000000000000       0.37500000000000000        0.0000000000000000     
  0.28125000000000000       0.37500000000000000        0.0000000000000000     
  0.31250000000000000       0.37500000000000000        0.0000000000000000     
  0.34375000000000000       0.37500000000000000        0.0000000000000000     
  0.37500000000000000       0.37500000000000000        0.0000000000000000     
  0.37500000000000000       0.25000000000000000        0.0000000000000000     
  0.40625000000000000       0.25000000000000000        0.0000000000000000     
  0.43750000000000000       0.25000000000000000        0.0000000000000000     
  0.46875000000000000       0.25000000000000000        0.0000000000000000     
  0.50000000000000000       0.25000000000000000        0.0000000000000000     
  0.37500000000000000       0.28125000000000000        0.0000000000000000     
  0.40625000000000000       0.28125000000000000        0.0000000000000000     
  0.43750000000000000       0.28125000000000000        0.0000000000000000     
  0.46875000000000000       0.28125000000000000        0.0000000000000000     
  0.50000000000000000       0.28125000000000000        0.0000000000000000     
  0.37500000000000000       0.31250000000000000        0.0000000000000000     
  0.40625000000000000       0.31250000000000000        0.0000000000000000     
  0.43750000000000000       0.31250000000000000        0.0000000000000000     
  0.46875000000000000       0.31250000000000000        0.0000000000000000     
  0.50000000000000000       0.31250000000000000        0.0000000000000000     
  0.37500000000000000       0.34375000000000000        0.0000000000000000     
  0.40625000000000000       0.34375000000000000        0.0000000000000000     
  0.43750000000000000       0.34375000000000000        0.0000000000000000     
  0.46875000000000000       0.34375000000000000        0.0000000000000000     
  0.50000000000000000       0.34375000000000000        0.0000000000000000     
  0.37500000000000000       0.37500000000000000        0.0000000000000000     
  0.40625000000000000       0.37500000000000000        0.0000000000000000     
  0.43750000000000000       0.37500000000000000        0.0000000000000000     
  0.46875000000000000       0.37500000000000000        0.0000000000000000     
  0.50000000000000000       0.37500000000000000        0.0000000000000000     
  0.50000000000000000       0.25000000000000000        0.0000000000000000     
  0.53125000000000000       0.25000000000000000        0.0000000000000000     
  0.56250000000000000       0.25000000000000000        0.0000000000000000     
  0.59375000000000000       0.25000000000000000        0.0000000000000000     
  0.62500000000000000       0.25000000000000000        0.0000000000000000     
  0.50000000000000000       0.28125000000000000        0.0000000000000000     
  0.53125000000000000       0.28125000000000000        0.0000000000000000     
  0.56250000000000000       0.28125000000000000        0.0000000000000000     
  0.59375000000000000       0.28125000000000000        0.0000000000000000     
  0.62500000000000000       0.28125000000000000        0.0000000000000000     
  0.50000000000000000       0.31250000000000000        0.0000000000000000     
  0.53125000000000000       0.31250000000000000        0.0000000000000000     
  0.56250000000000000       0.31250000000000000        0.0000000000000000     
  0.59375000000000000       0.31250000000000000        0.0000000000000000     
  0.62500000000000000       0.31250000000000000        0.0000000000000000     
  0.50000000000000000       0.34375000000000000        0.0000000000000000     
  0.53125000000000000       0.34375000000000000        0.0000000000000000     
  0.56250000000000000       0.34375000000000000        0.0000000000000000     
  0.59375000000000000       0.34375000000000000        0.0000000000000000     
  0.62500000000000000       0.34375000000000000        0.0000000000000000     
  0.50000000000000000       0.37500000000000000        0.0000000000000000     
  0.53125000000000000       0.37500000000000000        0.0000000000000000     
  0.56250000000000000       0.37500000000000000        0.0000000000000000     
  0.59375000000000000       0.37500000000000000        0.0000000000000000     
  0.62500000000000000       0.37500000000000000        0.0000000000000000     
  0.62500000000000000       0.25000000000000000        0.0000000000000000     
  0.65625000000000000       0.25000000000000000        0.0000000000000000     
  0.68750000000000000       0.25000000000000000        0.0000000000000000     
  0.71875000000000000       0.25000000000000000        0.0000000000000000     
  0.75000000000000000       0.25000000000000000        0.0000000000000000     
  0.62500000000000000       0.28125000000000000        0.0000000000000000     
  0.65625000000000000       0.28125000000000000        0.0000000000000000     
  0.68750000000000000       0.28125000000000000        0.0000000000000000     
  0.71875000000000000       0.28125000000000000        0.0000000000000000     
  0.75000000000000000       0.28125000000000000        0.0000000000000000     
  0.62500000000000000       0.31250000000000000        0.0000000000000000     
  0.65625000000000000       0.31250000000000000        0.0000000000000000     
  0.68750000000000000       0.31250000000000000        0.0000000000000000     
  0.71875000000000000       0.31250000000000000        0.0000000000000000     
  0.75000000000000000       0.31250000000000000        0.0000000000000000     
  0.62500000000000000       0.34375000000000000        0.0000000000000000     
  0.65625000000000000       0.34375000000000000        0.0000000000000000     
  0.68750000000000000       0.34375000000000000        0.0000000000000000     
  0.71875000000000000       0.34375000000000000        0.0000000000000000     
  0.75000000000000000       0.34375000000000000        0.0000000000000000     
  0.62500000000000000       0.37500000000000000        0.0000000000000000     
  0.65625000000000000       0.37500000000000000        0.0000000000000000     
  0.68750000000000000       0.37500000000000000        0.0000000000000000     
  0.71875000000000000       0.37500000000000000        0.0000000000000000     
  0.75000000000000000       0.37500000000000000        0.0000000000000000     
  0.75000000000000000       0.25000000000000000        0.0000000000000000     
  0.78125000000000000       0.25000000000000000        0.0000000000000000     
  0.81250000000000000       0.25000000000000000        0.0000000000000000     
  0.84375000000000000       0.25000000000000000        0.0000000000000000     
  0.87500000000000000       0.25000000000000000        0.0000000000000000     
  0.75000000000000000       0.28125000000000000        0.0000000000000000     
  0.78125000000000000       0.28125000000000000        0.0000000000000000     
  0.81250000000000000       0.28125000000000000        0.0000000000000000     
  0.84375000000000000       0.28125000000000000        0.0000000000000000     
  0.87500000000000000       0.28125000000000000        0.0000000000000000     
  0.75000000000000000       0.31250000000000000        0.0000000000000000     
  0.78125000000000000       0.31250000000000000        0.0000000000000000     
  0.81250000000000000       0.31250000000000000        0.0000000000000000     
  0.84375000000000000       0.31250000000000000        0.0000000000000000     
  0.87500000000000000       0.31250000000000000        0.0000000000000000     
  0.75000000000000000       0.34375000000000000        0.0000000000000000     
  0.78125000000000000       0.34375000000000000        0.0000000000000000     
  0.81250000000000000       0.34375000000000000        0.0000000000000000     
  0.84375000000000000       0.34375000000000000        0.0000000000000000     
  0.87500000000000000       0.34375000000000000        0.0000000000000000     
  0.75000000000000000       0.37500000000000000        0.0000000000000000     
  0.78125000000000000       0.37500000000000000        0.0000000000000000     
  0.81250000000000000       0.37500000000000000        0.0000000000000000     
  0.84375000000000000       0.37500000000000000        0.0000000000000000     
  0.87500000000000000       0.37500000000000000        0.0000000000000000     
  0.87500000000000000       0.25000000000000000        0.0000000000000000     
  0.90625000000000000       0.25000000000000000        0.0000000000000000     
  0.93750000000000000       0.25000000000000000        0.0000000000000000     
  0.96875000000000000       0.25000000000000000        0.0000000000000000     
   1.0000000000000000       0.25000000000000000        0.0000000000000000     
  0.87500000000000000       0.28125000000000000        0.0000000000000000     
  0.90625000000000000       0.28125000000000000        0.0000000000000000     
  0.93750000000000000       0.28125000000000000        0.0000000000000000     
  0.96875000000000000       0.28125000000000000        0.0000000000000000     
   1.0000000000000000       0.28125000000000000        0.0000000000000000     
  0.87500000000000000       0.31250000000000000        0.0000000000000000     
  0.90625000000000000       0.31250000000000000        0.0000000000000000     
  0.93750000000000000       0.31250000000000000        0.0000000000000000     
  0.96875000000000000       0.31250000000000000        0.0000000000000000     
   1.0000000000000000       0.31250000000000000        0.0000000000000000     
  0.87500000000000000       0.34375000000000000        0.0000000000000000     
  0.90625000000000000       0.34375000000000000        0.0000000000000000     
  0.93750000000000000       0.34375000000000000        0.0000000000000000     
  0.96875000000000000       0.34375000000000000        0.0000000000000000     
   1.0000000000000000       0.34375000000000000        0.0000000000000000     
  0.87500000000000000       0.37500000000000000        0.0000000000000000     
  0.90625000000000000       0.37500000000000000        0.0000000000000000     
  0.93750000000000000       0.37500000000000000        0.0000000000000000     
  0.96875000000000000       0.37500000000000000        0.0000000000000000     
   1.0000000000000000       0.37500000000000000        0.0000000000000000     
   0.0000000000000000       0.37500000000000000        0.0000000000000000     
   3.1250000000000000E-002  0.37500000000000000        0.0000000000000000     
   6.2500000000000000E-002  0.37500000000000000        0.0000000000000000     
   9.3750000000000000E-002  0.37500000000000000        0.0000000000000000     
  0.12500000000000000       0.37500000000000000        0.0000000000000000     
   0.0000000000000000       0.40625000000000000        0.0000000000000000     
   3.1250000000000000E-002  0.40625000000000000        0.0000000000000000     
   6.2500000000000000E-002  0.40625000000000000        0.0000000000000000     
   9.3750000000000000E-002  0.40625000000000000        0.0000000000000000     
  0.12500000000000000       0.40625000000000000        0.0000000000000000     
   0.0000000000000000       0.43750000000000000        0.0000000000000000     
   3.1250000000000000E-002  0.43750000000000000        0.0000000000000000     
   6.2500000000000000E-002  0.43750000000000000        0.0000000000000000     
   9.3750000000000000E-002  0.43750000000000000        0.0000000000000000     
  0.12500000000000000       0.43750000000000000        0.0000000000000000     
   0.0000000000000000       0.46875000000000000        0.0000000000000000     
   3.1250000000000000E-002  0.46875000000000000        0.0000000000000000     
   6.2500000000000000E-002  0.46875000000000000        0.0000000000000000     
   9.3750000000000000E-002  0.46875000000000000        0.0000000000000000     
  0.12500000000000000       0.46875000000000000        0.0000000000000000     
   0.0000000000000000       0.50000000000000000        0.0000000000000000     
   3.1250000000000000E-002  0.50000000000000000        0.0000000000000000     
   6.2500000000000000E-002  0.50000000000000000        0.0000000000000000     
   9.3750000000000000E-002  0.50000000000000000        0.0000000000000000     
  0.12500000000000000       0.50000000000000000        0.0000000000000000     
  0.12500000000000000       0.37500000000000000        0.0000000000000000     
  0.15625000000000000       0.37500000000000000        0.0000000000000000     
  0.18750000000000000       0.37500000000000000        0.0000000000000000     
  0.21875000000000000       0.37500000000000000        0.0000000000000000     
  0.25000000000000000       0.37500000000000000        0.0000000000000000     
  0.12500000000000000       0.40625000000000000        0.0000000000000000     
  0.15625000000000000       0.40625000000000000        0.0000000000000000     
  0.18750000000000000       0.40625000000000000        0.0000000000000000     
  0.21875000000000000       0.40625000000000000        0.0000000000000000     
  0.25000000000000000       0.40625000000000000        0.0000000000000000     
  0.12500000000000000       0.43750000000000000        0.0000000000000000     
  0.15625000000000000       0.43750000000000000        0.0000000000000000     
  0.18750000000000000       0.43750000000000000        0.0000000000000000     
  0.21875000000000000       0.43750000000000000        0.0000000000000000     
  0.25000000000000000       0.43750000000000000        0.0000000000000000     
  0.12500000000000000       0.46875000000000000        0.0000000000000000     
  0.15625000000000000       0.46875000000000000        0.0000000000000000     
  0.18750000000000000       0.46875000000000000        0.0000000000000000     
  0.21875000000000000       0.46875000000000000        0.0000000000000000     
  0.25000000000000000       0.46875000000000000        0.0000000000000000     
  0.12500000000000000       0.50000000000000000        0.0000000000000000     
  0.15625000000000000       0.50000000000000000        0.0000000000000000     
  0.18750000000000000       0.50000000000000000        0.0000000000000000     
  0.21875000000000000       0.50000000000000000        0.0000000000000000     
  0.25000000000000000       0.50000000000000000        0.0000000000000000     
  0.25000000000000000       0.37500000000000000        0.0000000000000000     
  0.28125000000000000       0.37500000000000000        0.0000000000000000     
  0.31250000000000000       0.37500000000000000        0.0000000000000000     
  0.34375000000000000       0.37500000000000000        0.0000000000000000     
  0.37500000000000000       0.37500000000000000        0.0000000000000000     
  0.25000000000000000       0.40625000000000000        0.0000000000000000     
  0.28125000000000000       0.40625000000000000        0.0000000000000000     
  0.31250000000000000       0.40625000000000000        0.0000000000000000     
  0.34375000000000000       0.40625000000000000        0.0000000000000000     
  0.37500000000000000       0.40625000000000000        0.0000000000000000     
  0.25000000000000000       0.43750000000000000        0.0000000000000000     
  0.28125000000000000       0.43750000000000000        0.0000000000000000     
  0.31250000000000000       0.43750000000000000        0.0000000000000000     
  0.34375000000000000       0.43750000000000000        0.0000000000000000     
  0.37500000000000000       0.43750000000000000        0.0000000000000000     
  0.25000000000000000       0.46875000000000000        0.0000000000000000     
  0.28125000000000000       0.46875000000000000        0.0000000000000000     
  0.31250000000000000       0.46875000000000000        0.0000000000000000     
  0.34375000000000000       0.46875000000000000        0.0000000000000000     
  0.37500000000000000       0.46875000000000000        0.0000000000000000     
  0.25000000000000000       0.50000000000000000        0.0000000000000000     
  0.28125000000000000       0.50000000000000000        0.0000000000000000     
  0.31250000000000000       0.50000000000000000        0.0000000000000000     
  0.34375000000000000       0.50000000000000000        0.0000000000000000     
  0.37500000000000000       0.50000000000000000        0.0000000000000000     
  0.37500000000000000       0.37500000000000000        0.0000000000000000     
  0.40625000000000000       0.37500000000000000        0.0000000000000000     
  0.43750000000000000       0.37500000000000000        0.0000000000000000     
  0.46875000000000000       0.37500000000000000        0.0000000000000000     
  0.50000000000000000       0.37500000000000000        0.0000000000000000     
  0.37500000000000000       0.40625000000000000        0.0000000000000000     
  0.40625000000000000       0.40625000000000000        0.0000000000000000     
  0.43750000000000000       0.40625000000000000        0.0000000000000000     
  0.46875000000000000       0.40625000000000000        0.0000000000000000     
  0.50000000000000000       0.40625000000000000        0.0000000000000000     
  0.37500000000000000       0.43750000000000000        0.0000000000000000     
  0.40625000000000000       0.43750000000000000        0.0000000000000000     
  0.43750000000000000       0.43750000000000000        0.0000000000000000     
  0.46875000000000000       0.43750000000000000        0.0000000000000000     
  0.50000000000000000       0.43750000000000000        0.0000000000000000     
  0.37500000000000000       0.46875000000000000        0.0000000000000000     
  0.40625000000000000       0.46875000000000000        0.0000000000000000     
  0.43750000000000000       0.46875000000000000        0.0000000000000000     
  0.46875000000000000       0.46875000000000000        0.0000000000000000     
  0.50000000000000000       0.46875000000000000        0.0000000000000000     
  0.37500000000000000       0.50000000000000000        0.0000000000000000     
  0.40625000000000000       0.50000000000000000        0.0000000000000000     
  0.43750000000000000       0.50000000000000000        0.0000000000000000     
  0.46875000000000000       0.50000000000000000        0.0000000000000000     
  0.50000000000000000       0.50000000000000000        0.0000000000000000     
  0.50000000000000000       0.37500000000000000        0.0000000000000000     
  0.53125000000000000       0.37500000000000000        0.0000000000000000     
  0.56250000000000000       0.37500000000000000        0.0000000000000000     
  0.59375000000000000       0.37500000000000000        0.0000000000000000     
  0.62500000000000000       0.37500000000000000        0.0000000000000000     
  0.50000000000000000       0.40625000000000000        0.0000000000000000     
  0.53125000000000000       0.40625000000000000        0.0000000000000000     
  0.56250000000000000       0.40625000000000000        0.0000000000000000     
  0.59375000000000000       0.40625000000000000        0.0000000000000000     
  0.62500000000000000       0.40625000000000000        0.0000000000000000     
  0.50000000000000000       0.43750000000000000        0.0000000000000000     
  0.53125000000000000       0.43750000000000000        0.0000000000000000     
  0.56250000000000000       0.43750000000000000        0.0000000000000000     
  0.59375000000000000       0.43750000000000000        0.0000000000000000     
  0.62500000000000000       0.43750000000000000        0.0000000000000000     
  0.50000000000000000       0.46875000000000000        0.0000000000000000     
  0.53125000000000000       0.46875000000000000        0.0000000000000000     
  0.56250000000000000       0.46875000000000000        0.0000000000000000     
  0.59375000000000000       0.46875000000000000        0.0000000000000000     
  0.62500000000000000       0.46875000000000000        0.0000000000000000     
  0.50000000000000000       0.50000000000000000        0.0000000000000000     
  0.53125000000000000       0.50000000000000000        0.0000000000000000     
  0.56250000000000000       0.50000000000000000        0.0000000000000000     
  0.59375000000000000       0.50000000000000000        0.0000000000000000     
  0.62500000000000000       0.50000000000000000        0.0000000000000000     
  0.62500000000000000       0.37500000000000000        0.0000000000000000     
  0.65625000000000000       0.37500000000000000        0.0000000000000000     
  0.68750000000000000       0.37500000000000000        0.0000000000000000     
  0.71875000000000000       0.37500000000000000        0.0000000000000000     
  0.75000000000000000       0.37500000000000000        0.0000000000000000     
  0.62500000000000000       0.40625000000000000        0.0000000000000000     
  0.65625000000000000       0.40625000000000000        0.0000000000000000     
  0.68750000000000000       0.40625000000000000        0.0000000000000000     
  0.71875000000000000       0.40625000000000000        0.0000000000000000     
  0.75000000000000000       0.40625000000000000        0.0000000000000000     
  0.62500000000000000       0.43750000000000000        0.0000000000000000     
  0.65625000000000000       0.43750000000000000        0.0000000000000000     
  0.68750000000000000       0.43750000000000000        0.0000000000000000     
  0.71875000000000000       0.43750000000000000        0.0000000000000000     
  0.75000000000000000       0.43750000000000000        0.0000000000000000     
  0.62500000000000000       0.46875000000000000        0.0000000000000000     
  0.65625000000000000       0.46875000000000000        0.0000000000000000     
  0.68750000000000000       0.46875000000000000        0.0000000000000000     
  0.71875000000000000       0.46875000000000000        0.0000000000000000     
  0.75000000000000000       0.46875000000000000        0.0000000000000000     
  0.62500000000000000       0.50000000000000000        0.0000000000000000     
  0.65625000000000000       0.50000000000000000        0.0000000000000000     
  0.68750000000000000       0.50000000000000000        0.0000000000000000     
  0.71875000000000000       0.50000000000000000        0.0000000000000000     
  0.75000000000000000       0.50000000000000000        0.0000000000000000     
  0.75000000000000000       0.37500000000000000        0.0000000000000000     
  0.78125000000000000       0.37500000000000000        0.0000000000000000     
  0.81250000000000000       0.37500000000000000        0.0000000000000000     
  0.84375000000000000       0.37500000000000000        0.0000000000000000     
  0.87500000000000000       0.37500000000000000        0.0000000000000000     
  0.75000000000000000       0.40625000000000000        0.0000000000000000     
  0.78125000000000000       0.40625000000000000        0.0000000000000000     
  0.81250000000000000       0.40625000000000000        0.0000000000000000     
  0.84375000000000000       0.40625000000000000        0.0000000000000000     
  0.87500000000000000       0.40625000000000000        0.0000000000000000     
  0.75000000000000000       0.43750000000000000        0.0000000000000000     
  0.78125000000000000       0.43750000000000000        0.0000000000000000     
  0.81250000000000000       0.43750000000000000        0.0000000000000000     
  0.84375000000000000       0.43750000000000000        0.0000000000000000     
  0.87500000000000000       0.43750000000000000        0.0000000000000000     
  0.75000000000000000       0.46875000000000000        0.0000000000000000     
  0.78125000000000000       0.46875000000000000        0.0000000000000000     
  0.81250000000000000       0.46875000000000000        0.0000000000000000     
  0.84375000000000000       0.46875000000000000        0.0000000000000000     
  0.87500000000000000       0.46875000000000000        0.0000000000000000     
  0.75000000000000000       0.50000000000000000        0.0000000000000000     
  0.78125000000000000       0.50000000000000000        0.0000000000000000     
  0.81250000000000000       0.50000000000000000        0.0000000000000000     
  0.84375000000000000       0.50000000000000000        0.0000000000000000     
  0.87500000000000000       0.50000000000000000        0.0000000000000000     
  0.87500000000000000       0.37500000000000000        0.0000000000000000     
  0.90625000000000000       0.37500000000000000        0.0000000000000000     
  0.93750000000000000       0.37500000000000000        0.0000000000000000     
  0.96875000000000000       0.37500000000000000        0.0000000000000000     
   1.0000000000000000       0.37500000000000000        0.0000000000000000     
  0.87500000000000000       0.40625000000000000        0.0000000000000000     
  0.90625000000000000       0.40625000000000000        0.0000000000000000     
  0.93750000000000000       0.40625000000000000        0.0000000000000000     
  0.96875000000000000       0.40625000000000000        0.0000000000000000     
   1.0000000000000000       0.40625000000000000        0.0000000000000000     
  0.87500000000000000       0.43750000000000000        0.0000000000000000     
  0.90625000000000000       0.43750000000000000        0.0000000000000000     
  0.93750000000000000       0.43750000000000000        0.0000000000000000     
  0.96875000000000000       0.43750000000000000        0.0000000000000000     
   1.0000000000000000       0.43750000000000000        0.0000000000000000     
  0.87500000000000000       0.46875000000000000        0.0000000000000000     
  0.90625000000000000       0.46875000000000000        0.0000000000000000     
  0.93750000000000000       0.46875000000000000        0.0000000000000000     
  0.96875000000000000       0.46875000000000000        0.0000000000000000     
   1.0000000000000000       0.46875000000000000        0.0000000000000000     
  0.87500000000000000       0.50000000000000000        0.0000000000000000     
  0.90625000000000000       0.50000000000000000        0.0000000000000000     
  0.93750000000000000       0.50000000000000000        0.0000000000000000     
  0.96875000000000000       0.50000000000000000        0.0000000000000000     
   1.0000000000000000       0.50000000000000000        0.0000000000000000     
   0.0000000000000000       0.50000000000000000        0.0000000000000000     
   3.1250000000000000E-002  0.50000000000000000        0.0000000000000000     
   6.2500000000000000E-002  0.50000000000000000        0.0000000000000000     
   9.3750000000000000E-002  0.50000000000000000        0.0000000000000000     
  0.12500000000000000       0.50000000000000000        0.0000000000000000     
   0.0000000000000000       0.53125000000000000        0.0000000000000000     
   3.1250000000000000E-002  0.53125000000000000        0.0000000000000000     
   6.2500000000000000E-002  0.53125000000000000        0.0000000000000000     
   9.3750000000000000E-002  0.53125000000000000        0.0000000000000000     
  0.12500000000000000       0.53125000000000000        0.0000000000000000     
   0.0000000000000000       0.56250000000000000        0.0000000000000000     
   3.1250000000000000E-002  0.56250000000000000        0.0000000000000000     
   6.2500000000000000E-002  0.56250000000000000        0.0000000000000000     
   9.3750000000000000E-002  0.56250000000000000        0.0000000000000000     
  0.12500000000000000       0.56250000000000000        0.0000000000000000     
   0.0000000000000000       0.59375000000000000        0.0000000000000000     
   3.1250000000000000E-002  0.59375000000000000        0.0000000000000000     
   6.2500000000000000E-002  0.59375000000000000        0.0000000000000000     
   9.3750000000000000E-002  0.59375000000000000        0.0000000000000000     
  0.12500000000000000       0.59375000000000000        0.0000000000000000     
   0.0000000000000000       0.62500000000000000        0.0000000000000000     
   3.1250000000000000E-002  0.62500000000000000        0.0000000000000000     
   6.2500000000000000E-002  0.62500000000000000        0.0000000000000000     
   9.3750000000000000E-002  0.62500000000000000        0.0000000000000000     
  0.12500000000000000       0.62500000000000000        0.0000000000000000     
  0.12500000000000000       0.50000000000000000        0.0000000000000000     
  0.15625000000000000       0.50000000000000000        0.0000000000000000     
  0.18750000000000000       0.50000000000000000        0.0000000000000000     
  0.21875000000000000       0.50000000000000000        0.0000000000000000     
  0.25000000000000000       0.50000000000000000        0.0000000000000000     
  0.12500000000000000       0.53125000000000000        0.0000000000000000     
  0.15625000000000000       0.53125000000000000        0.0000000000000000     
  0.18750000000000000       0.53125000000000000        0.0000000000000000     
  0.21875000000000000       0.53125000000000000        0.0000000000000000     
  0.25000000000000000       0.53125000000000000        0.0000000000000000     
  0.12500000000000000       0.56250000000000000        0.0000000000000000     
  0.15625000000000000       0.56250000000000000        0.0000000000000000     
  0.18750000000000000       0.56250000000000000        0.0000000000000000     
  0.21875000000000000       0.56250000000000000        0.0000000000000000     
  0.25000000000000000       0.56250000000000000        0.0000000000000000     
  0.12500000000000000       0.59375000000000000        0.0000000000000000     
  0.15625000000000000       0.59375000000000000        0.0000000000000000     
  0.18750000000000000       0.59375000000000000        0.0000000000000000     
  0.21875000000000000       0.59375000000000000        0.0000000000000000     
  0.25000000000000000       0.59375000000000000        0.0000000000000000     
  0.12500000000000000       0.62500000000000000        0.0000000000000000     
  0.15625000000000000       0.62500000000000000        0.0000000000000000     
  0.18750000000000000       0.62500000000000000        0.0000000000000000     
  0.21875000000000000       0.62500000000000000        0.0000000000000000     
  0.25000000000000000       0.62500000000000000        0.0000000000000000     
  0.25000000000000000       0.50000000000000000        0.0000000000000000     
  0.28125000000000000       0.50000000000000000        0.0000000000000000     
  0.31250000000000000       0.50000000000000000        0.0000000000000000     
  0.34375000000000000       0.50000000000000000        0.0000000000000000     
  0.37500000000000000       0.50000000000000000        0.0000000000000000     
  0.25000000000000000       0.53125000000000000        0.0000000000000000     
  0.28125000000000000       0.53125000000000000        0.0000000000000000     
  0.31250000000000000       0.53125000000000000        0.0000000000000000     
  0.34375000000000000       0.53125000000000000        0.0000000000000000     
  0.37500000000000000       0.53125000000000000        0.0000000000000000     
  0.25000000000000000       0.56250000000000000        0.0000000000000000     
  0.28125000000000000       0.56250000000000000        0.0000000000000000     
  0.31250000000000000       0.56250000000000000        0.0000000000000000     
  0.34375000000000000       0.56250000000000000        0.0000000000000000     
  0.37500000000000000       0.56250000000000000        0.0000000000000000     
  0.25000000000000000       0.59375000000000000        0.0000000000000000     
  0.28125000000000000       0.59375000000000000        0.0000000000000000     
  0.31250000000000000       0.59375000000000000        0.0000000000000000     
  0.34375000000000000       0.59375000000000000        0.0000000000000000     
  0.37500000000000000       0.59375000000000000        0.0000000000000000     
  0.25000000000000000       0.62500000000000000        0.0000000000000000     
  0.28125000000000000       0.62500000000000000        0.0000000000000000     
  0.31250000000000000       0.62500000000000000        0.0000000000000000     
  0.34375000000000000       0.62500000000000000        0.0000000000000000     
  0.37500000000000000       0.62500000000000000        0.0000000000000000     
  0.37500000000000000       0.50000000000000000        0.0000000000000000     
  0.40625000000000000       0.50000000000000000        0.0000000000000000     
  0.43750000000000000       0.50000000000000000        0.0000000000000000     
  0.46875000000000000       0.50000000000000000        0.0000000000000000     
  0.50000000000000000       0.50000000000000000        0.0000000000000000     
  0.37500000000000000       0.53125000000000000        0.0000000000000000     
  0.40625000000000000       0.53125000000000000        0.0000000000000000     
  0.43750000000000000       0.53125000000000000        0.0000000000000000     
  0.46875000000000000       0.53125000000000000        0.0000000000000000     
  0.50000000000000000       0.53125000000000000        0.0000000000000000     
  0.37500000000000000       0.56250000000000000        0.0000000000000000     
  0.40625000000000000       0.56250000000000000        0.0000000000000000     
  0.43750000000000000       0.56250000000000000        0.0000000000000000     
  0.46875000000000000       0.56250000000000000        0.0000000000000000     
  0.50000000000000000       0.56250000000000000        0.0000000000000000     
  0.37500000000000000       0.59375000000000000        0.0000000000000000     
  0.40625000000000000       0.59375000000000000        0.0000000000000000     
  0.43750000000000000       0.59375000000000000        0.0000000000000000     
  0.46875000000000000       0.59375000000000000        0.0000000000000000     
  0.50000000000000000       0.59375000000000000        0.0000000000000000     
  0.37500000000000000       0.62500000000000000        0.0000000000000000     
  0.40625000000000000       0.62500000000000000        0.0000000000000000     
  0.43750000000000000       0.62500000000000000        0.0000000000000000     
  0.46875000000000000       0.62500000000000000        0.0000000000000000     
  0.50000000000000000       0.62500000000000000        0.0000000000000000     
  0.50000000000000000       0.50000000000000000        0.0000000000000000     
  0.53125000000000000       0.50000000000000000        0.0000000000000000     
  0.56250000000000000       0.50000000000000000        0.0000000000000000     
  0.59375000000000000       0.50000000000000000        0.0000000000000000     
  0.62500000000000000       0.50000000000000000        0.0000000000000000     
  0.50000000000000000       0.53125000000000000        0.0000000000000000     
  0.53125000000000000       0.53125000000000000        0.0000000000000000     
  0.56250000000000000       0.53125000000000000        0.0000000000000000     
  0.59375000000000000       0.53125000000000000        0.0000000000000000     
  0.62500000000000000       0.53125000000000000        0.0000000000000000     
  0.50000000000000000       0.56250000000000000        0.0000000000000000     
  0.53125000000000000       0.56250000000000000        0.0000000000000000     
  0.56250000000000000       0.56250000000000000        0.0000000000000000     
  0.59375000000000000       0.56250000000000000        0.0000000000000000     
  0.62500000000000000       0.56250000000000000        0.0000000000000000     
  0.50000000000000000       0.59375000000000000        0.0000000000000000     
  0.53125000000000000       0.59375000000000000        0.0000000000000000     
  0.56250000000000000       0.59375000000000000        0.0000000000000000     
  0.59375000000000000       0.59375000000000000        0.0000000000000000     
  0.62500000000000000       0.59375000000000000        0.0000000000000000     
  0.50000000000000000       0.62500000000000000        0.0000000000000000     
  0.53125000000000000       0.62500000000000000        0.0000000000000000     
  0.56250000000000000       0.62500000000000000        0.0000000000000000     
  0.59375000000000000       0.62500000000000000        0.0000000000000000     
  0.62500000000000000       0.62500000000000000        0.0000000000000000     
  0.62500000000000000       0.50000000000000000        0.0000000000000000     
  0.65625000000000000       0.50000000000000000        0.0000000000000000     
  0.68750000000000000       0.50000000000000000        0.0000000000000000     
  0.71875000000000000       0.50000000000000000        0.0000000000000000     
  0.75000000000000000       0.50000000000000000        0.0000000000000000     
  0.62500000000000000       0.53125000000000000        0.0000000000000000     
  0.65625000000000000       0.53125000000000000        0.0000000000000000     
  0.68750000000000000       0.53125000000000000        0.0000000000000000     
  0.71875000000000000       0.53125000000000000        0.0000000000000000     
  0.75000000000000000       0.53125000000000000        0.0000000000000000     
  0.62500000000000000       0.56250000000000000        0.0000000000000000     
  0.65625000000000000       0.56250000000000000        0.0000000000000000     
  0.68750000000000000       0.56250000000000000        0.0000000000000000     
  0.71875000000000000       0.56250000000000000        0.0000000000000000     
  0.75000000000000000       0.56250000000000000        0.0000000000000000     
  0.62500000000000000       0.59375000000000000        0.0000000000000000     
  0.65625000000000000       0.59375000000000000        0.0000000000000000     
  0.68750000000000000       0.59375000000000000        0.0000000000000000     
  0.71875000000000000       0.59375000000000000        0.0000000000000000     
  0.75000000000000000       0.59375000000000000        0.0000000000000000     
  0.62500000000000000       0.62500000000000000        0.0000000000000000     
  0.65625000000000000       0.62500000000000000        0.0000000000000000     
  0.68750000000000000       0.62500000000000000        0.0000000000000000     
  0.71875000000000000       0.62500000000000000        0.0000000000000000     
  0.75000000000000000       0.62500000000000000        0.0000000000000000     
  0.75000000000000000       0.50000000000000000        0.0000000000000000     
  0.78125000000000000       0.50000000000000000        0.0000000000000000     
  0.81250000000000000       0.50000000000000000        0.0000000000000000     
  0.84375000000000000       0.50000000000000000        0.0000000000000000     
  0.87500000000000000       0.50000000000000000        0.0000000000000000     
  0.75000000000000000       0.53125000000000000        0.0000000000000000     
  0.78125000000000000       0.53125000000000000        0.0000000000000000     
  0.81250000000000000       0.53125000000000000        0.0000000000000000     
  0.84375000000000000       0.53125000000000000        0.0000000000000000     
  0.87500000000000000       0.53125000000000000        0.0000000000000000     
  0.75000000000000000       0.56250000000000000        0.0000000000000000     
  0.78125000000000000       0.56250000000000000        0.0000000000000000     
  0.81250000000000000       0.56250000000000000        0.0000000000000000     
  0.84375000000000000       0.56250000000000000        0.0000000000000000     
  0.87500000000000000       0.56250000000000000        0.0000000000000000     
  0.75000000000000000       0.59375000000000000        0.0000000000000000     
  0.78125000000000000       0.59375000000000000        0.0000000000000000     
  0.81250000000000000       0.59375000000000000        0.0000000000000000     
  0.84375000000000000       0.59375000000000000        0.0000000000000000     
  0.87500000000000000       0.59375000000000000        0.0000000000000000     
  0.75000000000000000       0.62500000000000000        0.0000000000000000     
  0.78125000000000000       0.62500000000000000        0.0000000000000000     
  0.81250000000000000       0.62500000000000000        0.0000000000000000     
  0.84375000000000000       0.62500000000000000        0.0000000000000000     
  0.87500000000000000       0.62500000000000000        0.0000000000000000     
  0.87500000000000000       0.50000000000000000        0.0000000000000000     
  0.90625000000000000       0.50000000000000000        0.0000000000000000     
  0.93750000000000000       0.50000000000000000        0.0000000000000000     
  0.96875000000000000       0.50000000000000000        0.0000000000000000     
   1.0000000000000000       0.50000000000000000        0.0000000000000000     
  0.87500000000000000       0.53125000000000000        0.0000000000000000     
  0.90625000000000000       0.53125000000000000        0.0000000000000000     
  0.93750000000000000       0.53125000000000000        0.0000000000000000     
  0.96875000000000000       0.53125000000000000        0.0000000000000000     
   1.0000000000000000       0.53125000000000000        0.0000000000000000     
  0.87500000000000000       0.56250000000000000        0.0000000000000000     
  0.90625000000000000       0.56250000000000000        0.0000000000000000     
  0.93750000000000000       0.56250000000000000        0.0000000000000000     
  0.96875000000000000       0.56250000000000000        0.0000000000000000     
   1.0000000000000000       0.56250000000000000        0.0000000000000000     
  0.87500000000000000       0.59375000000000000        0.0000000000000000     
  0.90625000000000000       0.59375000000000000        0.0000000000000000     
  0.93750000000000000       0.59375000000000000        0.0000000000000000     
  0.96875000000000000       0.59375000000000000        0.0000000000000000     
   1.0000000000000000       0.59375000000000000        0.0000000000000000     
  0.87500000000000000       0.62500000000000000        0.0000000000000000     
  0.90625000000000000       0.62500000000000000        0.0000000000000000     
  0.93750000000000000       0.62500000000000000        0.0000000000000000     
  0.96875000000000000       0.62500000000000000        0.0000000000000000     
   1.0000000000000000       0.62500000000000000        0.0000000000000000     
   0.0000000000000000       0.62500000000000000        0.0000000000000000     
   3.1250000000000000E-002  0.62500000000000000        0.0000000000000000     
   6.2500000000000000E-002  0.62500000000000000        0.0000000000000000     
   9.3750000000000000E-002  0.62500000000000000        0.0000000000000000     
  0.12500000000000000       0.62500000000000000        0.0000000000000000     
   0.0000000000000000       0.65625000000000000        0.0000000000000000     
   3.1250000000000000E-002  0.65625000000000000        0.0000000000000000     
   6.2500000000000000E-002  0.65625000000000000        0.0000000000000000     
   9.3750000000000000E-002  0.65625000000000000        0.0000000000000000     
  0.12500000000000000       0.65625000000000000        0.0000000000000000     
   0.0000000000000000       0.68750000000000000        0.0000000000000000     
   3.1250000000000000E-002  0.68750000000000000        0.0000000000000000     
   6.2500000000000000E-002  0.68750000000000000        0.0000000000000000     
   9.3750000000000000E-002  0.68750000000000000        0.0000000000000000     
  0.12500000000000000       0.68750000000000000        0.0000000000000000     
   0.0000000000000000       0.71875000000000000        0.0000000000000000     
   3.1250000000000000E-002  0.71875000000000000        0.0000000000000000     
   6.2500000000000000E-002  0.71875000000000000        0.0000000000000000     
   9.3750000000000000E-002  0.71875000000000000        0.0000000000000000     
  0.12500000000000000       0.71875000000000000        0.0000000000000000     
   0.0000000000000000       0.75000000000000000        0.0000000000000000     
   3.1250000000000000E-002  0.75000000000000000        0.0000000000000000     
   6.2500000000000000E-002  0.75000000000000000        0.0000000000000000     
   9.3750000000000000E-002  0.75000000000000000        0.0000000000000000     
  0.12500000000000000       0.75000000000000000        0.0000000000000000     
  0.12500000000000000       0.62500000000000000        0.0000000000000000     
  0.15625000000000000       0.62500000000000000        0.0000000000000000     
  0.18750000000000000       0.62500000000000000        0.0000000000000000     
  0.21875000000000000       0.62500000000000000        0.0000000000000000     
  0.25000000000000000       0.62500000000000000        0.0000000000000000     
  0.12500000000000000       0.65625000000000000        0.0000000000000000     
  0.15625000000000000       0.65625000000000000        0.0000000000000000     
  0.18750000000000000       0.65625000000000000        0.0000000000000000     
  0.21875000000000000       0.65625000000000000        0.0000000000000000     
  0.25000000000000000       0.65625000000000000        0.0000000000000000     
  0.12500000000000000       0.68750000000000000        0.0000000000000000     
  0.15625000000000000       0.68750000000000000        0.0000000000000000     
  0.18750000000000000       0.68750000000000000        0.0000000000000000     
  0.21875000000000000       0.68750000000000000        0.0000000000000000     
  0.25000000000000000       0.68750000000000000        0.0000000000000000     
  0.12500000000000000       0.71875000000000000        0.0000000000000000     
  0.15625000000000000       0.71875000000000000        0.0000000000000000     
  0.18750000000000000       0.71875000000000000        0.0000000000000000     
  0.21875000000000000       0.71875000000000000        0.0000000000000000     
  0.25000000000000000       0.71875000000000000        0.0000000000000000     
  0.12500000000000000       0.75000000000000000        0.0000000000000000     
  0.15625000000000000       0.75000000000000000        0.0000000000000000     
  0.18750000000000000       0.75000000000000000        0.0000000000000000     
  0.21875000000000000       0.75000000000000000        0.0000000000000000     
  0.25000000000000000       0.75000000000000000        0.0000000000000000     
  0.25000000000000000       0.62500000000000000        0.0000000000000000     
  0.28125000000000000       0.62500000000000000        0.0000000000000000     
  0.31250000000000000       0.62500000000000000        0.0000000000000000     
  0.34375000000000000       0.62500000000000000        0.0000000000000000     
  0.37500000000000000       0.62500000000000000        0.0000000000000000     
  0.25000000000000000       0.65625000000000000        0.0000000000000000     
  0.28125000000000000       0.65625000000000000        0.0000000000000000     
  0.31250000000000000       0.65625000000000000        0.0000000000000000     
  0.34375000000000000       0.65625000000000000        0.0000000000000000     
  0.37500000000000000       0.65625000000000000        0.0000000000000000     
  0.25000000000000000       0.68750000000000000        0.0000000000000000     
  0.28125000000000000       0.68750000000000000        0.0000000000000000     
  0.31250000000000000       0.68750000000000000        0.0000000000000000     
  0.34375000000000000       0.68750000000000000        0.0000000000000000     
  0.37500000000000000       0.68750000000000000        0.0000000000000000     
  0.25000000000000000       0.71875000000000000        0.0000000000000000     
  0.28125000000000000       0.71875000000000000        0.0000000000000000     
  0.31250000000000000       0.71875000000000000        0.0000000000000000     
  0.34375000000000000       0.71875000000000000        0.0000000000000000     
  0.37500000000000000       0.71875000000000000        0.0000000000000000     
  0.25000000000000000       0.75000000000000000        0.0000000000000000     
  0.28125000000000000       0.75000000000000000        0.0000000000000000     
  0.31250000000000000       0.75000000000000000        0.0000000000000000     
  0.34375000000000000       0.75000000000000000        0.0000000000000000     
  0.37500000000000000       0.75000000000000000        0.0000000000000000     
  0.37500000000000000       0.62500000000000000        0.0000000000000000     
  0.40625000000000000       0.62500000000000000        0.0000000000000000     
  0.43750000000000000       0.62500000000000000        0.0000000000000000     
  0.46875000000000000       0.62500000000000000        0.0000000000000000     
  0.50000000000000000       0.62500000000000000        0.0000000000000000     
  0.37500000000000000       0.65625000000000000        0.0000000000000000     
  0.40625000000000000       0.65625000000000000        0.0000000000000000     
  0.43750000000000000       0.65625000000000000        0.0000000000000000     
  0.46875000000000000       0.65625000000000000        0.0000000000000000     
  0.50000000000000000       0.65625000000000000        0.0000000000000000     
  0.37500000000000000       0.68750000000000000        0.0000000000000000     
  0.40625000000000000       0.68750000000000000        0.0000000000000000     
  0.43750000000000000       0.68750000000000000        0.0000000000000000     
  0.46875000000000000       0.68750000000000000        0.0000000000000000     
  0.50000000000000000       0.68750000000000000        0.0000000000000000     
  0.37500000000000000       0.71875000000000000        0.0000000000000000     
  0.40625000000000000       0.71875000000000000        0.0000000000000000     
  0.43750000000000000       0.71875000000000000        0.0000000000000000     
  0.46875000000000000       0.71875000000000000        0.0000000000000000     
  0.50000000000000000       0.71875000000000000        0.0000000000000000     
  0.37500000000000000       0.75000000000000000        0.0000000000000000     
  0.40625000000000000       0.75000000000000000        0.0000000000000000     
  0.43750000000000000       0.75000000000000000        0.0000000000000000     
  0.46875000000000000       0.75000000000000000        0.0000000000000000     
  0.50000000000000000       0.75000000000000000        0.0000000000000000     
  0.50000000000000000       0.62500000000000000        0.0000000000000000     
  0.53125000000000000       0.62500000000000000        0.0000000000000000     
  0.56250000000000000       0.62500000000000000        0.0000000000000000     
  0.59375000000000000       0.62500000000000000        0.0000000000000000     
  0.62500000000000000       0.62500000000000000        0.0000000000000000     
  0.50000000000000000       0.65625000000000000        0.0000000000000000     
  0.53125000000000000       0.65625000000000000        0.0000000000000000     
  0.56250000000000000       0.65625000000000000        0.0000000000000000     
  0.59375000000000000       0.65625000000000000        0.0000000000000000     
  0.62500000000000000       0.65625000000000000        0.0000000000000000     
  0.50000000000000000       0.68750000000000000        0.0000000000000000     
  0.53125000000000000       0.68750000000000000        0.0000000000000000     
  0.56250000000000000       0.68750000000000000        0.0000000000000000     
  0.59375000000000000       0.68750000000000000        0.0000000000000000     
  0.62500000000000000       0.68750000000000000        0.0000000000000000     
  0.50000000000000000       0.71875000000000000        0.0000000000000000     
  0.53125000000000000       0.71875000000000000        0.0000000000000000     
  0.56250000000000000       0.71875000000000000        0.0000000000000000     
  0.59375000000000000       0.71875000000000000        0.0000000000000000     
  0.62500000000000000       0.71875000000000000        0.0000000000000000     
  0.50000000000000000       0.75000000000000000        0.0000000000000000     
  0.53125000000000000       0.75000000000000000        0.0000000000000000     
  0.56250000000000000       0.75000000000000000        0.0000000000000000     
  0.59375000000000000       0.75000000000000000        0.0000000000000000     
  0.62500000000000000       0.75000000000000000        0.0000000000000000     
  0.62500000000000000       0.62500000000000000        0.0000000000000000     
  0.65625000000000000       0.62500000000000000        0.0000000000000000     
  0.68750000000000000       0.62500000000000000        0.0000000000000000     
  0.71875000000000000       0.62500000000000000        0.0000000000000000     
  0.75000000000000000       0.62500000000000000        0.0000000000000000     
  0.62500000000000000       0.65625000000000000        0.0000000000000000     
  0.65625000000000000       0.65625000000000000        0.0000000000000000     
  0.68750000000000000       0.65625000000000000        0.0000000000000000     
  0.71875000000000000       0.65625000000000000        0.0000000000000000     
  0.75000000000000000       0.65625000000000000        0.0000000000000000     
  0.62500000000000000       0.68750000000000000        0.0000000000000000     
  0.65625000000000000       0.68750000000000000        0.0000000000000000     
  0.68750000000000000       0.68750000000000000        0.0000000000000000     
  0.71875000000000000       0.68750000000000000        0.0000000000000000     
  0.75000000000000000       0.68750000000000000        0.0000000000000000     
  0.62500000000000000       0.71875000000000000        0.0000000000000000     
  0.65625000000000000       0.71875000000000000        0.0000000000000000     
  0.68750000000000000       0.71875000000000000        0.0000000000000000     
  0.71875000000000000       0.71875000000000000        0.0000000000000000     
  0.75000000000000000       0.71875000000000000        0.0000000000000000     
  0.62500000000000000       0.75000000000000000        0.0000000000000000     
  0.65625000000000000       0.75000000000000000        0.0000000000000000     
  0.68750000000000000       0.75000000000000000        0.0000000000000000     
  0.71875000000000000       0.75000000000000000        0.0000000000000000     
  0.75000000000000000       0.75000000000000000        0.0000000000000000     
  0.75000000000000000       0.62500000000000000        0.0000000000000000     
  0.78125000000000000       0.62500000000000000        0.0000000000000000     
  0.81250000000000000       0.62500000000000000        0.0000000000000000     
  0.84375000000000000       0.62500000000000000        0.0000000000000000     
  0.87500000000000000       0.62500000000000000        0.0000000000000000     
  0.75000000000000000       0.65625000000000000        0.0000000000000000     
  0.78125000000000000       0.65625000000000000        0.0000000000000000     
  0.81250000000000000       0.65625000000000000        0.0000000000000000     
  0.84375000000000000       0.65625000000000000        0.0000000000000000     
  0.87500000000000000       0.65625000000000000        0.0000000000000000     
  0.75000000000000000       0.68750000000000000        0.0000000000000000     
  0.78125000000000000       0.68750000000000000        0.0000000000000000     
  0.81250000000000000       0.68750000000000000        0.0000000000000000     
  0.84375000000000000       0.68750000000000000        0.0000000000000000     
  0.87500000000000000       0.68750000000000000        0.0000000000000000     
  0.75000000000000000       0.71875000000000000        0.0000000000000000     
  0.78125000000000000       0.71875000000000000        0.0000000000000000     
  0.81250000000000000       0.71875000000000000        0.0000000000000000     
  0.84375000000000000       0.71875000000000000        0.0000000000000000     
  0.87500000000000000       0.71875000000000000        0.0000000000000000     
  0.75000000000000000       0.75000000000000000        0.0000000000000000     
  0.78125000000000000       0.75000000000000000        0.0000000000000000     
  0.81250000000000000       0.75000000000000000        0.0000000000000000     
  0.84375000000000000       0.75000000000000000        0.0000000000000000     
  0.87500000000000000       0.75000000000000000        0.0000000000000000     
  0.87500000000000000       0.62500000000000000        0.0000000000000000     
  0.90625000000000000       0.62500000000000000        0.0000000000000000     
  0.93750000000000000       0.62500000000000000        0.0000000000000000     
  0.96875000000000000       0.62500000000000000        0.0000000000000000     
   1.0000000000000000       0.62500000000000000        0.0000000000000000     
  0.87500000000000000       0.65625000000000000        0.0000000000000000     
  0.90625000000000000       0.65625000000000000        0.0000000000000000     
  0.93750000000000000       0.65625000000000000        0.0000000000000000     
  0.96875000000000000       0.65625000000000000        0.0000000000000000     
   1.0000000000000000       0.65625000000000000        0.0000000000000000     
  0.87500000000000000       0.68750000000000000        0.0000000000000000     
  0.90625000000000000       0.68750000000000000        0.0000000000000000     
  0.93750000000000000       0.68750000000000000        0.0000000000000000     
  0.96875000000000000       0.68750000000000000        0.0000000000000000     
   1.0000000000000000       0.68750000000000000        0.0000000000000000     
  0.87500000000000000       0.71875000000000000        0.0000000000000000     
  0.90625000000000000       0.71875000000000000        0.0000000000000000     
  0.93750000000000000       0.71875000000000000        0.0000000000000000     
  0.96875000000000000       0.71875000000000000        0.0000000000000000     
   1.0000000000000000       0.71875000000000000        0.0000000000000000     
  0.87500000000000000       0.75000000000000000        0.0000000000000000     
  0.90625000000000000       0.75000000000000000        0.0000000000000000     
  0.93750000000000000       0.75000000000000000        0.0000000000000000     
  0.96875000000000000       0.75000000000000000        0.0000000000000000     
   1.0000000000000000       0.75000000000000000        0.0000000000000000     
   0.0000000000000000       0.75000000000000000        0.0000000000000000     
   3.1250000000000000E-002  0.75000000000000000        0.0000000000000000     
   6.2500000000000000E-002  0.75000000000000000        0.0000000000000000     
   9.3750000000000000E-002  0.75000000000000000        0.0000000000000000     
  0.12500000000000000       0.75000000000000000        0.0000000000000000     
   0.0000000000000000       0.78125000000000000        0.0000000000000000     
   3.1250000000000000E-002  0.78125000000000000        0.0000000000000000     
   6.2500000000000000E-002  0.78125000000000000        0.0000000000000000     
   9.3750000000000000E-002  0.78125000000000000        0.0000000000000000     
  0.12500000000000000       0.78125000000000000        0.0000000000000000     
   0.0000000000000000       0.81250000000000000        0.0000000000000000     
   3.1250000000000000E-002  0.81250000000000000        0.0000000000000000     
   6.2500000000000000E-002  0.81250000000000000        0.0000000000000000     
   9.3750000000000000E-002  0.81250000000000000        0.0000000000000000     
  0.12500000000000000       0.81250000000000000        0.0000000000000000     
   0.0000000000000000       0.84375000000000000        0.0000000000000000     
   3.1250000000000000E-002  0.84375000000000000        0.0000000000000000     
   6.2500000000000000E-002  0.84375000000000000        0.0000000000000000     
   9.3750000000000000E-002  0.84375000000000000        0.0000000000000000     
  0.12500000000000000       0.84375000000000000        0.0000000000000000     
   0.0000000000000000       0.87500000000000000        0.0000000000000000     
   3.1250000000000000E-002  0.87500000000000000        0.0000000000000000     
   6.2500000000000000E-002  0.87500000000000000        0.0000000000000000     
   9.3750000000000000E-002  0.87500000000000000        0.0000000000000000     
  0.12500000000000000       0.87500000000000000        0.0000000000000000     
  0.12500000000000000       0.75000000000000000        0.0000000000000000     
  0.15625000000000000       0.75000000000000000        0.0000000000000000     
  0.18750000000000000       0.75000000000000000        0.0000000000000000     
  0.21875000000000000       0.75000000000000000        0.0000000000000000     
  0.25000000000000000       0.75000000000000000        0.0000000000000000     
  0.12500000000000000       0.78125000000000000        0.0000000000000000     
  0.15625000000000000       0.78125000000000000        0.0000000000000000     
  0.18750000000000000       0.78125000000000000        0.0000000000000000     
  0.21875000000000000       0.78125000000000000        0.0000000000000000     
  0.25000000000000000       0.78125000000000000        0.0000000000000000     
  0.12500000000000000       0.81250000000000000        0.0000000000000000     
  0.15625000000000000       0.81250000000000000        0.0000000000000000     
  0.18750000000000000       0.81250000000000000        0.0000000000000000     
  0.21875000000000000       0.81250000000000000        0.0000000000000000     
  0.25000000000000000       0.81250000000000000        0.0000000000000000     
  0.12500000000000000       0.84375000000000000        0.0000000000000000     
  0.15625000000000000       0.84375000000000000        0.0000000000000000     
  0.18750000000000000       0.84375000000000000        0.0000000000000000     
  0.21875000000000000       0.84375000000000000        0.0000000000000000     
  0.25000000000000000       0.84375000000000000        0.0000000000000000     
  0.12500000000000000       0.87500000000000000        0.0000000000000000     
  0.15625000000000000       0.87500000000000000        0.0000000000000000     
  0.18750000000000000       0.87500000000000000        0.0000000000000000     
  0.21875000000000000       0.87500000000000000        0.0000000000000000     
  0.25000000000000000       0.87500000000000000        0.0000000000000000     
  0.25000000000000000       0.75000000000000000        0.0000000000000000     
  0.28125000000000000       0.75000000000000000        0.0000000000000000     
  0.31250000000000000       0.75000000000000000        0.0000000000000000     
  0.34375000000000000       0.75000000000000000        0.0000000000000000     
  0.37500000000000000       0.75000000000000000        0.0000000000000000     
  0.25000000000000000       0.78125000000000000        0.0000000000000000     
  0.28125000000000000       0.78125000000000000        0.0000000000000000     
  0.31250000000000000       0.78125000000000000        0.0000000000000000     
  0.34375000000000000       0.78125000000000000        0.0000000000000000     
  0.37500000000000000       0.78125000000000000        0.0000000000000000     
  0.25000000000000000       0.81250000000000000        0.0000000000000000     
  0.28125000000000000       0.81250000000000000        0.0000000000000000     
  0.31250000000000000       0.81250000000000000        0.0000000000000000     
  0.34375000000000000       0.81250000000000000        0.0000000000000000     
  0.37500000000000000       0.81250000000000000        0.0000000000000000     
  0.25000000000000000       0.84375000000000000        0.0000000000000000     
  0.28125000000000000       0.84375000000000000        0.0000000000000000     
  0.31250000000000000       0.84375000000000000        0.0000000000000000     
  0.34375000000000000       0.84375000000000000        0.0000000000000000     
  0.37500000000000000       0.84375000000000000        0.0000000000000000     
  0.25000000000000000       0.87500000000000000        0.0000000000000000     
  0.28125000000000000       0.87500000000000000        0.0000000000000000     
  0.31250000000000000       0.87500000000000000        0.0000000000000000     
  0.34375000000000000       0.87500000000000000        0.0000000000000000     
  0.37500000000000000       0.87500000000000000        0.0000000000000000     
  0.37500000000000000       0.75000000000000000        0.0000000000000000     
  0.40625000000000000       0.75000000000000000        0.0000000000000000     
  0.43750000000000000       0.75000000000000000        0.0000000000000000     
  0.46875000000000000       0.75000000000000000        0.0000000000000000     
  0.50000000000000000       0.75000000000000000        0.0000000000000000     
  0.37500000000000000       0.78125000000000000        0.0000000000000000     
  0.40625000000000000       0.78125000000000000        0.0000000000000000     
  0.43750000000000000       0.78125000000000000        0.0000000000000000     
  0.46875000000000000       0.78125000000000000        0.0000000000000000     
  0.50000000000000000       0.78125000000000000        0.0000000000000000     
  0.37500000000000000       0.81250000000000000        0.0000000000000000     
  0.40625000000000000       0.81250000000000000        0.0000000000000000     
  0.43750000000000000       0.81250000000000000        0.0000000000000000     
  0.46875000000000000       0.81250000000000000        0.0000000000000000     
  0.50000000000000000       0.81250000000000000        0.0000000000000000     
  0.37500000000000000       0.84375000000000000        0.0000000000000000     
  0.40625000000000000       0.84375000000000000        0.0000000000000000     
  0.43750000000000000       0.84375000000000000        0.0000000000000000     
  0.46875000000000000       0.84375000000000000        0.0000000000000000     
  0.50000000000000000       0.84375000000000000        0.0000000000000000     
  0.37500000000000000       0.87500000000000000        0.0000000000000000     
  0.40625000000000000       0.87500000000000000        0.0000000000000000     
  0.43750000000000000       0.87500000000000000        0.0000000000000000     
  0.46875000000000000       0.87500000000000000        0.0000000000000000     
  0.50000000000000000       0.87500000000000000        0.0000000000000000     
  0.50000000000000000       0.75000000000000000        0.0000000000000000     
  0.53125000000000000       0.75000000000000000        0.0000000000000000     
  0.56250000000000000       0.75000000000000000        0.0000000000000000     
  0.59375000000000000       0.75000000000000000        0.0000000000000000     
  0.62500000000000000       0.75000000000000000        0.0000000000000000     
  0.50000000000000000       0.78125000000000000        0.0000000000000000     
  0.53125000000000000       0.78125000000000000        0.0000000000000000     
  0.56250000000000000       0.78125000000000000        0.0000000000000000     
  0.59375000000000000       0.78125000000000000        0.0000000000000000     
  0.62500000000000000       0.78125000000000000        0.0000000000000000     
  0.50000000000000000       0.81250000000000000        0.0000000000000000     
  0.53125000000000000       0.81250000000000000        0.0000000000000000     
  0.56250000000000000       0.81250000000000000        0.0000000000000000     
  0.59375000000000000       0.81250000000000000        0.0000000000000000     
  0.62500000000000000       0.81250000000000000        0.0000000000000000     
  0.50000000000000000       0.84375000000000000        0.0000000000000000     
  0.53125000000000000       0.84375000000000000        0.0000000000000000     
  0.56250000000000000       0.84375000000000000        0.0000000000000000     
  0.59375000000000000       0.84375000000000000        0.0000000000000000     
  0.62500000000000000       0.84375000000000000        0.0000000000000000     
  0.50000000000000000       0.87500000000000000        0.0000000000000000     
  0.53125000000000000       0.87500000000000000        0.0000000000000000     
  0.56250000000000000       0.87500000000000000        0.0000000000000000     
  0.59375000000000000       0.87500000000000000        0.0000000000000000     
  0.62500000000000000       0.87500000000000000        0.0000000000000000     
  0.62500000000000000       0.75000000000000000        0.0000000000000000     
  0.65625000000000000       0.75000000000000000        0.0000000000000000     
  0.68750000000000000       0.75000000000000000        0.0000000000000000     
  0.71875000000000000       0.75000000000000000        0.0000000000000000     
  0.75000000000000000       0.75000000000000000        0.0000000000000000     
  0.62500000000000000       0.78125000000000000        0.0000000000000000     
  0.65625000000000000       0.78125000000000000        0.0000000000000000     
  0.68750000000000000       0.78125000000000000        0.0000000000000000     
  0.71875000000000000       0.78125000000000000        0.0000000000000000     
  0.75000000000000000       0.78125000000000000        0.0000000000000000     
  0.62500000000000000       0.81250000000000000        0.0000000000000000     
  0.65625000000000000       0.81250000000000000        0.0000000000000000     
  0.68750000000000000       0.81250000000000000        0.0000000000000000     
  0.71875000000000000       0.81250000000000000        0.0000000000000000     
  0.75000000000000000       0.81250000000000000        0.0000000000000000     
  0.62500000000000000       0.84375000000000000        0.0000000000000000     
  0.65625000000000000       0.84375000000000000        0.0000000000000000     
  0.68750000000000000       0.84375000000000000        0.0000000000000000     
  0.71875000000000000       0.84375000000000000        0.0000000000000000     
  0.75000000000000000       0.84375000000000000        0.0000000000000000     
  0.62500000000000000       0.87500000000000000        0.0000000000000000     
  0.65625000000000000       0.87500000000000000        0.0000000000000000     
  0.68750000000000000       0.87500000000000000        0.0000000000000000     
  0.71875000000000000       0.87500000000000000        0.0000000000000000     
  0.75000000000000000       0.87500000000000000        0.0000000000000000     
  0.75000000000000000       0.75000000000000000        0.0000000000000000     
  0.78125000000000000       0.75000000000000000        0.0000000000000000     
  0.81250000000000000       0.75000000000000000        0.0000000000000000     
  0.84375000000000000       0.75000000000000000        0.0000000000000000     
  0.87500000000000000       0.75000000000000000        0.0000000000000000     
  0.75000000000000000       0.78125000000000000        0.0000000000000000     
  0.78125000000000000       0.78125000000000000        0.0000000000000000     
  0.81250000000000000       0.78125000000000000        0.0000000000000000     
  0.84375000000000000       0.78125000000000000        0.0000000000000000     
  0.87500000000000000       0.78125000000000000        0.0000000000000000     
  0.75000000000000000       0.81250000000000000        0.0000000000000000     
  0.78125000000000000       0.81250000000000000        0.0000000000000000     
  0.81250000000000000       0.81250000000000000        0.0000000000000000     
  0.84375000000000000       0.81250000000000000        0.0000000000000000     
  0.87500000000000000       0.81250000000000000        0.0000000000000000     
  0.75000000000000000       0.84375000000000000        0.0000000000000000     
  0.78125000000000000       0.84375000000000000        0.0000000000000000     
  0.81250000000000000       0.84375000000000000        0.0000000000000000     
  0.84375000000000000       0.84375000000000000        0.0000000000000000     
  0.87500000000000000       0.84375000000000000        0.0000000000000000     
  0.75000000000000000       0.87500000000000000        0.0000000000000000     
  0.78125000000000000       0.87500000000000000        0.0000000000000000     
  0.81250000000000000       0.87500000000000000        0.0000000000000000     
  0.84375000000000000       0.87500000000000000        0.0000000000000000     
  0.87500000000000000       0.87500000000000000        0.0000000000000000     
  0.87500000000000000       0.75000000000000000        0.0000000000000000     
  0.90625000000000000       0.75000000000000000        0.0000000000000000     
  0.93750000000000000       0.75000000000000000        0.0000000000000000     
  0.96875000000000000       0.75000000000000000        0.0000000000000000     
   1.0000000000000000       0.75000000000000000        0.0000000000000000     
  0.87500000000000000       0.78125000000000000        0.0000000000000000     
  0.90625000000000000       0.78125000000000000        0.0000000000000000     
  0.93750000000000000       0.78125000000000000        0.0000000000000000     
  0.96875000000000000       0.78125000000000000        0.0000000000000000     
   1.0000000000000000       0.78125000000000000        0.0000000000000000     
  0.87500000000000000       0.81250000000000000        0.0000000000000000     
  0.90625000000000000       0.81250000000000000        0.0000000000000000     
  0.93750000000000000       0.81250000000000000        0.0000000000000000     
  0.96875000000000000       0.81250000000000000        0.0000000000000000     
   1.0000000000000000       0.81250000000000000        0.0000000000000000     
  0.87500000000000000       0.84375000000000000        0.0000000000000000     
  0.90625000000000000       0.84375000000000000        0.0000000000000000     
  0.93750000000000000       0.84375000000000000        0.0000000000000000     
  0.96875000000000000       0.84375000000000000        0.0000000000000000     
   1.0000000000000000       0.84375000000000000        0.0000000000000000     
  0.87500000000000000       0.87500000000000000        0.0000000000000000     
  0.90625000000000000       0.87500000000000000        0.0000000000000000     
  0.93750000000000000       0.87500000000000000        0.0000000000000000     
  0.96875000000000000       0.87500000000000000        0.0000000000000000     
   1.0000000000000000       0.87500000000000000        0.0000000000000000     
   0.0000000000000000       0.87500000000000000        0.0000000000000000     
   3.1250000000000000E-002  0.87500000000000000        0.0000000000000000     
   6.2500000000000000E-002  0.87500000000000000        0.0000000000000000     
   9.3750000000000000E-002  0.87500000000000000        0.0000000000000000     
  0.12500000000000000       0.87500000000000000        0.0000000000000000     
   0.0000000000000000       0.90625000000000000        0.0000000000000000     
   3.1250000000000000E-002  0.90625000000000000        0.0000000000000000     
   6.2500000000000000E-002  0.90625000000000000        0.0000000000000000     
   9.3750000000000000E-002  0.90625000000000000        0.0000000000000000     
  0.12500000000000000       0.90625000000000000        0.0000000000000000     
   0.0000000000000000       0.93750000000000000        0.0000000000000000     
   3.1250000000000000E-002  0.93750000000000000        0.0000000000000000     
   6.2500000000000000E-002  0.93750000000000000        0.0000000000000000     
   9.3750000000000000E-002  0.93750000000000000        0.0000000000000000     
  0.12500000000000000       0.93750000000000000        0.0000000000000000     
   0.0000000000000000       0.96875000000000000        0.0000000000000000     
   3.1250000000000000E-002  0.96875000000000000        0.0000000000000000     
   6.2500000000000000E-002  0.96875000000000000        0.0000000000000000     
   9.3750000000000000E-002  0.96875000000000000        0.0000000000000000     
  0.12500000000000000       0.96875000000000000        0.0000000000000000     
   0.0000000000000000        1.0000000000000000        0.0000000000000000     
   3.1250000000000000E-002   1.0000000000000000        0.0000000000000000     
   6.2500000000000000E-002   1.0000000000000000        0.0000000000000000     
   9.3750000000000000E-002   1.0000000000000000        0.0000000000000000     
  0.12500000000000000        1.0000000000000000        0.0000000000000000     
  0.12500000000000000       0.87500000000000000        0.0000000000000000     
  0.15625000000000000       0.87500000000000000        0.0000000000000000     
  0.18750000000000000       0.87500000000000000        0.0000000000000000     
  0.21875000000000000       0.87500000000000000        0.0000000000000000     
  0.25000000000000000       0.87500000000000000        0.0000000000000000     
  0.12500000000000000       0.90625000000000000        0.0000000000000000     
  0.15625000000000000       0.90625000000000000        0.0000000000000000     
  0.18750000000000000       0.90625000000000000        0.0000000000000000     
  0.21875000000000000       0.90625000000000000        0.0000000000000000     
  0.25000000000000000       0.90625000000000000        0.0000000000000000     
  0.12500000000000000       0.93750000000000000        0.0000000000000000     
  0.15625000000000000       0.93750000000000000        0.0000000000000000     
  0.18750000000000000       0.93750000000000000        0.0000000000000000     
  0.21875000000000000       0.93750000000000000        0.0000000000000000     
  0.25000000000000000       0.93750000000000000        0.0000000000000000     
  0.12500000000000000       0.96875000000000000        0.0000000000000000     
  0.15625000000000000       0.96875000000000000        0.0000000000000000     
  0.18750000000000000       0.96875000000000000        0.0000000000000000     
  0.21875000000000000       0.96875000000000000        0.0000000000000000     
  0.25000000000000000       0.96875000000000000        0.0000000000000000     
  0.12500000000000000        1.0000000000000000        0.0000000000000000     
  0.15625000000000000        1.0000000000000000        0.0000000000000000     
  0.18750000000000000        1.0000000000000000        0.0000000000000000     
  0.21875000000000000        1.0000000000000000        0.0000000000000000     
  0.25000000000000000        1.0000000000000000        0.0000000000000000     
  0.25000000000000000       0.87500000000000000        0.0000000000000000     
  0.28125000000000000       0.87500000000000000        0.0000000000000000     
  0.31250000000000000       0.87500000000000000        0.0000000000000000     
  0.34375000000000000       0.87500000000000000        0.0000000000000000     
  0.37500000000000000       0.87500000000000000        0.0000000000000000     
  0.25000000000000000       0.90625000000000000        0.0000000000000000     
  0.28125000000000000       0.90625000000000000        0.0000000000000000     
  0.31250000000000000       0.90625000000000000        0.0000000000000000     
  0.34375000000000000       0.90625000000000000        0.0000000000000000     
  0.37500000000000000       0.90625000000000000        0.0000000000000000     
  0.25000000000000000       0.93750000000000000        0.0000000000000000     
  0.28125000000000000       0.93750000000000000        0.0000000000000000     
  0.31250000000000000       0.93750000000000000        0.0000000000000000     
  0.34375000000000000       0.93750000000000000        0.0000000000000000     
  0.37500000000000000       0.93750000000000000        0.0000000000000000     
  0.25000000000000000       0.96875000000000000        0.0000000000000000     
  0.28125000000000000       0.96875000000000000        0.0000000000000000     
  0.31250000000000000       0.96875000000000000        0.0000000000000000     
  0.34375000000000000       0.96875000000000000        0.0000000000000000     
  0.37500000000000000       0.96875000000000000        0.0000000000000000     
  0.25000000000000000        1.0000000000000000        0.0000000000000000     
  0.28125000000000000        1.0000000000000000        0.0000000000000000     
  0.31250000000000000        1.0000000000000000        0.0000000000000000     
  0.34375000000000000        1.0000000000000000        0.0000000000000000     
  0.37500000000000000        1.0000000000000000        0.0000000000000000     
  0.37500000000000000       0.87500000000000000        0.0000000000000000     
  0.40625000000000000       0.87500000000000000        0.0000000000000000     
  0.43750000000000000       0.87500000000000000        0.0000000000000000     
  0.46875000000000000       0.87500000000000000        0.0000000000000000     
  0.50000000000000000       0.87500000000000000        0.0000000000000000     
  0.37500000000000000       0.90625000000000000        0.0000000000000000     
  0.40625000000000000       0.90625000000000000        0.0000000000000000     
  0.43750000000000000       0.90625000000000000        0.0000000000000000     
  0.46875000000000000       0.90625000000000000        0.0000000000000000     
  0.50000000000000000       0.90625000000000000        0.0000000000000000     
  0.37500000000000000       0.93750000000000000        0.0000000000000000     
  0.40625000000000000       0.93750000000000000        0.0000000000000000     
  0.43750000000000000       0.93750000000000000        0.0000000000000000     
  0.46875000000000000       0.93750000000000000        0.0000000000000000     
  0.50000000000000000       0.93750000000000000        0.0000000000000000     
  0.37500000000000000       0.96875000000000000        0.0000000000000000     
  0.40625000000000000       0.96875000000000000        0.0000000000000000     
  0.43750000000000000       0.96875000000000000        0.0000000000000000     
  0.46875000000000000       0.96875000000000000        0.0000000000000000     
  0.50000000000000000       0.96875000000000000        0.0000000000000000     
  0.37500000000000000        1.0000000000000000        0.0000000000000000     
  0.40625000000000000        1.0000000000000000        0.0000000000000000     
  0.43750000000000000        1.0000000000000000        0.0000000000000000     
  0.46875000000000000        1.0000000000000000        0.0000000000000000     
  0.50000000000000000        1.0000000000000000        0.0000000000000000     
  0.50000000000000000       0.87500000000000000        0.0000000000000000     
  0.53125000000000000       0.87500000000000000        0.0000000000000000     
  0.56250000000000000       0.87500000000000000        0.0000000000000000     
  0.59375000000000000       0.87500000000000000        0.0000000000000000     
  0.62500000000000000       0.87500000000000000        0.0000000000000000     
  0.50000000000000000       0.90625000000000000        0.0000000000000000     
  0.53125000000000000       0.90625000000000000        0.0000000000000000     
  0.56250000000000000       0.90625000000000000        0.0000000000000000     
  0.59375000000000000       0.90625000000000000        0.0000000000000000     
  0.62500000000000000       0.90625000000000000        0.0000000000000000     
  0.50000000000000000       0.93750000000000000        0.0000000000000000     
  0.53125000000000000       0.93750000000000000        0.0000000000000000     
  0.56250000000000000       0.93750000000000000        0.0000000000000000     
  0.59375000000000000       0.93750000000000000        0.0000000000000000     
  0.62500000000000000       0.93750000000000000        0.0000000000000000     
  0.50000000000000000       0.96875000000000000        0.0000000000000000     
  0.53125000000000000       0.96875000000000000        0.0000000000000000     
  0.56250000000000000       0.96875000000000000        0.0000000000000000     
  0.59375000000000000       0.96875000000000000        0.0000000000000000     
  0.62500000000000000       0.96875000000000000        0.0000000000000000     
  0.50000000000000000        1.0000000000000000        0.0000000000000000     
  0.53125000000000000        1.0000000000000000        0.0000000000000000     
  0.56250000000000000        1.0000000000000000        0.0000000000000000     
  0.59375000000000000        1.0000000000000000        0.0000000000000000     
  0.62500000000000000        1.0000000000000000        0.0000000000000000     
  0.62500000000000000       0.87500000000000000        0.0000000000000000     
  0.65625000000000000       0.87500000000000000        0.0000000000000000     
  0.68750000000000000       0.87500000000000000        0.0000000000000000     
  0.71875000000000000       0.87500000000000000        0.0000000000000000     
  0.75000000000000000       0.87500000000000000        0.0000000000000000     
  0.62500000000000000       0.90625000000000000        0.0000000000000000     
  0.65625000000000000       0.90625000000000000        0.0000000000000000     
  0.68750000000000000       0.90625000000000000        0.0000000000000000     
  0.71875000000000000       0.90625000000000000        0.0000000000000000     
  0.75000000000000000       0.90625000000000000        0.0000000000000000     
  0.62500000000000000       0.93750000000000000        0.0000000000000000     
  0.65625000000000000       0.93750000000000000        0.0000000000000000     
  0.68750000000000000       0.93750000000000000        0.0000000000000000     
  0.71875000000000000       0.93750000000000000        0.0000000000000000     
  0.75000000000000000       0.93750000000000000        0.0000000000000000     
  0.62500000000000000       0.96875000000000000        0.0000000000000000     
  0.65625000000000000       0.96875000000000000        0.0000000000000000     
  0.68750000000000000       0.96875000000000000        0.0000000000000000     
  0.71875000000000000       0.96875000000000000        0.0000000000000000     
  0.75000000000000000       0.96875000000000000        0.0000000000000000     
  0.62500000000000000        1.0000000000000000        0.0000000000000000     
  0.65625000000000000        1.0000000000000000        0.0000000000000000     
  0.68750000000000000        1.0000000000000000        0.0000000000000000     
  0.71875000000000000        1.0000000000000000        0.0000000000000000     
  0.75000000000000000        1.0000000000000000        0.0000000000000000     
  0.75000000000000000       0.87500000000000000        0.0000000000000000     
  0.78125000000000000       0.87500000000000000        0.0000000000000000     
  0.81250000000000000       0.87500000000000000        0.0000000000000000     
  0.84375000000000000       0.87500000000000000        0.0000000000000000     
  0.87500000000000000       0.87500000000000000        0.0000000000000000     
  0.75000000000000000       0.90625000000000000        0.0000000000000000     
  0.78125000000000000       0.90625000000000000        0.0000000000000000     
  0.81250000000000000       0.90625000000000000        0.0000000000000000     
  0.84375000000000000       0.90625000000000000        0.0000000000000000     
  0.87500000000000000       0.90625000000000000        0.0000000000000000     
  0.75000000000000000       0.93750000000000000        0.0000000000000000     
  0.78125000000000000       0.93750000000000000        0.0000000000000000     
  0.81250000000000000       0.93750000000000000        0.0000000000000000     
  0.84375000000000000       0.93750000000000000        0.0000000000000000     
  0.87500000000000000       0.93750000000000000        0.0000000000000000     
  0.75000000000000000       0.96875000000000000        0.0000000000000000     
  0.78125000000000000       0.96875000000000000        0.0000000000000000     
  0.81250000000000000       0.96875000000000000        0.0000000000000000     
  0.84375000000000000       0.96875000000000000        0.0000000000000000     
  0.87500000000000000       0.96875000000000000        0.0000000000000000     
  0.75000000000000000        1.0000000000000000        0.0000000000000000     
  0.78125000000000000        1.0000000000000000        0.0000000000000000     
  0.81250000000000000        1.0000000000000000        0.0000000000000000     
  0.84375000000000000        1.0000000000000000        0.0000000000000000     
  0.87500000000000000        1.0000000000000000        0.0000000000000000     
  0.87500000000000000       0.87500000000000000        0.0000000000000000     
  0.90625000000000000       0.87500000000000000        0.0000000000000000     
  0.93750000000000000       0.87500000000000000        0.0000000000000000     
  0.96875000000000000       0.87500000000000000        0.0000000000000000     
   1.0000000000000000       0.87500000000000000        0.0000000000000000     
  0.87500000000000000       0.90625000000000000        0.0000000000000000     
  0.90625000000000000       0.90625000000000000        0.0000000000000000     
  0.93750000000000000       0.90625000000000000        0.0000000000000000     
  0.96875000000000000       0.90625000000000000        0.0000000000000000     
   1.0000000000000000       0.90625000000000000        0.0000000000000000     
  0.87500000000000000       0.93750000000000000        0.0000000000000000     
  0.90625000000000000       0.93750000000000000        0.0000000000000000     
  0.93750000000000000       0.93750000000000000        0.0000000000000000     
  0.96875000000000000       0.93750000000000000        0.0000000000000000     
   1.0000000000000000       0.93750000000000000        0.0000000000000000     
  0.87500000000000000       0.96875000000000000        0.0000000000000000     
  0.90625000000000000       0.96875000000000000        0.0000000000000000     
  0.93750000000000000       0.96875000000000000        0.0000000000000000     
  0.96875000000000000       0.96875000000000000        0.0000000000000000     
   1.0000000000000000       0.96875000000000000        0.0000000000000000     
  0.87500000000000000        1.0000000000000000        0.0000000000000000     
  0.90625000000000000        1.0000000000000000        0.0000000000000000     
  0.93750000000000000        1.0000000000000000        0.0000000000000000     
  0.96875000000000000        1.0000000000000000        0.0000000000000000     
   1.0000000000000000        1.0000000000000000        0.0000000000000000     
 </DataArray>
 </Points>
 <Cells>
 <DataArray  type="Int32"  Name="connectivity"  format="ascii">
           0           1           6           5
           1           2           7           6
           2           3           8           7
           3           4           9           8
           5           6          11          10
           6           7          12          11
           7           8          13          12
           8           9          14          13
          10          11          16          15
          11          12          17          16
          12          13          18          17
          13          14          19          18
          15          16          21          20
          16          17          22          21
          17          18          23          22
          18          19          24          23
          25          26          31          30
          26          27          32          31
          27          28          33          32
          28          29          34          33
          30          31          36          35
          31          32          37          36
          32          33          38          37
          33          34          39          38
          35          36          41          40
          36          37          42          41
          37          38          43          42
          38          39          44          43
          40          41          46          45
          41          42          47          46
          42          43          48          47
          43          44          49          48
          50          51          56          55
          51          52          57          56
          52          53          58          57
          53          54          59          58
          55          56          61          60
          56          57          62          61
          57          58          63          62
          58          59          64          63
          60          61          66          65
          61          62          67          66
          62          63          68          67
          63          64          69          68
          65          66          71          70
          66          67          72          71
          67          68          73          72
          68          69          74          73
          75          76          81          80
          76          77          82          81
          77          78          83          82
          78          79          84          83
          80          81          86          85
          81          82          87          86
          82          83          88          87
          83          84          89          88
          85          86          91          90
          86          87          92          91
          87          88          93          92
          88          89          94          93
          90          91          96          95
          91          92          97          96
          92          93          98          97
          93          94          99          98
         100         101         106         105
         101         102         107         106
         102         103         108         107
         103         104         109         108
         105         106         111         110
         106         107         112         111
         107         108         113         112
         108         109         114         113
         110         111         116         115
         111         112         117         116
         112         113         118         117
         113         114         119         118
         115         116         121         120
         116         117         122         121
         117         118         123         122
         118         119         124         123
         125         126         131         130
         126         127         132         131
         127         128         133         132
         128         129         134         133
         130         131         136         135
         131         132         137         136
         132         133         138         137
         133         134         139         138
         135         136         141         140
         136         137         142         141
         137         138         143         142
         138         139         144         143
         140         141         146         145
         141         142         147         146
         142         143         148         147
         143         144         149         148
         150         151         156         155
         151         152         157         156
         152         153         158         157
         153         154         159         158
         155         156         161         160
         156         157         162         161
         157         158         163         162
         158         159         164         163
         160         161         166         165
         161         162         167         166
         162         163         168         167
         163         164         169         168
         165         166         171         170
         166         167         172         171
         167         168         173         172
         168         169         174         173
         175         176         181         180
         176         177         182         181
         177         178         183         182
         178         179         184         183
         180         181         186         185
         181         182         187         186
         182         183         188         187
         183         184         189         188
         185         186         191         190
         186         187         192         191
         187         188         193         192
         188         189         194         193
         190         191         196         195
         191         192         197         196
         192         193         198         197
         193         194         199         198
         200         201         206         205
         201         202         207         206
         202         203         208         207
         203         204         209         208
         205         206         211         210
         206         207         212         211
         207         208         213         212
         208         209         214         213
         210         211         216         215
         211         212         217         216
         212         213         218         217
         213         214         219         218
         215         216         221         220
         216         217         222         221
         217         218         223         222
         218         219         224         223
         225         226         231         230
         226         227         232         231
         227         228         233         232
         228         229         234         233
         230         231         236         235
         231         232         237         236
         232         233         238         237
         233         234         239         238
         235         236         241         240
         236         237         242         241
         237         238         243         242
         238         239         244         243
         240         241         246         245
         241         242         247         246
         242         243         248         247
         243         244         249         248
         250         251         256         255
         251         252         257         256
         252         253         258         257
         253         254         259         258
         255         256         261         260
         256         257         262         261
         257         258         263         262
         258         259         264         263
         260         261         266         265
         261         262         267         266
         262         263         268         267
         263         264         269         268
         265         266         271         270
         266         267         272         271
         267         268         273         272
         268         269         274         273
         275         276         281         280
         276         277         282         281
         277         278         283         282
         278         279         284         283
         280         281         286         285
         281         282         287         286
         282         283         288         287
         283         284         289         288
         285         286         291         290
         286         287         292         291
         287         288         293         292
         288         289         294         293
         290         291         296         295
         291         292         297         296
         292         293         298         297
         293         294         299         298
         300         301         306         305
         301         302         307         306
         302         303         308         307
         303         304         309         308
         305         306         311         310
         306         307         312         311
         307         308         313         312
         308         309         314         313
         310         311         316         315
         311         312         317         316
         312         313         318         317
         313         314         319         318
         315         316         321         320
         316         317         322         321
         317         318         323         322
         318         319         324         323
         325         326         331         330
         326         327         332         331
         327         328         333         332
         328         329         334         333
         330         331         336         335
         331         332         337         336
         332         333         338         337
         333         334         339         338
         335         336         341         340
         336         337         342         341
         337         338         343         342
         338         339         344         343
         340         341         346         345
         341         342         347         346
         342         343         348         347
         343         344         349         348
         350         351         356         355
         351         352         357         356
         352         353         358         357
         353         354         359         358
         355         356         361         360
         356         357         362         361
         357         358         363         362
         358         359         364         363
         360         361         366         365
         361         362         367         366
         362         363         368         367
         363         364         369         368
         365         366         371         370
         366         367         372         371
         367         368         373         372
         368         369         374         373
         375         376         381         380
         376         377         382         381
         377         378         383         382
         378         379         384         383
         380         381         386         385
         381         382         387         386
         382         383         388         387
         383         384         389         388
         385         386         391         390
         386         387         392         391
         387         388         393         392
         388         389         394         393
         390         391         396         395
         391         392         397         396
         392         393         398         397
         393         394         399         398
         400         401         406         405
         401         402         407         406
         402         403         408         407
         403         404         409         408
         405         406         411         410
         406         407         412         411
         407         408         413         412
         408         409         414         413
         410         411         416         415
         411         412         417         416
         412         413         418         417
         413         414         419         418
         415         416         421         420
         416         417         422         421
         417         418         423         422
         418         419         424         423
         425         426         431         430
         426         427         432         431
         427         428         433         432
         428         429         434         433
         430         431         436         435
         431         432         437         436
         432         433         438         437
         433         434         439         438
         435         436         441         440
         436         437         442         441
         437         438         443         442
         438         439         444         443
         440         441         446         445
         441         442         447         446
         442         443         448         447
         443         444         449         448
         450         451         456         455
         451         452         457         456
         452         453         458         457
         453         454         459         458
         455         456         461         460
         456         457         462         461
         457         458         463         462
         458         459         464         463
         460         461         466         465
         461         462         467         466
         462         463         468         467
         463         464         469         468
         465         466         471         470
         466         467         472         471
         467         468         473         472
         468         469         474         473
         475         476         481         480
         476         477         482         481
         477         478         483         482
         478         479         484         483
         480         481         486         485
         481         482         487         486
         482         483         488         487
         483         484         489         488
         485         486         491         490
         486         487         492         491
         487         488         493         492
         488         489         494         493
         490         491         496         495
         491         492         497         496
         492         493         498         497
         493         494         499         498
         500         501         506         505
         501         502         507         506
         502         503         508         507
         503         504         509         508
         505         506         511         510
         506         507         512         511
         507         508         513         512
         508         509         514         513
         510         511         516         515
         511         512         517         516
         512         513         518         517
         513         514         519         518
         515         516         521         520
         516         517         522         521
         517         518         523         522
         518         519         524         523
         525         526         531         530
         526         527         532         531
         527         528         533         532
         528         529         534         533
         530         531         536         535
         531         532         537         536
         532         533         538         537
         533         534         539         538
         535         536         541         540
         536         537         542         541
         537         538         543         542
         538         539         544         543
         540         541         546         545
         541         542         547         546
         542         543         548         547
         543         544         549         548
         550         551         556         555
         551         552         557         556
         552         553         558         557
         553         554         559         558
         555         556         561         560
         556         557         562         561
         557         558         563         562
         558         559         564         563
         560         561         566         565
         561         562         567         566
         562         563         568         567
         563         564         569         568
         565         566         571         570
         566         567         572         571
         567         568         573         572
         568         569         574         573
         575         576         581         580
         576         577         582         581
         577         578         583         582
         578         579         584         583
         580         581         586         585
         581         582         587         586
         582         583         588         587
         583         584         589         588
         585         586         591         590
         586         587         592         591
         587         588         593         592
         588         589         594         593
         590         591         596         595
         591         592         597         596
         592         593         598         597
         593         594         599         598
         600         601         606         605
         601         602         607         606
         602         603         608         607
         603         604         609         608
         605         606         611         610
         606         607         612         611
         607         608         613         612
         608         609         614         613
         610         611         616         615
         611         612         617         616
         612         613         618         617
         613         614         619         618
         615         616         621         620
         616         617         622         621
         617         618         623         622
         618         619         624         623
         625         626         631         630
         626         627         632         631
         627         628         633         632
         628         629         634         633
         630         631         636         635
         631         632         637         636
         632         633         638         637
         633         634         639         638
         635         636         641         640
         636         637         642         641
         637         638         643         642
         638         639         644         643
         640         641         646         645
         641         642         647         646
         642         643         648         647
         643         644         649         648
         650         651         656         655
         651         652         657         656
         652         653         658         657
         653         654         659         658
         655         656         661         660
         656         657         662         661
         657         658         663         662
         658         659         664         663
         660         661         666         665
         661         662         667         666
         662         663         668         667
         663         664         669         668
         665         666         671         670
         666         667         672         671
         667         668         673         672
         668         669         674         673
         675         676         681         680
         676         677         682         681
         677         678         683         682
         678         679         684         683
         680         681         686         685
         681         682         687         686
         682         683         688         687
         683         684         689         688
         685         686         691         690
         686         687         692         691
         687         688         693         692
         688         689         694         693
         690         691         696         695
         691         692         697         696
         692         693         698         697
         693         694         699         698
         700         701         706         705
         701         702         707         706
         702         703         708         707
         703         704         709         708
         705         706         711         710
         706         707         712         711
         707         708         713         712
         708         709         714         713
         710         711         716         715
         711         712         717         716
         712         713         718         717
         713         714         719         718
         715         716         721         720
         716         717         722         721
         717         718         723         722
         718         719         724         723
         725         726         731         730
         726         727         732         731
         727         728         733         732
         728         729         734         733
         730         731         736         735
         731         732         737         736
         732         733         738         737
         733         734         739         738
         735         736         741         740
         736         737         742         741
         737         738         743         742
         738         739         744         743
         740         741         746         745
         741         742         747         746
         742         743         748         747
         743         744         749         748
         750         751         756         755
         751         752         757         756
         752         753         758         757
         753         754         759         758
         755         756         761         760
         756         757         762         761
         757         758         763         762
         758         759         764         763
         760         761         766         765
         761         762         767         766
         762         763         768         767
         763         764         769         768
         765         766         771         770
         766         767         772         771
         767         768         773         772
         768         769         774         773
         775         776         781         780
         776         777         782         781
         777         778         783         782
         778         779         784         783
         780         781         786         785
         781         782         787         786
         782         783         788         787
         783         784         789         788
         785         786         791         790
         786         787         792         791
         787         788         793         792
         788         789         794         793
         790         791         796         795
         791         792         797         796
         792         793         798         797
         793         794         799         798
         800         801         806         805
         801         802         807         806
         802         803         808         807
         803         804         809         808
         805         806         811         810
         806         807         812         811
         807         808         813         812
         808         809         814         813
         810         811         816         815
         811         812         817         816
         812         813         818         817
         813         814         819         818
         815         816         821         820
         816         817         822         821
         817         818         823         822
         818         819         824         823
         825         826         831         830
         826         827         832         831
         827         828         833         832
         828         829         834         833
         830         831         836         835
         831         832         837         836
         832         833         838         837
         833         834         839         838
         835         836         841         840
         836         837         842         841
         837         838         843         842
         838         839         844         843
         840         841         846         845
         841         842         847         846
         842         843         848         847
         843         844         849         848
         850         851         856         855
         851         852         857         856
         852         853         858         857
         853         854         859         858
         855         856         861         860
         856         857         862         861
         857         858         863         862
         858         859         864         863
         860         861         866         865
         861         862         867         866
         862         863         868         867
         863         864         869         868
         865         866         871         870
         866         867         872         871
         867         868         873         872
         868         869         874         873
         875         876         881         880
         876         877         882         881
         877         878         883         882
         878         879         884         883
         880         881         886         885
         881         882         887         886
         882         883         888         887
         883         884         889         888
         885         886         891         890
         886         887         892         891
         887         888         893         892
         888         889         894         893
         890         891         896         895
         891         892         897         896
         892         893         898         897
         893         894         899         898
         900         901         906         905
         901         902         907         906
         902         903         908         907
         903         904         909         908
         905         906         911         910
         906         907         912         911
         907         908         913         912
         908         909         914         913
         910         911         916         915
         911         912         917         916
         912         913         918         917
         913         914         919         918
         915         916         921         920
         916         917         922         921
         917         918         923         922
         918         919         924         923
         925         926         931         930
         926         927         932         931
         927         928         933         932
         928         929         934         933
         930         931         936         935
         931         932         937         936
         932         933         938         937
         933         934         939         938
         935         936         941         940
         936         937         942         941
         937         938         943         942
         938         939         944         943
         940         941         946         945
         941         942         947         946
         942         943         948         947
         943         944         949         948
         950         951         956         955
         951         952         957         956
         952         953         958         957
         953         954         959         958
         955         956         961         960
         956         957         962         961
         957         958         963         962
         958         959         964         963
         960         961         966         965
         961         962         967         966
         962         963         968         967
         963         964         969         968
         965         966         971         970
         966         967         972         971
         967         968         973         972
         968         969         974         973
         975         976         981         980
         976         977         982         981
         977         978         983         982
         978         979         984         983
         980         981         986         985
         981         982         987         986
         982         983         988         987
         983         984         989         988
         985         986         991         990
         986         987         992         991
         987         988         993         992
         988         989         994         993
         990         991         996         995
         991         992         997         996
         992         993         998         997
         993         994         999         998
        1000        1001        1006        1005
        1001        1002        1007        1006
        1002        1003        1008        1007
        1003        1004        1009        1008
        1005        1006        1011        1010
        1006        1007        1012        1011
        1007        1008        1013        1012
        1008        1009        1014        1013
        1010        1011        1016        1015
        1011        1012        1017        1016
        1012        1013        1018        1017
        1013        1014        1019        1018
        1015        1016        1021        1020
        1016        1017        1022        1021
        1017        1018        1023        1022
        1018        1019        1024        1023
        1025        1026        1031        1030
        1026        1027        1032        1031
        1027        1028        1033        1032
        1028        1029        1034        1033
        1030        1031        1036        1035
        1031        1032        1037        1036
        1032        1033        1038        1037
        1033        1034        1039        1038
        1035        1036        1041        1040
        1036        1037        1042        1041
        1037        1038        1043        1042
        1038        1039        1044        1043
        1040        1041        1046        1045
        1041        1042        1047        1046
        1042        1043        1048        1047
        1043        1044        1049        1048
        1050        1051        1056        1055
        1051        1052        1057        1056
        1052        1053        1058        1057
        1053        1054        1059        1058
        1055        1056        1061        1060
        1056        1057        1062        1061
        1057        1058        1063        1062
        1058        1059        1064        1063
        1060        1061        1066        1065
        1061        1062        1067        1066
        1062        1063        1068        1067
        1063        1064        1069        1068
        1065        1066        1071        1070
        1066        1067        1072        1071
        1067        1068        1073        1072
        1068        1069        1074        1073
        1075        1076        1081        1080
        1076        1077        1082        1081
        1077        1078        1083        1082
        1078        1079        1084        1083
        1080        1081        1086        1085
        1081        1082        1087        1086
        1082        1083        1088        1087
        1083        1084        1089        1088
        1085        1086        1091        1090
        1086        1087        1092        1091
        1087        1088        1093        1092
        1088        1089        1094        1093
        1090        1091        1096        1095
        1091        1092        1097        1096
        1092        1093        1098        1097
        1093        1094        1099        1098
        1100        1101        1106        1105
        1101        1102        1107        1106
        1102        1103        1108        1107
        1103        1104        1109        1108
        1105        1106        1111        1110
        1106        1107        1112        1111
        1107        1108        1113        1112
        1108        1109        1114        1113
        1110        1111        1116        1115
        1111        1112        1117        1116
        1112        1113        1118        1117
        1113        1114        1119        1118
        1115        1116        1121        1120
        1116        1117        1122        1121
        1117        1118        1123        1122
        1118        1119        1124        1123
        1125        1126        1131        1130
        1126        1127        1132        1131
        1127        1128        1133        1132
        1128        1129        1134        1133
        1130        1131        1136        1135
        1131        1132        1137        1136
        1132        1133        1138        1137
        1133        1134        1139        1138
        1135        1136        1141        1140
        1136        1137        1142        1141
        1137        1138        1143        1142
        1138        1139        1144        1143
        1140        1141        1146        1145
        1141        1142        1147        1146
        1142        1143        1148        1147
        1143        1144        1149        1148
        1150        1151        1156        1155
        1151        1152        1157        1156
        1152        1153        1158        1157
        1153        1154        1159        1158
        1155        1156        1161        1160
        1156        1157        1162        1161
        1157        1158        1163        1162
        1158        1159        1164        1163
        1160        1161        1166        1165
        1161        1162        1167        1166
        1162        1163        1168        1167
        1163        1164        1169        1168
        1165        1166        1171        1170
        1166        1167        1172        1171
        1167        1168        1173        1172
        1168        1169        1174        1173
        1175        1176        1181        1180
        1176        1177        1182        1181
        1177        1178        1183        1182
        1178        1179        1184        1183
        1180        1181        1186        1185
        1181        1182        1187        1186
        1182        1183        1188        1187
        1183        1184        1189        1188
        1185        1186        1191        1190
        1186        1187        1192        1191
        1187        1188        1193        1192
        1188        1189        1194        1193
        1190        1191        1196        1195
        1191        1192        1197        1196
        1192        1193        1198        1197
        1193        1194        1199        1198
        1200        1201        1206        1205
        1201        1202        1207        1206
        1202        1203        1208        1207
        1203        1204        1209        1208
        1205        1206        1211        1210
        1206        1207        1212        1211
        1207        1208        1213        1212
        1208        1209        1214        1213
        1210        1211        1216        1215
        1211        1212        1217        1216
        1212        1213        1218        1217
        1213        1214        1219        1218
        1215        1216        1221        1220
        1216        1217        1222        1221
        1217        1218        1223        1222
        1218        1219        1224        1223
        1225        1226        1231        1230
        1226        1227        1232        1231
        1227        1228        1233        1232
        1228        1229        1234        1233
        1230        1231        1236        1235
        1231        1232        1237        1236
        1232        1233        1238        1237
        1233        1234        1239        1238
        1235        1236        1241        1240
        1236        1237        1242        1241
        1237        1238        1243        1242
        1238        1239        1244        1243
        1240        1241        1246        1245
        1241        1242        1247        1246
        1242        1243        1248        1247
        1243        1244        1249        1248
        1250        1251        1256        1255
        1251        1252        1257        1256
        1252        1253        1258        1257
        1253        1254        1259        1258
        1255        1256        1261        1260
        1256        1257        1262        1261
        1257        1258        1263        1262
        1258        1259        1264        1263
        1260        1261        1266        1265
        1261        1262        1267        1266
        1262        1263        1268        1267
        1263        1264        1269        1268
        1265        1266        1271        1270
        1266        1267        1272        1271
        1267        1268        1273        1272
        1268        1269        1274        1273
        1275        1276        1281        1280
        1276        1277        1282        1281
        1277        1278        1283        1282
        1278        1279        1284        1283
        1280        1281        1286        1285
        1281        1282        1287        1286
        1282        1283        1288        1287
        1283        1284        1289        1288
        1285        1286        1291        1290
        1286        1287        1292        1291
        1287        1288        1293        1292
        1288        1289        1294        1293
        1290        1291        1296        1295
        1291        1292        1297        1296
        1292        1293        1298        1297
        1293        1294        1299        1298
        1300        1301        1306        1305
        1301        1302        1307        1306
        1302        1303        1308        1307
        1303        1304        1309        1308
        1305        1306        1311        1310
        1306        1307        1312        1311
        1307        1308        1313        1312
        1308        1309        1314        1313
        1310        1311        1316        1315
        1311        1312        1317        1316
        1312        1313        1318        1317
        1313        1314        1319        1318
        1315        1316        1321        1320
        1316        1317        1322        1321
        1317        1318        1323        1322
        1318        1319        1324        1323
        1325        1326        1331        1330
        1326        1327        1332        1331
        1327        1328        1333        1332
        1328        1329        1334        1333
        1330        1331        1336        1335
        1331        1332        1337        1336
        1332        1333        1338        1337
        1333        1334        1339        1338
        1335        1336        1341        1340
        1336        1337        1342        1341
        1337        1338        1343        1342
        1338        1339        1344        1343
        1340        1341        1346        1345
        1341        1342        1347        1346
        1342        1343        1348        1347
        1343        1344        1349        1348
        1350        1351        1356        1355
        1351        1352        1357        1356
        1352        1353        1358        1357
        1353        1354        1359        1358
        1355        1356        1361        1360
        1356        1357        1362        1361
        1357        1358        1363        1362
        1358        1359        1364        1363
        1360        1361        1366        1365
        1361        1362        1367        1366
        1362        1363        1368        1367
        1363        1364        1369        1368
        1365        1366        1371        1370
        1366        1367        1372        1371
        1367        1368        1373        1372
        1368        1369        1374        1373
        1375        1376        1381        1380
        1376        1377        1382        1381
        1377        1378        1383        1382
        1378        1379        1384        1383
        1380        1381        1386        1385
        1381        1382        1387        1386
        1382        1383        1388        1387
        1383        1384        1389        1388
        1385        1386        1391        1390
        1386        1387        1392        1391
        1387        1388        1393        1392
        1388        1389        1394        1393
        1390        1391        1396        1395
        1391        1392        1397        1396
        1392        1393        1398        1397
        1393        1394        1399        1398
        1400        1401        1406        1405
        1401        1402        1407        1406
        1402        1403        1408        1407
        1403        1404        1409        1408
        1405        1406        1411        1410
        1406        1407        1412        1411
        1407        1408        1413        1412
        1408        1409        1414        1413
        1410        1411        1416        1415
        1411        1412        1417        1416
        1412        1413        1418        1417
        1413        1414        1419        1418
        1415        1416        1421        1420
        1416        1417        1422        1421
        1417        1418        1423        1422
        1418        1419        1424        1423
        1425        1426        1431        1430
        1426        1427        1432        1431
        1427        1428        1433        1432
        1428        1429        1434        1433
        1430        1431        1436        1435
        1431        1432        1437        1436
        1432        1433        1438        1437
        1433        1434        1439        1438
        1435        1436        1441        1440
        1436        1437        1442        1441
        1437        1438        1443        1442
        1438        1439        1444        1443
        1440        1441        1446        1445
        1441        1442        1447        1446
        1442        1443        1448        1447
        1443        1444        1449        1448
        1450        1451        1456        1455
        1451        1452        1457        1456
        1452        1453        1458        1457
        1453        1454        1459        1458
        1455        1456        1461        1460
        1456        1457        1462        1461
        1457        1458        1463        1462
        1458        1459        1464        1463
        1460        1461        1466        1465
        1461        1462        1467        1466
        1462        1463        1468        1467
        1463        1464        1469        1468
        1465        1466        1471        1470
        1466        1467        1472        1471
        1467        1468        1473        1472
        1468        1469        1474        1473
        1475        1476        1481        1480
        1476        1477        1482        1481
        1477        1478        1483        1482
        1478        1479        1484        1483
        1480        1481        1486        1485
        1481        1482        1487        1486
        1482        1483        1488        1487
        1483        1484        1489        1488
        1485        1486        1491        1490
        1486        1487        1492        1491
        1487        1488        1493        1492
        1488        1489        1494        1493
        1490        1491        1496        1495
        1491        1492        1497        1496
        1492        1493        1498        1497
        1493        1494        1499        1498
        1500        1501        1506        1505
        1501        1502        1507        1506
        1502        1503        1508        1507
        1503        1504        1509        1508
        1505        1506        1511        1510
        1506        1507        1512        1511
        1507        1508        1513        1512
        1508        1509        1514        1513
        1510        1511        1516        1515
        1511        1512        1517        1516
        1512        1513        1518        1517
        1513        1514        1519        1518
        1515        1516        1521        1520
        1516        1517        1522        1521
        1517        1518        1523        1522
        1518        1519        1524        1523
        1525        1526        1531        1530
        1526        1527        1532        1531
        1527        1528        1533        1532
        1528        1529        1534        1533
        1530        1531        1536        1535
        1531        1532        1537        1536
        1532        1533        1538        1537
        1533        1534        1539        1538
        1535        1536        1541        1540
        1536        1537        1542        1541
        1537        1538        1543        1542
        1538        1539        1544        1543
        1540        1541        1546        1545
        1541        1542        1547        1546
        1542        1543        1548        1547
        1543        1544        1549        1548
        1550        1551        1556        1555
        1551        1552        1557        1556
        1552        1553        1558        1557
        1553        1554        1559        1558
        1555        1556        1561        1560
        1556        1557        1562        1561
        1557        1558        1563        1562
        1558        1559        1564        1563
        1560        1561        1566        1565
        1561        1562        1567        1566
        1562        1563        1568        1567
        1563        1564        1569        1568
        1565        1566        1571        1570
        1566        1567        1572        1571
        1567        1568        1573        1572
        1568        1569        1574        1573
        1575        1576        1581        1580
        1576        1577        1582        1581
        1577        1578        1583        1582
        1578        1579        1584        1583
        1580        1581        1586        1585
        1581        1582        1587        1586
        1582        1583        1588        1587
        1583        1584        1589        1588
        1585        1586        1591        1590
        1586        1587        1592        1591
        1587        1588        1593        1592
        1588        1589        1594        1593
        1590        1591        1596        1595
        1591        1592        1597        1596
        1592        1593        1598        1597
        1593        1594        1599        1598
 </DataArray>
 <DataArray  type="Int32"  Name="offsets"  format="ascii"> 
           4
           8
          12
          16
          20
          24
          28
          32
          36
          40
          44
          48
          52
          56
          60
          64
          68
          72
          76
          80
          84
          88
          92
          96
         100
         104
         108
         112
         116
         120
         124
         128
         132
         136
         140
         144
         148
         152
         156
         160
         164
         168
         172
         176
         180
         184
         188
         192
         196
         200
         204
         208
         212
         216
         220
         224
         228
         232
         236
         240
         244
         248
         252
         256
         260
         264
         268
         272
         276
         280
         284
         288
         292
         296
         300
         304
         308
         312
         316
         320
         324
         328
         332
         336
         340
         344
         348
         352
         356
         360
         364
         368
         372
         376
         380
         384
         388
         392
         396
         400
         404
         408
         412
         416
         420
         424
         428
         432
         436
         440
         444
         448
         452
         456
         460
         464
         468
         472
         476
         480
         484
         488
         492
         496
         500
         504
         508
         512
         516
         520
         524
         528
         532
         536
         540
         544
         548
         552
         556
         560
         564
         568
         572
         576
         580
         584
         588
         592
         596
         600
         604
         608
         612
         616
         620
         624
         628
         632
         636
         640
         644
         648
         652
         656
         660
         664
         668
         672
         676
         680
         684
         688
         692
         696
         700
         704
         708
         712
         716
         720
         724
         728
         732
         736
         740
         744
         748
         752
         756
         760
         764
         768
         772
         776
         780
         784
         788
         792
         796
         800
         804
         808
         812
         816
         820
         824
         828
         832
         836
         840
         844
         848
         852
         856
         860
         864
         868
         872
         876
         880
         884
         888
         892
         896
         900
         904
         908
         912
         916
         920
         924
         928
         932
         936
         940
         944
         948
         952
         956
         960
         964
         968
         972
         976
         980
         984
         988
         992
         996
        1000
        1004
        1008
        1012
        1016
        1020
        1024
        1028
        1032
        1036
        1040
        1044
        1048
        1052
        1056
        1060
        1064
        1068
        1072
        1076
        1080
        1084
        1088
        1092
        1096
        1100
        1104
        1108
        1112
        1116
        1120
        1124
        1128
        1132
        1136
        1140
        1144
        1148
        1152
        1156
        1160
        1164
        1168
        1172
        1176
        1180
        1184
        1188
        1192
        1196
        1200
        1204
        1208
        1212
        1216
        1220
        1224
        1228
        1232
        1236
        1240
        1244
        1248
        1252
        1256
        1260
        1264
        1268
        1272
        1276
        1280
        1284
        1288
        1292
        1296
        1300
        1304
        1308
        1312
        1316
        1320
        1324
        1328
        1332
        1336
        1340
        1344
        1348
        1352
        1356
        1360
        1364
        1368
        1372
        1376
        1380
        1384
        1388
        1392
        1396
        1400
        1404
        1408
        1412
        1416
        1420
        1424
        1428
        1432
        1436
        1440
        1444
        1448
        1452
        1456
        1460
        1464
        1468
        1472
        1476
        1480
        1484
        1488
        1492
        1496
        1500
        1504
        1508
        1512
        1516
        1520
        1524
        1528
        1532
        1536
        1540
        1544
        1548
        1552
        1556
        1560
        1564
        1568
        1572
        1576
        1580
        1584
        1588
        1592
        1596
        1600
        1604
        1608
        1612
        1616
        1620
        1624
        1628
        1632
        1636
        1640
        1644
        1648
        1652
        1656
        1660
        1664
        1668
        1672
        1676
        1680
        1684
        1688
        1692
        1696
        1700
        1704
        1708
        1712
        1716
        1720
        1724
        1728
        1732
        1736
        1740
        1744
        1748
        1752
        1756
        1760
        1764
        1768
        1772
        1776
        1780
        1784
        1788
        1792
        1796
        1800
        1804
        1808
        1812
        1816
        1820
        1824
        1828
        1832
        1836
        1840
        1844
        1848
        1852
        1856
        1860
        1864
        1868
        1872
        1876
        1880
        1884
        1888
        1892
        1896
        1900
        1904
        1908
        1912
        1916
        1920
        1924
        1928
        1932
        1936
        1940
        1944
        1948
        1952
        1956
        1960
        1964
        1968
        1972
        1976
        1980
        1984
        1988
        1992
        1996
        2000
        2004
        2008
        2012
        2016
        2020
        2024
        2028
        2032
        2036
        2040
        2044
        2048
        2052
        2056
        2060
        2064
        2068
        2072
        2076
        2080
        2084
        2088
        2092
        2096
        2100
        2104
        2108
        2112
        2116
        2120
        2124
        2128
        2132
        2136
        2140
        2144
        2148
        2152
        2156
        2160
        2164
        2168
        2172
        2176
        2180
        2184
        2188
        2192
        2196
        2200
        2204
        2208
        2212
        2216
        2220
        2224
        2228
        2232
        2236
        2240
        2244
        2248
        2252
        2256
        2260
        2264
        2268
        2272
        2276
        2280
        2284
        2288
        2292
        2296
        2300
        2304
        2308
        2312
        2316
        2320
        2324
        2328
        2332
        2336
        2340
        2344
        2348
        2352
        2356
        2360
        2364
        2368
        2372
        2376
        2380
        2384
        2388
        2392
        2396
        2400
        2404
        2408
        2412
        2416
        2420
        2424
        2428
        2432
        2436
        2440
        2444
        2448
        2452
        2456
        2460
        2464
        2468
        2472
        2476
        2480
        2484
        2488
        2492
        2496
        2500
        2504
        2508
        2512
        2516
        2520
        2524
        2528
        2532
        2536
        2540
        2544
        2548
        2552
        2556
        2560
        2564
        2568
        2572
        2576
        2580
        2584
        2588
        2592
        2596
        2600
        2604
        2608
        2612
        2616
        2620
        2624
        2628
        2632
        2636
        2640
        2644
        2648
        2652
        2656
        2660
        2664
        2668
        2672
        2676
        2680
        2684
        2688
        2692
        2696
        2700
        2704
        2708
        2712
        2716
        2720
        2724
        2728
        2732
        2736
        2740
        2744
        2748
        2752
        2756
        2760
        2764
        2768
        2772
        2776
        2780
        2784
        2788
        2792
        2796
        2800
        2804
        2808
        2812
        2816
        2820
        2824
        2828
        2832
        2836
        2840
        2844
        2848
        2852
        2856
        2860
        2864
        2868
        2872
        2876
        2880
        2884
        2888
        2892
        2896
        2900
        2904
        2908
        2912
        2916
        2920
        2924
        2928
        2932
        2936
        2940
        2944
        2948
        2952
        2956
        2960
        2964
        2968
        2972
        2976
        2980
        2984
        2988
        2992
        2996
        3000
        3004
        3008
        3012
        3016
        3020
        3024
        3028
        3032
        3036
        3040
        3044
        3048
        3052
        3056
        3060
        3064
        3068
        3072
        3076
        3080
        3084
        3088
        3092
        3096
        3100
        3104
        3108
        3112
        3116
        3120
        3124
        3128
        3132
        3136
        3140
        3144
        3148
        3152
        3156
        3160
        3164
        3168
        3172
        3176
        3180
        3184
        3188
        3192
        3196
        3200
        3204
        3208
        3212
        3216
        3220
        3224
        3228
        3232
        3236
        3240
        3244
        3248
        3252
        3256
        3260
        3264
        3268
        3272
        3276
        3280
        3284
        3288
        3292
        3296
        3300
        3304
        3308
        3312
        3316
        3320
        3324
        3328
        3332
        3336
        3340
        3344
        3348
        3352
        3356
        3360
        3364
        3368
        3372
        3376
        3380
        3384
        3388
        3392
        3396
        3400
        3404
        3408
        3412
        3416
        3420
        3424
        3428
        3432
        3436
        3440
        3444
        3448
        3452
        3456
        3460
        3464
        3468
        3472
        3476
        3480
        3484
        3488
        3492
        3496
        3500
        3504
        3508
        3512
        3516
        3520
        3524
        3528
        3532
        3536
        3540
        3544
        3548
        3552
        3556
        3560
        3564
        3568
        3572
        3576
        3580
        3584
        3588
        3592
        3596
        3600
        3604
        3608
        3612
        3616
        3620
        3624
        3628
        3632
        3636
        3640
        3644
        3648
        3652
        3656
        3660
        3664
        3668
        3672
        3676
        3680
        3684
        3688
        3692
        3696
        3700
        3704
        3708
        3712
        3716
        3720
        3724
        3728
        3732
        3736
        3740
        3744
        3748
        3752
        3756
        3760
        3764
        3768
        3772
        3776
        3780
        3784
        3788
        3792
        3796
        3800
        3804
        3808
        3812
        3816
        3820
        3824
        3828
        3832
        3836
        3840
        3844
        3848
        3852
        3856
        3860
        3864
        3868
        3872
        3876
        3880
        3884
        3888
        3892
        3896
        3900
        3904
        3908
        3912
        3916
        3920
        3924
        3928
        3932
        3936
        3940
        3944
        3948
        3952
        3956
        3960
        3964
        3968
        3972
        3976
        3980
        3984
        3988
        3992
        3996
        4000
        4004
        4008
        4012
        4016
        4020
        4024
        4028
        4032
        4036
        4040
        4044
        4048
        4052
        4056
        4060
        4064
        4068
        4072
        4076
        4080
        4084
        4088
        4092
        4096
 </DataArray>
 <DataArray  type="UInt8"  Name="types"  format="ascii">
 9
 9
 9
 9
 9
 9
 9
 9
 9
 9
 9
 9
 9
 9
 9
 9
 9
 9
 9
 9
 9
 9
 9
 9
 9
 9
 9
 9
 9
 9
 9
 9
 9
 9
 9
 9
 9
 9
 9
 9
 9
 9
 9
 9
 9
 9
 9
 9
 9
 9
 9
 9
 9
 9
 9
 9
 9
 9
 9
 9
 9
 9
 9
 9
 9
 9
 9
 9
 9
 9
 9
 9
 9
 9
 9
 9
 9
 9
 9
 9
 9
 9
 9
 9
 9
 9
 9
 9
 9
 9
 9
 9
 9
 9
 9
 9
 9
 9
 9
 9
 9
 9
 9
 9
 9
 9
 9
 9
 9
 9
 9
 9
 9
 9
 9
 9
 9
 9
 9
 9
 9
 9
 9
 9
 9
 9
 9
 9
 9
 9
 9
 9
 9
 9
 9
 9
 9
 9
 9
 9
 9
 9
 9
 9
 9
 9
 9
 9
 9
 9
 9
 9
 9
 9
 9
 9
 9
 9
 9
 9
 9
 9
 9
 9
 9
 9
 9
 9
 9
 9
 9
 9
 9
 9
 9
 9
 9
 9
 9
 9
 9
 9
 9
 9
 9
 9
 9
 9
 9
 9
 9
 9
 9
 9
 9
 9
 9
 9
 9
 9
 9
 9
 9
 9
 9
 9
 9
 9
 9
 9
 9
 9
 9
 9
 9
 9
 9
 9
 9
 9
 9
 9
 9
 9
 9
 9
 9
 9
 9
 9
 9
 9
 9
 9
 9
 9
 9
 9
 9
 9
 9
 9
 9
 9
 9
 9
 9
 9
 9
 9
 9
 9
 9
 9
 9
 9
 9
 9
 9
 9
 9
 9
 9
 9
 9
 9
 9
 9
 9
 9
 9
 9
 9
 9
 9
 9
 9
 9
 9
 9
 9
 9
 9
 9
 9
 9
 9
 9
 9
 9
 9
 9
 9
 9
 9
 9
 9
 9
 9
 9
 9
 9
 9
 9
 9
 9
 9
 9
 9
 9
 9
 9
 9
 9
 9
 9
 9
 9
 9
 9
 9
 9
 9
 9
 9
 9
 9
 9
 9
 9
 9
 9
 9
 9
 9
 9
 9
 9
 9
 9
 9
 9
 9
 9
 9
 9
 9
 9
 9
 9
 9
 9
 9
 9
 9
 9
 9
 9
 9
 9
 9
 9
 9
 9
 9
 9
 9
 9
 9
 9
 9
 9
 9
 9
 9
 9
 9
 9
 9
 9
 9
 9
 9
 9
 9
 9
 9
 9
 9
 9
 9
 9
 9
 9
 9
 9
 9
 9
 9
 9
 9
 9
 9
 9
 9
 9
 9
 9
 9
 9
 9
 9
 9
 9
 9
 9
 9
 9
 9
 9
 9
 9
 9
 9
 9
 9
 9
 9
 9
 9
 9
 9
 9
 9
 9
 9
 9
 9
 9
 9
 9
 9
 9
 9
 9
 9
 9
 9
 9
 9
 9
 9
 9
 9
 9
 9
 9
 9
 9
 9
 9
 9
 9
 9
 9
 9
 9
 9
 9
 9
 9
 9
 9
 9
 9
 9
 9
 9
 9
 9
 9
 9
 9
 9
 9
 9
 9
 9
 9
 9
 9
 9
 9
 9
 9
 9
 9
 9
 9
 9
 9
 9
 9
 9
 9
 9
 9
 9
 9
 9
 9
 9
 9
 9
 9
 9
 9
 9
 9
 9
 9
 9
 9
 9
 9
 9
 9
 9
 9
 9
 9
 9
 9
 9
 9
 9
 9
 9
 9
 9
 9
 9
 9
 9
 9
 9
 9
 9
 9
 9
 9
 9
 9
 9
 9
 9
 9
 9
 9
 9
 9
 9
 9
 9
 9
 9
 9
 9
 9
 9
 9
 9
 9
 9
 9
 9
 9
 9
 9
 9
 9
 9
 9
 9
 9
 9
 9
 9
 9
 9
 9
 9
 9
 9
 9
 9
 9
 9
 9
 9
 9
 9
 9
 9
 9
 9
 9
 9
 9
 9
 9
 9
 9
 9
 9
 9
 9
 9
 9
 9
 9
 9
 9
 9
 9
 9
 9
 9
 9
 9
 9
 9
 9
 9
 9
 9
 9
 9
 9
 9
 9
 9
 9
 9
 9
 9
 9
 9
 9
 9
 9
 9
 9
 9
 9
 9
 9
 9
 9
 9
 9
 9
 9
 9
 9
 9
 9
 9
 9
 9
 9
 9
 9
 9
 9
 9
 9
 9
 9
 9
 9
 9
 9
 9
 9
 9
 9
 9
 9
 9
 9
 9
 9
 9
 9
 9
 9
 9
 9
 9
 9
 9
 9
 9
 9
 9
 9
 9
 9
 9
 9
 9
 9
 9
 9
 9
 9
 9
 9
 9
 9
 9
 9
 9
 9
 9
 9
 9
 9
 9
 9
 9
 9
 9
 9
 9
 9
 9
 9
 9
 9
 9
 9
 9
 9
 9
 9
 9
 9
 9
 9
 9
 9
 9
 9
 9
 9
 9
 9
 9
 9
 9
 9
 9
 9
 9
 9
 9
 9
 9
 9
 9
 9
 9
 9
 9
 9
 9
 9
 9
 9
 9
 9
 9
 9
 9
 9
 9
 9
 9
 9
 9
 9
 9
 9
 9
 9
 9
 9
 9
 9
 9
 9
 9
 9
 9
 9
 9
 9
 9
 9
 9
 9
 9
 9
 9
 9
 9
 9
 9
 9
 9
 9
 9
 9
 9
 9
 9
 9
 9
 9
 9
 9
 9
 9
 9
 9
 9
 9
 9
 9
 9
 9
 9
 9
 9
 9
 9
 9
 9
 9
 9
 9
 9
 9
 9
 9
 9
 9
 9
 9
 9
 9
 9
 9
 9
 9
 9
 9
 9
 9
 9
 9
 9
 9
 9
 9
 9
 9
 9
 9
 9
 9
 9
 9
 9
 9
 9
 9
 9
 9
 9
 9
 9
 9
 9
 9
 9
 9
 9
 9
 9
 9
 9
 9
 9
 9
 9
 9
 9
 9
 9
 9
 9
 9
 9
 9
 9
 9
 9
 9
 9
 9
 9
 9
 9
 9
 9
 9
 9
 9
 9
 9
 9
 9
 9
 9
 9
 9
 9
 9
 9
 9
 9
 9
 9
 9
 9
 9
 9
 9
 9
 9
 9
 9
 9
 9
 9
 9
 9
 9
 9
 9
 9
 9
 9
 9
 9
 9
 9
 9
 9
 9
 9
 9
 9
 9
 9
 9
 9
 9
 9
 9
 9
 9
 9
 9
 9
 9
 9
 9
 9
 9
 9
 9
 9
 9
 9
 9
 9
 9
 9
 9
 9
 9
 9
 9
 9
 9
 9
 9
 9
 9
 9
 9
 9
 9
 9
 9
 9
 9
 9
 9
 9
 </DataArray>
 </Cells> 
 <PointData>
 <DataArray  type="Float64" Name="disp" NumberOfComponents="3" format="ascii">
   0.0000000000000000        0.0000000000000000        0.0000000000000000     
   6.0952836364236221E-003   3.7916061808759938E-003   0.0000000000000000     
   1.1665527147991135E-002   7.3250027052073514E-003   0.0000000000000000     
   1.6710730534702536E-002   1.0600189572994072E-002   0.0000000000000000     
   2.1230893796557827E-002   1.3617166784236159E-002   0.0000000000000000     
   0.0000000000000000        0.0000000000000000        0.0000000000000000     
   4.8910344483248137E-003   3.0224521014785653E-003   0.0000000000000000     
   9.5738289946251005E-003   6.0606816586876661E-003   0.0000000000000000     
   1.4048383638900860E-002   9.1146886716273016E-003   0.0000000000000000     
   1.8314698381152093E-002   1.2184473140297471E-002   0.0000000000000000     
   0.0000000000000000        0.0000000000000000        0.0000000000000000     
   3.9537708318637737E-003   2.4248125975022969E-003   0.0000000000000000     
   7.9111696516182949E-003   5.0623521201318437E-003   0.0000000000000000     
   1.1872196459263564E-002   7.9126185678886404E-003   0.0000000000000000     
   1.5836851254799583E-002   1.0975611940772689E-002   0.0000000000000000     
   0.0000000000000000        0.0000000000000000        0.0000000000000000     
   3.2834927870405003E-003   1.9986876689471879E-003   0.0000000000000000     
   6.6775491189707166E-003   4.3300140895398851E-003   0.0000000000000000     
   1.0182168995790648E-002   6.9939792617780914E-003   0.0000000000000000     
   1.3797352417500294E-002   9.9905831856618062E-003   0.0000000000000000     
   0.0000000000000000        0.0000000000000000        0.0000000000000000     
   2.8802003138549944E-003   1.7440773158132385E-003   0.0000000000000000     
   5.8729673966823638E-003   3.8636675669117891E-003   0.0000000000000000     
   8.9783012484821074E-003   6.3587707532956521E-003   0.0000000000000000     
   1.2196201869254230E-002   9.2293868749648254E-003   0.0000000000000000     
   2.1230893796557827E-002   1.3617166784236159E-002   0.0000000000000000     
   2.5437455048785224E-002   1.6608312801860960E-002   0.0000000000000000     
   2.9541852406612942E-002   1.9806006088795829E-002   0.0000000000000000     
   3.3544085870040978E-002   2.3210246645040771E-002   0.0000000000000000     
   3.7444155439069336E-002   2.6821034470595778E-002   0.0000000000000000     
   1.8314698381152093E-002   1.2184473140297471E-002   0.0000000000000000     
   2.2410079904556131E-002   1.5339171553708677E-002   0.0000000000000000     
   2.6371834892290315E-002   1.8647920400871418E-002   0.0000000000000000     
   3.0199963344354635E-002   2.2110719681785691E-002   0.0000000000000000     
   3.3894465260749095E-002   2.5727569396451502E-002   0.0000000000000000     
   1.5836851254799583E-002   1.0975611940772689E-002   0.0000000000000000     
   1.9732803232805445E-002   1.4210174596878965E-002   0.0000000000000000     
   2.3487721587860243E-002   1.7575148894302464E-002   0.0000000000000000     
   2.7101606319963986E-002   2.1070534833043181E-002   0.0000000000000000     
   3.0574457429116665E-002   2.4696332413101110E-002   0.0000000000000000     
   1.3797352417500294E-002   9.9905831856618062E-003   0.0000000000000000     
   1.7405625033533156E-002   1.3221321931371832E-002   0.0000000000000000     
   2.0889512493322732E-002   1.6587691569088975E-002   0.0000000000000000     
   2.4249014796869035E-002   2.0089692098813231E-002   0.0000000000000000     
   2.7484131944172048E-002   2.3727323520544595E-002   0.0000000000000000     
   1.2196201869254230E-002   9.2293868749648254E-003   0.0000000000000000     
   1.5428545306739273E-002   1.2372613557187271E-002   0.0000000000000000     
   1.8577207608677791E-002   1.5685548425230941E-002   0.0000000000000000     
   2.1642188775069782E-002   1.9168191479095840E-002   0.0000000000000000     
   2.4623488805915243E-002   2.2820542718781971E-002   0.0000000000000000     
   3.7444155439069336E-002   2.6821034470595778E-002   0.0000000000000000     
   4.1250793067106481E-002   3.0630465679501413E-002   0.0000000000000000     
   4.4972730707560901E-002   3.4630636385798233E-002   0.0000000000000000     
   4.8609968360432590E-002   3.8821546589486236E-002   0.0000000000000000     
   5.2162506025721561E-002   4.3203196290565432E-002   0.0000000000000000     
   3.3894465260749095E-002   2.5727569396451502E-002   0.0000000000000000     
   3.7482196246586906E-002   2.9525853213274920E-002   0.0000000000000000     
   4.0990011906981288E-002   3.3532954800662020E-002   0.0000000000000000     
   4.4417912241932228E-002   3.7748874158612805E-002   0.0000000000000000     
   4.7765897251439732E-002   4.2173611287127252E-002   0.0000000000000000     
   3.0574457429116665E-002   2.4696332413101110E-002   0.0000000000000000     
   3.3938822213047018E-002   2.8497167481021293E-002   0.0000000000000000     
   3.7227247969483762E-002   3.2517665883348763E-002   0.0000000000000000     
   4.0439734698426925E-002   3.6757827620083519E-002   0.0000000000000000     
   4.3576282399876473E-002   4.1217652691225570E-002   0.0000000000000000     
   2.7484131944172048E-002   2.3727323520544595E-002   0.0000000000000000     
   3.0620670966486813E-002   2.7544408482740531E-002   0.0000000000000000     
   3.3684438895068364E-002   3.1584769633858471E-002   0.0000000000000000     
   3.6675435729916675E-002   3.5848406973898420E-002   0.0000000000000000     
   3.9593661471031785E-002   4.0335320502860372E-002   0.0000000000000000     
   2.4623488805915243E-002   2.2820542718781971E-002   0.0000000000000000     
   2.7527742506906299E-002   2.6667576218432631E-002   0.0000000000000000     
   3.0361584683735048E-002   3.0734266052191133E-002   0.0000000000000000     
   3.3125015336401512E-002   3.5020612220057479E-002   0.0000000000000000     
   3.5818034464905668E-002   3.9526614722031665E-002   0.0000000000000000     
   5.2162506025721561E-002   4.3203196290565432E-002   0.0000000000000000     
   5.5612404078052610E-002   4.7784282290688859E-002   0.0000000000000000     
   5.8941722892050567E-002   5.2573501391509549E-002   0.0000000000000000     
   6.2150462467715439E-002   5.7570853593027507E-002   0.0000000000000000     
   6.5238622805047206E-002   6.2776338895242742E-002   0.0000000000000000     
   4.7765897251439732E-002   4.2173611287127252E-002   0.0000000000000000     
   5.1015045868586642E-002   4.6802072911592385E-002   0.0000000000000000     
   5.4146437026455808E-002   5.1629165757395193E-002   0.0000000000000000     
   5.7160070725047231E-002   5.6654889824535648E-002   0.0000000000000000     
   6.0055946964360910E-002   6.1879245113013764E-002   0.0000000000000000     
   4.3576282399876473E-002   4.1217652691225570E-002   0.0000000000000000     
   4.6618655205515037E-002   4.5883370011815951E-002   0.0000000000000000     
   4.9548617247025216E-002   5.0741208496895715E-002   0.0000000000000000     
   5.2366168524407022E-002   5.5791168146464863E-002   0.0000000000000000     
   5.5071309037660457E-002   6.1033248960523388E-002   0.0000000000000000     
   3.9593661471031785E-002   4.0335320502860372E-002   0.0000000000000000     
   4.2423232088837776E-002   4.5028173591359549E-002   0.0000000000000000     
   4.5148263553758783E-002   4.9909629610011129E-002   0.0000000000000000     
   4.7768755865794800E-002   5.4979688558815153E-002   0.0000000000000000     
   5.0284709024945834E-002   6.0238350437771593E-002   0.0000000000000000     
   3.5818034464905668E-002   3.9526614722031665E-002   0.0000000000000000     
   3.8428776518554884E-002   4.4236483650223160E-002   0.0000000000000000     
   4.0945375946656523E-002   4.9134429096741448E-002   0.0000000000000000     
   4.3367832749210578E-002   5.4220451061586530E-002   0.0000000000000000     
   4.5696146926217054E-002   5.9494549544758399E-002   0.0000000000000000     
   6.5238622805047206E-002   6.2776338895242742E-002   0.0000000000000000     
   6.8249202809127191E-002   6.8182669713289012E-002   0.0000000000000000     
   7.1225201385036671E-002   7.3782558462300099E-002   0.0000000000000000     
   7.4166618532775674E-002   7.9576005142275988E-002   0.0000000000000000     
   7.7073454252344159E-002   8.5563009753216679E-002   0.0000000000000000     
   6.0055946964360910E-002   6.1879245113013764E-002   0.0000000000000000     
   6.2877274287659296E-002   6.7299758653749819E-002   0.0000000000000000     
   6.5667261238204835E-002   7.2913957477664049E-002   0.0000000000000000     
   6.8425907815997528E-002   7.8721841584756466E-002   0.0000000000000000     
   7.1153214021037386E-002   8.4723410975027086E-002   0.0000000000000000     
   5.5071309037660457E-002   6.1033248960523388E-002   0.0000000000000000     
   5.7705705017105376E-002   6.6469052289940891E-002   0.0000000000000000     
   6.0311022693061683E-002   7.2100179485586988E-002   0.0000000000000000     
   6.2887262065529373E-002   7.7926630547461670E-002   0.0000000000000000     
   6.5434423134508424E-002   8.3948405475564911E-002   0.0000000000000000     
   5.0284709024945834E-002   6.0238350437771593E-002   0.0000000000000000     
   5.2734494997465457E-002   6.5690550621862243E-002   0.0000000000000000     
   5.5156485749607236E-002   7.1341224486068902E-002   0.0000000000000000     
   5.7550681281371190E-002   7.7190372030391530E-002   0.0000000000000000     
   5.9917081592757299E-002   8.3237993254830153E-002   0.0000000000000000     
   4.5696146926217054E-002   5.9494549544758399E-002   0.0000000000000000     
   4.7963644228739499E-002   6.4964253649513873E-002   0.0000000000000000     
   5.0203650407841478E-002   7.0637092479109778E-002   0.0000000000000000     
   5.2416165463522978E-002   7.6513066033546101E-002   0.0000000000000000     
   5.4601189395784011E-002   8.2592174312822828E-002   0.0000000000000000     
   7.7073454252344159E-002   8.5563009753216679E-002   0.0000000000000000     
   7.9895059717580860E-002   9.1717272560162391E-002   0.0000000000000000     
   8.2580786102324444E-002   9.8012493828153247E-002   0.0000000000000000     
   8.5130633406574896E-002  0.10444867355718931        0.0000000000000000     
   8.7544601630332258E-002  0.11102581174727053        0.0000000000000000     
   7.1153214021037386E-002   8.4723410975027086E-002   0.0000000000000000     
   7.3803580381368139E-002   9.0897708313338155E-002   0.0000000000000000     
   7.6331407425033554E-002   9.7223776264551975E-002   0.0000000000000000     
   7.8736695152033645E-002  0.10370161482866849        0.0000000000000000     
   8.1019443562368371E-002  0.11033122400568778        0.0000000000000000     
   6.5434423134508424E-002   8.3948405475564911E-002   0.0000000000000000     
   6.7911423884052052E-002   9.0146937481392686E-002   0.0000000000000000     
   7.0277182298213475E-002   9.6503659776440862E-002   0.0000000000000000     
   7.2531698376992693E-002  0.10301857236070948        0.0000000000000000     
   7.4674972120389677E-002  0.10969167523419852        0.0000000000000000     
   5.9917081592757299E-002   8.3237993254830153E-002   0.0000000000000000     
   6.2218590225632621E-002   8.9464960064325888E-002   0.0000000000000000     
   6.4418110721864222E-002   9.5852144363819919E-002   0.0000000000000000     
   6.6515643081452039E-002  0.10239954615331220        0.0000000000000000     
   6.8511187304396134E-002  0.10910716543280274        0.0000000000000000     
   5.4601189395784011E-002   8.2592174312822828E-002   0.0000000000000000     
   5.6725079406109845E-002   8.8851776062137899E-002   0.0000000000000000     
   5.8754192695985745E-002   9.5269230026689189E-002   0.0000000000000000     
   6.0688529265411718E-002  0.10184453620647672        0.0000000000000000     
   6.2528089114387772E-002  0.10857769460150049        0.0000000000000000     
   8.7544601630332258E-002  0.11102581174727053        0.0000000000000000     
   8.9788954743532629E-002  0.11771589602758115        0.0000000000000000     
   9.1829956716112229E-002  0.12449091402730540        0.0000000000000000     
   9.3667607548070977E-002  0.13135086574644331        0.0000000000000000     
   9.5301907239408915E-002  0.13829575118499485        0.0000000000000000     
   8.1019443562368371E-002  0.11033122400568778        0.0000000000000000     
   8.3138450649992035E-002  0.11707498654788051        0.0000000000000000     
   8.5052514408858818E-002  0.12389528520751746        0.0000000000000000     
   8.6761634838968774E-002  0.13079211998459855        0.0000000000000000     
   8.8265811940321903E-002  0.13776549087912388        0.0000000000000000     
   7.4674972120389677E-002  0.10969167523419852        0.0000000000000000     
   7.6662596563055740E-002  0.11647795900923759        0.0000000000000000     
   7.8450164739642253E-002  0.12333241429815617        0.0000000000000000     
   8.0037676650149187E-002  0.13025504110095434        0.0000000000000000     
   8.1425132294576555E-002  0.13724583941763208        0.0000000000000000     
   6.8511187304396134E-002  0.10910716543280274        0.0000000000000000     
   7.0361392482723842E-002  0.11592481341165231        0.0000000000000000     
   7.2022907708462536E-002  0.12280230129922164        0.0000000000000000     
   7.3495732981612202E-002  0.12973962909551068        0.0000000000000000     
   7.4779868302172856E-002  0.13673679680051953        0.0000000000000000     
   6.2528089114387772E-002  0.10857769460150049        0.0000000000000000     
   6.4234838408996270E-002  0.11541554975512475        0.0000000000000000     
   6.5770743315319624E-002  0.12230494621071379        0.0000000000000000     
   6.7135803833357807E-002  0.12924588396826761        0.0000000000000000     
   6.8330019963110861E-002  0.13623836302778619        0.0000000000000000     
   9.5301907239408915E-002  0.13829575118499485        0.0000000000000000     
   9.7046758754770840E-002  0.14553031808566608        0.0000000000000000     
   9.9216065058801498E-002  0.15325931419116312        0.0000000000000000     
  0.10180982615150093       0.16148273950148592        0.0000000000000000     
  0.10482804203286912       0.17020059401663454        0.0000000000000000     
   8.8265811940321903E-002  0.13776549087912388        0.0000000000000000     
   8.9851759882494150E-002  0.14496677332185168        0.0000000000000000     
   9.1806192835061556E-002  0.15254734274354037        0.0000000000000000     
   9.4129110798024093E-002  0.16050719914418993        0.0000000000000000     
   9.6820513771381789E-002  0.16884634252380029        0.0000000000000000     
   8.1425132294576555E-002  0.13724583941763208        0.0000000000000000     
   8.2872716176630307E-002  0.14442832327030697        0.0000000000000000     
   8.4640612800016488E-002  0.15192600668109663        0.0000000000000000     
   8.6728822164735056E-002  0.15973888965000099        0.0000000000000000     
   8.9137344270786012E-002  0.16786697217702015        0.0000000000000000     
   7.4779868302172856E-002  0.13673679680051953        0.0000000000000000     
   7.6109627637179295E-002  0.14391496793103198        0.0000000000000000     
   7.7719324953666236E-002  0.15139530600383189        0.0000000000000000     
   7.9608960251633776E-002  0.15917781101891929        0.0000000000000000     
   8.1778533531081790E-002  0.16726248297629415        0.0000000000000000     
   6.8330019963110861E-002  0.13623836302778619        0.0000000000000000     
   6.9562494264141100E-002  0.14342670730402662        0.0000000000000000     
   7.1042329296010884E-002  0.15095524071174615        0.0000000000000000     
   7.2769525058720239E-002  0.15882396325094469        0.0000000000000000     
   7.4744081552269123E-002  0.16703287492162228        0.0000000000000000     
   0.0000000000000000        0.0000000000000000        0.0000000000000000     
   2.8802003138549944E-003   1.7440773158132385E-003   0.0000000000000000     
   5.8729673966823638E-003   3.8636675669117891E-003   0.0000000000000000     
   8.9783012484821074E-003   6.3587707532956521E-003   0.0000000000000000     
   1.2196201869254230E-002   9.2293868749648254E-003   0.0000000000000000     
   0.0000000000000000        0.0000000000000000        0.0000000000000000     
   2.6102099125218268E-003   1.5881944279707424E-003   0.0000000000000000     
   5.2896611494748624E-003   3.5558355517837596E-003   0.0000000000000000     
   8.0383537108591075E-003   5.9029233714390532E-003   0.0000000000000000     
   1.0856287596674561E-002   8.6294578869366180E-003   0.0000000000000000     
   0.0000000000000000        0.0000000000000000        0.0000000000000000     
   2.3398380832555720E-003   1.4582518952899921E-003   0.0000000000000000     
   4.7198670420698407E-003   3.2990410436919996E-003   0.0000000000000000     
   7.1400868764428050E-003   5.5223674452060207E-003   0.0000000000000000     
   9.6004975863744658E-003   8.1282310998320572E-003   0.0000000000000000     
   0.0000000000000000        0.0000000000000000        0.0000000000000000     
   2.0690848260562279E-003   1.3542497177709886E-003   0.0000000000000000     
   4.1635850744672952E-003   3.0932840426365080E-003   0.0000000000000000     
   6.2835007452331990E-003   5.2171029745965575E-003   0.0000000000000000     
   8.4288318383539430E-003   7.7257065136511378E-003   0.0000000000000000     
   0.0000000000000000        0.0000000000000000        0.0000000000000000     
   1.7979501409237956E-003   1.2761878954137310E-003   0.0000000000000000     
   3.6208152466672260E-003   2.9385645486172856E-003   0.0000000000000000     
   5.4685953172302912E-003   4.9871299596106642E-003   0.0000000000000000     
   7.3412903526129929E-003   7.4218841283938651E-003   0.0000000000000000     
   1.2196201869254230E-002   9.2293868749648254E-003   0.0000000000000000     
   1.5428545306739273E-002   1.2372613557187271E-002   0.0000000000000000     
   1.8577207608677791E-002   1.5685548425230941E-002   0.0000000000000000     
   2.1642188775069782E-002   1.9168191479095840E-002   0.0000000000000000     
   2.4623488805915243E-002   2.2820542718781971E-002   0.0000000000000000     
   1.0856287596674561E-002   8.6294578869366180E-003   0.0000000000000000     
   1.3689657652903080E-002   1.1652167564789756E-002   0.0000000000000000     
   1.6484658725526524E-002   1.4887780871511753E-002   0.0000000000000000     
   1.9241290814544895E-002   1.8336297807102615E-002   0.0000000000000000     
   2.1959553919958179E-002   2.1997718371562343E-002   0.0000000000000000     
   9.6004975863744658E-003   8.1282310998320572E-003   0.0000000000000000     
   1.2077055672503867E-002   1.1048102044643763E-002   0.0000000000000000     
   1.4545717635470053E-002   1.4213450316714792E-002   0.0000000000000000     
   1.7006483475273025E-002   1.7624275916045148E-002   0.0000000000000000     
   1.9459353191912776E-002   2.1280578842634828E-002   0.0000000000000000     
   8.4288318383539430E-003   7.7257065136511378E-003   0.0000000000000000     
   1.0590739365541633E-002   1.0560416996749292E-002   0.0000000000000000     
   1.2760384338508381E-002   1.3662556760840059E-002   0.0000000000000000     
   1.4937766757254185E-002   1.7032125805923438E-002   0.0000000000000000     
   1.7122886621779045E-002   2.0669124131999429E-002   0.0000000000000000     
   7.3412903526129929E-003   7.4218841283938651E-003   0.0000000000000000     
   9.2307087320163805E-003   1.0189112421106343E-002   0.0000000000000000     
   1.1128658834641505E-002   1.3235100203887549E-002   0.0000000000000000     
   1.3035140660488371E-002   1.6559847476737485E-002   0.0000000000000000     
   1.4950154209556973E-002   2.0163354239656150E-002   0.0000000000000000     
   2.4623488805915243E-002   2.2820542718781971E-002   0.0000000000000000     
   2.7527742506906299E-002   2.6667576218432631E-002   0.0000000000000000     
   3.0361584683735048E-002   3.0734266052191133E-002   0.0000000000000000     
   3.3125015336401512E-002   3.5020612220057479E-002   0.0000000000000000     
   3.5818034464905668E-002   3.9526614722031665E-002   0.0000000000000000     
   2.1959553919958179E-002   2.1997718371562343E-002   0.0000000000000000     
   2.4625159715775193E-002   2.5873023012349394E-002   0.0000000000000000     
   2.7223819876004716E-002   2.9963192176922251E-002   0.0000000000000000     
   2.9755534400646766E-002   3.4268225865280916E-002   0.0000000000000000     
   3.2220303289701338E-002   3.8788124077425372E-002   0.0000000000000000     
   1.9459353191912776E-002   2.1280578842634828E-002   0.0000000000000000     
   2.1878045474563214E-002   2.5167101188742620E-002   0.0000000000000000     
   2.4236279012398231E-002   2.9268585046627320E-002   0.0000000000000000     
   2.6534053805417821E-002   3.3585030416288922E-002   0.0000000000000000     
   2.8771369853621991E-002   3.8116437297727429E-002   0.0000000000000000     
   1.7122886621779045E-002   2.0669124131999429E-002   0.0000000000000000     
   1.9286399783270371E-002   2.4549810747612304E-002   0.0000000000000000     
   2.1398962092915579E-002   2.8650444661306326E-002   0.0000000000000000     
   2.3460573550714674E-002   3.2971025873081504E-002   0.0000000000000000     
   2.5471234156667650E-002   3.7511554382937830E-002   0.0000000000000000     
   1.4950154209556973E-002   2.0163354239656150E-002   0.0000000000000000     
   1.6850222641896659E-002   2.4021151688958447E-002   0.0000000000000000     
   1.8711869117556772E-002   2.8108771020959284E-002   0.0000000000000000     
   2.0535093636537324E-002   3.2426212235658662E-002   0.0000000000000000     
   2.2319896198838299E-002   3.6973475333056581E-002   0.0000000000000000     
   3.5818034464905668E-002   3.9526614722031665E-002   0.0000000000000000     
   3.8428776518554884E-002   4.4236483650223160E-002   0.0000000000000000     
   4.0945375946656523E-002   4.9134429096741448E-002   0.0000000000000000     
   4.3367832749210578E-002   5.4220451061586530E-002   0.0000000000000000     
   4.5696146926217054E-002   5.9494549544758399E-002   0.0000000000000000     
   3.2220303289701338E-002   3.8788124077425372E-002   0.0000000000000000     
   3.4610006489963339E-002   4.3509808877590664E-002   0.0000000000000000     
   3.6916523948227704E-002   4.8420202330011826E-002   0.0000000000000000     
   3.9139855664494447E-002   5.3519304434688865E-002   0.0000000000000000     
   4.1280001638763539E-002   5.8807115191621767E-002   0.0000000000000000     
   2.8771369853621991E-002   3.8116437297727429E-002   0.0000000000000000     
   3.0941639998360131E-002   4.2849657962645914E-002   0.0000000000000000     
   3.3038277080981629E-002   4.7771544682747462E-002   0.0000000000000000     
   3.5061281101486493E-002   5.2882097458032053E-002   0.0000000000000000     
   3.7010652059874721E-002   5.8181316288499700E-002   0.0000000000000000     
   2.5471234156667650E-002   3.7511554382937830E-002   0.0000000000000000     
   2.7423677043745272E-002   4.2256030905388903E-002   0.0000000000000000     
   2.9310635344918297E-002   4.7188456154948315E-002   0.0000000000000000     
   3.1132109060186736E-002   5.2308830131616080E-002   0.0000000000000000     
   3.2888098189550581E-002   5.7617152835392198E-002   0.0000000000000000     
   2.2319896198838299E-002   3.6973475333056581E-002   0.0000000000000000     
   2.4056117626118742E-002   4.1728927705819631E-002   0.0000000000000000     
   2.5733598740037701E-002   4.6670936746614433E-002   0.0000000000000000     
   2.7352339540595166E-002   5.1799502455440981E-002   0.0000000000000000     
   2.8912340027791139E-002   5.7114624832299246E-002   0.0000000000000000     
   4.5696146926217054E-002   5.9494549544758399E-002   0.0000000000000000     
   4.7963644228739499E-002   6.4964253649513873E-002   0.0000000000000000     
   5.0203650407841478E-002   7.0637092479109778E-002   0.0000000000000000     
   5.2416165463522978E-002   7.6513066033546101E-002   0.0000000000000000     
   5.4601189395784011E-002   8.2592174312822828E-002   0.0000000000000000     
   4.1280001638763539E-002   5.8807115191621767E-002   0.0000000000000000     
   4.3364982404221500E-002   6.4293483315538205E-002   0.0000000000000000     
   4.5422818494054849E-002   6.9988257521165789E-002   0.0000000000000000     
   4.7453509908263573E-002   7.5891437808504561E-002   0.0000000000000000     
   4.9457056646847679E-002   8.2003024177554479E-002   0.0000000000000000     
   3.7010652059874721E-002   5.8181316288499700E-002   0.0000000000000000     
   3.8910339217205436E-002   6.3681561562577649E-002   0.0000000000000000     
   4.0784291834537786E-002   6.9395193668693136E-002   0.0000000000000000     
   4.2632509911871785E-002   7.5322212606846142E-002   0.0000000000000000     
   4.4454993449207426E-002   8.1462618377036680E-002   0.0000000000000000     
   3.2888098189550581E-002   5.7617152835392198E-002   0.0000000000000000     
   3.4599714667691288E-002   6.3128488390632245E-002   0.0000000000000000     
   3.6288070429290303E-002   6.8857900921691778E-002   0.0000000000000000     
   3.7953165474347614E-002   7.4805390428570845E-002   0.0000000000000000     
   3.9594999802863240E-002   8.0970956911269445E-002   0.0000000000000000     
   2.8912340027791139E-002   5.7114624832299246E-002   0.0000000000000000     
   3.0433108755679068E-002   6.2634263799701953E-002   0.0000000000000000     
   3.1934154278312379E-002   6.8376379280161770E-002   0.0000000000000000     
   3.3415476595691079E-002   7.4340971273678683E-002   0.0000000000000000     
   3.4877075707815154E-002   8.0528039780252719E-002   0.0000000000000000     
   5.4601189395784011E-002   8.2592174312822828E-002   0.0000000000000000     
   5.6725079406109845E-002   8.8851776062137899E-002   0.0000000000000000     
   5.8754192695985745E-002   9.5269230026689189E-002   0.0000000000000000     
   6.0688529265411718E-002  0.10184453620647672        0.0000000000000000     
   6.2528089114387772E-002  0.10857769460150049        0.0000000000000000     
   4.9457056646847679E-002   8.2003024177554479E-002   0.0000000000000000     
   5.1402848446339071E-002   8.8295719351555085E-002   0.0000000000000000     
   5.3260275043269675E-002   9.4742226053745771E-002   0.0000000000000000     
   5.5029336437639485E-002  0.10134254428412660        0.0000000000000000     
   5.6710032629448515E-002  0.10809667404269753        0.0000000000000000     
   4.4454993449207426E-002   8.1462618377036680E-002   0.0000000000000000     
   4.6223854367175687E-002   8.7785123809303839E-002   0.0000000000000000     
   4.7911204586407588E-002   9.4258441733686749E-002   0.0000000000000000     
   4.9517044106903135E-002  0.10088257215018537        0.0000000000000000     
   5.1041372928662315E-002  0.10765751505879977        0.0000000000000000     
   3.9594999802863240E-002   8.0970956911269445E-002   0.0000000000000000     
   4.1188097168619694E-002   8.7319989435384285E-002   0.0000000000000000     
   4.2706981325399504E-002   9.3817877066512179E-002   0.0000000000000000     
   4.4151652273202655E-002  0.10046461980465314        0.0000000000000000     
   4.5522110012029139E-002  0.10726021764980713        0.0000000000000000     
   3.4877075707815154E-002   8.0528039780252719E-002   0.0000000000000000     
   3.6295576850671099E-002   8.6900316229796340E-002   0.0000000000000000     
   3.7647605260245395E-002   9.3420532052222033E-002   0.0000000000000000     
   3.8933160936538036E-002  0.10008868724752981        0.0000000000000000     
   4.0152243879549035E-002  0.10690478181571968        0.0000000000000000     
   6.2528089114387772E-002  0.10857769460150049        0.0000000000000000     
   6.4234838408996270E-002  0.11541554975512475        0.0000000000000000     
   6.5770743315319624E-002  0.12230494621071379        0.0000000000000000     
   6.7135803833357807E-002  0.12924588396826761        0.0000000000000000     
   6.8330019963110861E-002  0.13623836302778619        0.0000000000000000     
   5.6710032629448515E-002  0.10809667404269753        0.0000000000000000     
   5.8271002037729114E-002  0.11494925821949543        0.0000000000000000     
   5.9680883081513633E-002  0.12184493970455711        0.0000000000000000     
   6.0939675760802094E-002  0.12878371849788256        0.0000000000000000     
   6.2047380075594488E-002  0.13576559459947177        0.0000000000000000     
   5.1041372928662315E-002  0.10765751505879977        0.0000000000000000     
   5.2457951064778394E-002  0.11452502898460494        0.0000000000000000     
   5.3740538528344657E-002  0.12142687245267603        0.0000000000000000     
   5.4889135319361113E-002  0.12836304546301305        0.0000000000000000     
   5.5903741437827753E-002  0.13533354801561598        0.0000000000000000     
   4.5522110012029139E-002  0.10726021764980713        0.0000000000000000     
   4.6795685490144116E-002  0.11414286205045325        0.0000000000000000     
   4.7949709655812696E-002  0.12105074445507057        0.0000000000000000     
   4.8984182509034864E-002  0.12798386486365912        0.0000000000000000     
   4.9899104049810621E-002  0.13494222327621883        0.0000000000000000     
   4.0152243879549035E-002  0.10690478181571968        0.0000000000000000     
   4.1284205313826289E-002  0.11380275741704038        0.0000000000000000     
   4.2308396463917715E-002  0.12071655571174073        0.0000000000000000     
   4.3224817329823327E-002  0.12764617669982073        0.0000000000000000     
   4.4033467911543112E-002  0.13459162038128036        0.0000000000000000     
   6.8330019963110861E-002  0.13623836302778619        0.0000000000000000     
   6.9562494264141100E-002  0.14342670730402662        0.0000000000000000     
   7.1042329296010884E-002  0.15095524071174615        0.0000000000000000     
   7.2769525058720239E-002  0.15882396325094469        0.0000000000000000     
   7.4744081552269123E-002  0.16703287492162228        0.0000000000000000     
   6.2047380075594488E-002  0.13576559459947177        0.0000000000000000     
   6.3189820402104760E-002  0.14296885358483424        0.0000000000000000     
   6.4552821116546810E-002  0.15057178102947966        0.0000000000000000     
   6.6136382218920639E-002  0.15857437693340787        0.0000000000000000     
   6.7940503709226274E-002  0.16697664129661893        0.0000000000000000     
   5.5903741437827753E-002  0.13533354801561598        0.0000000000000000     
   5.6950110395659288E-002  0.14254671896899804        0.0000000000000000     
   5.8193995704770407E-002  0.15021089718167255        0.0000000000000000     
   5.9635397365161172E-002  0.15832608265363943        0.0000000000000000     
   6.1274315376831534E-002  0.16689227538489870        0.0000000000000000     
   4.9899104049810621E-002  0.13494222327621883        0.0000000000000000     
   5.0843364244804692E-002  0.14216030345651801        0.0000000000000000     
   5.1965853060681751E-002  0.14987258916832485        0.0000000000000000     
   5.3266570497441823E-002  0.15807908041163934        0.0000000000000000     
   5.4745516555084889E-002  0.16677977718646148        0.0000000000000000     
   4.4033467911543112E-002  0.13459162038128036        0.0000000000000000     
   4.4869581949540972E-002  0.14180960704739415        0.0000000000000000     
   4.5868393184280806E-002  0.14955685698943655        0.0000000000000000     
   4.7029901615762586E-002  0.15783337020740765        0.0000000000000000     
   4.8354107243986352E-002  0.16663914670130731        0.0000000000000000     
   0.0000000000000000        0.0000000000000000        0.0000000000000000     
   1.7979501409237956E-003   1.2761878954137310E-003   0.0000000000000000     
   3.6208152466672260E-003   2.9385645486172856E-003   0.0000000000000000     
   5.4685953172302912E-003   4.9871299596106642E-003   0.0000000000000000     
   7.3412903526129929E-003   7.4218841283938651E-003   0.0000000000000000     
   0.0000000000000000        0.0000000000000000        0.0000000000000000     
   1.5346742005012920E-003   1.2169519662514647E-003   0.0000000000000000     
   3.0988617924245605E-003   2.8203762909246063E-003   0.0000000000000000     
   4.6925627757698060E-003   4.8102729740194250E-003   0.0000000000000000     
   6.3157771505370289E-003   7.1866420155359207E-003   0.0000000000000000     
   0.0000000000000000        0.0000000000000000        0.0000000000000000     
   1.2874971774317343E-003   1.1694274683174332E-003   0.0000000000000000     
   2.6050289454942238E-003   2.7242129988487422E-003   0.0000000000000000     
   3.9525953041874675E-003   4.6643565915939263E-003   0.0000000000000000     
   5.3301962535114659E-003   6.9898582465529862E-003   0.0000000000000000     
   0.0000000000000000        0.0000000000000000        0.0000000000000000     
   1.0564190717151233E-003   1.1336144016116383E-003   0.0000000000000000     
   2.1393167058762156E-003   2.6500746723896952E-003   0.0000000000000000     
   3.2486929024832770E-003   4.5493808123341717E-003   0.0000000000000000     
   4.3845476615363066E-003   6.8315328214450660E-003   0.0000000000000000     
   0.0000000000000000        0.0000000000000000        0.0000000000000000     
   8.4143988335145842E-004   1.1095127661340781E-003   0.0000000000000000     
   1.7017250735705358E-003   2.5979613115474642E-003   0.0000000000000000     
   2.5808555706572328E-003   4.4653456362401568E-003   0.0000000000000000     
   3.4788313746115492E-003   6.7116657402121584E-003   0.0000000000000000     
   7.3412903526129929E-003   7.4218841283938651E-003   0.0000000000000000     
   9.2307087320163805E-003   1.0189112421106343E-002   0.0000000000000000     
   1.1128658834641505E-002   1.3235100203887549E-002   0.0000000000000000     
   1.3035140660488371E-002   1.6559847476737485E-002   0.0000000000000000     
   1.4950154209556973E-002   2.0163354239656150E-002   0.0000000000000000     
   6.3157771505370289E-003   7.1866420155359207E-003   0.0000000000000000     
   7.9553194935489124E-003   9.8985900040136857E-003   0.0000000000000000     
   9.5980043816281356E-003   1.2895223527992317E-002   0.0000000000000000     
   1.1243831814774702E-002   1.6176542587471813E-002   0.0000000000000000     
   1.2892801792988613E-002   1.9742547182452178E-002   0.0000000000000000     
   5.3301962535114659E-003   6.9898582465529862E-003   0.0000000000000000     
   6.7229273717600325E-003   9.6532514317700935E-003   0.0000000000000000     
   8.1158842372269797E-003   1.2607069615289417E-002   0.0000000000000000     
   9.5090668499123055E-003   1.5851312797110953E-002   0.0000000000000000     
   1.0902475209816010E-002   1.9385980977234714E-002   0.0000000000000000     
   4.3845476615363066E-003   6.8315328214450660E-003   0.0000000000000000     
   5.5335323666497460E-003   9.4530967043755607E-003   0.0000000000000000     
   6.6822984014380362E-003   1.2370638465778842E-002   0.0000000000000000     
   7.8308457659011753E-003   1.5584158105654900E-002   0.0000000000000000     
   8.9791744600391625E-003   1.9093655624003749E-002   0.0000000000000000     
   3.4788313746115492E-003   6.7116657402121584E-003   0.0000000000000000     
   4.3871344782180511E-003   9.2981258218300944E-003   0.0000000000000000     
   5.2972468742613060E-003   1.2185930079460597E-002   0.0000000000000000     
   6.2091685627413146E-003   1.5375078513103661E-002   0.0000000000000000     
   7.1228995436580754E-003   1.8865571122759293E-002   0.0000000000000000     
   1.4950154209556973E-002   2.0163354239656150E-002   0.0000000000000000     
   1.6850222641896659E-002   2.4021151688958447E-002   0.0000000000000000     
   1.8711869117556772E-002   2.8108771020959284E-002   0.0000000000000000     
   2.0535093636537324E-002   3.2426212235658662E-002   0.0000000000000000     
   2.2319896198838299E-002   3.6973475333056581E-002   0.0000000000000000     
   1.2892801792988613E-002   1.9742547182452178E-002   0.0000000000000000     
   1.4530302870571610E-002   2.3571333180675058E-002   0.0000000000000000     
   1.6141723601825437E-002   2.7640996449882119E-002   0.0000000000000000     
   1.7727063986750100E-002   3.1951536990073345E-002   0.0000000000000000     
   1.9286324025345587E-002   3.6502954801248745E-002   0.0000000000000000     
   1.0902475209816010E-002   1.9385980977234714E-002   0.0000000000000000     
   1.2287429289424756E-002   2.3190564390656157E-002   0.0000000000000000     
   1.3655249061225195E-002   2.7244553272370752E-002   0.0000000000000000     
   1.5005934525217337E-002   3.1547947622378496E-002   0.0000000000000000     
   1.6339485681401179E-002   3.6100747440679398E-002   0.0000000000000000     
   8.9791744600391625E-003   1.9093655624003749E-002   0.0000000000000000     
   1.0121601898456092E-002   2.2878845318901726E-002   0.0000000000000000     
   1.1252445495756052E-002   2.6919441488425185E-002   0.0000000000000000     
   1.2371705251939043E-002   3.1215444132574124E-002   0.0000000000000000     
   1.3479381167005061E-002   3.5766853251348540E-002   0.0000000000000000     
   7.1228995436580754E-003   1.8865571122759293E-002   0.0000000000000000     
   8.0328206976656245E-003   2.2636175965411780E-002   0.0000000000000000     
   8.9333129054180033E-003   2.6665661098045423E-002   0.0000000000000000     
   9.8243761669152066E-003   3.0954026520660212E-002   0.0000000000000000     
   1.0706010482157240E-002   3.5501272233256158E-002   0.0000000000000000     
   2.2319896198838299E-002   3.6973475333056581E-002   0.0000000000000000     
   2.4056117626118742E-002   4.1728927705819631E-002   0.0000000000000000     
   2.5733598740037701E-002   4.6670936746614433E-002   0.0000000000000000     
   2.7352339540595166E-002   5.1799502455440981E-002   0.0000000000000000     
   2.8912340027791139E-002   5.7114624832299246E-002   0.0000000000000000     
   1.9286324025345587E-002   3.6502954801248745E-002   0.0000000000000000     
   2.0806373814381218E-002   4.1267456935001737E-002   0.0000000000000000     
   2.2274083450626293E-002   4.6217250442925739E-002   0.0000000000000000     
   2.3689452934080805E-002   5.1352335325020752E-002   0.0000000000000000     
   2.5052482264744762E-002   5.6672711581286762E-002   0.0000000000000000     
   1.6339485681401179E-002   3.6100747440679398E-002   0.0000000000000000     
   1.7641857677433360E-002   4.0870727163998838E-002   0.0000000000000000     
   1.8899005660970528E-002   4.5825661229062196E-002   0.0000000000000000     
   2.0110929632012678E-002   5.0965549635869467E-002   0.0000000000000000     
   2.1277629590559812E-002   5.6290392384420657E-002   0.0000000000000000     
   1.3479381167005061E-002   3.5766853251348540E-002   0.0000000000000000     
   1.4562569215275167E-002   4.0538738392810927E-002   0.0000000000000000     
   1.5608365371070404E-002   4.5496169105023784E-002   0.0000000000000000     
   1.6616769634390776E-002   5.0639145387987125E-002   0.0000000000000000     
   1.7587782005236283E-002   5.5967667241700929E-002   0.0000000000000000     
   1.0706010482157240E-002   3.5501272233256158E-002   0.0000000000000000     
   1.1568508427906634E-002   4.0271490621438012E-002   0.0000000000000000     
   1.2402162580925923E-002   4.5228774070810530E-002   0.0000000000000000     
   1.3206972941215107E-002   5.0373122581373726E-002   0.0000000000000000     
   1.3982939508774186E-002   5.5704536153127572E-002   0.0000000000000000     
   2.8912340027791139E-002   5.7114624832299246E-002   0.0000000000000000     
   3.0433108755679068E-002   6.2634263799701953E-002   0.0000000000000000     
   3.1934154278312379E-002   6.8376379280161770E-002   0.0000000000000000     
   3.3415476595691079E-002   7.4340971273678683E-002   0.0000000000000000     
   3.4877075707815154E-002   8.0528039780252719E-002   0.0000000000000000     
   2.5052482264744762E-002   5.6672711581286762E-002   0.0000000000000000     
   2.6381340207424671E-002   6.2198938239018536E-002   0.0000000000000000     
   2.7694195526927042E-002   6.7951574325510827E-002   0.0000000000000000     
   2.8991048223251888E-002   7.3930619840763614E-002   0.0000000000000000     
   3.0271898296399192E-002   8.0136074784776912E-002   0.0000000000000000     
   2.1277629590559812E-002   5.6290392384420657E-002   0.0000000000000000     
   2.2415227749183999E-002   6.1822562157813746E-002   0.0000000000000000     
   2.3539846320457327E-002   6.7584431639146736E-002   0.0000000000000000     
   2.4651485304379800E-002   7.3576000828419627E-002   0.0000000000000000     
   2.5750144700951404E-002   7.9797269725632392E-002   0.0000000000000000     
   1.7587782005236283E-002   5.5967667241700929E-002   0.0000000000000000     
   1.8534771380957063E-002   6.1505135556087595E-002   0.0000000000000000     
   1.9471106658903236E-002   6.7274951221069509E-002   0.0000000000000000     
   2.0396787839074813E-002   7.3277114236646693E-002   0.0000000000000000     
   2.1311814921471790E-002   7.9511624602819145E-002   0.0000000000000000     
   1.3982939508774186E-002   5.5704536153127572E-002   0.0000000000000000     
   1.4739971102743844E-002   6.1246658433840057E-002   0.0000000000000000     
   1.5487976542264756E-002   6.7023133071279148E-002   0.0000000000000000     
   1.6226955827336929E-002   7.3033960065444853E-002   0.0000000000000000     
   1.6956908957960357E-002   7.9279139416337158E-002   0.0000000000000000     
   3.4877075707815154E-002   8.0528039780252719E-002   0.0000000000000000     
   3.6295576850671099E-002   8.6900316229796340E-002   0.0000000000000000     
   3.7647605260245395E-002   9.3420532052222033E-002   0.0000000000000000     
   3.8933160936538036E-002  0.10008868724752981        0.0000000000000000     
   4.0152243879549035E-002  0.10690478181571968        0.0000000000000000     
   3.0271898296399192E-002   8.0136074784776912E-002   0.0000000000000000     
   3.1515519401447922E-002   8.6528543318902890E-002   0.0000000000000000     
   3.2700685193477040E-002   9.3068629604493663E-002   0.0000000000000000     
   3.3827395672486563E-002   9.9756333641549275E-002   0.0000000000000000     
   3.4895650838476462E-002  0.10659165543006968        0.0000000000000000     
   2.5750144700951404E-002   7.9797269725632392E-002   0.0000000000000000     
   2.6817150809068189E-002   8.6207109829066736E-002   0.0000000000000000     
   2.7833829927626209E-002   9.2764392637004395E-002   0.0000000000000000     
   2.8800182056625451E-002   9.9469118149445312E-002   0.0000000000000000     
   2.9716207196065932E-002  0.10632128636638953        0.0000000000000000     
   2.1311814921471790E-002   7.9511624602819145E-002   0.0000000000000000     
   2.2200471073531902E-002   8.5936015760287948E-002   0.0000000000000000     
   2.3047039462692882E-002   9.2507821149754213E-002   0.0000000000000000     
   2.3851520088954734E-002   9.9227040771217981E-002   0.0000000000000000     
   2.4613912952317442E-002  0.10609367462467918        0.0000000000000000     
   1.6956908957960357E-002   7.9279139416337158E-002   0.0000000000000000     
   1.7665480194839062E-002   8.5715261112566471E-002   0.0000000000000000     
   1.8340313798677073E-002   9.2298915142743174E-002   0.0000000000000000     
   1.8981409769474388E-002   9.9030101506867210E-002   0.0000000000000000     
   1.9588768107231001E-002  0.10590882020493866        0.0000000000000000     
   4.0152243879549035E-002  0.10690478181571968        0.0000000000000000     
   4.1284205313826289E-002  0.11380275741704038        0.0000000000000000     
   4.2308396463917715E-002  0.12071655571174073        0.0000000000000000     
   4.3224817329823327E-002  0.12764617669982073        0.0000000000000000     
   4.4033467911543112E-002  0.13459162038128036        0.0000000000000000     
   3.4895650838476462E-002  0.10659165543006968        0.0000000000000000     
   3.5886336433247949E-002  0.11350417223492434        0.0000000000000000     
   3.6780338198602221E-002  0.12042346132098264        0.0000000000000000     
   3.7577656134539270E-002  0.12734952268824454        0.0000000000000000     
   3.8278290241059117E-002  0.13428235633671010        0.0000000000000000     
   2.9716207196065932E-002  0.10632128636638953        0.0000000000000000     
   3.0564904745832164E-002  0.11324656365466318        0.0000000000000000     
   3.1329274105808678E-002  0.12017061638109240        0.0000000000000000     
   3.2009315275995452E-002  0.12709344454567723        0.0000000000000000     
   3.2605028256392526E-002  0.13401504814841761        0.0000000000000000     
   2.4613912952317442E-002  0.10609367462467918        0.0000000000000000     
   2.5319910251578925E-002  0.11302993167625690        0.0000000000000000     
   2.5955204185537071E-002  0.11995802089207006        0.0000000000000000     
   2.6519794754191875E-002  0.12687794227211871        0.0000000000000000     
   2.7013681957543348E-002  0.13378969581640288        0.0000000000000000     
   1.9588768107231001E-002  0.10590882020493866        0.0000000000000000     
   2.0151352950488238E-002  0.11285427629970546        0.0000000000000000     
   2.0658128437787415E-002  0.11978567485391560        0.0000000000000000     
   2.1109094569128524E-002  0.12670301586756907        0.0000000000000000     
   2.1504251344511581E-002  0.13360629934066592        0.0000000000000000     
   4.4033467911543112E-002  0.13459162038128036        0.0000000000000000     
   4.4869581949540972E-002  0.14180960704739415        0.0000000000000000     
   4.5868393184280806E-002  0.14955685698943655        0.0000000000000000     
   4.7029901615762586E-002  0.15783337020740765        0.0000000000000000     
   4.8354107243986352E-002  0.16663914670130731        0.0000000000000000     
   3.8278290241059117E-002  0.13428235633671010        0.0000000000000000     
   3.9004158637199096E-002  0.14149794521069670        0.0000000000000000     
   3.9877179441996591E-002  0.14927227225452180        0.0000000000000000     
   4.0897352655451587E-002  0.15760533746818536        0.0000000000000000     
   4.2064678277564091E-002  0.16649714085168743        0.0000000000000000     
   3.2605028256392526E-002  0.13401504814841761        0.0000000000000000     
   3.3222489435110046E-002  0.14122863341549594        0.0000000000000000     
   3.3967775200258170E-002  0.14902740657309466        0.0000000000000000     
   3.4840885551836911E-002  0.15741136762121363        0.0000000000000000     
   3.5841820489846271E-002  0.16638051655985300        0.0000000000000000     
   2.7013681957543348E-002  0.13378969581640288        0.0000000000000000     
   2.7524574343273801E-002  0.14100167166179187        0.0000000000000000     
   2.8140180459065547E-002  0.14882225994515511        0.0000000000000000     
   2.8860500304918577E-002  0.15725146066649257        0.0000000000000000     
   2.9685533880832910E-002  0.16628927382580416        0.0000000000000000     
   2.1504251344511581E-002  0.13360629934066592        0.0000000000000000     
   2.1910413361690372E-002  0.14081705994958446        0.0000000000000000     
   2.2394395218418704E-002  0.14865683237070315        0.0000000000000000     
   2.2956196914696581E-002  0.15712561660402191        0.0000000000000000     
   2.3595818450523998E-002  0.16622341264954080        0.0000000000000000     
   0.0000000000000000        0.0000000000000000        0.0000000000000000     
   8.4143988335145842E-004   1.1095127661340781E-003   0.0000000000000000     
   1.7017250735705358E-003   2.5979613115474642E-003   0.0000000000000000     
   2.5808555706572328E-003   4.4653456362401568E-003   0.0000000000000000     
   3.4788313746115492E-003   6.7116657402121584E-003   0.0000000000000000     
   0.0000000000000000        0.0000000000000000        0.0000000000000000     
   6.3365259338792838E-004   1.0935475862478476E-003   0.0000000000000000     
   1.2777187600093922E-003   2.5619980432575406E-003   0.0000000000000000     
   1.9321984998643912E-003   4.4053513710290782E-003   0.0000000000000000     
   2.5970918129529256E-003   6.6236075695624624E-003   0.0000000000000000     
   0.0000000000000000        0.0000000000000000        0.0000000000000000     
   4.2415018287172263E-004   1.0821438863160412E-003   0.0000000000000000     
   8.5276247662499172E-004   2.5363099944554165E-003   0.0000000000000000     
   1.2858368812598072E-003   4.3624983244181272E-003   0.0000000000000000     
   1.7233733967761693E-003   6.5607088762041719E-003   0.0000000000000000     
   0.0000000000000000        0.0000000000000000        0.0000000000000000     
   2.1293265180284075E-004   1.0753016663386582E-003   0.0000000000000000     
   4.2685622341733426E-004   2.5208971651410929E-003   0.0000000000000000     
   6.4177071484348037E-004   4.3367864964073046E-003   0.0000000000000000     
   8.5767612608127935E-004   6.5229696601372929E-003   0.0000000000000000     
   0.0000000000000000        0.0000000000000000        0.0000000000000000     
   1.8128291294321197E-013   1.0730209263156991E-003   0.0000000000000000     
   3.8641995419447239E-013   2.5157595553145693E-003   0.0000000000000000     
   6.1541115085883558E-013   4.3282158869966088E-003   0.0000000000000000     
   8.6825647583124721E-013   6.5103899213618203E-003   0.0000000000000000     
   3.4788313746115492E-003   6.7116657402121584E-003   0.0000000000000000     
   4.3871344782180511E-003   9.2981258218300944E-003   0.0000000000000000     
   5.2972468742613060E-003   1.2185930079460597E-002   0.0000000000000000     
   6.2091685627413146E-003   1.5375078513103661E-002   0.0000000000000000     
   7.1228995436580754E-003   1.8865571122759293E-002   0.0000000000000000     
   2.5970918129529256E-003   6.6236075695624624E-003   0.0000000000000000     
   3.2692640758316899E-003   9.1822942317064150E-003   0.0000000000000000     
   3.9455806650573778E-003   1.2046938950309663E-002   0.0000000000000000     
   4.6260415806299911E-003   1.5217541725372206E-002   0.0000000000000000     
   5.3106468225495272E-003   1.8694102556894049E-002   0.0000000000000000     
   1.7233733967761693E-003   6.5607088762041719E-003   0.0000000000000000     
   2.1654515288574041E-003   9.0995573815772415E-003   0.0000000000000000     
   2.6121507831868393E-003   1.1947659572301022E-002   0.0000000000000000     
   3.0634711597644737E-003   1.5105015448375518E-002   0.0000000000000000     
   3.5194126585903081E-003   1.8571625009800724E-002   0.0000000000000000     
   8.5767612608127935E-004   6.5229696601372929E-003   0.0000000000000000     
   1.0756968372951944E-003   9.0499152714425737E-003   0.0000000000000000     
   1.2969572286496887E-003   1.1888091945434678E-002   0.0000000000000000     
   1.5214573001447625E-003   1.5037499682113594E-002   0.0000000000000000     
   1.7491970517804155E-003   1.8498138481479326E-002   0.0000000000000000     
   8.6825647583124721E-013   6.5103899213618203E-003   0.0000000000000000     
   1.1450605004112435E-012   9.0333679013024186E-003   0.0000000000000000     
   1.4459270505093672E-012   1.1868236069710623E-002   0.0000000000000000     
   1.7708575254240470E-012   1.5014994426586433E-002   0.0000000000000000     
   2.1198505190805905E-012   1.8473642971929848E-002   0.0000000000000000     
   7.1228995436580754E-003   1.8865571122759293E-002   0.0000000000000000     
   8.0328206976656245E-003   2.2636175965411780E-002   0.0000000000000000     
   8.9333129054180033E-003   2.6665661098045423E-002   0.0000000000000000     
   9.8243761669152066E-003   3.0954026520660212E-002   0.0000000000000000     
   1.0706010482157240E-002   3.5501272233256158E-002   0.0000000000000000     
   5.3106468225495272E-003   1.8694102556894049E-002   0.0000000000000000     
   5.9930758249411081E-003   2.2454049532830270E-002   0.0000000000000000     
   6.6670080219298515E-003   2.6474810741135970E-002   0.0000000000000000     
   7.3324434135157573E-003   3.0756386181811139E-002   0.0000000000000000     
   7.9893819996988257E-003   3.5298775854855781E-002   0.0000000000000000     
   3.5194126585903081E-003   1.8571625009800724E-002   0.0000000000000000     
   3.9743574181702983E-003   2.2323959223801166E-002   0.0000000000000000     
   4.4226875770103976E-003   2.6338489057601340E-002   0.0000000000000000     
   4.8644031351106100E-003   3.0615214511201274E-002   0.0000000000000000     
   5.2995040924709337E-003   3.5154135584600947E-002   0.0000000000000000     
   1.7491970517804155E-003   1.8498138481479326E-002   0.0000000000000000     
   1.9766654773531946E-003   2.2245905038324448E-002   0.0000000000000000     
   2.2003515706596447E-003   2.6256696047441543E-002   0.0000000000000000     
   2.4202553316997671E-003   3.0530511508830602E-002   0.0000000000000000     
   2.6363767604735610E-003   3.5067351422491642E-002   0.0000000000000000     
   2.1198505190805905E-012   1.8473642971929848E-002   0.0000000000000000     
   2.4897977017775130E-012   2.2219886976400139E-002   0.0000000000000000     
   2.8775903101324607E-012   2.6229431710656566E-002   0.0000000000000000     
   3.2832276936241300E-012   3.0502277174699142E-002   0.0000000000000000     
   3.7067109364546935E-012   3.5038423368527860E-002   0.0000000000000000     
   1.0706010482157240E-002   3.5501272233256158E-002   0.0000000000000000     
   1.1568508427906634E-002   4.0271490621438012E-002   0.0000000000000000     
   1.2402162580925923E-002   4.5228774070810530E-002   0.0000000000000000     
   1.3206972941215107E-002   5.0373122581373726E-002   0.0000000000000000     
   1.3982939508774186E-002   5.5704536153127572E-002   0.0000000000000000     
   7.9893819996988257E-003   3.5298775854855781E-002   0.0000000000000000     
   8.6318914389366466E-003   4.0065973008938910E-002   0.0000000000000000     
   9.2540393896868058E-003   4.5021970892729496E-002   0.0000000000000000     
   9.8558258519493031E-003   5.0166769506227546E-002   0.0000000000000000     
   1.0437250825724142E-002   5.5500368849433074E-002   0.0000000000000000     
   5.2995040924709337E-003   3.5154135584600947E-002   0.0000000000000000     
   5.7249343719740818E-003   3.9919174714372424E-002   0.0000000000000000     
   6.1376378965027718E-003   4.4874254337087742E-002   0.0000000000000000     
   6.5376146660570036E-003   5.0019374452746915E-002   0.0000000000000000     
   6.9248646806367772E-003   5.5354535061349922E-002   0.0000000000000000     
   2.6363767604735610E-003   3.5067351422491642E-002   0.0000000000000000     
   2.8476372270189419E-003   3.9831095737738562E-002   0.0000000000000000     
   3.0529581013738235E-003   4.4785624403885275E-002   0.0000000000000000     
   3.2523393835382068E-003   4.9930937420931798E-002   0.0000000000000000     
   3.4457810735120898E-003   5.5267034788878122E-002   0.0000000000000000     
   3.7067109364546935E-012   3.5038423368527860E-002   0.0000000000000000     
   4.0712254531158343E-012   3.9801736079037309E-002   0.0000000000000000     
   4.2999593143945580E-012   4.4756081093122096E-002   0.0000000000000000     
   4.3929116122715453E-012   4.9901458410782210E-002   0.0000000000000000     
   4.3500823602993233E-012   5.5237868032017662E-002   0.0000000000000000     
   1.3982939508774186E-002   5.5704536153127572E-002   0.0000000000000000     
   1.4739971102743844E-002   6.1246658433840057E-002   0.0000000000000000     
   1.5487976542264756E-002   6.7023133071279148E-002   0.0000000000000000     
   1.6226955827336929E-002   7.3033960065444853E-002   0.0000000000000000     
   1.6956908957960357E-002   7.9279139416337158E-002   0.0000000000000000     
   1.0437250825724142E-002   5.5500368849433074E-002   0.0000000000000000     
   1.1004743734174854E-002   6.1046281349291180E-002   0.0000000000000000     
   1.1564734000464972E-002   6.6828019432746966E-002   0.0000000000000000     
   1.2117221624594497E-002   7.2845583099800437E-002   0.0000000000000000     
   1.2662206606563428E-002   7.9098972350451574E-002   0.0000000000000000     
   6.9248646806367772E-003   5.5354535061349922E-002   0.0000000000000000     
   7.3030060948805955E-003   6.0903154860660981E-002   0.0000000000000000     
   7.6756570634269640E-003   6.6688652548444263E-002   0.0000000000000000     
   8.0428175862758810E-003   7.2711028124699761E-002   0.0000000000000000     
   8.4044876634273499E-003   7.8970281589427496E-002   0.0000000000000000     
   3.4457810735120898E-003   5.5267034788878122E-002   0.0000000000000000     
   3.6347581848610675E-003   6.0817278967949466E-002   0.0000000000000000     
   3.8207457311507315E-003   6.6605032418371041E-002   0.0000000000000000     
   4.0037437123810801E-003   7.2630295140142839E-002   0.0000000000000000     
   4.1837521285521149E-003   7.8893067133264883E-002   0.0000000000000000     
   4.3500823602993233E-012   5.5237868032017662E-002   0.0000000000000000     
   4.1162705839356550E-012   6.0788653671156635E-002   0.0000000000000000     
   3.6362735739148278E-012   6.6577159042527312E-002   0.0000000000000000     
   2.9100921975985794E-012   7.2603384146129685E-002   0.0000000000000000     
   1.9377251539443030E-012   7.8867328981963788E-002   0.0000000000000000     
   1.6956908957960357E-002   7.9279139416337158E-002   0.0000000000000000     
   1.7665480194839062E-002   8.5715261112566471E-002   0.0000000000000000     
   1.8340313798677073E-002   9.2298915142743174E-002   0.0000000000000000     
   1.8981409769474388E-002   9.9030101506867210E-002   0.0000000000000000     
   1.9588768107231001E-002  0.10590882020493866        0.0000000000000000     
   1.2662206606563428E-002   7.9098972350451574E-002   0.0000000000000000     
   1.3190777845010012E-002   8.5544124292637344E-002   0.0000000000000000     
   1.3694024238572482E-002   9.2136976034294646E-002   0.0000000000000000     
   1.4171945787250844E-002   9.8877527575423493E-002   0.0000000000000000     
   1.4624542491045094E-002  0.10576577891602384        0.0000000000000000     
   8.4044876634273499E-003   7.8970281589427496E-002   0.0000000000000000     
   8.7549636960650851E-003   8.5421883707235580E-002   0.0000000000000000     
   9.0885420853728111E-003   9.2021305242732124E-002   0.0000000000000000     
   9.4052228313505192E-003   9.8768546195917142E-002   0.0000000000000000     
   9.7050059339982165E-003  0.10566360656679068        0.0000000000000000     
   4.1837521285521149E-003   7.8893067133264883E-002   0.0000000000000000     
   4.3580377480042891E-003   8.5348539356361150E-002   0.0000000000000000     
   4.5238673390780564E-003   9.1951902768055593E-002   0.0000000000000000     
   4.6812409017734152E-003   9.8703157368348254E-002   0.0000000000000000     
   4.8301584360903671E-003  0.10560230315723913        0.0000000000000000     
   1.9377251539443030E-012   7.8867328981963788E-002   0.0000000000000000     
   8.2762030735594738E-013   8.5324091240014083E-002   0.0000000000000000     
  -3.1177827247014234E-013   9.1928768610265083E-002   0.0000000000000000     
  -1.4804703415884773E-012   9.8681361092716788E-002   0.0000000000000000     
  -2.6784546802716136E-012  0.10558186868736918        0.0000000000000000     
   1.9588768107231001E-002  0.10590882020493866        0.0000000000000000     
   2.0151352950488238E-002  0.11285427629970546        0.0000000000000000     
   2.0658128437787415E-002  0.11978567485391560        0.0000000000000000     
   2.1109094569128524E-002  0.12670301586756907        0.0000000000000000     
   2.1504251344511581E-002  0.13360629934066592        0.0000000000000000     
   1.4624542491045094E-002  0.10576577891602384        0.0000000000000000     
   1.5044139362451402E-002  0.11271850510845700        0.0000000000000000     
   1.5423061413965933E-002  0.11965248120508416        0.0000000000000000     
   1.5761308645588681E-002  0.12656770720590538        0.0000000000000000     
   1.6058881057319653E-002  0.13346418311092059        0.0000000000000000     
   9.7050059339982165E-003  0.10566360656679068        0.0000000000000000     
   9.9831760073597238E-003  0.11262152568595959        0.0000000000000000     
   1.0235017665478855E-002  0.11955734288403093        0.0000000000000000     
   1.0460530908355619E-002  0.12647105816100465        0.0000000000000000     
   1.0659715735990012E-002  0.13336267151688075        0.0000000000000000     
   4.8301584360903671E-003  0.10560230315723913        0.0000000000000000     
   4.9684628852131960E-003  0.11256333803221327        0.0000000000000000     
   5.0939971923261874E-003  0.11950025989075590        0.0000000000000000     
   5.2067613574293395E-003  0.12641306873286695        0.0000000000000000     
   5.3067553805226531E-003  0.13330176455854639        0.0000000000000000     
  -2.6784546802716136E-012  0.10558186868736918        0.0000000000000000     
  -3.9881758919640964E-012  0.11254394214721805        0.0000000000000000     
  -5.4920776043285158E-012  0.11948123222525904        0.0000000000000000     
  -7.1901608744619899E-012  0.12639373892149219        0.0000000000000000     
  -9.0824244826370748E-012  0.13328146223591750        0.0000000000000000     
   2.1504251344511581E-002  0.13360629934066592        0.0000000000000000     
   2.1910413361690372E-002  0.14081705994958446        0.0000000000000000     
   2.2394395218418704E-002  0.14865683237070315        0.0000000000000000     
   2.2956196914696581E-002  0.15712561660402191        0.0000000000000000     
   2.3595818450523998E-002  0.16622341264954080        0.0000000000000000     
   1.6058881057319653E-002  0.13346418311092059        0.0000000000000000     
   1.6361799581121980E-002  0.14067405284353923        0.0000000000000000     
   1.6716085148958781E-002  0.14852946032717063        0.0000000000000000     
   1.7121737760830071E-002  0.15703040556181477        0.0000000000000000     
   1.7578757416735841E-002  0.16617688854747176        0.0000000000000000     
   1.0659715735990012E-002  0.13336267151688075        0.0000000000000000     
   1.0860526092330840E-002  0.14057190490832153        0.0000000000000000     
   1.1090915921326903E-002  0.14843848029198931        0.0000000000000000     
   1.1350885222978205E-002  0.15696239766788406        0.0000000000000000     
   1.1640433997284746E-002  0.16614365703600578        0.0000000000000000     
   5.3067553805226531E-003  0.13330176455854639        0.0000000000000000     
   5.4065928953169525E-003  0.14051061614393143        0.0000000000000000     
   5.5188875355230652E-003  0.14838389226515916        0.0000000000000000     
   5.6436393011409878E-003  0.15692159292222965        0.0000000000000000     
   5.7808481921707202E-003  0.16612371811514293        0.0000000000000000     
  -9.0824244826370748E-012  0.13328146223591750        0.0000000000000000     
  -9.9196794441785974E-012  0.14049018655036891        0.0000000000000000     
  -8.4527329797037809E-012  0.14836569624668033        0.0000000000000000     
  -4.6815888026050662E-012  0.15690799132485173        0.0000000000000000     
   1.3937557705179238E-012  0.16611707178488316        0.0000000000000000     
   0.0000000000000000        0.0000000000000000        0.0000000000000000     
   1.8128291294321197E-013   1.0730209263156991E-003   0.0000000000000000     
   3.8641995419447239E-013   2.5157595553145693E-003   0.0000000000000000     
   6.1541115085883558E-013   4.3282158869966088E-003   0.0000000000000000     
   8.6825647583124721E-013   6.5103899213618203E-003   0.0000000000000000     
   0.0000000000000000        0.0000000000000000        0.0000000000000000     
  -2.1293265144700218E-004   1.0753016662502315E-003   0.0000000000000000     
  -4.2685622265868840E-004   2.5208971649814450E-003   0.0000000000000000     
  -6.4177071363505876E-004   4.3367864961936405E-003   0.0000000000000000     
  -8.5767612437611285E-004   6.5229696598868171E-003   0.0000000000000000     
   0.0000000000000000        0.0000000000000000        0.0000000000000000     
  -4.2415018253606573E-004   1.0821438861453232E-003   0.0000000000000000     
  -8.5276247590892822E-004   2.5363099941473218E-003   0.0000000000000000     
  -1.2858368801185868E-003   4.3624983240059959E-003   0.0000000000000000     
  -1.7233733951650422E-003   6.5607088757213454E-003   0.0000000000000000     
   0.0000000000000000        0.0000000000000000        0.0000000000000000     
  -6.3365259308590782E-004   1.0935475860009739E-003   0.0000000000000000     
  -1.2777187593642990E-003   2.5619980428121998E-003   0.0000000000000000     
  -1.9321984988351732E-003   4.4053513704336760E-003   0.0000000000000000     
  -2.5970918114985313E-003   6.6236075688654045E-003   0.0000000000000000     
   0.0000000000000000        0.0000000000000000        0.0000000000000000     
  -8.4143988309652844E-004   1.1095127658171838E-003   0.0000000000000000     
  -1.7017250730248013E-003   2.5979613109760775E-003   0.0000000000000000     
  -2.5808555697848182E-003   4.4653456354766816E-003   0.0000000000000000     
  -3.4788313733765796E-003   6.7116657393189961E-003   0.0000000000000000     
   8.6825647583124721E-013   6.5103899213618203E-003   0.0000000000000000     
   1.1450605004112435E-012   9.0333679013024186E-003   0.0000000000000000     
   1.4459270505093672E-012   1.1868236069710623E-002   0.0000000000000000     
   1.7708575254240470E-012   1.5014994426586433E-002   0.0000000000000000     
   2.1198505190805905E-012   1.8473642971929848E-002   0.0000000000000000     
  -8.5767612437611285E-004   6.5229696598868171E-003   0.0000000000000000     
  -1.0756968350462825E-003   9.0499152711668203E-003   0.0000000000000000     
  -1.2969572258099981E-003   1.1888091945139494E-002   0.0000000000000000     
  -1.5214572966672599E-003   1.5037499681804839E-002   0.0000000000000000     
  -1.7491970476180676E-003   1.8498138481162853E-002   0.0000000000000000     
  -1.7233733951650422E-003   6.5607088757213454E-003   0.0000000000000000     
  -2.1654515267321181E-003   9.0995573810458332E-003   0.0000000000000000     
  -2.6121507805036397E-003   1.1947659571731920E-002   0.0000000000000000     
  -3.0634711564796061E-003   1.5105015447779608E-002   0.0000000000000000     
  -3.5194126546600184E-003   1.8571625009188891E-002   0.0000000000000000     
  -2.5970918114985313E-003   6.6236075688654045E-003   0.0000000000000000     
  -3.2692640739124474E-003   9.1822942309394574E-003   0.0000000000000000     
  -3.9455806626349987E-003   1.2046938949487902E-002   0.0000000000000000     
  -4.6260415776661831E-003   1.5217541724510742E-002   0.0000000000000000     
  -5.3106468190060032E-003   1.8694102556007973E-002   0.0000000000000000     
  -3.4788313733765796E-003   6.7116657393189961E-003   0.0000000000000000     
  -4.3871344765872696E-003   9.2981258208476910E-003   0.0000000000000000     
  -5.2972468722040731E-003   1.2185930078407438E-002   0.0000000000000000     
  -6.2091685602269891E-003   1.5375078511998238E-002   0.0000000000000000     
  -7.1228995406560202E-003   1.8865571121620090E-002   0.0000000000000000     
   2.1198505190805905E-012   1.8473642971929848E-002   0.0000000000000000     
   2.4897977017775130E-012   2.2219886976400139E-002   0.0000000000000000     
   2.8775903101324607E-012   2.6229431710656566E-002   0.0000000000000000     
   3.2832276936241300E-012   3.0502277174699142E-002   0.0000000000000000     
   3.7067109364546935E-012   3.5038423368527860E-002   0.0000000000000000     
  -1.7491970476180676E-003   1.8498138481162853E-002   0.0000000000000000     
  -1.9766654724646428E-003   2.2245905038036626E-002   0.0000000000000000     
  -2.2003515650092080E-003   2.6256696047249249E-002   0.0000000000000000     
  -2.4202553252517622E-003   3.0530511508800730E-002   0.0000000000000000     
  -2.6363767531923060E-003   3.5067351422691066E-002   0.0000000000000000     
  -3.5194126546600184E-003   1.8571625009188891E-002   0.0000000000000000     
  -3.9743574135548791E-003   2.2323959223242318E-002   0.0000000000000000     
  -4.4226875716741930E-003   2.6338489057222438E-002   0.0000000000000000     
  -4.8644031290179584E-003   3.0615214511129238E-002   0.0000000000000000     
  -5.2995040855861779E-003   3.5154135584962720E-002   0.0000000000000000     
  -5.3106468190060032E-003   1.8694102556007973E-002   0.0000000000000000     
  -5.9930758207809125E-003   2.2454049532017226E-002   0.0000000000000000     
  -6.6670080171173625E-003   2.6474810740576112E-002   0.0000000000000000     
  -7.3324434080153629E-003   3.0756386181684657E-002   0.0000000000000000     
  -7.9893819934749016E-003   3.5298775855342836E-002   0.0000000000000000     
  -7.1228995406560202E-003   1.8865571121620090E-002   0.0000000000000000     
  -8.0328206941427394E-003   2.2636175964361332E-002   0.0000000000000000     
  -8.9333129013387230E-003   2.6665661097310295E-002   0.0000000000000000     
  -9.8243761622439692E-003   3.0954026520466985E-002   0.0000000000000000     
  -1.0706010476858482E-002   3.5501272233831399E-002   0.0000000000000000     
   3.7067109364546935E-012   3.5038423368527860E-002   0.0000000000000000     
   4.0712254531158343E-012   3.9801736079037309E-002   0.0000000000000000     
   4.2999593143945580E-012   4.4756081093122096E-002   0.0000000000000000     
   4.3929116122715453E-012   4.9901458410782210E-002   0.0000000000000000     
   4.3500823602993233E-012   5.5237868032017662E-002   0.0000000000000000     
  -2.6363767531923060E-003   3.5067351422691066E-002   0.0000000000000000     
  -2.8476372190180082E-003   3.9831095738234186E-002   0.0000000000000000     
  -3.0529580929160387E-003   4.4785624404744026E-002   0.0000000000000000     
  -3.2523393748863970E-003   4.9930937422220600E-002   0.0000000000000000     
  -3.4457810649290849E-003   5.5267034790663895E-002   0.0000000000000000     
  -5.2995040855861779E-003   3.5154135584962720E-002   0.0000000000000000     
  -5.7249343643977040E-003   3.9919174715294686E-002   0.0000000000000000     
  -6.1376378884713898E-003   4.4874254338696920E-002   0.0000000000000000     
  -6.5376146578072381E-003   5.0019374455169414E-002   0.0000000000000000     
  -6.9248646724052471E-003   5.5354535064712176E-002   0.0000000000000000     
  -7.9893819934749016E-003   3.5298775855342836E-002   0.0000000000000000     
  -8.6318914320678581E-003   4.0065973010218817E-002   0.0000000000000000     
  -9.2540393823660940E-003   4.5021970894980737E-002   0.0000000000000000     
  -9.8558258443696128E-003   5.0166769509628638E-002   0.0000000000000000     
  -1.0437250818078411E-002   5.5500368854162485E-002   0.0000000000000000     
  -1.0706010476858482E-002   3.5501272233831399E-002   0.0000000000000000     
  -1.1568508422028473E-002   4.0271490623006570E-002   0.0000000000000000     
  -1.2402162574600148E-002   4.5228774073595525E-002   0.0000000000000000     
  -1.3206972934573517E-002   5.0373122585598278E-002   0.0000000000000000     
  -1.3982939501948566E-002   5.5704536159014828E-002   0.0000000000000000     
   4.3500823602993233E-012   5.5237868032017662E-002   0.0000000000000000     
   4.1162705839356550E-012   6.0788653671156635E-002   0.0000000000000000     
   3.6362735739148278E-012   6.6577159042527312E-002   0.0000000000000000     
   2.9100921975985794E-012   7.2603384146129685E-002   0.0000000000000000     
   1.9377251539443030E-012   7.8867328981963788E-002   0.0000000000000000     
  -3.4457810649290849E-003   5.5267034790663895E-002   0.0000000000000000     
  -3.6347581767175153E-003   6.0817278970153987E-002   0.0000000000000000     
  -3.8207457239251056E-003   6.6605032420770940E-002   0.0000000000000000     
  -4.0037437065518575E-003   7.2630295142514761E-002   0.0000000000000000     
  -4.1837521245977677E-003   7.8893067135385450E-002   0.0000000000000000     
  -6.9248646724052471E-003   5.5354535064712176E-002   0.0000000000000000     
  -7.3030060870040089E-003   6.0903154864813028E-002   0.0000000000000000     
  -7.6756570563421061E-003   6.6688652552959804E-002   0.0000000000000000     
  -8.0428175804195395E-003   7.2711028129152519E-002   0.0000000000000000     
  -8.4044876592363101E-003   7.8970281593391145E-002   0.0000000000000000     
  -1.0437250818078411E-002   5.5500368854162485E-002   0.0000000000000000     
  -1.1004743726743210E-002   6.1046281355133743E-002   0.0000000000000000     
  -1.1564733993614722E-002   6.6828019439093903E-002   0.0000000000000000     
  -1.2117221618692957E-002   7.2845583106042944E-002   0.0000000000000000     
  -1.2662206601977909E-002   7.9098972355980873E-002   0.0000000000000000     
  -1.3982939501948566E-002   5.5704536159014828E-002   0.0000000000000000     
  -1.4739971095935115E-002   6.1246658441116153E-002   0.0000000000000000     
  -1.5487976535742959E-002   6.7023133079173236E-002   0.0000000000000000     
  -1.6226955821372107E-002   7.3033960073186063E-002   0.0000000000000000     
  -1.6956908952822550E-002   7.9279139423154663E-002   0.0000000000000000     
   1.9377251539443030E-012   7.8867328981963788E-002   0.0000000000000000     
   8.2762030735594738E-013   8.5324091240014083E-002   0.0000000000000000     
  -3.1177827247014234E-013   9.1928768610265083E-002   0.0000000000000000     
  -1.4804703415884773E-012   9.8681361092716788E-002   0.0000000000000000     
  -2.6784546802716136E-012  0.10558186868736918        0.0000000000000000     
  -4.1837521245977677E-003   7.8893067135385450E-002   0.0000000000000000     
  -4.3580377461881802E-003   8.5348539358068173E-002   0.0000000000000000     
  -4.5238673394484390E-003   9.1951902769248167E-002   0.0000000000000000     
  -4.6812409043785431E-003   9.8703157368925376E-002   0.0000000000000000     
  -4.8301584409784918E-003  0.10560230315709984        0.0000000000000000     
  -8.4044876592363101E-003   7.8970281593391145E-002   0.0000000000000000     
  -8.7549636937663683E-003   8.5421883710397273E-002   0.0000000000000000     
  -9.0885420849836709E-003   9.2021305244892451E-002   0.0000000000000000     
  -9.4052228328882076E-003   9.8768546196876680E-002   0.0000000000000000     
  -9.7050059374799869E-003  0.10566360656634999        0.0000000000000000     
  -1.2662206601977909E-002   7.9098972355980873E-002   0.0000000000000000     
  -1.3190777841906955E-002   8.5544124297001325E-002   0.0000000000000000     
  -1.3694024236917471E-002   9.2136976037197948E-002   0.0000000000000000     
  -1.4171945787009472E-002   9.8877527576570715E-002   0.0000000000000000     
  -1.4624542492182944E-002  0.10576577891511962        0.0000000000000000     
  -1.6956908952822550E-002   7.9279139423154663E-002   0.0000000000000000     
  -1.7665480190609921E-002   8.5715261117880401E-002   0.0000000000000000     
  -1.8340313795249849E-002   9.2298915146164645E-002   0.0000000000000000     
  -1.8981409766742327E-002   9.9030101508007451E-002   0.0000000000000000     
  -1.9588768105087362E-002  0.10590882020340878        0.0000000000000000     
  -2.6784546802716136E-012  0.10558186868736918        0.0000000000000000     
  -3.9881758919640964E-012  0.11254394214721805        0.0000000000000000     
  -5.4920776043285158E-012  0.11948123222525904        0.0000000000000000     
  -7.1901608744619899E-012  0.12639373892149219        0.0000000000000000     
  -9.0824244826370748E-012  0.13328146223591750        0.0000000000000000     
  -4.8301584409784918E-003  0.10560230315709984        0.0000000000000000     
  -4.9684628925912386E-003  0.11256333803095023        0.0000000000000000     
  -5.0939972025597366E-003  0.11950025988765525        0.0000000000000000     
  -5.2067613708839892E-003  0.12641306872721486        0.0000000000000000     
  -5.3067553975639919E-003  0.13330176454962911        0.0000000000000000     
  -9.7050059374799869E-003  0.10566360656634999        0.0000000000000000     
  -9.9831760129428376E-003  0.11262152568338625        0.0000000000000000     
  -1.0235017673460594E-002  0.11955734287805934        0.0000000000000000     
  -1.0460530919033255E-002  0.12647105815036935        0.0000000000000000     
  -1.0659715749660820E-002  0.13336267150031619        0.0000000000000000     
  -1.4624542492182944E-002  0.10576577891511962        0.0000000000000000     
  -1.5044139365042973E-002  0.11271850510452608        0.0000000000000000     
  -1.5423061418194646E-002  0.11965248119647140        0.0000000000000000     
  -1.5761308651637961E-002  0.12656770719095559        0.0000000000000000     
  -1.6058881065372909E-002  0.13346418308797872        0.0000000000000000     
  -1.9588768105087362E-002  0.10590882020340878        0.0000000000000000     
  -2.0151352948891650E-002  0.11285427629436971        0.0000000000000000     
  -2.0658128436761892E-002  0.11978567484289136        0.0000000000000000     
  -2.1109094568698097E-002  0.12670301584897373        0.0000000000000000     
  -2.1504251344700260E-002  0.13360629931261675        0.0000000000000000     
  -9.0824244826370748E-012  0.13328146223591750        0.0000000000000000     
  -9.9196794441785974E-012  0.14049018655036891        0.0000000000000000     
  -8.4527329797037809E-012  0.14836569624668033        0.0000000000000000     
  -4.6815888026050662E-012  0.15690799132485173        0.0000000000000000     
   1.3937557705179238E-012  0.16611707178488316        0.0000000000000000     
  -5.3067553975639919E-003  0.13330176454962911        0.0000000000000000     
  -5.4065929138783818E-003  0.14051061612863022        0.0000000000000000     
  -5.5188875511057948E-003  0.14838389223795043        0.0000000000000000     
  -5.6436393092462334E-003  0.15692159287758972        0.0000000000000000     
  -5.7808481882996917E-003  0.16612371804754816        0.0000000000000000     
  -1.0659715749660820E-002  0.13336267150031619        0.0000000000000000     
  -1.0860526107058481E-002  0.14057190487971161        0.0000000000000000     
  -1.1090915932941427E-002  0.14843848024036727        0.0000000000000000     
  -1.1350885227309655E-002  0.15696239758228334        0.0000000000000000     
  -1.1640433990163172E-002  0.16614365690545960        0.0000000000000000     
  -1.6058881065372909E-002  0.13346418308797872        0.0000000000000000     
  -1.6361799589459974E-002  0.14067405280361303        0.0000000000000000     
  -1.6716085153959625E-002  0.14852946025393096        0.0000000000000000     
  -1.7121737758871859E-002  0.15703040543893240        0.0000000000000000     
  -1.7578757404196687E-002  0.16617688835861746        0.0000000000000000     
  -2.1504251344700260E-002  0.13360629931261675        0.0000000000000000     
  -2.1910413361082862E-002  0.14081705990033458        0.0000000000000000     
  -2.2394395214160392E-002  0.14865683227864135        0.0000000000000000     
  -2.2956196903932850E-002  0.15712561644753709        0.0000000000000000     
  -2.3595818430400230E-002  0.16622341240702176        0.0000000000000000     
   0.0000000000000000        0.0000000000000000        0.0000000000000000     
  -8.4143988309652844E-004   1.1095127658171838E-003   0.0000000000000000     
  -1.7017250730248013E-003   2.5979613109760775E-003   0.0000000000000000     
  -2.5808555697848182E-003   4.4653456354766816E-003   0.0000000000000000     
  -3.4788313733765796E-003   6.7116657393189961E-003   0.0000000000000000     
   0.0000000000000000        0.0000000000000000        0.0000000000000000     
  -1.0564190715166635E-003   1.1336144012352050E-003   0.0000000000000000     
  -2.1393167054496063E-003   2.6500746717110423E-003   0.0000000000000000     
  -3.2486929017988284E-003   4.5493808114275107E-003   0.0000000000000000     
  -4.3845476605643297E-003   6.8315328203846122E-003   0.0000000000000000     
   0.0000000000000000        0.0000000000000000        0.0000000000000000     
  -1.2874971772950494E-003   1.1694274678962896E-003   0.0000000000000000     
  -2.6050289451978862E-003   2.7242129980891783E-003   0.0000000000000000     
  -3.9525953037085103E-003   4.6643565905786647E-003   0.0000000000000000     
  -5.3301962528269214E-003   6.9898582453647501E-003   0.0000000000000000     
   0.0000000000000000        0.0000000000000000        0.0000000000000000     
  -1.5346742004316860E-003   1.2169519658004381E-003   0.0000000000000000     
  -3.0988617922696406E-003   2.8203762901104854E-003   0.0000000000000000     
  -4.6925627755138649E-003   4.8102729729301436E-003   0.0000000000000000     
  -6.3157771501643574E-003   7.1866420142594123E-003   0.0000000000000000     
   0.0000000000000000        0.0000000000000000        0.0000000000000000     
  -1.7979501409265733E-003   1.2761878949476496E-003   0.0000000000000000     
  -3.6208152466648703E-003   2.9385645477749654E-003   0.0000000000000000     
  -5.4685953172148912E-003   4.9871299584819465E-003   0.0000000000000000     
  -7.3412903525766340E-003   7.4218841270685953E-003   0.0000000000000000     
  -3.4788313733765796E-003   6.7116657393189961E-003   0.0000000000000000     
  -4.3871344765872696E-003   9.2981258208476910E-003   0.0000000000000000     
  -5.2972468722040731E-003   1.2185930078407438E-002   0.0000000000000000     
  -6.2091685602269891E-003   1.5375078511998238E-002   0.0000000000000000     
  -7.1228995406560202E-003   1.8865571121620090E-002   0.0000000000000000     
  -4.3845476605643297E-003   6.8315328203846122E-003   0.0000000000000000     
  -5.5335323653646126E-003   9.4530967032094865E-003   0.0000000000000000     
  -6.6822983998181835E-003   1.2370638464529274E-002   0.0000000000000000     
  -7.8308457639250390E-003   1.5584158104343973E-002   0.0000000000000000     
  -8.9791744576851826E-003   1.9093655622653586E-002   0.0000000000000000     
  -5.3301962528269214E-003   6.9898582453647501E-003   0.0000000000000000     
  -6.7229273708525059E-003   9.6532514304637929E-003   0.0000000000000000     
  -8.1158842360846469E-003   1.2607069613892147E-002   0.0000000000000000     
  -9.5090668485233471E-003   1.5851312795649816E-002   0.0000000000000000     
  -1.0902475208168602E-002   1.9385980975736797E-002   0.0000000000000000     
  -6.3157771501643574E-003   7.1866420142594123E-003   0.0000000000000000     
  -7.9553194930509462E-003   9.8985900026106136E-003   0.0000000000000000     
  -9.5980043810034651E-003   1.2895223526496063E-002   0.0000000000000000     
  -1.1243831814021910E-002   1.6176542585915769E-002   0.0000000000000000     
  -1.2892801792106279E-002   1.9742547180869721E-002   0.0000000000000000     
  -7.3412903525766340E-003   7.4218841270685953E-003   0.0000000000000000     
  -9.2307087319599360E-003   1.0189112419649940E-002   0.0000000000000000     
  -1.1128658834574633E-002   1.3235100202341017E-002   0.0000000000000000     
  -1.3035140660420724E-002   1.6559847475141824E-002   0.0000000000000000     
  -1.4950154209498211E-002   2.0163354238052364E-002   0.0000000000000000     
  -7.1228995406560202E-003   1.8865571121620090E-002   0.0000000000000000     
  -8.0328206941427394E-003   2.2636175964361332E-002   0.0000000000000000     
  -8.9333129013387230E-003   2.6665661097310295E-002   0.0000000000000000     
  -9.8243761622439692E-003   3.0954026520466985E-002   0.0000000000000000     
  -1.0706010476858482E-002   3.5501272233831399E-002   0.0000000000000000     
  -8.9791744576851826E-003   1.9093655622653586E-002   0.0000000000000000     
  -1.0121601895696403E-002   2.2878845317653201E-002   0.0000000000000000     
  -1.1252445492556492E-002   2.6919441487537915E-002   0.0000000000000000     
  -1.2371705248265448E-002   3.1215444132307712E-002   0.0000000000000000     
  -1.3479381162823276E-002   3.5766853251962612E-002   0.0000000000000000     
  -1.0902475208168602E-002   1.9385980975736797E-002   0.0000000000000000     
  -1.2287429287497945E-002   2.3190564389271393E-002   0.0000000000000000     
  -1.3655249058988891E-002   2.7244553271371902E-002   0.0000000000000000     
  -1.5005934522641458E-002   3.1547947622038337E-002   0.0000000000000000     
  -1.6339485678455633E-002   3.6100747441270689E-002   0.0000000000000000     
  -1.2892801792106279E-002   1.9742547180869721E-002   0.0000000000000000     
  -1.4530302869547360E-002   2.3571333179215899E-002   0.0000000000000000     
  -1.6141723600635934E-002   2.7640996448812277E-002   0.0000000000000000     
  -1.7727063985371997E-002   3.1951536989658844E-002   0.0000000000000000     
  -1.9286324023755557E-002   3.6502954801755617E-002   0.0000000000000000     
  -1.4950154209498211E-002   2.0163354238052364E-002   0.0000000000000000     
  -1.6850222641844652E-002   2.4021151687486728E-002   0.0000000000000000     
  -1.8711869117497604E-002   2.8108771019859029E-002   0.0000000000000000     
  -2.0535093636457068E-002   3.2426212235169248E-002   0.0000000000000000     
  -2.2319896198723051E-002   3.6973475333417410E-002   0.0000000000000000     
  -1.0706010476858482E-002   3.5501272233831399E-002   0.0000000000000000     
  -1.1568508422028473E-002   4.0271490623006570E-002   0.0000000000000000     
  -1.2402162574600148E-002   4.5228774073595525E-002   0.0000000000000000     
  -1.3206972934573517E-002   5.0373122585598278E-002   0.0000000000000000     
  -1.3982939501948566E-002   5.5704536159014828E-002   0.0000000000000000     
  -1.3479381162823276E-002   3.5766853251962612E-002   0.0000000000000000     
  -1.4562569210600337E-002   4.0538738394562020E-002   0.0000000000000000     
  -1.5608365365967016E-002   4.5496169108165355E-002   0.0000000000000000     
  -1.6616769628923295E-002   5.0639145392772610E-002   0.0000000000000000     
  -1.7587781999469192E-002   5.5967667248383805E-002   0.0000000000000000     
  -1.6339485678455633E-002   3.6100747441270689E-002   0.0000000000000000     
  -1.7641857674104245E-002   4.0870727165789246E-002   0.0000000000000000     
  -1.8899005657260142E-002   4.5825661232314317E-002   0.0000000000000000     
  -2.0110929627923303E-002   5.0965549640845903E-002   0.0000000000000000     
  -2.1277629586093739E-002   5.6290392391383996E-002   0.0000000000000000     
  -1.9286324023755557E-002   3.6502954801755617E-002   0.0000000000000000     
  -2.0806373812540201E-002   4.1267456936688242E-002   0.0000000000000000     
  -2.2274083448479528E-002   4.6217250446042427E-002   0.0000000000000000     
  -2.3689452931573540E-002   5.1352335329818137E-002   0.0000000000000000     
  -2.5052482261822221E-002   5.6672711588015394E-002   0.0000000000000000     
  -2.2319896198723051E-002   3.6973475333417410E-002   0.0000000000000000     
  -2.4056117625908202E-002   4.1728927707259035E-002   0.0000000000000000     
  -2.5733598739625187E-002   4.6670936749349683E-002   0.0000000000000000     
  -2.7352339539873993E-002   5.1799502459689332E-002   0.0000000000000000     
  -2.8912340026654632E-002   5.7114624838277998E-002   0.0000000000000000     
  -1.3982939501948566E-002   5.5704536159014828E-002   0.0000000000000000     
  -1.4739971095935115E-002   6.1246658441116153E-002   0.0000000000000000     
  -1.5487976535742959E-002   6.7023133079173236E-002   0.0000000000000000     
  -1.6226955821372107E-002   7.3033960073186063E-002   0.0000000000000000     
  -1.6956908952822550E-002   7.9279139423154663E-002   0.0000000000000000     
  -1.7587781999469192E-002   5.5967667248383805E-002   0.0000000000000000     
  -1.8534771375005227E-002   6.1505135564348480E-002   0.0000000000000000     
  -1.9471106652931943E-002   6.7274951230016200E-002   0.0000000000000000     
  -2.0396787833249334E-002   7.3277114245386965E-002   0.0000000000000000     
  -2.1311814915957406E-002   7.9511624610460754E-002   0.0000000000000000     
  -2.1277629586093739E-002   5.6290392391383996E-002   0.0000000000000000     
  -2.2415227744379037E-002   6.1822562166418966E-002   0.0000000000000000     
  -2.3539846315386782E-002   6.7584431648441204E-002   0.0000000000000000     
  -2.4651485299116975E-002   7.3576000837450695E-002   0.0000000000000000     
  -2.5750144695569618E-002   7.9797269733447487E-002   0.0000000000000000     
  -2.5052482261822221E-002   5.6672711588015394E-002   0.0000000000000000     
  -2.6381340204056553E-002   6.2198938247327619E-002   0.0000000000000000     
  -2.7694195523107493E-002   6.7951574334448261E-002   0.0000000000000000     
  -2.8991048218975041E-002   7.3930619849377335E-002   0.0000000000000000     
  -3.0271898291659195E-002   8.0136074792114820E-002   0.0000000000000000     
  -2.8912340026654632E-002   5.7114624838277998E-002   0.0000000000000000     
  -3.0433108754037767E-002   6.2634263807074431E-002   0.0000000000000000     
  -3.1934154276094071E-002   6.8376379288037373E-002   0.0000000000000000     
  -3.3415476592823512E-002   7.4340971281166804E-002   0.0000000000000000     
  -3.4877075704226136E-002   8.0528039786462779E-002   0.0000000000000000     
  -1.6956908952822550E-002   7.9279139423154663E-002   0.0000000000000000     
  -1.7665480190609921E-002   8.5715261117880401E-002   0.0000000000000000     
  -1.8340313795249849E-002   9.2298915146164645E-002   0.0000000000000000     
  -1.8981409766742327E-002   9.9030101508007451E-002   0.0000000000000000     
  -1.9588768105087362E-002  0.10590882020340878        0.0000000000000000     
  -2.1311814915957406E-002   7.9511624610460754E-002   0.0000000000000000     
  -2.2200471068321348E-002   8.5936015766152812E-002   0.0000000000000000     
  -2.3047039457606361E-002   9.2507821153378300E-002   0.0000000000000000     
  -2.3851520083812434E-002   9.9227040772137218E-002   0.0000000000000000     
  -2.4613912946939577E-002  0.10609367462242961        0.0000000000000000     
  -2.5750144695569618E-002   7.9797269733447487E-002   0.0000000000000000     
  -2.6817150803487292E-002   8.6207109834936957E-002   0.0000000000000000     
  -2.7833829921612568E-002   9.2764392640424562E-002   0.0000000000000000     
  -2.8800182049945458E-002   9.9469118149910357E-002   0.0000000000000000     
  -2.9716207188485950E-002  0.10632128636339429        0.0000000000000000     
  -3.0271898291659195E-002   8.0136074792114820E-002   0.0000000000000000     
  -3.1515519396107750E-002   8.6528543324232834E-002   0.0000000000000000     
  -3.2700685187268479E-002   9.3068629607303527E-002   0.0000000000000000     
  -3.3827395665141390E-002   9.9756333641326814E-002   0.0000000000000000     
  -3.4895650829726482E-002  0.10659165542630279        0.0000000000000000     
  -3.4877075704226136E-002   8.0528039786462779E-002   0.0000000000000000     
  -3.6295576846182724E-002   8.6900316234040459E-002   0.0000000000000000     
  -3.7647605254574092E-002   9.3420532054015099E-002   0.0000000000000000     
  -3.8933160929400232E-002  0.10008868724638666        0.0000000000000000     
  -4.0152243870661151E-002  0.10690478181115516        0.0000000000000000     
  -1.9588768105087362E-002  0.10590882020340878        0.0000000000000000     
  -2.0151352948891650E-002  0.11285427629436971        0.0000000000000000     
  -2.0658128436761892E-002  0.11978567484289136        0.0000000000000000     
  -2.1109094568698097E-002  0.12670301584897373        0.0000000000000000     
  -2.1504251344700260E-002  0.13360629931261675        0.0000000000000000     
  -2.4613912946939577E-002  0.10609367462242961        0.0000000000000000     
  -2.5319910245799014E-002  0.11302993166962880        0.0000000000000000     
  -2.5955204179201948E-002  0.11995802087910817        0.0000000000000000     
  -2.6519794747148374E-002  0.12687794225086771        0.0000000000000000     
  -2.7013681949638303E-002  0.13378969578490743        0.0000000000000000     
  -2.9716207188485950E-002  0.10632128636339429        0.0000000000000000     
  -3.0564904737075214E-002  0.11324656364701489        0.0000000000000000     
  -3.1329274095554381E-002  0.12017061636691070        0.0000000000000000     
  -3.2009315263923470E-002  0.12709344452308172        0.0000000000000000     
  -3.2605028242182456E-002  0.13401504811552797        0.0000000000000000     
  -3.4895650829726482E-002  0.10659165542630279        0.0000000000000000     
  -3.5886336422720252E-002  0.11350417222652798        0.0000000000000000     
  -3.6780338185819217E-002  0.12042346130629901        0.0000000000000000     
  -3.7577656119023382E-002  0.12734952266561578        0.0000000000000000     
  -3.8278290222332728E-002  0.13428235630447835        0.0000000000000000     
  -4.0152243870661151E-002  0.10690478181115516        0.0000000000000000     
  -4.1284205302734134E-002  0.11380275740816811        0.0000000000000000     
  -4.2308396449996455E-002  0.12071655569727302        0.0000000000000000     
  -4.3224817312448108E-002  0.12764617667846986        0.0000000000000000     
  -4.4033467890089113E-002  0.13459162035175862        0.0000000000000000     
  -2.1504251344700260E-002  0.13360629931261675        0.0000000000000000     
  -2.1910413361082862E-002  0.14081705990033458        0.0000000000000000     
  -2.2394395214160392E-002  0.14865683227864135        0.0000000000000000     
  -2.2956196903932850E-002  0.15712561644753709        0.0000000000000000     
  -2.3595818430400230E-002  0.16622341240702176        0.0000000000000000     
  -2.7013681949638303E-002  0.13378969578490743        0.0000000000000000     
  -2.7524574333472801E-002  0.14100167160641205        0.0000000000000000     
  -2.8140180445452939E-002  0.14882225984056638        0.0000000000000000     
  -2.8860500285578714E-002  0.15725146048737038        0.0000000000000000     
  -2.9685533853850123E-002  0.16628927354682405        0.0000000000000000     
  -3.2605028242182456E-002  0.13401504811552797        0.0000000000000000     
  -3.3222489418175433E-002  0.14122863335838134        0.0000000000000000     
  -3.3967775179746459E-002  0.14902740646577384        0.0000000000000000     
  -3.4840885526895536E-002  0.15741136743770531        0.0000000000000000     
  -3.5841820459622684E-002  0.16638051627417591        0.0000000000000000     
  -3.8278290222332728E-002  0.13428235630447835        0.0000000000000000     
  -3.9004158615190757E-002  0.14149794515624245        0.0000000000000000     
  -3.9877179417040970E-002  0.14927227215426364        0.0000000000000000     
  -4.0897352627883347E-002  0.15760533729854190        0.0000000000000000     
  -4.2064678247717910E-002  0.16649714058907739        0.0000000000000000     
  -4.4033467890089113E-002  0.13459162035175862        0.0000000000000000     
  -4.4869581924518780E-002  0.14180960699999529        0.0000000000000000     
  -4.5868393157336443E-002  0.14955685690603585        0.0000000000000000     
  -4.7029901588542117E-002  0.15783337006988024        0.0000000000000000     
  -4.8354107218135794E-002  0.16663914649152844        0.0000000000000000     
   0.0000000000000000        0.0000000000000000        0.0000000000000000     
  -1.7979501409265733E-003   1.2761878949476496E-003   0.0000000000000000     
  -3.6208152466648703E-003   2.9385645477749654E-003   0.0000000000000000     
  -5.4685953172148912E-003   4.9871299584819465E-003   0.0000000000000000     
  -7.3412903525766340E-003   7.4218841270685953E-003   0.0000000000000000     
   0.0000000000000000        0.0000000000000000        0.0000000000000000     
  -2.0690848261322439E-003   1.3542497173050379E-003   0.0000000000000000     
  -4.1635850746191694E-003   3.0932840417925819E-003   0.0000000000000000     
  -6.2835007454607765E-003   5.2171029734626329E-003   0.0000000000000000     
  -8.4288318386570651E-003   7.7257065123151900E-003   0.0000000000000000     
   0.0000000000000000        0.0000000000000000        0.0000000000000000     
  -2.3398380834012307E-003   1.4582518948397158E-003   0.0000000000000000     
  -4.7198670423681342E-003   3.2990410428733021E-003   0.0000000000000000     
  -7.1400868769007104E-003   5.5223674441007582E-003   0.0000000000000000     
  -9.6004975869989594E-003   8.1282310985220860E-003   0.0000000000000000     
   0.0000000000000000        0.0000000000000000        0.0000000000000000     
  -2.6102099127335329E-003   1.5881944275516837E-003   0.0000000000000000     
  -5.2896611499117637E-003   3.5558355510171245E-003   0.0000000000000000     
  -8.0383537115346921E-003   5.9029233703963256E-003   0.0000000000000000     
  -1.0856287597602321E-002   8.6294578856892824E-003   0.0000000000000000     
   0.0000000000000000        0.0000000000000000        0.0000000000000000     
  -2.8802003141291509E-003   1.7440773154409409E-003   0.0000000000000000     
  -5.8729673972500581E-003   3.8636675662240510E-003   0.0000000000000000     
  -8.9783012493627225E-003   6.3587707523493310E-003   0.0000000000000000     
  -1.2196201870467143E-002   9.2293868738167802E-003   0.0000000000000000     
  -7.3412903525766340E-003   7.4218841270685953E-003   0.0000000000000000     
  -9.2307087319599360E-003   1.0189112419649940E-002   0.0000000000000000     
  -1.1128658834574633E-002   1.3235100202341017E-002   0.0000000000000000     
  -1.3035140660420724E-002   1.6559847475141824E-002   0.0000000000000000     
  -1.4950154209498211E-002   2.0163354238052364E-002   0.0000000000000000     
  -8.4288318386570651E-003   7.7257065123151900E-003   0.0000000000000000     
  -1.0590739365929943E-002   1.0560416995280160E-002   0.0000000000000000     
  -1.2760384339001318E-002   1.3662556759287452E-002   0.0000000000000000     
  -1.4937766757871189E-002   1.7032125804337064E-002   0.0000000000000000     
  -1.7122886622539562E-002   2.0669124130428998E-002   0.0000000000000000     
  -9.6004975869989594E-003   8.1282310985220860E-003   0.0000000000000000     
  -1.2077055673311432E-002   1.1048102043199644E-002   0.0000000000000000     
  -1.4545717636486679E-002   1.4213450315195804E-002   0.0000000000000000     
  -1.7006483476524697E-002   1.7624275914510563E-002   0.0000000000000000     
  -1.9459353193425497E-002   2.1280578841143913E-002   0.0000000000000000     
  -1.0856287597602321E-002   8.6294578856892824E-003   0.0000000000000000     
  -1.3689657654104407E-002   1.1652167563408398E-002   0.0000000000000000     
  -1.6484658727030713E-002   1.4887780870066073E-002   0.0000000000000000     
  -1.9241290816381252E-002   1.8336297805662309E-002   0.0000000000000000     
  -2.1959553922156008E-002   2.1997718370197109E-002   0.0000000000000000     
  -1.2196201870467143E-002   9.2293868738167802E-003   0.0000000000000000     
  -1.5428545308308861E-002   1.2372613555906417E-002   0.0000000000000000     
  -1.8577207610633431E-002   1.5685548423898264E-002   0.0000000000000000     
  -2.1642188777440844E-002   1.9168191477792317E-002   0.0000000000000000     
  -2.4623488808731102E-002   2.2820542717588578E-002   0.0000000000000000     
  -1.4950154209498211E-002   2.0163354238052364E-002   0.0000000000000000     
  -1.6850222641844652E-002   2.4021151687486728E-002   0.0000000000000000     
  -1.8711869117497604E-002   2.8108771019859029E-002   0.0000000000000000     
  -2.0535093636457068E-002   3.2426212235169248E-002   0.0000000000000000     
  -2.2319896198723051E-002   3.6973475333417410E-002   0.0000000000000000     
  -1.7122886622539562E-002   2.0669124130428998E-002   0.0000000000000000     
  -1.9286399784183571E-002   2.4549810746184054E-002   0.0000000000000000     
  -2.1398962093980362E-002   2.8650444660223026E-002   0.0000000000000000     
  -2.3460573551929938E-002   3.2971025872545925E-002   0.0000000000000000     
  -2.5471234158032291E-002   3.7511554383152734E-002   0.0000000000000000     
  -1.9459353193425497E-002   2.1280578841143913E-002   0.0000000000000000     
  -2.1878045476357875E-002   2.5167101187408052E-002   0.0000000000000000     
  -2.4236279014490665E-002   2.9268585045615157E-002   0.0000000000000000     
  -2.6534053807823858E-002   3.3585030415765230E-002   0.0000000000000000     
  -2.8771369856357455E-002   3.8116437297858283E-002   0.0000000000000000     
  -2.1959553922156008E-002   2.1997718370197109E-002   0.0000000000000000     
  -2.4625159718367567E-002   2.5873023011158722E-002   0.0000000000000000     
  -2.7223819879028513E-002   2.9963192176035412E-002   0.0000000000000000     
  -2.9755534404138837E-002   3.4268225864827188E-002   0.0000000000000000     
  -3.2220303293698536E-002   3.8788124077534042E-002   0.0000000000000000     
  -2.4623488808731102E-002   2.2820542717588578E-002   0.0000000000000000     
  -2.7527742510212640E-002   2.6667576217436068E-002   0.0000000000000000     
  -3.0361584687593902E-002   3.0734266051483800E-002   0.0000000000000000     
  -3.3125015340874878E-002   3.5020612219731781E-002   0.0000000000000000     
  -3.5818034470055563E-002   3.9526614722180012E-002   0.0000000000000000     
  -2.2319896198723051E-002   3.6973475333417410E-002   0.0000000000000000     
  -2.4056117625908202E-002   4.1728927707259035E-002   0.0000000000000000     
  -2.5733598739625187E-002   4.6670936749349683E-002   0.0000000000000000     
  -2.7352339539873993E-002   5.1799502459689332E-002   0.0000000000000000     
  -2.8912340026654632E-002   5.7114624838277998E-002   0.0000000000000000     
  -2.5471234158032291E-002   3.7511554383152734E-002   0.0000000000000000     
  -2.7423677045186709E-002   4.2256030906541273E-002   0.0000000000000000     
  -2.9310635346292468E-002   4.7188456157209346E-002   0.0000000000000000     
  -3.1132109061349573E-002   5.2308830135156942E-002   0.0000000000000000     
  -3.2888098190358026E-002   5.7617152840384066E-002   0.0000000000000000     
  -2.8771369856357455E-002   3.8116437297858283E-002   0.0000000000000000     
  -3.0941640001354184E-002   4.2849657963574650E-002   0.0000000000000000     
  -3.3038277084076750E-002   4.7771544684594693E-002   0.0000000000000000     
  -3.5061281104525173E-002   5.2882097460918431E-002   0.0000000000000000     
  -3.7010652062699441E-002   5.8181316292545839E-002   0.0000000000000000     
  -3.2220303293698536E-002   3.8788124077534042E-002   0.0000000000000000     
  -3.4610006494410622E-002   4.3509808878359167E-002   0.0000000000000000     
  -3.6916523952978030E-002   4.8420202331505749E-002   0.0000000000000000     
  -3.9139855669400786E-002   5.3519304436973808E-002   0.0000000000000000     
  -4.1280001643678878E-002   5.8807115194763324E-002   0.0000000000000000     
  -3.5818034470055563E-002   3.9526614722180012E-002   0.0000000000000000     
  -3.8428776524356029E-002   4.4236483650894817E-002   0.0000000000000000     
  -4.0945375952996313E-002   4.9134429097942488E-002   0.0000000000000000     
  -4.3367832755976422E-002   5.4220451063323065E-002   0.0000000000000000     
  -4.5696146933296350E-002   5.9494549547036507E-002   0.0000000000000000     
  -2.8912340026654632E-002   5.7114624838277998E-002   0.0000000000000000     
  -3.0433108754037767E-002   6.2634263807074431E-002   0.0000000000000000     
  -3.1934154276094071E-002   6.8376379288037373E-002   0.0000000000000000     
  -3.3415476592823512E-002   7.4340971281166804E-002   0.0000000000000000     
  -3.4877075704226136E-002   8.0528039786462779E-002   0.0000000000000000     
  -3.2888098190358026E-002   5.7617152840384066E-002   0.0000000000000000     
  -3.4599714668010061E-002   6.3128488396764965E-002   0.0000000000000000     
  -3.6288070428997947E-002   6.8857900928173926E-002   0.0000000000000000     
  -3.7953165473321678E-002   7.4805390434610902E-002   0.0000000000000000     
  -3.9594999800981245E-002   8.0970956916075906E-002   0.0000000000000000     
  -3.7010652062699441E-002   5.8181316292545839E-002   0.0000000000000000     
  -3.8910339219660819E-002   6.3681561567504846E-002   0.0000000000000000     
  -4.0784291836470594E-002   6.9395193673823324E-002   0.0000000000000000     
  -4.2632509913128759E-002   7.5322212611501294E-002   0.0000000000000000     
  -4.4454993449635334E-002   8.1462618380538782E-002   0.0000000000000000     
  -4.1280001643678878E-002   5.8807115194763324E-002   0.0000000000000000     
  -4.3364982408990053E-002   6.4293483319294006E-002   0.0000000000000000     
  -4.5422818498512020E-002   6.9988257524985595E-002   0.0000000000000000     
  -4.7453509912244798E-002   7.5891437811838047E-002   0.0000000000000000     
  -4.9457056650188388E-002   8.2003024179851378E-002   0.0000000000000000     
  -4.5696146933296350E-002   5.9494549547036507E-002   0.0000000000000000     
  -4.7963644235997735E-002   6.4964253652132514E-002   0.0000000000000000     
  -5.0203650415122217E-002   7.0637092481660696E-002   0.0000000000000000     
  -5.2416165470669768E-002   7.6513066035621108E-002   0.0000000000000000     
  -5.4601189402640422E-002   8.2592174314013694E-002   0.0000000000000000     
  -3.4877075704226136E-002   8.0528039786462779E-002   0.0000000000000000     
  -3.6295576846182724E-002   8.6900316234040459E-002   0.0000000000000000     
  -3.7647605254574092E-002   9.3420532054015099E-002   0.0000000000000000     
  -3.8933160929400232E-002  0.10008868724638666        0.0000000000000000     
  -4.0152243870661151E-002  0.10690478181115516        0.0000000000000000     
  -3.9594999800981245E-002   8.0970956916075906E-002   0.0000000000000000     
  -4.1188097165688831E-002   8.7319989438335535E-002   0.0000000000000000     
  -4.2706981321156599E-002   9.3817877067156330E-002   0.0000000000000000     
  -4.4151652267384579E-002  0.10046461980253829        0.0000000000000000     
  -4.5522110004372715E-002  0.10726021764448142        0.0000000000000000     
  -4.4454993449635334E-002   8.1462618380538782E-002   0.0000000000000000     
  -4.6223854366602680E-002   8.7785123811093740E-002   0.0000000000000000     
  -4.7911204584643236E-002   9.4258441733324205E-002   0.0000000000000000     
  -4.9517044103756978E-002  0.10088257214723015        0.0000000000000000     
  -5.1041372923943909E-002  0.10765751505281158        0.0000000000000000     
  -4.9457056650188388E-002   8.2003024179851378E-002   0.0000000000000000     
  -5.1402848448924281E-002   8.8295719352315102E-002   0.0000000000000000     
  -5.3260275045033958E-002   9.4742226052518724E-002   0.0000000000000000     
  -5.5029336438517450E-002  0.10134254428046226        0.0000000000000000     
  -5.6710032629374706E-002  0.10809667403614567        0.0000000000000000     
  -5.4601189402640422E-002   8.2592174314013694E-002   0.0000000000000000     
  -5.6725079412653617E-002   8.8851776061999593E-002   0.0000000000000000     
  -5.8754192702328803E-002   9.5269230024739887E-002   0.0000000000000000     
  -6.0688529271665979E-002  0.10184453620223458        0.0000000000000000     
  -6.2528089120665153E-002  0.10857769459448365        0.0000000000000000     
  -4.0152243870661151E-002  0.10690478181115516        0.0000000000000000     
  -4.1284205302734134E-002  0.11380275740816811        0.0000000000000000     
  -4.2308396449996455E-002  0.12071655569727302        0.0000000000000000     
  -4.3224817312448108E-002  0.12764617667846986        0.0000000000000000     
  -4.4033467890089113E-002  0.13459162035175862        0.0000000000000000     
  -4.5522110004372715E-002  0.10726021764448142        0.0000000000000000     
  -4.6795685480161366E-002  0.11414286204129007        0.0000000000000000     
  -4.7949709642790828E-002  0.12105074444126865        0.0000000000000000     
  -4.8984182492261115E-002  0.12798386484441709        0.0000000000000000     
  -4.9899104028572200E-002  0.13494222325073546        0.0000000000000000     
  -5.1041372923943909E-002  0.10765751505281158        0.0000000000000000     
  -5.2457951058046466E-002  0.11452502897524872        0.0000000000000000     
  -5.3740538518907102E-002  0.12142687243972175        0.0000000000000000     
  -5.4889135306525817E-002  0.12836304544623067        0.0000000000000000     
  -5.5903741420902604E-002  0.13533354799477551        0.0000000000000000     
  -5.6710032629374706E-002  0.10809667403614567        0.0000000000000000     
  -5.8271002036389442E-002  0.11494925821004398        0.0000000000000000     
  -5.9680883078345286E-002  0.12184493969263230        0.0000000000000000     
  -6.0939675755242242E-002  0.12878371848391060        0.0000000000000000     
  -6.2047380067080299E-002  0.13576559458387885        0.0000000000000000     
  -6.2528089120665153E-002  0.10857769459448365        0.0000000000000000     
  -6.4234838415190287E-002  0.11541554974567596        0.0000000000000000     
  -6.5770743321105357E-002  0.12230494620000035        0.0000000000000000     
  -6.7135803838410363E-002  0.12924588395745681        0.0000000000000000     
  -6.8330019967105304E-002  0.13623836301804537        0.0000000000000000     
  -4.4033467890089113E-002  0.13459162035175862        0.0000000000000000     
  -4.4869581924518780E-002  0.14180960699999529        0.0000000000000000     
  -4.5868393157336443E-002  0.14955685690603585        0.0000000000000000     
  -4.7029901588542117E-002  0.15783337006988024        0.0000000000000000     
  -4.8354107218135794E-002  0.16663914649152844        0.0000000000000000     
  -4.9899104028572200E-002  0.13494222325073546        0.0000000000000000     
  -5.0843364220206834E-002  0.14216030341876090        0.0000000000000000     
  -5.1965853035647699E-002  0.14987258910703052        0.0000000000000000     
  -5.3266570474894824E-002  0.15807908031554449        0.0000000000000000     
  -5.4745516537948180E-002  0.16677977704430264        0.0000000000000000     
  -5.5903741420902604E-002  0.13533354799477551        0.0000000000000000     
  -5.6950110376302238E-002  0.14254671894165996        0.0000000000000000     
  -5.8193995686989491E-002  0.15021089714318780        0.0000000000000000     
  -5.9635397352964394E-002  0.15832608259935896        0.0000000000000000     
  -6.1274315374226916E-002  0.16689227531017356        0.0000000000000000     
  -6.2047380067080299E-002  0.13576559458387885        0.0000000000000000     
  -6.3189820392804991E-002  0.14296885356869263        0.0000000000000000     
  -6.4552821111361833E-002  0.15057178101450761        0.0000000000000000     
  -6.6136382222750853E-002  0.15857437692132384        0.0000000000000000     
  -6.7940503726971996E-002  0.16697664128914116        0.0000000000000000     
  -6.8330019967105304E-002  0.13623836301804537        0.0000000000000000     
  -6.9562494269715114E-002  0.14342670729985885        0.0000000000000000     
  -7.1042329308764737E-002  0.15095524072098998        0.0000000000000000     
  -7.2769525084254175E-002  0.15882396328143891        0.0000000000000000     
  -7.4744081596183412E-002  0.16703287498120553        0.0000000000000000     
   0.0000000000000000        0.0000000000000000        0.0000000000000000     
  -2.8802003141291509E-003   1.7440773154409409E-003   0.0000000000000000     
  -5.8729673972500581E-003   3.8636675662240510E-003   0.0000000000000000     
  -8.9783012493627225E-003   6.3587707523493310E-003   0.0000000000000000     
  -1.2196201870467143E-002   9.2293868738167802E-003   0.0000000000000000     
   0.0000000000000000        0.0000000000000000        0.0000000000000000     
  -3.2834927873604956E-003   1.9986876686325233E-003   0.0000000000000000     
  -6.6775491196386320E-003   4.3300140889501165E-003   0.0000000000000000     
  -1.0182168996834410E-002   6.9939792609527793E-003   0.0000000000000000     
  -1.3797352418947828E-002   9.9905831846405120E-003   0.0000000000000000     
   0.0000000000000000        0.0000000000000000        0.0000000000000000     
  -3.9537708321999779E-003   2.4248125972514659E-003   0.0000000000000000     
  -7.9111696523330999E-003   5.0623521196513574E-003   0.0000000000000000     
  -1.1872196460399366E-002   7.9126185671996741E-003   0.0000000000000000     
  -1.5836851256398776E-002   1.0975611939896414E-002   0.0000000000000000     
   0.0000000000000000        0.0000000000000000        0.0000000000000000     
  -4.8910344486475981E-003   3.0224521012977680E-003   0.0000000000000000     
  -9.5738289953334610E-003   6.0606816583277726E-003   0.0000000000000000     
  -1.4048383640057591E-002   9.1146886710900109E-003   0.0000000000000000     
  -1.8314698382819988E-002   1.2184473139584488E-002   0.0000000000000000     
   0.0000000000000000        0.0000000000000000        0.0000000000000000     
  -6.0952836367033541E-003   3.7916061807714320E-003   0.0000000000000000     
  -1.1665527148639717E-002   7.3250027049793637E-003   0.0000000000000000     
  -1.6710730535809085E-002   1.0600189572623795E-002   0.0000000000000000     
  -2.1230893798211456E-002   1.3617166783704726E-002   0.0000000000000000     
  -1.2196201870467143E-002   9.2293868738167802E-003   0.0000000000000000     
  -1.5428545308308861E-002   1.2372613555906417E-002   0.0000000000000000     
  -1.8577207610633431E-002   1.5685548423898264E-002   0.0000000000000000     
  -2.1642188777440844E-002   1.9168191477792317E-002   0.0000000000000000     
  -2.4623488808731102E-002   2.2820542717588578E-002   0.0000000000000000     
  -1.3797352418947828E-002   9.9905831846405120E-003   0.0000000000000000     
  -1.7405625035413094E-002   1.3221321930220053E-002   0.0000000000000000     
  -2.0889512495664404E-002   1.6587691567898133E-002   0.0000000000000000     
  -2.4249014799701762E-002   2.0089692097674760E-002   0.0000000000000000     
  -2.7484131947525164E-002   2.3727323519549925E-002   0.0000000000000000     
  -1.5836851256398776E-002   1.0975611939896414E-002   0.0000000000000000     
  -1.9732803234905373E-002   1.4210174595875653E-002   0.0000000000000000     
  -2.3487721590493216E-002   1.7575148893271456E-002   0.0000000000000000     
  -2.7101606323162285E-002   2.1070534832083820E-002   0.0000000000000000     
  -3.0574457432912601E-002   2.4696332412312762E-002   0.0000000000000000     
  -1.8314698382819988E-002   1.2184473139584488E-002   0.0000000000000000     
  -2.2410079906785722E-002   1.5339171552873215E-002   0.0000000000000000     
  -2.6371834895119864E-002   1.8647920400018218E-002   0.0000000000000000     
  -3.0199963347822423E-002   2.2110719681019513E-002   0.0000000000000000     
  -3.3894465264893398E-002   2.5727569395877073E-002   0.0000000000000000     
  -2.1230893798211456E-002   1.3617166783704726E-002   0.0000000000000000     
  -2.5437455051054120E-002   1.6608312801212746E-002   0.0000000000000000     
  -2.9541852409544361E-002   1.9806006088138445E-002   0.0000000000000000     
  -3.3544085873682170E-002   2.3210246644481819E-002   0.0000000000000000     
  -3.7444155443467554E-002   2.6821034470242873E-002   0.0000000000000000     
  -2.4623488808731102E-002   2.2820542717588578E-002   0.0000000000000000     
  -2.7527742510212640E-002   2.6667576217436068E-002   0.0000000000000000     
  -3.0361584687593902E-002   3.0734266051483800E-002   0.0000000000000000     
  -3.3125015340874878E-002   3.5020612219731781E-002   0.0000000000000000     
  -3.5818034470055563E-002   3.9526614722180012E-002   0.0000000000000000     
  -2.7484131947525164E-002   2.3727323519549925E-002   0.0000000000000000     
  -3.0620670970414786E-002   2.7544408481965935E-002   0.0000000000000000     
  -3.3684438899650775E-002   3.1584769633365081E-002   0.0000000000000000     
  -3.6675435735233124E-002   3.5848406973747367E-002   0.0000000000000000     
  -3.9593661477161861E-002   4.0335320503112802E-002   0.0000000000000000     
  -3.0574457432912601E-002   2.4696332412312762E-002   0.0000000000000000     
  -3.3938822217495682E-002   2.8497167480474192E-002   0.0000000000000000     
  -3.7227247974663064E-002   3.2517665883084031E-002   0.0000000000000000     
  -4.0439734704414768E-002   3.6757827620142298E-002   0.0000000000000000     
  -4.3576282406750773E-002   4.1217652691648982E-002   0.0000000000000000     
  -3.3894465264893398E-002   2.5727569395877073E-002   0.0000000000000000     
  -3.7482196251455331E-002   2.9525853212960817E-002   0.0000000000000000     
  -4.0990011912630804E-002   3.3532954800640648E-002   0.0000000000000000     
  -4.4417912248419796E-002   3.7748874158916569E-002   0.0000000000000000     
  -4.7765897258822312E-002   4.2173611287788570E-002   0.0000000000000000     
  -3.7444155443467554E-002   2.6821034470242873E-002   0.0000000000000000     
  -4.1250793072293741E-002   3.0630465679425834E-002   0.0000000000000000     
  -4.4972730713553961E-002   3.4630636386034933E-002   0.0000000000000000     
  -4.8609968367248201E-002   3.8821546590070179E-002   0.0000000000000000     
  -5.2162506033376480E-002   4.3203196291531562E-002   0.0000000000000000     
  -3.5818034470055563E-002   3.9526614722180012E-002   0.0000000000000000     
  -3.8428776524356029E-002   4.4236483650894817E-002   0.0000000000000000     
  -4.0945375952996313E-002   4.9134429097942488E-002   0.0000000000000000     
  -4.3367832755976422E-002   5.4220451063323065E-002   0.0000000000000000     
  -4.5696146933296350E-002   5.9494549547036507E-002   0.0000000000000000     
  -3.9593661477161861E-002   4.0335320503112802E-002   0.0000000000000000     
  -4.2423232095785940E-002   4.5028173592020833E-002   0.0000000000000000     
  -4.5148263561454335E-002   4.9909629611030931E-002   0.0000000000000000     
  -4.7768755874167075E-002   5.4979688560143077E-002   0.0000000000000000     
  -5.0284709033924124E-002   6.0238350439357304E-002   0.0000000000000000     
  -4.3576282406750773E-002   4.1217652691648982E-002   0.0000000000000000     
  -4.6618655213295876E-002   4.5883370012576433E-002   0.0000000000000000     
  -4.9548617255674859E-002   5.0741208497897032E-002   0.0000000000000000     
  -5.2366168533887730E-002   5.5791168147610752E-002   0.0000000000000000     
  -5.5071309047934489E-002   6.1033248961717614E-002   0.0000000000000000     
  -4.7765897258822312E-002   4.2173611287788570E-002   0.0000000000000000     
  -5.1015045876885851E-002   4.6802072912561651E-002   0.0000000000000000     
  -5.4146437035657885E-002   5.1629165758540818E-002   0.0000000000000000     
  -5.7160070735138416E-002   5.6654889825726078E-002   0.0000000000000000     
  -6.0055946975327429E-002   6.1879245114117402E-002   0.0000000000000000     
  -5.2162506033376480E-002   4.3203196291531562E-002   0.0000000000000000     
  -5.5612404086555857E-002   4.7784282291976468E-002   0.0000000000000000     
  -5.8941722901403398E-002   5.2573501392962296E-002   0.0000000000000000     
  -6.2150462477919097E-002   5.7570853594489040E-002   0.0000000000000000     
  -6.5238622816102959E-002   6.2776338896556705E-002   0.0000000000000000     
  -4.5696146933296350E-002   5.9494549547036507E-002   0.0000000000000000     
  -4.7963644235997735E-002   6.4964253652132514E-002   0.0000000000000000     
  -5.0203650415122217E-002   7.0637092481660696E-002   0.0000000000000000     
  -5.2416165470669768E-002   7.6513066035621108E-002   0.0000000000000000     
  -5.4601189402640422E-002   8.2592174314013694E-002   0.0000000000000000     
  -5.0284709033924124E-002   6.0238350439357304E-002   0.0000000000000000     
  -5.2734495006943417E-002   6.5690550623543398E-002   0.0000000000000000     
  -5.5156485759442826E-002   7.1341224487571131E-002   0.0000000000000000     
  -5.7550681291422379E-002   7.7190372031440538E-002   0.0000000000000000     
  -5.9917081602882054E-002   8.3237993255151577E-002   0.0000000000000000     
  -5.5071309047934489E-002   6.1033248961717614E-002   0.0000000000000000     
  -5.7705705028086599E-002   6.6469052291049754E-002   0.0000000000000000     
  -6.0311022704615545E-002   7.2100179486439347E-002   0.0000000000000000     
  -6.2887262077521308E-002   7.7926630547886386E-002   0.0000000000000000     
  -6.5434423146803922E-002   8.3948405475390855E-002   0.0000000000000000     
  -6.0055946975327429E-002   6.1879245114117402E-002   0.0000000000000000     
  -6.2877274299427299E-002   6.7299758654651584E-002   0.0000000000000000     
  -6.5667261250640360E-002   7.2913957478265318E-002   0.0000000000000000     
  -6.8425907828966570E-002   7.8721841584958624E-002   0.0000000000000000     
  -7.1153214034406012E-002   8.4723410974731503E-002   0.0000000000000000     
  -6.5238622816102959E-002   6.2776338896556705E-002   0.0000000000000000     
  -6.8249202820965513E-002   6.8182669714348845E-002   0.0000000000000000     
  -7.1225201397517257E-002   7.3782558463049028E-002   0.0000000000000000     
  -7.4166618545758206E-002   7.9576005142657280E-002   0.0000000000000000     
  -7.7073454265688346E-002   8.5563009753173574E-002   0.0000000000000000     
  -5.4601189402640422E-002   8.2592174314013694E-002   0.0000000000000000     
  -5.6725079412653617E-002   8.8851776061999593E-002   0.0000000000000000     
  -5.8754192702328803E-002   9.5269230024739887E-002   0.0000000000000000     
  -6.0688529271665979E-002  0.10184453620223458        0.0000000000000000     
  -6.2528089120665153E-002  0.10857769459448365        0.0000000000000000     
  -5.9917081602882054E-002   8.3237993255151577E-002   0.0000000000000000     
  -6.2218590235918900E-002   8.9464960063528290E-002   0.0000000000000000     
  -6.4418110732629902E-002   9.5852144361394678E-002   0.0000000000000000     
  -6.6515643093015095E-002  0.10239954614875070        0.0000000000000000     
  -6.8511187317074465E-002  0.10910716542559644        0.0000000000000000     
  -6.5434423146803922E-002   8.3948405475390855E-002   0.0000000000000000     
  -6.7911423896848302E-002   9.0146937480282255E-002   0.0000000000000000     
  -7.0277182312039443E-002   9.6503659773890083E-002   0.0000000000000000     
  -7.2531698392377317E-002  0.10301857235621426        0.0000000000000000     
  -7.4674972137861881E-002  0.10969167522725487        0.0000000000000000     
  -7.1153214034406012E-002   8.4723410974731503E-002   0.0000000000000000     
  -7.3803580395441867E-002   9.0897708312261502E-002   0.0000000000000000     
  -7.6331407440557386E-002   9.7223776262226072E-002   0.0000000000000000     
  -7.8736695169752596E-002  0.10370161482462524        0.0000000000000000     
  -8.1019443583027456E-002  0.11033122399945898        0.0000000000000000     
  -7.7073454265688346E-002   8.5563009753173574E-002   0.0000000000000000     
  -7.9895059731699580E-002   9.1717272559465990E-002   0.0000000000000000     
  -8.2580786118183785E-002   9.8012493826402675E-002   0.0000000000000000     
  -8.5130633425140975E-002  0.10444867355398360        0.0000000000000000     
  -8.7544601652571136E-002  0.11102581174220877        0.0000000000000000     
  -6.2528089120665153E-002  0.10857769459448365        0.0000000000000000     
  -6.4234838415190287E-002  0.11541554974567596        0.0000000000000000     
  -6.5770743321105357E-002  0.12230494620000035        0.0000000000000000     
  -6.7135803838410363E-002  0.12924588395745681        0.0000000000000000     
  -6.8330019967105304E-002  0.13623836301804537        0.0000000000000000     
  -6.8511187317074465E-002  0.10910716542559644        0.0000000000000000     
  -7.0361392496749997E-002  0.11592481340249085        0.0000000000000000     
  -7.2022907723983662E-002  0.12280230128999302        0.0000000000000000     
  -7.3495732998775487E-002  0.12973962908810299        0.0000000000000000     
  -7.4779868321125445E-002  0.13673679679682069        0.0000000000000000     
  -7.4674972137861881E-002  0.10969167522725487        0.0000000000000000     
  -7.6662596583369533E-002  0.11647795900083495        0.0000000000000000     
  -7.8450164763776545E-002  0.12333241429077753        0.0000000000000000     
  -8.0037676679082875E-002  0.13025504109708266        0.0000000000000000     
  -8.1425132329288580E-002  0.13724583941975035        0.0000000000000000     
  -8.1019443583027456E-002  0.11033122399945898        0.0000000000000000     
  -8.3138450675048950E-002  0.11707498654070823        0.0000000000000000     
  -8.5052514440483964E-002  0.12389528520235386        0.0000000000000000     
  -8.6761634879332541E-002  0.13079211998439585        0.0000000000000000     
  -8.8265811991594695E-002  0.13776549088683435        0.0000000000000000     
  -8.7544601652571136E-002  0.11102581174220877        0.0000000000000000     
  -8.9788954771788179E-002  0.11771589602211073        0.0000000000000000     
  -9.1829956754105962E-002  0.12449091402472201        0.0000000000000000     
  -9.3667607599524499E-002  0.13135086575004268        0.0000000000000000     
  -9.5301907308043776E-002  0.13829575119807264        0.0000000000000000     
  -6.8330019967105304E-002  0.13623836301804537        0.0000000000000000     
  -6.9562494269715114E-002  0.14342670729985885        0.0000000000000000     
  -7.1042329308764737E-002  0.15095524072098998        0.0000000000000000     
  -7.2769525084254175E-002  0.15882396328143891        0.0000000000000000     
  -7.4744081596183412E-002  0.16703287498120553        0.0000000000000000     
  -7.4779868321125445E-002  0.13673679679682069        0.0000000000000000     
  -7.6109627660989984E-002  0.14391496793847777        0.0000000000000000     
  -7.7719324988325539E-002  0.15139530603540577        0.0000000000000000     
  -7.9608960303132095E-002  0.15917781108760468        0.0000000000000000     
  -8.1778533605409640E-002  0.16726248309507455        0.0000000000000000     
  -8.1425132329288580E-002  0.13724583941975035        0.0000000000000000     
  -8.2872716220587006E-002  0.14442832328786867        0.0000000000000000     
  -8.4640612859171599E-002  0.15192600673052575        0.0000000000000000     
  -8.6728822245042289E-002  0.15973888974772160        0.0000000000000000     
  -8.9137344378199132E-002  0.16786697233945619        0.0000000000000000     
  -8.8265811991594695E-002  0.13776549088683435        0.0000000000000000     
  -8.9851759948506194E-002  0.14496677334803157        0.0000000000000000     
  -9.1806192921302904E-002  0.15254734280634999        0.0000000000000000     
  -9.4129110909984812E-002  0.16050719926178963        0.0000000000000000     
  -9.6820513914551903E-002  0.16884634271435048        0.0000000000000000     
  -9.5301907308043776E-002  0.13829575119807264        0.0000000000000000     
  -9.7046758844747533E-002  0.14553031811896644        0.0000000000000000     
  -9.9216065174719481E-002  0.15325931426287848        0.0000000000000000     
 -0.10180982629795961       0.16148273962980880        0.0000000000000000     
 -0.10482804221446793       0.17020059421975739        0.0000000000000000     
 </DataArray>
 <DataArray  type="Float64" Name="stress" NumberOfComponents="3" format="ascii">
   13414267144.829910        4024280143.4489732        2895294283.6787534     
   11765359466.612392        1888178015.1363420        1716745387.3373425     
   10314257742.042665        411429065.64969492        810885516.93296671     
   9060961971.1207371       -405966705.01096582        177714672.46562868     
   8005472153.8466043       -564009296.84564209       -182767146.06467426     
   10539226864.535374        3161768059.3606119        2226139106.6682816     
   9667295915.1961231        1588066934.5200877        1447077730.7548862     
   8944408631.2651196        511178027.70704842        863216888.77879238     
   8370565012.7423601       -68898661.078506947        474556580.74000126     
   7945765059.6278477       -152163131.83657646        281096806.63850915     
   8338194647.0366220        2501458394.1109867        1712085515.0316343     
   8021844735.1478310        1423739565.3142269        1275622323.2667801     
   7805776200.4277353        680291993.74645090        956871173.43949223     
   7689989042.8763323        271115679.40765762        755832065.54977012     
   7674483262.4936247        196210622.29784775        672504999.59761584     
   6811170492.3336630        2043351147.7000988        1353133508.7688124     
   6829005926.4675159        1395195907.5187588        1202379164.8730237     
   6898360449.5305109        918770963.76790094        1091848370.9150662     
   7019234061.5226526        614076316.44752622        1021541126.8949413     
   7191626762.4439383        481111965.55763459        991457432.81264722     
   5958154400.4264927        1787446320.1279478        1149283087.8798149     
   6088779489.1551743        1502435961.1336830        1227348255.5736163     
   6222161378.5734501        1226614937.7714005        1268148481.2055144     
   6358300068.6813211        959983250.04110014        1271683764.7755098     
   6497195559.4787846        702540897.94278073        1237954106.2836015     
   8005472153.8466043       -564009296.84564209       -182767146.06467426     
   7919926759.1387854       -195311688.38041592       -79757337.739168644     
   7792019503.2205362        32179716.050045013       -8863530.5937262531     
   7621750386.0918579        118464916.44575167        29914275.371650491     
   7409119407.7527571        63543912.806694031        36576080.156970076     
   7945765059.6278477       -152163131.83657646        281096806.63850915     
   7740865107.3163481        20046855.412191391        280170625.69630569     
   7511869483.7279911        111937938.40476704        264892544.98128730     
   7258778188.8627777        123510117.14114809        235262564.49344924     
   6981591222.7207003        54763391.621330261        191280684.23279604     
   7674483262.4936247        196210622.29784775        672504999.59761584     
   7400983328.0277205        187159360.96494579        588953384.31020343     
   7121653912.2185249        158676495.15441132        508813970.65721887     
   6836495015.0660362        110762024.86624503        432086758.63866371     
   6545506636.5702658        43415950.100453138        358771748.25453579     
   7191626762.4439383        481111965.55763459        991457432.81264722     
   6900281421.2728958        306025828.27783871        846590938.10252166     
   6621372788.6921377        172395386.29898071        722900746.43407035     
   6354900864.7016573        80220639.621054888        620386857.80729365     
   6100865649.3014584        29501588.244063854        539049272.22219026     
   6497195559.4787846        702540897.94278073        1237954106.2836015     
   6238759387.0518827        376646257.35087562        1053083287.0732632     
   6011026113.1488295        153094611.83847141        907152872.31184220     
   5813995737.7696266        31885961.405566216        800162861.99934196     
   5647668260.9142733        13020306.052161694        732113256.13576066     
   7409119407.7527571        63543912.806694031        36576080.156970076     
   7219020415.1882010       -28039475.212354183        17422333.729335889     
   7042653406.8369169       -73849582.520499706        2100349.1975956974     
   6880018382.6989050       -73886409.117739677       -9389873.4382551406     
   6731115342.7741604       -28149955.004085064       -17048334.178209741     
   6981591222.7207003        54763391.621330261        191280684.23279604     
   6810258131.0116825       -4888831.2374081612        182183833.90192482     
   6648078956.9517117       -34027995.265978336        176321799.60396403     
   6495053700.5407934       -32654100.464371204        173694581.33891451     
   6351182361.7789288       -767146.83259201050        174302179.10677141     
   6545506636.5702658        43415950.100453138        358771748.25453579     
   6391233886.1082544        15183224.519460917        354390716.36217660     
   6241536986.7310810        2203335.8879165649        352647554.63974482     
   6096415938.4387379        4476284.2058153152        353542263.08723605     
   5955870741.2312260        22002069.473158121        357074841.70465505     
   6100865649.3014584        29501588.244063854        539049272.22219026     
   5961947680.4779358        32176692.058265209        534042981.11008567     
   5823027496.1750269        34844410.941184521        531077614.30492443     
   5684105096.3927307        37504744.892816067        530153171.80670375     
   5545180481.1310530        40157693.913164377        531269653.61542720     
   5647668260.9142733        13020306.052161694        732113256.13576066     
   5522399514.1207142        46091571.378999949        721140628.14565516     
   5392550485.2835484        63895229.893823624        711611978.59950948     
   5258121174.4027796        66431281.596632481        703527307.49732339     
   5119111581.4784069        53699726.487430811        696886614.83909416     
   6731115342.7741604       -28149955.004085064       -17048334.178209741     
   6509896399.2001305        6160691.7475936413       -9370657.6180401482     
   6281716216.7311544        17267208.849473953       -541482.46708962682     
   6046574795.3672447        5169596.3015623093        9439191.2746328600     
   5804472135.1083937       -30132145.896152973        20571363.607122187     
   6351182361.7789288       -767146.83259201050        174302179.10677141     
   6129511480.9890537        13977656.578727961        170512836.08505088     
   5902773086.3224010        11830747.067443371        169739545.07737699     
   5670967177.7789660       -7207875.3664445877        171982306.08375612     
   5434093755.3587399       -43138210.722954512        177241119.10417929     
   5955870741.2312260        22002069.473158121        357074841.70465505     
   5739075218.7205887        18779218.192642689        344027824.95555115     
   5519105907.3513260        4977070.7167098522        335861413.64377391     
   5295962807.1234341       -19404372.954640388        332575607.76932055     
   5069645918.0369225       -54365112.821406126        334170407.33219296     
   5545180481.1310530        40157693.913164377        531269653.61542720     
   5338587612.3947248        20565376.589336157        511174308.99345982     
   5130714679.8179302       -3293820.2027132511        497824123.23209214     
   4921561683.4006634       -31419896.463000536        491219096.33132768     
   4711128623.1429310       -63812852.191509724        491359228.29116762     
   5119111581.4784069        53699726.487430811        696886614.83909416     
   4928048662.0114670        19336131.768815994        671952288.19877839     
   4737599403.7222137       -12981925.690837860        655627673.84234071     
   4547763806.6106510       -43254445.891530275        647912771.76978207     
   4358541870.6767740       -71481428.833264589        648807581.98109698     
   5804472135.1083937       -30132145.896152973        20571363.607122187     
   5740135949.5879135       -23264957.339921236        22893516.261260137     
   5675402094.1705437       -17723335.106650829        27970535.495851532     
   5610270568.8563137       -13507279.196245670        35802421.310894132     
   5544741373.6451988       -10616789.608799934        46389173.706395946     
   5434093755.3587399       -43138210.722954512        177241119.10417929     
   5377296576.8856144       -31883753.348503351        181371534.50897130     
   5321058287.8146505       -18766331.300184488        187533872.87323114     
   5265378888.1458406       -3785944.5780060291        195728134.19695017     
   5210258377.8791990        13057406.818055630        205954318.48012739     
   5069645918.0369225       -54365112.821406126        334170407.33219296     
   5018322193.4083166       -39343052.589567184        341225071.33652407     
   4968513917.4809036       -19269496.687080145        349588714.67931968     
   4920221090.2546864        5855554.8860659599        359261337.36058420     
   4873443711.7296638        36032102.129847050        370242939.38031358     
   4711128623.1429310       -63812852.191509724        491359228.29116762     
   4663212799.1560049       -45642855.063137531        502454126.74390703     
   4617768983.1693039       -19232831.267335176        514135060.91411781     
   4574797175.1828365        15417219.195904493        526402030.80179852     
   4534297375.1966000        58307296.326581717        539255036.40695190     
   4358541870.6767740       -71481428.833264589        648807581.98109698     
   4311968394.1286802       -50783160.769217253        665058700.73112178     
   4268823484.8798542       -18656335.040949106        681172911.57762074     
   4229107142.9302945        24899048.351543427        697150214.52059937     
   4192819368.2800002        79882989.408256054        712990609.56005418     
   5544741373.6451988       -10616789.608799934        46389173.706395946     
   5269403369.5881662       -58784021.309658051        24813254.257650428     
   5002299247.3173256       -79504980.389862061        13842495.498220040     
   4743429006.8326769       -72779666.849437952        13476897.428081080     
   4492792648.1342239       -38608080.688351870        23716460.047263652     
   5210258377.8791990        13057406.818055630        205954318.48012739     
   4965724357.3084097       -17804368.426402092        190792414.52162695     
   4726643926.3139629       -30487511.749715805        184727154.91177413     
   4493017084.8958616       -24992023.151875734        187758539.65055549     
   4264843833.0541096       -1317902.6328749657        199886568.73798060     
   4873443711.7296638        36032102.129847050        370242939.38031358     
   4655403627.9575043        21182769.335497141        358251376.66723609     
   4440036841.5518332        15244427.762801647        353847941.96213710     
   4227343352.5126643        18217077.411758900        357032635.26500928     
   4017323160.8399940        30100718.282384872        367805456.57585412     
   4534297375.1966000        58307296.326581717        539255036.40695190     
   4338441181.5354481        58177391.976046801        527190140.69448030     
   4142477993.0309448        57690838.147690773        521204856.64931786     
   3946407809.6830845        56847634.841479063        521299184.27145714     
   3750230631.4918852        55647782.057451725        527473123.56090671     
   4192819368.2800002        79882989.408256054        712990609.56005418     
   4014837018.0422440        93179499.495265484        697608706.60335803     
   3833967380.7512894        96851719.404946327        686797898.97330642     
   3650210456.4071341        90899649.137300253        680558186.66989338     
   3463566245.0097818        75323288.692326903        678889569.69312727     
   4492792648.1342239       -38608080.688351870        23716460.047263652     
   4101251673.6445942       -42297362.347236395       -3897568.1171863428     
   3704384850.5011387       -63739472.852188826       -35079704.743931837     
   3302192178.7038398       -102934412.20329976       -69829949.832944661     
   2894673658.2527084       -159882180.40050650       -108148303.38425042     
   4264843833.0541096       -1317902.6328749657        199886568.73798060     
   3862881484.9976711       -29555092.110537052        161613423.26871684     
   3455614175.1897917       -75475487.426324129        124556846.86083362     
   3043041903.6304717       -139079088.58025229        88716839.514325485     
   2625164670.3197050       -220365895.57233560        54093401.229202352     
   4017323160.8399940        30100718.282384872        367805456.57585412     
   3618609946.4272194       -18583226.850907564        318897561.85457528     
   3214612657.1653962       -84880754.814354300        275990913.71833152     
   2805331293.0545225       -168791865.60797918        239085512.16713315     
   2390765854.0945888       -270316559.23177493        208181357.20098653     
   3750230631.4918852        55647782.057451725        527473123.56090671     
   3368437057.9332418       -9381766.5683302879        467954847.64039505     
   2981380296.4279394       -91955275.016312718        419222495.82858610     
   2589060346.9759769       -192072743.28649163        381276068.12548703     
   2191477209.5773549       -309734171.37887466        354115564.53109270     
   3463566245.0097818        75323288.692326903        678889569.69312727     
   3112362819.5157409       -1950711.2628129721        608785280.62616563     
   2755917092.9774270       -96699048.032184720        554251593.19158566     
   2394229065.3948517       -208921721.61577392        515288507.38937110     
   2027298736.7680063       -338618732.01359558        491896023.21954018     
   2894673658.2527084       -159882180.40050650       -108148303.38425042     
   3764574115.9627585        23275364.486263275        132040650.53616931     
   4545435336.3721313       -90364548.295890808        328018995.56127828     
   5237257319.4808197       -500801918.74701142        479786731.69106948     
   5840040065.2888136       -1208036746.8670783        587343858.92558193     
   2625164670.3197050       -220365895.57233560        54093401.229202352     
   3386144123.2161055       -42071785.779916048        224421890.31728855     
   4090400347.2632971       -52855105.484835863        356297931.15809494     
   4737933342.4612856       -252715854.68714118        449721523.75165033     
   5328743108.8100567       -641654033.38679385        504692668.09791178     
   2390765854.0945888       -270316559.23177493        208181357.20098653     
   3059276189.7431359       -91950318.264003396        346351391.31680232     
   3703379304.9939647        5058521.3780422211        451827137.83337533     
   4323075199.8470554        20709959.694323063        524608596.75071335     
   4918363874.3024263       -44996003.315157413        564695768.06881082     
   2191477209.5773549       -309734171.37887466        354115564.53109270     
   2783970315.5438628       -126360232.96596217        497829153.53469878     
   3384372209.5641160        83376332.292778969        614606615.58709443     
   3992682891.6381273        319475524.39736307        704447950.68828106     
   4608902361.7658901        581937343.34779334        767353158.83827448     
   2027298736.7680063       -338618732.01359558        491896023.21954018     
   2560226500.6182747       -145301529.88583517        678855176.97098148     
   3133379060.9737768        182098327.25936902        844636364.41926134     
   3746756417.8345079        643580839.42200398        989239585.56436312     
   4400358571.2004709        1239146006.6020794        1112664840.4062855     
   5958154400.4264927        1787446320.1279478        1149283087.8798149     
   6088779489.1551743        1502435961.1336830        1227348255.5736163     
   6222161378.5734501        1226614937.7714005        1268148481.2055144     
   6358300068.6813211        959983250.04110014        1271683764.7755098     
   6497195559.4787846        702540897.94278073        1237954106.2836015     
   5434210286.3603821        1630263085.9081147        1032717105.2674003     
   5489842837.7859039        1372560447.6334548        1113405533.9757552     
   5547698470.0181217        1122268078.7144380        1167370555.8852136     
   5607777183.0570288        879385979.15106332        1194612170.9957747     
   5670078976.9026308        643914148.94333124        1195130379.3074389     
   4894402065.1806030        1468320619.5541809        935618413.83432746     
   4905160751.4829874        1246961303.6531324        1018307430.3605170     
   4917608798.7091599        1031233190.8313862        1084814575.3508162     
   4931746206.8591242        821136281.08894348        1135139848.8052247     
   4947572975.9328804        616670574.42580259        1169283250.7237425     
   4338729736.8871565        1301618921.0661469        857987013.58059549     
   4334733230.2464180        1125638529.1927145        942053944.72790098     
   4331892364.6465654        953510274.12224448        1020480539.6023221     
   4330207140.0876026        785234155.85473800        1093266798.2038586     
   4329677556.5695314        620810174.39019489        1160412720.5325112     
   3767193301.4800410        1130157990.4440124        799822904.50620496     
   3778560274.0761971        1008592124.2522012        884645077.07790732     
   3790549167.8303409        889099328.58701348        974368448.63973153     
   3803159982.7424707        771679603.44844937        1068993019.1916783     
   3816392718.8125877        656332948.83650839        1168518788.7337463     
   6497195559.4787846        702540897.94278073        1237954106.2836015     
   6238759387.0518827        376646257.35087562        1053083287.0732632     
   6011026113.1488295        153094611.83847141        907152872.31184220     
   5813995737.7696266        31885961.405566216        800162861.99934196     
   5647668260.9142733        13020306.052161694        732113256.13576066     
   5670078976.9026308        643914148.94333124        1195130379.3074389     
   5518436228.6652231        383999816.55779934        1073292313.9715928     
   5390773164.7510824        204017765.24982190        979436407.05419910     
   5287089785.1602077        103967995.01939392        913562658.55526042     
   5207386089.8926001        83850505.866522312        875671068.47477341     
   4947572975.9328804        616670574.42580259        1169283250.7237425     
   4871414377.5122089        413343767.93481708        1102634189.3617067     
   4812512249.2142200        267538528.51943707        1053009040.3876585     
   4770866591.0389156        179254856.17966342        1020407803.8015984     
   4746477402.9862890        148492750.91549206        1004830479.6035236     
   4329677556.5695314        620810174.39019489        1160412720.5325112     
   4297693833.5928392        464678111.48192811        1141108913.2436054     
   4276243366.5382442        343656901.64731884        1127870772.3122201     
   4265326155.4057441        257746544.88636661        1120698297.7383561     
   4264942200.1953435        206947041.19907141        1119591489.5220158     
   3816392718.8125877        656332948.83650839        1168518788.7337463     
   3797274596.9071126        538002847.19913197        1188716485.6172881     
   3781966516.7231493        432372884.63346374        1204021602.8278847     
   3770468478.2606997        339443061.13950908        1214434140.3655374     
   3762780481.5197635        259213376.71726084        1219954098.2302449     
   5647668260.9142733        13020306.052161694        732113256.13576066     
   5522399514.1207142        46091571.378999949        721140628.14565516     
   5392550485.2835484        63895229.893823624        711611978.59950948     
   5258121174.4027796        66431281.596632481        703527307.49732339     
   5119111581.4784069        53699726.487430811        696886614.83909416     
   5207386089.8926001        83850505.866522312        875671068.47477341     
   5078635724.4548950        83134688.834056616        855056039.26775265     
   4948399525.1366310        77466092.199725866        838115882.43496311     
   4816677491.9378071        66844715.963527679        824850597.97640395     
   4683469624.8584223        51270560.125462055        815260185.89207840     
   4746477402.9862890        148492750.91549206        1004830479.6035236     
   4620619401.5623617        115902046.32109904        978183238.70314085     
   4496370014.4209204        88673389.334988356        957441764.10725975     
   4373729241.5619621        66806779.957156181        942606055.81588209     
   4252697082.9854879        50302218.187606812        933676113.82900989     
   4264942200.1953435        206947041.19907141        1119591489.5220158     
   4148350545.4431157        144393643.84012747        1090522226.4518192     
   4036461953.1364155        97517121.299615145        1069589623.6163990     
   3929276423.2752419        66317473.577523470        1056793681.0157534     
   3826793955.8595986        50794700.673866749        1052134398.6498855     
   3762780481.5197635        259213376.71726084        1219954098.2302449     
   3661829156.0971527        168609481.39114106        1192073002.5137892     
   3568675341.2831154        103997288.09359968        1174559460.9623809     
   3483319037.0776515        65376796.824630976        1167413473.5760198     
   3405760243.4807596        52748007.584240913        1170635040.3547084     
   5119111581.4784069        53699726.487430811        696886614.83909416     
   4928048662.0114670        19336131.768815994        671952288.19877839     
   4737599403.7222137       -12981925.690837860        655627673.84234071     
   4547763806.6106510       -43254445.891530275        647912771.76978207     
   4358541870.6767740       -71481428.833264589        648807581.98109698     
   4683469624.8584223        51270560.125462055        815260185.89207840     
   4515347290.2890921        23251527.012567759        791978485.80617070     
   4347411534.4171276       -4145577.1090998650        776269547.60245335     
   4179662357.2425365       -30920752.239533663        768133371.28093266     
   4012099758.7653079       -57073998.378753424        767569956.84160519     
   4252697082.9854879        50302218.187606812        933676113.82900989     
   4104552617.8803835        27738932.050423622        911548777.40380073     
   3956167648.9923258        4373966.6367297173        895957252.45909977     
   3807542176.3213158       -19792678.053473473        886901538.99490869     
   3658676199.8673515       -44761002.020188808        884381637.01122689     
   3826793955.8595986        50794700.673866749        1052134398.6498855     
   3695664644.7853384        32798346.882375240        1030663162.9916692     
   3563867747.4478006        12576705.546638012        1014690788.4122763     
   3431403263.8469887       -9870223.3333418369        1004217274.9117078     
   3298271193.9829082       -34542439.757570267        999242622.48996675     
   3405760243.4807596        52748007.584240913        1170635040.3547084     
   3288683371.0039554        38429771.508429170        1149321642.5697758     
   3170511829.7835560        20462639.620633364        1132470155.4619837     
   3051245619.8195620       -1153388.0791429281        1120080579.0313315     
   2930884741.1119742       -26418311.590899348        1112152913.2778225     
   4358541870.6767740       -71481428.833264589        648807581.98109698     
   4311968394.1286802       -50783160.769217253        665058700.73112178     
   4268823484.8798542       -18656335.040949106        681172911.57762074     
   4229107142.9302945        24899048.351543427        697150214.52059937     
   4192819368.2800002        79882989.408256054        712990609.56005418     
   4012099758.7653079       -57073998.378753424        767569956.84160519     
   3964493252.7934380       -42036427.620738506        785663009.72675157     
   3920131369.7586741       -16183447.072369099        804404647.26006258     
   3879014109.6610174        20484943.266360283        823794869.44153750     
   3841141472.5004735        67968743.395443916        843833676.27117801     
   3658676199.8673515       -44761002.020188808        884381637.01122689     
   3612280928.9050913       -34710849.238198519        904102022.27564514     
   3568946336.5177836       -14458434.539710999        925256484.73991656     
   3528672422.7054248        15996242.075270891        947845024.40403605     
   3491459187.4680109        56653180.606751204        971867641.26800728     
   3298271193.9829082       -34542439.757570267        999242622.48996675     
   3255331422.4636545       -28806425.621582031        1020375738.3778067     
   3215268385.1571894       -13481297.442960978        1043728424.0171824     
   3178082082.0635147        11432944.778293610        1069300679.4080961     
   3143772513.1826344        45936301.042181134        1097092504.5505469     
   2930884741.1119742       -26418311.590899348        1112152913.2778225     
   2893644733.4691153       -24323156.770894527        1134484158.0332313     
   2859097515.6768875       -13252035.782123566        1159820465.0918608     
   2827243087.7352905        6795051.3754204512        1188161834.4537165     
   2798081449.6443267        35818104.701738358        1219508266.1187954     
   4192819368.2800002        79882989.408256054        712990609.56005418     
   4014837018.0422440        93179499.495265484        697608706.60335803     
   3833967380.7512894        96851719.404946327        686797898.97330642     
   3650210456.4071341        90899649.137300253        680558186.66989338     
   3463566245.0097818        75323288.692326903        678889569.69312727     
   3841141472.5004735        67968743.395443916        843833676.27117801     
   3674608584.3394713        78396412.581165791        826329909.14109349     
   3505847739.8502245        81397560.672735453        813724365.41293609     
   3334858939.0327306        76972187.670141459        806017045.08672047     
   3161642181.8869896        65120293.573397756        803207948.16242743     
   3491459187.4680109        56653180.606751204        971867641.26800728     
   3337310413.0274544        64492404.384291053        953011229.14364660     
   3181593012.9836025        67102876.150850892        939380168.49650228     
   3024306987.3364539        64484595.906421185        930974459.32658172     
   2865452336.0860138        56637563.651013374        927794101.63387752     
   3143772513.1826344        45936301.042181134        1097092504.5505469     
   3002942504.1062012        51467474.904649854        1077652666.6110163     
   2861203200.1514220        53967665.839298606        1063765308.2239975     
   2718554601.3183036        53436873.846143723        1055430429.3894825     
   2574996707.6068387        49875098.925169230        1052648030.1074811     
   2798081449.6443267        35818104.701738358        1219508266.1187954     
   2671504857.5757008        39321624.142225981        1200254221.5432062     
   2544678301.3536882        41991929.738087058        1186879784.5954189     
   2417601780.9782777        43829021.489291906        1179384955.2754242     
   2290275296.4494805        44832899.395873547        1177769733.5832317     
   3463566245.0097818        75323288.692326903        678889569.69312727     
   3112362819.5157409       -1950711.2628129721        608785280.62616563     
   2755917092.9774270       -96699048.032184720        554251593.19158566     
   2394229065.3948517       -208921721.61577392        515288507.38937110     
   2027298736.7680063       -338618732.01359558        491896023.21954018     
   3161642181.8869896        65120293.573397756        803207948.16242743     
   2852248848.4316702        774714.83048856258        727893532.66769779     
   2537408276.7419744       -81728324.693649173        666186642.98293996     
   2217120466.8179259       -182388824.99898088        618087279.10815573     
   1891385418.6595097       -301206786.08553791        583595441.04334676     
   2865452336.0860138        56637563.651013374        927794101.63387752     
   2592260306.6053953        3537769.7011203766        847030466.32293856     
   2313416101.7003202       -68402608.996973991        777911280.99956632     
   2028919721.3707871       -159183572.44325829        720436545.66376138     
   1738771165.6167920       -268805120.63774645        674606260.31552923     
   2574996707.6068387        49875098.925169230        1052648030.1074811     
   2332397194.0369296        6338453.3491023779        966196081.59187829     
   2083940567.8524618       -56721900.942155361        889425507.24144256     
   1829626829.0534394       -139305963.94859517        822336307.05617654     
   1569455977.6398613       -241413735.67022550        764928481.03607607     
   2290275296.4494805        44832899.395873547        1177769733.5832317     
   2072659510.7262650        9176765.7744182348        1085390378.4745240     
   1848981675.1983969       -46686200.529205084        1000729321.7085848     
   1619241789.8658793       -122755999.51499653        923786563.28540719     
   1383439854.7287140       -219032631.18295288        854562103.20499003     
   2027298736.7680063       -338618732.01359558        491896023.21954018     
   2560226500.6182747       -145301529.88583517        678855176.97098148     
   3133379060.9737768        182098327.25936902        844636364.41926134     
   3746756417.8345079        643580839.42200398        989239585.56436312     
   4400358571.2004709        1239146006.6020794        1112664840.4062855     
   1891385418.6595097       -301206786.08553791        583595441.04334676     
   2364600833.8746929       -135408551.46505821        810019407.33270228     
   2872888359.8703837        147296719.09042633        1018039295.0153122     
   3416247996.6465669        546909025.58089674        1207655104.0911741     
   3994679744.2032433        1063428368.0063423        1378866834.5602815     
   1738771165.6167920       -268805120.63774645        674606260.31552923     
   2160199625.6152573       -128148235.49902773        934483572.46393979     
   2611547510.6694856        112240066.49223566        1178730693.7020252     
   3092814820.7794838        452359785.33605343        1407347624.0297904     
   3604001555.9452348        892210921.03239107        1620334363.4472318     
   1569455977.6398613       -241413735.67022550        764928481.03607607     
   1947022875.8399587       -123520581.98776746        1052247672.3646855     
   2349356513.3710909        76928369.464801073        1326710560.4793930     
   2776456890.2332439        359933118.68744648        1588317145.3802063     
   3228324006.4264326        725493665.68018842        1837067427.0671186     
   1383439854.7287140       -219032631.18295288        854562103.20499003     
   1725070584.5488000       -121525590.93126214        1163311707.0349419     
   2086315367.9751818        41361628.008099556        1461978895.3474209     
   2467174205.0078664        269629025.63511837        1750563668.1424265     
   2867647095.6468358        563276601.94975424        2029066025.4199524     
   3767193301.4800410        1130157990.4440124        799822904.50620496     
   3778560274.0761971        1008592124.2522012        884645077.07790732     
   3790549167.8303409        889099328.58701348        974368448.63973153     
   3803159982.7424707        771679603.44844937        1068993019.1916783     
   3816392718.8125877        656332948.83650839        1168518788.7337463     
   3206858911.2059150        962057673.36177456        755974735.04538536     
   3235341008.4877410        868112292.53387642        852894767.05201650     
   3263560204.3125644        773290573.51596797        951705122.43506098     
   3291516498.6803827        677592516.30804718        1052405801.1945189     
   3319209891.5911994        581018120.91011643        1154996803.3303907     
   2684792718.3114347        805437815.49343050        721291153.63236594     
   2721787438.5254774        736532169.50340986        829276752.02310407     
   2757634434.6675267        663800776.60674357        936141798.17654705     
   2792333706.7375827        587243636.80343151        1041886292.0926946     
   2825885254.7356448        506860750.09347421        1146510233.7715468     
   2200994722.7966003        660298416.83898008        695772160.26714706     
   2237899564.1894069        613851755.16080093        813791031.99117017     
   2272771858.8952293        560629937.85934126        927678475.86418903     
   2305611606.9140677        500632964.93460149        1037434491.8862044     
   2336418808.2459230        433860836.38658172        1143059080.0572155     
   1755464924.6614127        526639477.39842379        679417754.94972861     
   1783677385.4795294        500071049.50604981        806437606.95621431     
   1808972476.9956720        463778057.27376127        926315155.49798727     
   1831350199.2098398        417760500.70155746        1039050400.5750477     
   1850810552.1220334        362018379.78943944        1144643342.1873956     
   3816392718.8125877        656332948.83650839        1168518788.7337463     
   3797274596.9071126        538002847.19913197        1188716485.6172881     
   3781966516.7231493        432372884.63346374        1204021602.8278847     
   3770468478.2606997        339443061.13950908        1214434140.3655374     
   3762780481.5197635        259213376.71726084        1219954098.2302449     
   3319209891.5911994        581018120.91011643        1154996803.3303907     
   3292978216.3940907        473466915.15542734        1181833902.3507881     
   3270438482.2642832        378222179.62507582        1205604179.4622533     
   3251590689.2017765        295283914.31906509        1226307634.6647859     
   3236434837.2065730        224652119.23739278        1243944267.9583859     
   2825885254.7356448        506860750.09347421        1146510233.7715468     
   2797756477.0012221        411653375.44776779        1179848950.8322208     
   2773201539.6798902        328358802.17902958        1211946603.7479742     
   2752220442.7716479        256977030.28725958        1242803192.5188069     
   2734813186.2764969        197508059.77245772        1272418717.1447191     
   2336418808.2459230        433860836.38658172        1143059080.0572155     
   2311609378.7285061        352562228.07615465        1182761631.0615852     
   2290255688.9699688        282782752.29532528        1223048875.6850464     
   2272357738.9703107        224522409.04409152        1263920813.9276004     
   2257915528.7295318        177781198.32245636        1305377445.7892444     
   1850810552.1220334        362018379.78943944        1144643342.1873956     
   1834536921.5759430        296193473.04058737        1190571943.0388823     
   1821600930.1345210        241494029.97396237        1238910995.2734725     
   1812002577.7977662        197920050.58956134        1289660498.8911660     
   1805741864.5656800        165471534.88738936        1342820453.8919628     
   3762780481.5197635        259213376.71726084        1219954098.2302449     
   3661829156.0971527        168609481.39114106        1192073002.5137892     
   3568675341.2831154        103997288.09359968        1174559460.9623809     
   3483319037.0776515        65376796.824630976        1167413473.5760198     
   3405760243.4807596        52748007.584240913        1170635040.3547084     
   3236434837.2065730        224652119.23739278        1243944267.9583859     
   3164566807.2222986        152006235.79648709        1231626799.3691201     
   3098896659.2723651        100019959.13671589        1227169385.7477078     
   3039424393.3567681        68693289.258070469        1230572027.0941477     
   2986150009.4755125        58026226.160559893        1241834723.4084418     
   2734813186.2764969        197508059.77245772        1272418717.1447191     
   2684864168.3099995        140670903.19059861        1273798642.3460383     
   2639513403.8036098        99161258.142428398        1280531123.3180153     
   2598760892.7573247        72979124.627940774        1292616160.0606492     
   2562606635.1711454        62124502.647140861        1310053752.5739429     
   2257915528.7295318        177781198.32245636        1305377445.7892444     
   2222721239.3602567        134603483.57347858        1318588531.4445441     
   2190525574.8768535        101421185.11073923        1334644673.6733043     
   2161328535.2793236        78234302.934244275        1353545872.4755292     
   2135130120.5676649        65042837.043988109        1375292127.8512158     
   1805741864.5656800        165471534.88738936        1342820453.8919628     
   1778138020.3730681        133803976.94512331        1365996466.6646349     
   1751933172.4920957        106799740.04165387        1389510036.8135743     
   1727127320.9227617        84458824.176979899        1413361164.3387818     
   1703720465.6650662        66781229.351100624        1437549849.2402563     
   3405760243.4807596        52748007.584240913        1170635040.3547084     
   3288683371.0039554        38429771.508429170        1149321642.5697758     
   3170511829.7835560        20462639.620633364        1132470155.4619837     
   3051245619.8195620       -1153388.0791429281        1120080579.0313315     
   2930884741.1119742       -26418311.590899348        1112152913.2778225     
   2986150009.4755125        58026226.160559893        1241834723.4084418     
   2880315705.7418480        40222191.574585199        1218474717.4122870     
   2773974292.1500621        20727790.794864893        1200105345.5822160     
   2667125768.7001491       -456976.17860305309        1186726607.9182274     
   2559770135.3921165       -23332109.345814347        1178338504.4203196     
   2562606635.1711454        62124502.647140861        1310053752.5739429     
   2469525538.7204609        41287861.112958670        1285332623.7329495     
   2376524891.2971201        20719383.003263235        1266130852.5469799     
   2283604692.9011278        419068.31805670261        1252448439.0160363     
   2190764943.5324812       -19613082.942661047        1244285383.1401176     
   2135130120.5676649        65042837.043988109        1375292127.8512158     
   2056312869.9397914        41626780.123546958        1349895361.5317638     
   1978163627.2247348        20437416.245829701        1330546676.3562799     
   1900682392.4224944        1474745.4108325243        1317246072.3247621     
   1823869165.5330725       -15261232.381439447        1309993549.4372127     
   1703720465.6650662        66781229.351100624        1437549849.2402563     
   1640677699.3998394        41238948.606349349        1412162930.8087287     
   1578890499.9329009        19881890.522557139        1393352817.0101116     
   1518358867.2642500        2710055.0997229815        1381119507.8444035     
   1459082801.3938856       -10276557.662153125        1375463003.3116069     
   2930884741.1119742       -26418311.590899348        1112152913.2778225     
   2893644733.4691153       -24323156.770894527        1134484158.0332313     
   2859097515.6768875       -13252035.782123566        1159820465.0918608     
   2827243087.7352905        6795051.3754204512        1188161834.4537165     
   2798081449.6443267        35818104.701738358        1219508266.1187954     
   2559770135.3921165       -23332109.345814347        1178338504.4203196     
   2529972152.5617504       -20241930.444140553        1204054795.4691675     
   2502460191.8481302       -9531677.8199852705        1232261037.7440104     
   2477234253.2512598        8798648.5266751051        1262957231.2448580     
   2454294336.7711377        34749048.595826745        1296143375.9717007     
   2190764943.5324812       -19613082.942661047        1244285383.1401176     
   2166937239.5796819       -15969403.739801407        1272912158.1262057     
   2144988790.0097470       -6061543.2607260942        1303513773.2610674     
   2124919594.8226769        10110498.494565606        1336090228.5447047     
   2106729654.0184743        32546721.526079297        1370641523.9771218     
   1823869165.5330725       -15261232.381439447        1309993549.4372127     
   1804539994.5229125       -11505576.657870770        1341056246.0043437     
   1786683310.1617353       -2841632.1043597460        1373578671.6430247     
   1770299112.4495387        10730601.279088855        1407560826.3532627     
   1755387401.3863282        29211123.492487311        1443002710.1350510     
   1459082801.3938856       -10276557.662153125        1375463003.3116069     
   1442780417.3914416       -6850449.1983503699        1408487059.1035836     
   1427543752.3040972        128055.64912039042        1442455732.8898923     
   1413372806.1318493        10658956.880246162        1477369024.6705289     
   1400267578.8747046        24742254.495048583        1513226934.4454923     
   2798081449.6443267        35818104.701738358        1219508266.1187954     
   2671504857.5757008        39321624.142225981        1200254221.5432062     
   2544678301.3536882        41991929.738087058        1186879784.5954189     
   2417601780.9782777        43829021.489291906        1179384955.2754242     
   2290275296.4494805        44832899.395873547        1177769733.5832317     
   2454294336.7711377        34749048.595826745        1296143375.9717007     
   2342848327.2358437        37376353.470344901        1275370625.7651100     
   2231245130.3455024        39479700.494713187        1260559380.9331181     
   2119484746.1001134        41059089.668916941        1251709641.4757347     
   2007567174.4996822        42114520.992977977        1248821407.3929462     
   2106729654.0184743        32546721.526079297        1370641523.9771218     
   2010648220.5788035        34368009.903303146        1348458307.7375956     
   1914502376.5824342        35974596.424867868        1332318494.6194754     
   1818292122.0293663        37366481.090763807        1322222084.6227591     
   1722017456.9195948        38543663.900994062        1318169077.7474537     
   1755387401.3863282        29211123.492487311        1443002710.1350510     
   1674904537.6045814        30296593.441109598        1419517267.4606600     
   1594450040.0644794        31476617.528551519        1402157125.6544819     
   1514023908.7660275        32751195.754828036        1390922284.7165151     
   1433626143.7092218        34120328.119926989        1385812744.6467600     
   1400267578.8747046        24742254.495048583        1513226934.4454923     
   1335617278.3131788        25162104.083761990        1488547504.9343090     
   1271088120.7916472        25985763.805787086        1470075274.0381444     
   1206680106.3101091        27213233.661128104        1457810241.7569950     
   1142393234.8685646        28844513.649774611        1451752408.0908618     
   2290275296.4494805        44832899.395873547        1177769733.5832317     
   2072659510.7262650        9176765.7744182348        1085390378.4745240     
   1848981675.1983969       -46686200.529205084        1000729321.7085848     
   1619241789.8658793       -122755999.51499653        923786563.28540719     
   1383439854.7287140       -219032631.18295288        854562103.20499003     
   2007567174.4996822        42114520.992977977        1248821407.3929462     
   1812215452.9187891        9718623.9935284853        1149232734.6161764     
   1611468556.0581946       -40661190.604934633        1058299604.3856604     
   1405326483.9178998       -109024922.80239922        976022016.70139313     
   1193789236.4978974       -195372572.59888148        902399971.56338215     
   1722017456.9195948        38543663.900994062        1318169077.7474537     
   1551607640.0624211        10211355.697964489        1212149107.5817266     
   1376469522.4504912       -33881955.020917892        1115721924.1657393     
   1196603104.0838058       -93736268.255646408        1028887527.4994937     
   1012008384.9623686       -169351584.00622547        951645917.58298862     
   1433626143.7092218        34120328.119926989        1385812744.6467600     
   1290836072.1571589        10654960.887730479        1274139497.3711815     
   1143984574.3752916       -26348493.777141571        1172996281.0488312     
   993071650.36361647       -76890035.874710441        1082383095.6797085     
   838097300.12213063       -140969665.40497798        1002299941.2638174     
   1142393234.8685646        28844513.649774611        1451752408.0908618     
   1029900749.2030070        11049439.562842846        1335203903.9845369     
   914013711.83258986       -18060806.873623431        1230122675.0349281     
   794732122.75731468       -58486225.659616709        1136508721.2420385     
   672055981.97717822       -110226816.79514486        1054362042.6058617     
   1383439854.7287140       -219032631.18295288        854562103.20499003     
   1725070584.5488000       -121525590.93126214        1163311707.0349419     
   2086315367.9751818        41361628.008099556        1461978895.3474209     
   2467174205.0078664        269629025.63511837        1750563668.1424265     
   2867647095.6468358        563276601.94975424        2029066025.4199524     
   1193789236.4978974       -195372572.59888148        902399971.56338215     
   1502871677.9266946       -106873183.24426264        1234273256.6329014     
   1829653338.0394621        40623601.723582983        1553270500.9720697     
   2174134216.8362007        247117782.30467135        1859391704.5809014     
   2536314314.3168983        512609358.49895251        2152636867.4593763     
   1012008384.9623686       -169351584.00622547        951645917.58298862     
   1280560751.6773863       -92254381.445432365        1304408909.8160248     
   1564897502.1540518        37457433.654178679        1641502236.1058443     
   1865018636.3923485        219783861.29256815        1962925896.4524522     
   2180924154.3922882        454724901.46976227        2268679890.8558283     
   838097300.12213063       -140969665.40497798        1002299941.2638174     
   1058137805.8008811       -77669185.534750283        1373718666.5843229     
   1292047860.3189430        31863123.799845159        1726674100.7487402     
   1539827463.6763170        187627262.59881127        2061166243.7570684     
   1801476615.8730011        389623230.86215901        2377195095.6093097     
   672055981.97717822       -110226816.79514486        1054362042.6058617     
   835602840.29716957       -63117595.512240231        1442202526.9377875     
   1011104412.5341437        23840672.160612762        1808786094.9007568     
   1198560698.6881037        150647986.22341201        2154112746.4947624     
   1397971698.7590487        317304346.67616284        2478182481.7198071     
   1755464924.6614127        526639477.39842379        679417754.94972861     
   1783677385.4795294        500071049.50604981        806437606.95621431     
   1808972476.9956720        463778057.27376127        926315155.49798727     
   1831350199.2098398        417760500.70155746        1039050400.5750477     
   1850810552.1220334        362018379.78943944        1144643342.1873956     
   1325951592.3083832        397785477.69251496        669117157.56326783     
   1339261288.1554086        375504261.82130718        791892311.17949712     
   1350382957.0273569        345929622.69984221        909356746.27779174     
   1359316598.9242280        309061560.32811975        1021510462.8581522     
   1366062213.8460224        264900074.70614049        1128353460.9205775     
   890202994.14002526        267060898.24200755        661759587.99092209     
   893843024.86389613        250636824.34634700        781140942.59827530     
   896024370.93958724        229350468.29008675        897043163.63447177     
   896747032.36709821        203201830.07322633        1009466251.0995117     
   896011009.14642942        172190909.69576630        1118410204.9933951     
   448219130.15633804        134465739.04690140        657345046.23269176     
   447422595.60499167        125468737.08116931        774183501.21254897     
   445896718.73236245        114040594.04449466        889374407.56802762     
   443641499.53845072        100181309.93687809        1002917765.2991273     
   440656938.02325612        83890884.758318454        1114813574.4058483     
  0.35732223041235217       0.10719666912370565        655873532.28857648     
  0.37869534660132304        2.5773968582098530E-002   771019987.02231789     
  0.40568305926119280       -3.6933497126019510E-002   886350478.07845831     
  0.43828509674570282       -8.0926329911568867E-002   1001865005.4569980     
  0.47650174213884888      -0.10620397647401222        1117563569.1579370     
   1850810552.1220334        362018379.78943944        1144643342.1873956     
   1834536921.5759430        296193473.04058737        1190571943.0388823     
   1821600930.1345210        241494029.97396237        1238910995.2734725     
   1812002577.7977662        197920050.58956134        1289660498.8911660     
   1805741864.5656800        165471534.88738936        1342820453.8919628     
   1366062213.8460224        264900074.70614049        1128353460.9205775     
   1359738007.9422550        217295699.73993641        1182147113.1273437     
   1355917031.3674855        178035422.53705454        1236978979.4183359     
   1354599284.1217117        147119243.09749466        1292849059.7935543     
   1355784766.2049348        124547161.42125678        1349757354.2529993     
   896011009.14642942        172190909.69576630        1118410204.9933951     
   895715549.88819528        141630863.11317387        1179095430.4838235     
   897088910.18328631        116633548.37499887        1239446632.7596014     
   900131090.03170240        97198965.481240451        1299463811.8207288     
   904842089.43344402        83327114.431900650        1359146967.6672056     
   440656938.02325612        83890884.758318454        1114813574.4058483     
   442469547.41376281        69198963.160299331        1181416895.1083226     
   445116566.58192343        57288407.487793222        1246313955.2972693     
   448597995.52773774        48159217.740799740        1309504754.9726889     
   452913834.25120592        41811393.919319376        1370989294.1345809     
  0.47650174213884888      -0.10620397647401222        1117563569.1579370     
  0.51895798784658287      -0.11868687694737279        1189111507.0008407     
  0.56339683519441164      -0.12456101855091031        1257580947.0313404     
  0.60981814156804948      -0.12382726697835947        1322971889.2494354     
  0.65822237770186809      -0.11648340259384404        1385284333.6551261     
   1805741864.5656800        165471534.88738936        1342820453.8919628     
   1778138020.3730681        133803976.94512331        1365996466.6646349     
   1751933172.4920957        106799740.04165387        1389510036.8135743     
   1727127320.9227617        84458824.176979899        1413361164.3387818     
   1703720465.6650662        66781229.351100624        1437549849.2402563     
   1355784766.2049348        124547161.42125678        1349757354.2529993     
   1332075087.7156625        99894454.368506610        1374367349.4448965     
   1309414656.4656801        78739238.113390326        1400016487.5962830     
   1287803472.4549906        61081512.655916572        1426704768.7071593     
   1267241535.6835902        46921277.996074796        1454432192.7775238     
   904842089.43344402        83327114.431900650        1359146967.6672056     
   887031106.88528669        66290617.339998662        1384782904.6939220     
   869919622.50407159        51585780.804572284        1412159570.2633491     
   853507636.28980100        39212604.825625896        1441276964.3754885     
   837795148.24247324        29171089.403156996        1472135087.0303366     
   452913834.25120592        41811393.919319376        1370989294.1345809     
   443006077.88193953        32992465.859598607        1397243132.4117112     
   433448070.60726833        25339368.115195006        1425939284.8147743     
   424239812.42719334        18852100.686112002        1457077751.3437703     
   415381303.34171331        13530663.572346136        1490658531.9986982     
  0.65822237770186809      -0.11648340259384404        1385284333.6551261     
  0.70562273972558820       -7.2691532280690418E-002   1411748032.5982645     
  0.77527099895513418        4.5259995385215801E-002   1441355631.2505579     
  0.86716668358384630       0.23736960771500909        1474107129.6120050     
  0.98131141491097307       0.50364270903951835        1510002527.6826069     
   1703720465.6650662        66781229.351100624        1437549849.2402563     
   1640677699.3998394        41238948.606349349        1412162930.8087287     
   1578890499.9329009        19881890.522557139        1393352817.0101116     
   1518358867.2642500        2710055.0997229815        1381119507.8444035     
   1459082801.3938856       -10276557.662153125        1375463003.3116069     
   1267241535.6835902        46921277.996074796        1454432192.7775238     
   1222641882.5863400        28569293.992931843        1432475439.4859629     
   1178983904.5933919        13356227.004133105        1416469592.4426429     
   1136267601.7047498        1282077.0296869278        1406414651.6475618     
   1094492973.9204121       -7653155.9304109216        1402310617.1007180     
   837795148.24247324        29171089.403156996        1472135087.0303366     
   809850327.21413660        17472917.811902910        1453242291.9024324     
   782533289.59612083        7867357.5883857608        1439674504.6380949     
   755844035.38842654        354408.73260563612        1431431725.2373259     
   729782564.59105241       -5065928.7554378510        1428513953.7001228     
   415381303.34171331        13530663.572346136        1490658531.9986982     
   402303033.28323048        7949820.0632632226        1474463488.0581348     
   389538654.94108576        3415282.2753066272        1462967553.5964658     
   377088168.31527913       -72949.791523709893        1456170728.6136947     
   364951573.40580988       -2514876.1372280121        1454073013.1098187     
  0.98131141491097307       0.50364270903951835        1510002527.6826069     
  0.79362253948043704       0.74701382899957136        1496139027.9530692     
  0.62828677700026869        1.0648949785161546        1486348739.3177576     
  0.48530834799549616        1.4573007464230718        1480631661.7766709     
  0.36468291756371934        1.9242165095733079        1478987795.3298090     
   1459082801.3938856       -10276557.662153125        1375463003.3116069     
   1442780417.3914416       -6850449.1983503699        1408487059.1035836     
   1427543752.3040972        128055.64912039042        1442455732.8898923     
   1413372806.1318493        10658956.880246162        1477369024.6705289     
   1400267578.8747046        24742254.495048583        1513226934.4454923     
   1094492973.9204121       -7653155.9304109216        1402310617.1007180     
   1080719580.9622226       -5547555.9632466435        1436560827.8586981     
   1067745477.1718783       -777658.76993358135        1472116531.0786941     
   1055570662.5493759        6656535.6495196819        1508977726.7607045     
   1044195137.0947177        16755027.295122027        1547144414.9047308     
   729782564.59105241       -5065928.7554378510        1428513953.7001228     
   719569232.58479881       -3971516.3126026094        1463679484.7189698     
   709888759.99913275       -1100905.8011406362        1500511382.6675241     
   700741146.83405232        3545902.7789381146        1539009647.5457764     
   692126393.08955979        9968909.4276457429        1579174279.3537350     
   364951573.40580988       -2514876.1372280121        1454073013.1098187     
   359329372.25916910       -2122330.2464195043        1489843029.6844029     
   353973600.78585947       -841685.44450841844        1527640287.6563790     
   348884258.98587954        1327058.2685018182        1567464787.0257437     
   344061346.85922986        4383900.8926137239        1609316527.7925010     
  0.36468291756371934        1.9242165095733079        1478987795.3298090     
  -1.4666839171744495E-002   2.2353000403033514        1515051462.7549975     
 -0.46794047574523256        2.2999699443505901        1553503246.0452635     
 -0.99514281888184530        2.1182108265207478        1594343145.2006071     
  -1.5962696366188167        1.6900374872457653        1637571160.2210276     
   1400267578.8747046        24742254.495048583        1513226934.4454923     
   1335617278.3131788        25162104.083761990        1488547504.9343090     
   1271088120.7916472        25985763.805787086        1470075274.0381444     
   1206680106.3101091        27213233.661128104        1457810241.7569950     
   1142393234.8685646        28844513.649774611        1451752408.0908618     
   1044195137.0947177        16755027.295122027        1547144414.9047308     
   995661795.59713066        17056229.561468542        1523995268.3332002     
   947219311.37145126        17660289.400839567        1507063964.1163821     
   898867684.41768289        18567206.813246906        1496350502.2542806     
   850606914.73582327        19776981.798682868        1491854882.7468898     
   692126393.08955979        9968909.4276457429        1579174279.3537350     
   659740421.34076607        10160587.577083468        1557520082.3257525     
   627415021.09579396        10554170.739260286        1542094371.3921850     
   595150192.35464787        11149658.914189696        1532897146.5530257     
   562945935.11732209        11947052.101854891        1529928407.8082862     
   344061346.85922986        4383900.8926137239        1609316527.7925010     
   327853155.54408365        4475178.1306013614        1589121946.9119678     
   311675249.96467370        4667407.8210420907        1575166495.8655484     
   295527630.12100273        4960589.9639462084        1567450174.6532402     
   279410296.01306784        5354724.5593051761        1565972983.2750435     
  -1.5962696366188167        1.6900374872457653        1637571160.2210276     
  -1.7929171883409993        1.2220220714463705        1618800862.0918469     
  -2.0219123536618864       0.64617919531645607        1606280337.5364752     
  -2.2832499855997357       -3.7470862035914987E-002   1600009586.5549164     
  -2.5769416820200726      -0.82896780099657830        1599988609.1471691     
   1142393234.8685646        28844513.649774611        1451752408.0908618     
   1029900749.2030070        11049439.562842846        1335203903.9845369     
   914013711.83258986       -18060806.873623431        1230122675.0349281     
   794732122.75731468       -58486225.659616709        1136508721.2420385     
   672055981.97717822       -110226816.79514486        1054362042.6058617     
   850606914.73582327        19776981.798682868        1491854882.7468898     
   768731856.31340671        7178967.6980113983        1372993973.8825123     
   684310884.04945850       -13905425.874432325        1265018335.4362402     
   597343997.94397211       -43476198.918670863        1167927967.4080663     
   507831197.99695331       -81533351.434682190        1081722869.7979934     
   562945935.11732209        11947052.101854891        1529928407.8082862     
   510025433.25629205        4047236.7829272449        1409745171.6930716     
   455407655.41705179       -9510165.1300333738        1299865201.2573388     
   399092601.59960175       -28725153.637026489        1200288496.5010936     
   341080271.80394018       -53597728.738059387        1111015057.4243338     
   279410296.01306784        5354724.5593051761        1565972983.2750435     
   253781480.03166762        1654246.8176026642        1445457497.4162002     
   227304025.93537274       -4875024.6404146701        1334663272.4982274     
   199977933.72419664       -14233089.814702615        1233590308.5211227     
   171803203.39813855       -26419948.705264814        1142238605.4848914     
  -2.5769416820200726      -0.82896780099657830        1599988609.1471691     
  -3.3604809868869423       -2.1980075040281877        1480130951.0519068     
  -4.3955774002309411       -4.4055722897623433        1369412549.1589026     
  -5.6822368010489930       -7.4516793262425889        1267833403.4681559     
  -7.2204576566843119       -11.336325239336448        1175393513.9796555     
   672055981.97717822       -110226816.79514486        1054362042.6058617     
   835602840.29716957       -63117595.512240231        1442202526.9377875     
   1011104412.5341437        23840672.160612762        1808786094.9007568     
   1198560698.6881037        150647986.22341201        2154112746.4947624     
   1397971698.7590487        317304346.67616284        2478182481.7198071     
   507831197.99695331       -81533351.434682190        1081722869.7979934     
   615726677.02179396       -50630836.505898833        1482605518.8518734     
   732588191.04415762        10158461.747958452        1865676340.1293950     
   858415740.06403136        100834543.32685667        2230935333.6305561     
   993209324.08142865        221397408.23082727        2578382499.3553662     
   341080271.80394018       -53597728.738059387        1111015057.4243338     
   403167481.79821324       -35948987.084007323        1521453079.1274557     
   471232047.87053347        1624274.8302019536        1917524361.6468170     
   545273970.02090597        59122057.004581854        2299228904.9824262     
   625293248.24933016        136544359.43914160        2666566709.1342788     
   171803203.39813855       -26419948.705264814        1142238605.4848914     
   197925254.62641788       -19072047.246589392        1558745207.7645373     
   227035983.01328078       -1761888.5926376879        1964330159.4530368     
   259135388.55872867        25510527.256599918        2358993460.5503793     
   294223471.26276165        62745200.301118217        2742735111.0565648     
  -7.2204576566843119       -11.336325239336448        1175393513.9796555     
  -4.4935891546211009       -16.993641590066733        1594481904.7631273     
  -3.5276027062806046       -28.520564092650012        2006093733.5480402     
  -4.3225042135352201       -45.917111379160190        2410229000.3344107     
  -6.8782810948740245       -69.183247409287333        2806887705.1222277     
  0.35732223041235217       0.10719666912370565        655873532.28857648     
  0.37869534660132304        2.5773968582098530E-002   771019987.02231789     
  0.40568305926119280       -3.6933497126019510E-002   886350478.07845831     
  0.43828509674570282       -8.0926329911568867E-002   1001865005.4569980     
  0.47650174213884888      -0.10620397647401222        1117563569.1579370     
  -448219129.45510709       -134465738.83653212        657345046.16103923     
  -447422594.85869139       -125468737.02116847        774183501.14366639     
  -445896717.93044102       -114040594.09968954        889374407.50082242     
  -443641498.67035627       -100181310.07209550        1002917765.2325076     
  -440656937.07843679       -83890884.938386232        1114813574.3387215     
  -890202993.47903478       -267060898.04371044        661759587.85254300     
  -893843024.15863442       -250636824.28687778        781140942.46464598     
  -896024370.18017912       -229350468.33652973        897043163.50340772     
  -896747031.54366958       -203201830.19266617        1009466250.9688280     
  -896011008.24910486       -172190909.85528708        1118410204.8609071     
  -1325951591.7144604       -397785477.51433808        669117157.36308777     
  -1339261287.5211332       -375504261.77135384        791892310.98525667     
  -1350382956.3435311       -345929622.74745405        909356746.08621383     
  -1359316598.1816542       -309061560.44263828        1021510462.6659600     
  -1366062213.0355029       -264900074.85690761        1128353460.7244940     
  -1755464924.1613846       -526639477.24841535        679417754.69267356     
  -1783677384.9461884       -500071049.47459692        806437606.70549834     
  -1808972476.4204969       -463778057.33246255        926315155.24924135     
  -1831350198.5843112       -417760500.82201219        1039050400.3239025     
  -1850810551.4376302       -362018379.94324601        1144643341.9294822     
  0.47650174213884888      -0.10620397647401222        1117563569.1579370     
  0.51895798784658287      -0.11868687694737279        1189111507.0008407     
  0.56339683519441164      -0.12456101855091031        1257580947.0313404     
  0.60981814156804948      -0.12382726697835947        1322971889.2494354     
  0.65822237770186809      -0.11648340259384404        1385284333.6551261     
  -440656937.07843679       -83890884.938386232        1114813574.3387215     
  -442469546.38508362       -69198963.361847058        1181416895.0309529     
  -445116565.46593916       -57288407.699336946        1246313955.2080431     
  -448597994.32100314       -48159217.950854495        1309504754.8699918     
  -452913832.95027488       -41811394.116398677        1370989294.0167983     
  -896011008.24910486       -172190909.85528708        1118410204.8609071     
  -895715548.91267514       -141630863.29207200        1179095430.3302433     
  -897088909.12664521       -116633548.56352174        1239446632.5817003     
  -900131088.89101470       -97198965.669637799        1299463811.6152802     
  -904842088.20578372       -83327114.610418499        1359146967.4309797     
  -1366062213.0355029       -264900074.85690761        1128353460.7244940     
  -1359738007.0638175       -217295699.90936208        1182147112.8987117     
  -1355917030.4187219       -178035422.71711907        1236978979.1523137     
  -1354599283.1002173       -147119243.28017759        1292849059.4853003     
  -1355784765.1083040       -124547161.59854084        1349757353.8976703     
  -1850810551.4376302       -362018379.94324601        1144643341.9294822     
  -1834536920.8385086       -296193473.21371663        1190571942.7363589     
  -1821600929.3421693       -241494030.16012615        1238910994.9198823     
  -1812002576.9486117       -197920050.78247720        1289660498.4800522     
  -1805741863.6578362       -165471535.08076710        1342820453.4168704     
  0.65822237770186809      -0.11648340259384404        1385284333.6551261     
  0.70562273972558820       -7.2691532280690418E-002   1411748032.5982645     
  0.77527099895513418        4.5259995385215801E-002   1441355631.2505579     
  0.86716668358384630       0.23736960771500909        1474107129.6120050     
  0.98131141491097307       0.50364270903951835        1510002527.6826069     
  -452913832.95027488       -41811394.116398677        1370989294.0167983     
  -443006076.48895139       -32992465.978188112        1397243132.3230987     
  -433448069.08204830       -25339368.021379456        1425939284.7553201     
  -424239810.72956729       -18852100.245977372        1457077751.3134604     
  -415381301.43150628       -13530662.651976228        1490658531.9975243     
  -904842088.20578372       -83327114.610418499        1359146967.4309797     
  -887031105.56834650       -66290617.449131012        1384782904.5109940     
  -869919621.06199908       -51585780.724810064        1412159570.1336963     
  -853507634.68674278       -39212604.437458515        1441276964.2990851     
  -837795146.44257605       -29171088.587074101        1472135087.0071621     
  -1355784765.1083040       -124547161.59854084        1349757353.8976703     
  -1332075086.5325623       -99894454.485518038        1374367349.1619513     
  -1309414655.1645813       -78739238.065030932        1400016487.3856864     
  -1287803471.0043585       -61081512.337072492        1426704768.5688760     
  -1267241534.0518954       -46921277.301645219        1454432192.7115190     
  -1805741863.6578362       -165471535.08076710        1342820453.4168704     
  -1778138019.3816009       -133803977.08735561        1365996466.2759709     
  -1751933171.3897932       -106799740.04203683        1389510036.5112917     
  -1727127319.6824155       -84458823.944817841        1413361164.1228337     
  -1703720464.2594657       -66781228.795691550        1437549849.1105957     
  0.98131141491097307       0.50364270903951835        1510002527.6826069     
  0.79362253948043704       0.74701382899957136        1496139027.9530692     
  0.62828677700026869        1.0648949785161546        1486348739.3177576     
  0.48530834799549616        1.4573007464230718        1480631661.7766709     
  0.36468291756371934        1.9242165095733079        1478987795.3298090     
  -415381301.43150628       -13530662.651976228        1490658531.9975243     
  -402303031.75017416       -7949818.7179688960        1474463488.0925682     
  -389538653.74517047       -3415280.3717230260        1462967553.6794086     
  -377088167.41649520        72952.386762499809        1456170728.7580488     
  -364951572.76414955        2514879.5574808419        1454073013.3284867     
  -837795146.44257605       -29171088.587074101        1472135087.0071621     
  -809850325.75629747       -17472916.621645093        1453242291.9449878     
  -782533288.44503307       -7867355.9062626064        1439674504.7721848     
  -755844034.50878036       -354406.44091936946        1431431725.4887528     
  -729782563.94754112        5065931.7743774354        1428513954.0946920     
  -1267241534.0518954       -46921277.301645219        1454432192.7115190     
  -1222641881.2247493       -28569292.964022875        1432475439.5103292     
  -1178983903.4713001       -13356225.538723588        1416469592.5960855     
  -1136267600.7915478       -1282075.0257463455        1406414651.9687843     
  -1094492973.1854920        7653158.5749078989        1402310617.6284266     
  -1703720464.2594657       -66781228.795691550        1437549849.1105957     
  -1640677698.1555285       -41238947.745097637        1412162930.7885942     
  -1578890498.8239727       -19881889.269107461        1393352817.1511090     
  -1518358866.2647967       -2710053.3677156568        1381119508.1981409     
  -1459082800.4780023        10276559.959068894        1375463003.9296899     
  0.36468291756371934        1.9242165095733079        1478987795.3298090     
  -1.4666839171744495E-002   2.2353000403033514        1515051462.7549975     
 -0.46794047574523256        2.2999699443505901        1553503246.0452635     
 -0.99514281888184530        2.1182108265207478        1594343145.2006071     
  -1.5962696366188167        1.6900374872457653        1637571160.2210276     
  -364951572.76414955        2514879.5574808419        1454073013.3284867     
  -359329372.37707764        2122334.1970101893        1489843029.7797306     
  -353973601.79825258        841689.47571749985        1527640287.6488857     
  -348884261.02767366       -1327054.6063959599        1567464786.9359529     
  -344061350.06534290       -4383898.0493355691        1609316527.6409349     
  -729782563.94754112        5065931.7743774354        1428513954.0946920     
  -719569232.64309001        3971519.7876406908        1463679484.8819487     
  -709888760.88120580        1100909.3256806135        1500511382.6399512     
  -700741148.66188872       -3545899.6115047932        1539009647.3687046     
  -692126395.98514247       -9968907.0239231884        1579174279.0682032     
  -1094492973.1854920        7653158.5749078989        1402310617.6284266     
  -1080719580.8127038        5547559.0071911216        1436560828.0616562     
  -1067745477.7168051        777661.84984421730        1472116531.0184655     
  -1055570663.8977932       -6656532.8971269727        1508977726.4988592     
  -1044195139.3556721       -16755025.233733177        1547144414.5028389     
  -1459082800.4780023        10276559.959068894        1375463003.9296899     
  -1442780416.8859189        6850451.8556604385        1408487059.3188479     
  -1427543752.3050458       -128052.95177990198        1442455732.7844250     
  -1413372806.7353797       -10658954.463245332        1477369024.3264201     
  -1400267580.1769271       -24742252.678754032        1513226933.9448364     
  -1.5962696366188167        1.6900374872457653        1637571160.2210276     
  -1.7929171883409993        1.2220220714463705        1618800862.0918469     
  -2.0219123536618864       0.64617919531645607        1606280337.5364752     
  -2.2832499855997357       -3.7470862035914987E-002   1600009586.5549164     
  -2.5769416820200726      -0.82896780099657830        1599988609.1471691     
  -344061350.06534290       -4383898.0493355691        1609316527.6409349     
  -327853159.10580891       -4475176.1638810635        1589121946.8069146     
  -311675253.94512582       -4667406.9412608743        1575166495.8222661     
  -295527634.58329427       -4960590.3814815432        1567450174.6869922     
  -279410301.02031612       -5354726.4845437258        1565972983.4010921     
  -692126395.98514247       -9968907.0239231884        1579174279.0682032     
  -659740424.51067746       -10160585.977374703        1557520082.1350889     
  -627415024.60156846       -10554170.148679644        1542094371.3269124     
  -595150196.25781155       -11149659.537824124        1532897146.6436703     
  -562945939.47941184       -11947054.144824415        1529928408.0853648     
  -1044195139.3556721       -16755025.233733177        1547144414.5028389     
  -995661798.00752354       -17056228.218461215        1523995268.0763750     
  -947219313.99123681       -17660288.976061165        1507063964.0504112     
  -898867687.30680621       -18567207.506514907        1496350502.4249477     
  -850606917.95423377       -19776983.809828788        1491854883.1999805     
  -1400267580.1769271       -24742252.678754032        1513226933.9448364     
  -1335617279.5963488       -25162102.887146533        1488547504.6307704     
  -1271088122.1141305       -25985763.423407853        1470075273.9927673     
  -1206680107.7302761       -27213234.287547708        1457810242.0308256     
  -1142393236.4447825       -28844515.479554474        1451752408.7449474     
  -2.5769416820200726      -0.82896780099657830        1599988609.1471691     
  -3.3604809868869423       -2.1980075040281877        1480130951.0519068     
  -4.3955774002309411       -4.4055722897623433        1369412549.1589026     
  -5.6822368010489930       -7.4516793262425889        1267833403.4681559     
  -7.2204576566843119       -11.336325239336448        1175393513.9796555     
  -279410301.02031612       -5354726.4845437258        1565972983.4010921     
  -253781486.48522586       -1654251.2240964919        1445457497.2064247     
  -227304034.23576659        4875016.4175786674        1334663271.9862578     
  -199977944.27194297        14233076.440469503        1233590307.7405944     
  -171803216.59374720        26419928.844600812        1142238604.4694314     
  -562945939.47941184       -11947054.144824415        1529928408.0853648     
  -510025438.84784621       -4047241.0215472877        1409745171.4182029     
  -455407662.53598285        9510157.7027223110        1299865200.4977930     
  -399092610.54382348        28725142.027979553        1200288495.3241293     
  -341080282.87136883        53597711.954222232        1111015055.8972142     
  -850606917.95423377       -19776983.809828788        1491854883.1999805     
  -768731860.44834399       -7178971.5903633833        1372993973.6872454     
  -684310889.29622722        13905419.449853808        1265018334.6935048     
  -597344004.49788511        43476189.310825139        1167927966.2187588     
  -507831206.05331647        81533337.992551714        1081722868.2630098     
  -1142393236.4447825       -28844515.479554474        1451752408.7449474     
  -1029900751.2867157       -11049442.930538356        1335203904.0135496     
  -914013714.51649690        18060801.658986032        1230122674.5733967     
  -794732126.13412309        58486218.289028287        1136508720.4244845     
  -672055986.13959849        110226806.95957083        1054362041.5668172     
  -7.2204576566843119       -11.336325239336448        1175393513.9796555     
  -4.4935891546211009       -16.993641590066733        1594481904.7631273     
  -3.5276027062806046       -28.520564092650012        2006093733.5480402     
  -4.3225042135352201       -45.917111379160190        2410229000.3344107     
  -6.8782810948740245       -69.183247409287333        2806887705.1222277     
  -171803216.59374720        26419928.844600812        1142238604.4694314     
  -197925262.14223686        19072017.526316330        1558745202.8981597     
  -227035988.32008958        1761837.4434887171        1964330150.5738533     
  -259135395.12730718       -25510611.403885476        2358993447.4965029     
  -294223482.56388193       -62745329.015788548        2742735093.6661105     
  -341080282.87136883        53597711.954222232        1111015055.8972142     
  -403167487.42233312        35948961.756829679        1521453069.9579821     
  -471232051.47113955       -1624320.1000336409        1917524344.5112200     
  -545273975.01778615       -59122133.616362274        2299228879.5569220     
  -625293258.06227374       -136544478.79216695        2666566675.0951023     
  -507831206.05331647        81533337.992551714        1081722868.2630098     
  -615726680.33387482        50630815.697907746        1482605505.9425910     
  -732588192.98074543       -10158501.151113003        1865676315.3601491     
  -858415743.99394083       -100834612.55454513        2230935296.5156918     
  -993209333.37345576       -221397518.51237917        2578382449.4092078     
  -672055986.13959849        110226806.95957083        1054362041.5668172     
  -835602840.87685668        63117579.349570453        1442202510.8519816     
  -1011104412.8489155       -23840705.709767401        1808786063.1206417     
  -1198560702.0557733       -150648048.21843114        2154112698.3727875     
  -1397971708.4974310       -317304448.17643589        2478182416.6084194     
  -1755464924.1613846       -526639477.24841535        679417754.69267356     
  -1783677384.9461884       -500071049.47459692        806437606.70549834     
  -1808972476.4204969       -463778057.33246255        926315155.24924135     
  -1831350198.5843112       -417760500.82201219        1039050400.3239025     
  -1850810551.4376302       -362018379.94324601        1144643341.9294822     
  -2200994722.4091930       -660298416.72275794        695772159.96176410     
  -2237899563.7723508       -613851755.13576376        813791031.69693089     
  -2272771858.4420938       -560629937.90405178        927678475.57632768     
  -2305611606.4184208       -500632965.02762204        1037434491.5999550     
  -2336418807.7013330       -433860836.50647485        1143059079.7678125     
  -2684792718.0472736       -805437815.41418219        721291153.29082346     
  -2721787438.2364655       -736532169.48831606        829276751.69507289     
  -2757634434.3493214       -663800776.64133036        936141797.85686433     
  -2792333706.3858423       -587243636.87322509        1041886291.7761984     
  -2825885254.3460255       -506860750.18399996        1146510233.4530745     
  -3206858911.0756254       -962057673.32268763        755974734.67985189     
  -3235341008.3385310       -868112292.53225374        852894766.69992411     
  -3263560204.1421809       -773290573.54429841        951705122.09085119     
  -3291516498.4865737       -677592516.35882163        1052405800.8526325     
  -3319209891.3717093       -581018120.97582221        1154996802.9852681     
  -3767193301.4942489       -1130157990.4482746        799822904.12884915     
  -3778560274.0785484       -1008592124.2675771        884645076.71148562     
  -3790549167.8206711       -889099328.61295581        974368448.27828836     
  -3803159982.7206173       -771679603.48441136        1068993018.8292576     
  -3816392718.7783852       -656332948.88194299        1168518788.3643935     
  -1850810551.4376302       -362018379.94324601        1144643341.9294822     
  -1834536920.8385086       -296193473.21371663        1190571942.7363589     
  -1821600929.3421693       -241494030.16012615        1238910994.9198823     
  -1812002576.9486117       -197920050.78247720        1289660498.4800522     
  -1805741863.6578362       -165471535.08076710        1342820453.4168704     
  -2336418807.7013330       -433860836.50647485        1143059079.7678125     
  -2311609378.1475415       -352562228.21280456        1182761630.7247109     
  -2290255688.3499045       -282782752.43965071        1223048875.2937529     
  -2272357738.3084226       -224522409.18701357        1263920813.4749384     
  -2257915528.0230961       -177781198.45489156        1305377445.2682679     
  -2825885254.3460255       -506860750.18399996        1146510233.4530745     
  -2797756476.5932875       -411653375.55290598        1179848950.4643924     
  -2773201539.2500777       -328358802.28690493        1211946603.3233511     
  -2752220442.3163958       -256977030.38599753        1242803192.0299504     
  -2734813185.7922416       -197508059.85018229        1272418716.5841894     
  -3319209891.3717093       -581018120.97582221        1154996802.9852681     
  -3292978216.1757498       -473466915.23402238        1181833901.9554045     
  -3270438482.0426893       -378222179.70189118        1205604179.0086775     
  -3251590688.9725304       -295283914.37943077        1226307634.1450877     
  -3236434836.9652739       -224652119.26664066        1243944267.3646352     
  -3816392718.7783852       -656332948.88194299        1168518788.3643935     
  -3797274596.8949246       -538002847.25615287        1188716485.1977458     
  -3781966516.7277393       -432372884.68460929        1204021602.3497317     
  -3770468478.2768278       -339443061.16731262        1214434139.8203521     
  -3762780481.5421896       -259213376.70426106        1219954097.6096056     
  -1805741863.6578362       -165471535.08076710        1342820453.4168704     
  -1778138019.3816009       -133803977.08735561        1365996466.2759709     
  -1751933171.3897932       -106799740.04203683        1389510036.5112917     
  -1727127319.6824155       -84458823.944817841        1413361164.1228337     
  -1703720464.2594657       -66781228.795691550        1437549849.1105957     
  -2257915528.0230961       -177781198.45489156        1305377445.2682679     
  -2222721238.5740204       -134603483.65854824        1318588531.0261376     
  -2190525573.9961991       -101421185.09971559        1334644673.3554487     
  -2161328534.2896295       -78234302.778391242        1353545872.2562008     
  -2135130119.4543130       -65042836.694577098        1375292127.7283940     
  -2734813185.7922416       -197508059.85018229        1272418716.5841894     
  -2684864167.7554107       -140670903.22643268        1273798641.8895338     
  -2639513403.1766562       -99161258.129605651        1280531122.9615393     
  -2598760892.0559807       -72979124.559706330        1292616159.8002062     
  -2562606634.3933811       -62124502.516727209        1310053752.4055362     
  -3236434836.9652739       -224652119.26664066        1243944267.3646352     
  -3164566806.9257703       -152006235.79100847        1231626798.8661587     
  -3098896658.9311695       -100019959.13171601        1227169385.3295650     
  -3039424392.9814706       -68693289.288761973        1230572026.7548525     
  -2986150009.0766726       -58026226.262144208        1241834723.1420236     
  -3762780481.5421896       -259213376.70426106        1219954097.6096056     
  -3661829156.0850992       -168609481.35227418        1192073001.9560142     
  -3568675341.2597346       -103997288.10603881        1174559460.4595242     
  -3483319037.0660977       -65376796.965559721        1167413473.1201377     
  -3405760243.5041847       -52748007.930828452        1170635039.9378541     
  -1703720464.2594657       -66781228.795691550        1437549849.1105957     
  -1640677698.1555285       -41238947.745097637        1412162930.7885942     
  -1578890498.8239727       -19881889.269107461        1393352817.1511090     
  -1518358866.2647967       -2710053.3677156568        1381119508.1981409     
  -1459082800.4780023        10276559.959068894        1375463003.9296899     
  -2135130119.4543130       -65042836.694577098        1375292127.7283940     
  -2056312868.8973374       -41626779.597826958        1349895361.5238016     
  -1978163626.2406905       -20437415.502169728        1330546676.5109935     
  -1900682391.4843681       -1474744.4075975418        1317246072.6899686     
  -1823869164.6283736        15261233.685882807        1309993550.0607283     
  -2562606634.3933811       -62124502.516727209        1310053752.4055362     
  -2469525537.9340353       -41287860.939024329        1285332623.6690829     
  -2376524890.5029597       -20719382.788894534        1266130852.6316805     
  -2283604692.1001587       -419068.06634354591        1252448439.2933297     
  -2190764942.7256322        19613083.228631377        1244285383.6540291     
  -2986150009.0766726       -58026226.262144208        1241834723.1420236     
  -2880315705.2656198       -40222191.768686771        1218474717.2244394     
  -2773974291.6107845       -20727791.129288197        1200105345.5131724     
  -2667125768.1121702        456975.65604186058        1186726608.0082235     
  -2559770134.7697730        23332108.587315559        1178338504.7095938     
  -3405760243.5041847       -52748007.930828452        1170635039.9378541     
  -3288683370.8920918       -38429772.086815357        1149321642.1898687     
  -3170511829.5641627       -20462640.523347020        1132470155.1554668     
  -3051245619.5204010        1153386.7595659494        1120080578.8346505     
  -2930884740.7608023        26418309.761931777        1112152913.2274199     
  -1459082800.4780023        10276559.959068894        1375463003.9296899     
  -1442780416.8859189        6850451.8556604385        1408487059.3188479     
  -1427543752.3050458       -128052.95177990198        1442455732.7844250     
  -1413372806.7353797       -10658954.463245332        1477369024.3264201     
  -1400267580.1769271       -24742252.678754032        1513226933.9448364     
  -1823869164.6283736        15261233.685882807        1309993550.0607283     
  -1804539993.8868456        11505578.124648094        1341056246.1003594     
  -1786683309.8518276        2841633.5417132378        1373578671.2841802     
  -1770299112.5233252       -10730600.062935829        1407560825.6121924     
  -1755387401.9013317       -29211122.689287663        1443002709.0843966     
  -2190764942.7256322        19613083.228631377        1244285383.6540291     
  -2166937238.9267373        15969403.981947541        1272912158.0329452     
  -2144988789.5296533        6061543.3958901167        1303513772.6238256     
  -2124919594.5343888       -10110498.529558539        1336090227.4266684     
  -2106729653.9409354       -32546721.794382811        1370641522.4414761     
  -2559770134.7697730        23332108.587315559        1178338504.7095938     
  -2529972152.0055895        20241929.427560568        1204054795.1166101     
  -2502460191.3385196        9531676.6107580662        1232261036.8033605     
  -2477234252.7685704       -8798649.8631098270        1262957229.7698493     
  -2454294336.2957354       -34749049.994031072        1296143374.0160761     
  -2930884740.7608023        26418309.761931777        1112152913.2274199     
  -2893644733.1234069        24323154.461479306        1134484157.3513486     
  -2859097515.2784286        13252033.186311603        1159820463.8227882     
  -2827243087.2258744       -6795054.0636086464        1188161832.6417358     
  -2798081448.9657369       -35818107.288246155        1219508263.8081923     
  -1400267580.1769271       -24742252.678754032        1513226933.9448364     
  -1335617279.5963488       -25162102.887146533        1488547504.6307704     
  -1271088122.1141305       -25985763.423407853        1470075273.9927673     
  -1206680107.7302761       -27213234.287547708        1457810242.0308256     
  -1142393236.4447825       -28844515.479554474        1451752408.7449474     
  -1755387401.9013317       -29211122.689287663        1443002709.0843966     
  -1674904537.8798950       -30296592.989665568        1419517266.4763699     
  -1594450040.1369112       -31476617.551551819        1402157124.7833972     
  -1514023908.6723754       -32751196.374930561        1390922284.0054848     
  -1433626143.4862900       -34120329.459812939        1385812744.1426249     
  -2106729653.9409354       -32546721.794382811        1370641522.4414761     
  -2010648220.0815182       -34368010.267621756        1348458306.1627190     
  -1914502375.6806345       -35974596.935978174        1332318493.0380111     
  -1818292120.7382925       -37366481.799471974        1322222083.0673540     
  -1722017455.2544847       -38543664.858082473        1318169076.2507484     
  -2454294336.2957354       -34749049.994031072        1296143374.0160761     
  -2342848326.2012091       -37376354.720991135        1275370623.6898165     
  -2231245128.7453032       -39479701.576693296        1260559378.7566028     
  -2119484743.9280255       -41059090.561148167        1251709639.2164345     
  -2007567171.7493696       -42114521.674349904        1248821405.0693109     
  -2798081448.9657369       -35818107.288246155        1219508263.8081923     
  -2671504856.2389693       -39321626.349781513        1200254219.0576649     
  -2544678299.3309126       -41991931.473683119        1186879781.9391770     
  -2417601778.2415724       -43829022.659977674        1179384952.4527287     
  -2290275292.9709449       -44832899.908641219        1177769730.5983205     
  -1142393236.4447825       -28844515.479554474        1451752408.7449474     
  -1029900751.2867157       -11049442.930538356        1335203904.0135496     
  -914013714.51649690        18060801.658986032        1230122674.5733967     
  -794732126.13412309        58486218.289028287        1136508720.4244845     
  -672055986.13959849        110226806.95957083        1054362041.5668172     
  -1433626143.4862900       -34120329.459812939        1385812744.1426249     
  -1290836071.8791854       -10654963.024400949        1274139496.0596902     
  -1143984574.0415566        26348490.846099257        1172996279.0571413     
  -993071649.97339964        76890032.151688278        1082383093.1349750     
  -838097299.67471802        140969660.89236307        1002299938.2931988     
  -1722017455.2544847       -38543664.858082473        1318169076.2507484     
  -1551607637.8007913       -10211356.717004299        1212149105.2043769     
  -1376469519.4982014        33881954.253732741        1115721921.0275323     
  -1196603100.3467083        93736268.054141700        1028887523.7202187     
  -1012008380.3463190        169351584.68421245        951645913.28243256     
  -2007567171.7493696       -42114521.674349904        1248821405.0693109     
  -1812215449.0515382       -9718624.0083566904        1149232731.4476063     
  -1611468550.8864367        40661191.881877899        1058299600.4845701     
  -1405326477.2540543        109024925.99637580        976022012.18021035     
  -1193789228.1543946        195372578.33513188        902399966.53452122     
  -2290275292.9709449       -44832899.908641219        1177769730.5983205     
  -2072659505.6314170       -9176764.8984353542        1085390374.7893834     
  -1848981668.2062478        46686203.730573535        1000729317.4282593     
  -1619241780.6954265        122756005.97842109        923786558.51495576     
  -1383439843.0989635        219032641.84508020        854562098.04946017     
  -672055986.13959849        110226806.95957083        1054362041.5668172     
  -835602840.87685668        63117579.349570453        1442202510.8519816     
  -1011104412.8489155       -23840705.709767401        1808786063.1206417     
  -1198560702.0557733       -150648048.21843114        2154112698.3727875     
  -1397971708.4974310       -317304448.17643589        2478182416.6084194     
  -838097299.67471802        140969660.89236307        1002299938.2931988     
  -1058137802.2687753        77669179.044250667        1373718645.6245141     
  -1292047855.0852051       -31863136.878438294        1726674061.0605218     
  -1539827458.1240125       -187627286.87570614        2061166184.6012177     
  -1801476611.3851907       -389623270.94755727        2377195016.2466102     
  -1012008380.3463190        169351584.68421245        951645913.28243256     
  -1280560744.7365942        92254384.416169226        1304408886.8410611     
  -1564897492.3368182       -37457426.551696658        1641502193.6255827     
  -1865018623.1469893       -219783848.21939903        1962925833.6359982     
  -2180924137.1671124       -454724880.58692718        2268679806.8723068     
  -1193789228.1543946        195372578.33513188        902399966.53452122     
  -1502871668.2803159        106873195.46531606        1234273234.5016234     
  -1829653324.6037536       -40623574.729559779        1553270460.8158209     
  -2174134197.1247149       -247117732.24951833        1859391645.4771166     
  -2536314285.8431978       -512609277.09453940        2152636788.4855084     
  -1383439843.0989635        219032641.84508020        854562098.04946017     
  -1725070572.8999395        121525612.19169235        1163311688.6062038     
  -2086315351.8860080       -41361581.412006140        1461978862.6312411     
  -2467174180.0571842       -269628938.96605921        1750563620.1245849     
  -2867647057.4134493       -563276460.47041488        2029065961.0862191     
  -3767193301.4942489       -1130157990.4482746        799822904.12884915     
  -3778560274.0785484       -1008592124.2675771        884645076.71148562     
  -3790549167.8206711       -889099328.61295581        974368448.27828836     
  -3803159982.7206173       -771679603.48441136        1068993018.8292576     
  -3816392718.7783852       -656332948.88194299        1168518788.3643935     
  -4338729737.0477085       -1301618921.1143126        857987013.20402563     
  -4334733230.4016352       -1125638529.2241066        942053944.36354172     
  -4331892364.7989779       -953510274.14529014        1020480539.2446761     
  -4330207140.2397375       -785234155.87786222        1093266797.8474293     
  -4329677556.7239141       -620810174.42182338        1160412720.1718011     
  -4894402065.4805679       -1468320619.6441705        935618413.47159195     
  -4905160751.7828293       -1246961303.6980689        1018307430.0081279     
  -4917608799.0141010       -1031233190.8486693        1084814575.0037351     
  -4931746207.1743851       -821136281.09597123        1135139848.4584126     
  -4947572976.2636766       -616670574.43997419        1169283250.3721614     
  -5434210286.7928276       -1630263086.0378482        1032717104.9315480     
  -5489842838.2221327       -1372560447.6894636        1113405533.6452448     
  -5547698470.4660425       -1122268078.7230935        1167370555.5554647     
  -5607777183.5245543       -879385979.13873696        1194612170.6622074     
  -5670078977.3976707       -643914148.93639445        1195130378.9654737     
  -5958154400.9844875       -1787446320.2953463        1149283087.5838938     
  -6088779489.7195425       -1502435961.1982908        1227348255.2748919     
  -6222161379.1547976       -1226614937.7685618        1268148480.8998654     
  -6358300069.2902489       -959983250.00616026        1271683764.4588137     
  -6497195560.1258984       -702540897.91108418        1237954105.9517379     
  -3816392718.7783852       -656332948.88194299        1168518788.3643935     
  -3797274596.8949246       -538002847.25615287        1188716485.1977458     
  -3781966516.7277393       -432372884.68460929        1204021602.3497317     
  -3770468478.2768278       -339443061.16731262        1214434139.8203521     
  -3762780481.5421896       -259213376.70426106        1219954097.6096056     
  -4329677556.7239141       -620810174.42182338        1160412720.1718011     
  -4297693833.7891951       -464678111.52904224        1141108912.8445907     
  -4276243366.7707911       -343656901.69064176        1127870771.8688705     
  -4265326155.6687026       -257746544.90662575        1120698297.2446420     
  -4264942200.4829254       -206947041.17698860        1119591488.9719026     
  -4947572976.2636766       -616670574.43997419        1169283250.3721614     
  -4871414377.8981075       -413343767.96632361        1102634188.9843407     
  -4812512249.6488934       -267538528.54719067        1053009039.9808675     
  -4770866591.5160332       -179254856.18257451        1020407803.3617412     
  -4746477403.4995298       -148492750.87247562        1004830479.1269627     
  -5670078977.3976707       -643914148.93639445        1195130378.9654737     
  -5518436229.2216606       -383999816.56799722        1073292313.6169945     
  -5390773165.3620462       -204017765.25425315        979436406.68572068     
  -5287089785.8188276       -103967994.99516201        913562658.17165041     
  -5207386090.5920048       -83850505.790725231        875671068.07478487     
  -6497195560.1258984       -702540897.91108418        1237954105.9517379     
  -6238759387.7598543       -376646257.33406377        1053083286.7425543     
  -6011026113.9102497       -153094611.81183267        907152871.98343194     
  -5813995738.5770807       -31885961.344388485        800162861.67437065     
  -5647668261.7603483       -13020305.931733131        732113255.81537032     
  -3762780481.5421896       -259213376.70426106        1219954097.6096056     
  -3661829156.0850992       -168609481.35227418        1192073001.9560142     
  -3568675341.2597346       -103997288.10603881        1174559460.4595242     
  -3483319037.0660977       -65376796.965559721        1167413473.1201377     
  -3405760243.5041847       -52748007.930828452        1170635039.9378541     
  -4264942200.4829254       -206947041.17698860        1119591488.9719026     
  -4148350545.7206912       -144393643.79174018        1090522225.9498339     
  -4036461953.4271913       -97517121.302272558        1069589623.1515595     
  -3929276423.6024251       -66317473.708583832        1056793680.5770785     
  -3826793956.2463946       -50794701.010679245        1052134398.2263923     
  -4746477403.4995298       -148492750.87247562        1004830479.1269627     
  -4620619402.0987473       -115902046.25394249        978183238.25990713     
  -4496370015.0037088       -88673389.321221828        957441763.68333662     
  -4373729242.2144108       -66806780.074306965        942606055.39725137     
  -4252697083.7308569       -50302218.513206482        933676113.40165293     
  -5207386090.5920048       -83850505.790725231        875671068.07478487     
  -5078635725.2192698       -83134688.738885403        855056038.88623190     
  -4948399525.9892855       -77466092.162887335        838115882.05485785     
  -4816677492.9020538       -66844716.062729836        824850597.58065665     
  -4683469625.9575739       -51270560.438409567        815260185.46363497     
  -5647668261.7603483       -13020305.931733131        732113255.81537032     
  -5522399515.0822554       -46091571.246568680        721140627.82880986     
  -5392550486.3839254       -63895229.827275038        711611978.26611745     
  -5258121175.6653538       -66431281.673844814        703527307.12729406     
  -5119111582.9265432       -53699726.786287546        696886614.41233838     
  -3405760243.5041847       -52748007.930828452        1170635039.9378541     
  -3288683370.8920918       -38429772.086815357        1149321642.1898687     
  -3170511829.5641627       -20462640.523347020        1132470155.1554668     
  -3051245619.5204010        1153386.7595659494        1120080578.8346505     
  -2930884740.7608023        26418309.761931777        1112152913.2274199     
  -3826793956.2463946       -50794701.010679245        1052134398.2263923     
  -3695664644.9570036       -32798347.424106359        1030663162.5639246     
  -3563867747.4349260       -12576706.395250320        1014690787.9990507     
  -3431403263.6801620        9870222.0758948326        1004217274.5317703     
  -3298271193.6927171        34542437.989313126        999242622.16208208     
  -4252697083.7308569       -50302218.513206482        933676113.40165293     
  -4104552618.3812881       -27738932.569214344        911548776.92769754     
  -3956167649.2821832       -4373967.4601056576        895957251.93534112     
  -3807542176.4335394        19792676.814130306        886901538.42458749     
  -3658676199.8353634        44761000.253478527        884381636.39543414     
  -4683469625.9575739       -51270560.438409567        815260185.46363497     
  -4515347291.1649456       -23251527.522132635        791978485.28118157     
  -4347411535.1059294        4145576.2821011543        776269546.96433806     
  -4179662357.7805295        30920750.974282265        768133370.51310420     
  -4012099759.1887431        57073996.554419756        767569955.92747700     
  -5119111582.9265432       -53699726.786287546        696886614.41233838     
  -4928048663.3079720       -19336132.282860279        671952287.62438118     
  -4737599404.9061737        12981924.831344843        655627673.08604288     
  -4547763807.7211313        43254444.556357384        647912770.79731798     
  -4358541871.7528524        71481426.892147303        648807580.75821245     
  -2930884740.7608023        26418309.761931777        1112152913.2274199     
  -2893644733.1234069        24323154.461479306        1134484157.3513486     
  -2859097515.2784286        13252033.186311603        1159820463.8227882     
  -2827243087.2258744       -6795054.0636086464        1188161832.6417358     
  -2798081448.9657369       -35818107.288246155        1219508263.8081923     
  -3298271193.6927171        34542437.989313126        999242622.16208208     
  -3255331422.0773311        28806423.389991283        1020375737.4154303     
  -3215268384.6074643        13481294.972279668        1043728422.4502323     
  -3178082081.2831125       -11432947.263826609        1069300677.2664905     
  -3143772512.1042838       -45936303.318326473        1097092501.8642006     
  -3658676199.8353634        44761000.253478527        884381636.39543414     
  -3612280928.7164307        34710847.012952566        904102021.03292191     
  -3568946336.0961175        14458432.110367537        925256482.88580632     
  -3528672421.9744196       -15996244.454269886        947845021.95409131     
  -3491459186.3513393       -56653182.680961132        971867638.23777378     
  -4012099759.1887431        57073996.554419756        767569955.92747700     
  -3964493253.0407100        42036425.330353975        785663008.20382118     
  -3920131369.7443929        16183444.600568533        804404645.12950838     
  -3879014109.2997899       -20484945.634925127        823794866.70453763     
  -3841141471.7069011       -67968745.376146555        843833672.92890787     
  -4358541871.7528524        71481426.892147303        648807580.75821245     
  -4311968395.0501623        50783158.342211008        665058698.92813075     
  -4268823485.5522881        18656332.442884207        681172909.18133461     
  -4229107143.2592268       -24899050.805814743        697150211.51782906     
  -4192819368.1709809       -79882991.403890848        712990605.93760824     
  -2798081448.9657369       -35818107.288246155        1219508263.8081923     
  -2671504856.2389693       -39321626.349781513        1200254219.0576649     
  -2544678299.3309126       -41991931.473683119        1186879781.9391770     
  -2417601778.2415724       -43829022.659977674        1179384952.4527287     
  -2290275292.9709449       -44832899.908641219        1177769730.5983205     
  -3143772512.1042838       -45936303.318326473        1097092501.8642006     
  -3002942502.3923101       -51467476.746546984        1077652663.6284747     
  -2861203197.7877831       -53967667.199589133        1063765304.9108733     
  -2718554598.2907057       -53436874.677466273        1055430425.7113925     
  -2574996703.9010754       -49875099.180163741        1052648026.0300380     
  -3491459186.3513393       -56653182.680961132        971867638.23777378     
  -3337310411.4082074       -64492406.002084255        953011225.67999125     
  -3181593010.8612595       -67102877.310480475        939380164.52641785     
  -3024306984.7104912       -64484596.606150746        930974454.77704751     
  -2865452332.9559097       -56637563.889102101        927794096.43188608     
  -3841141471.7069011       -67968745.376146555        843833672.92890787     
  -3674608583.2866626       -78396414.116381645        826329905.21221554     
  -3505847738.5513415       -81397561.806345224        813724360.78581238     
  -3334858937.5009341       -76972188.446030736        806017039.64969659     
  -3161642180.1354527       -65120294.035455942        803207941.80387366     
  -4192819368.1709809       -79882991.403890848        712990605.93760824     
  -4014837018.0276790       -93179501.089457273        697608702.22514558     
  -3833967380.8580327       -96851720.687209129        686797893.68905389     
  -3650210456.6620312       -90899650.197109222        680558180.32933450     
  -3463566245.4396925       -75323289.619211793        678889562.14598882     
  -2290275292.9709449       -44832899.908641219        1177769730.5983205     
  -2072659505.6314170       -9176764.8984353542        1085390374.7893834     
  -1848981668.2062478        46686203.730573535        1000729317.4282593     
  -1619241780.6954265        122756005.97842109        923786558.51495576     
  -1383439843.0989635        219032641.84508020        854562098.04946017     
  -2574996703.9010754       -49875099.180163741        1052648026.0300380     
  -2332397188.5298667       -6338452.1615861654        966196076.85226762     
  -2083940560.2093644        56721904.687968850        889425501.86450219     
  -1829626818.9395607        139305971.36852920        822336301.06674325     
  -1569455964.7204626        241413747.88006186        764928474.45899236     
  -2865452332.9559097       -56637563.889102101        927794096.43188608     
  -2592260301.7181859       -3537768.5116910934        847030460.55953860     
  -2313416094.6675148        68402612.908867598        777911274.61938655     
  -2028919711.8038976        159183580.37257648        720436538.61143553     
  -1738771153.1273432        268805133.87942755        674606252.53568292     
  -3161642180.1354527       -65120294.035455942        803207941.80387366     
  -2852248845.1963739       -774713.94875693321        727893525.91120076     
  -2537408271.5807071        81728328.393246889        666186635.69292045     
  -2217120459.2884479        182388832.99055970        618087271.14903033     
  -1891385408.3195894        301206799.84318101        583595432.27952909     
  -3463566245.4396925       -75323289.619211793        678889562.14598882     
  -3112362818.9644408        1950711.5272104740        608785272.90725291     
  -2755917090.9489379        96699051.141117096        554251585.08509767     
  -2394229061.3931971        208921729.22248888        515288498.67952669     
  -2027298730.2972183        338618745.77131963        491896013.69053441     
  -1383439843.0989635        219032641.84508020        854562098.04946017     
  -1725070572.8999395        121525612.19169235        1163311688.6062038     
  -2086315351.8860080       -41361581.412006140        1461978862.6312411     
  -2467174180.0571842       -269628938.96605921        1750563620.1245849     
  -2867647057.4134493       -563276460.47041488        2029065961.0862191     
  -1569455964.7204626        241413747.88006186        764928474.45899236     
  -1947022865.4868691        123520604.35202444        1052247657.0504538     
  -2349356501.3194537       -76928322.729950905        1326710535.5558939     
  -2776456872.2182021       -359933033.36582792        1588317109.9753132     
  -3228323978.1831455       -725493527.55563307        1837067380.3087254     
  -1738771153.1273432        268805133.87942755        674606252.53568292     
  -2160199617.8715105        128148258.57303274        934483560.30060303     
  -2611547503.5629373       -112240019.89088690        1178730676.4251876     
  -3092814810.2016187       -452359701.51232260        1407347600.9094336     
  -3604001537.7875476       -892210786.29125595        1620334333.7533550     
  -1891385408.3195894        301206799.84318101        583595432.27952909     
  -2364600830.0538640        135408574.85472250        810019398.35665154     
  -2872888358.6164656       -147296672.89484310        1018039285.2391195     
  -3416247994.0073938       -546908943.40551829        1207655092.9269323     
  -3994679736.2266674       -1063428236.6772978        1378866821.4200974     
  -2027298730.2972183        338618745.77131963        491896013.69053441     
  -2560226502.0339212        145301553.19711447        678855171.21859825     
  -3133379066.4800372       -182098281.74181533        844636361.99769068     
  -3746756423.6355615       -643580759.04543948        989239586.02782190     
  -4400358573.5004997       -1239145878.7137535        1112664843.3089738     
  -5958154400.9844875       -1787446320.2953463        1149283087.5838938     
  -6088779489.7195425       -1502435961.1982908        1227348255.2748919     
  -6222161379.1547976       -1226614937.7685618        1268148480.8998654     
  -6358300069.2902489       -959983250.00616026        1271683764.4588137     
  -6497195560.1258984       -702540897.91108418        1237954105.9517379     
  -6811170492.9793587       -2043351147.8938076        1353133508.5218375     
  -6829005927.1336870       -1395195907.6020024        1202379164.6323531     
  -6898360450.2284546       -918770963.77832317        1091848370.6722021     
  -7019234062.2636595       -614076316.42276907        1021541126.6413856     
  -7191626763.2393026       -481111965.53534150        991457432.53990245     
  -8338194647.7012520       -2501458394.3103757        1712085514.8385873     
  -8021844735.8595438       -1423739565.3992279        1275622323.0883405     
  -7805776201.1985130       -680291993.75700426        956871173.26278579     
  -7689989043.7181625       -271115679.38370562        755832065.36192417     
  -7674483263.4184875       -196210622.27933216        672504999.38575447     
  -10539226865.150167       -3161768059.5450501        2226139106.5341425     
  -9667295915.8971138       -1588066934.5899663        1447077730.6428537     
  -8944408632.0649757       -511178027.70460653        863216888.67161632     
  -8370565013.6537533        68898661.111032009        474556580.62042862     
  -7945765060.6634521        152163131.85694265        281096806.48929328     
  -13414267145.326103       -4024280143.5978312        2895294283.6085038     
  -11765359467.246393       -1888178015.1742191        1716745387.2958941     
  -10314257742.827837       -411429065.62112904        810885516.89869308     
  -9060961972.0704403        405966705.06143856        177714672.41690204     
  -8005472154.9742002        564009296.87348413       -182767146.14948013     
  -6497195560.1258984       -702540897.91108418        1237954105.9517379     
  -6238759387.7598543       -376646257.33406377        1053083286.7425543     
  -6011026113.9102497       -153094611.81183267        907152871.98343194     
  -5813995738.5770807       -31885961.344388485        800162861.67437065     
  -5647668261.7603483       -13020305.931733131        732113255.81537032     
  -7191626763.2393026       -481111965.53534150        991457432.53990245     
  -6900281422.1283188       -306025828.26803088        846590937.84410095     
  -6621372789.6018057       -172395386.28227615        722900746.18889451     
  -6354900865.6597595       -80220639.578078032        620386857.57428145     
  -6100865650.3021784       -29501588.155435801        539049272.00026405     
  -7674483263.4184875       -196210622.27933216        672504999.38575447     
  -7400983329.0181885       -187159360.95841980        588953384.12396789     
  -7121653913.2703829       -158676495.14582682        508813970.49330729     
  -6836495016.1750784       -110762024.84156251        432086758.49377656     
  -6545506637.7322683       -43415950.045618773        358771748.12537056     
  -7945765060.6634521        152163131.85694265        281096806.48929328     
  -7740865108.4294529       -20046855.405224800        280170625.58215207     
  -7511869484.9159842       -111937938.40248966        264892544.89667013     
  -7258778190.1230373       -123510117.13483667        235262564.43284985     
  -6981591224.0506191       -54763391.602275848        191280684.19068846     
  -8005472154.9742002        564009296.87348413       -182767146.14948013     
  -7919926760.3621225        195311688.39154482       -79757337.781343877     
  -7792019504.5386019       -32179716.052249432       -8863530.6010168158     
  -7621750387.5036392       -118464916.45790434        29914275.391506862     
  -7409119409.2572327       -63543912.825416088        36576080.196222015     
  -5647668261.7603483       -13020305.931733131        732113255.81537032     
  -5522399515.0822554       -46091571.246568680        721140627.82880986     
  -5392550486.3839254       -63895229.827275038        711611978.26611745     
  -5258121175.6653538       -66431281.673844814        703527307.12729406     
  -5119111582.9265432       -53699726.786287546        696886614.41233838     
  -6100865650.3021784       -29501588.155435801        539049272.00026405     
  -5961947681.6325264       -32176691.973159790        534042980.87339789     
  -5823027497.4997206       -34844410.913691998        531077614.04760462     
  -5684105097.9037514       -37504744.977030993        530153171.52288669     
  -5545180482.8446312       -40157694.163180828        531269653.29924262     
  -6545506637.7322683       -43415950.045618773        358771748.12537056     
  -6391233887.4218988       -15183224.471478224        354390716.20826966     
  -6241536988.2054510       -2203335.8770918846        352647554.46944416     
  -6096415940.0829296       -4476284.2624487877        353542262.90890312     
  -5955870743.0543308       -22002069.627556562        357074841.52664453     
  -6981591224.0506191       -54763391.602275848        191280684.19068846     
  -6810258132.4503651        4888831.2584729195        182183833.83342010     
  -6648078958.5011234        34027995.282528400        176321799.53164229     
  -6495053702.2028847        32654100.469899178        173694581.28534842     
  -6351182363.5556545        767146.82057666779        174302179.09454051     
  -7409119409.2572327       -63543912.825416088        36576080.196222015     
  -7219020416.7179413        28039475.216687679        17422333.748860978     
  -7042653408.3867378        73849582.565160275        2100349.2341914242     
  -6880018384.2636213        73886409.220011711       -9389873.3477825597     
  -6731115344.3485947        28149955.181231976       -17048333.997064896     
  -5119111582.9265432       -53699726.786287546        696886614.41233838     
  -4928048663.3079720       -19336132.282860279        671952287.62438118     
  -4737599404.9061737        12981924.831344843        655627673.08604288     
  -4547763807.7211313        43254444.556357384        647912770.79731798     
  -4358541871.7528524        71481426.892147303        648807580.75821245     
  -5545180482.8446312       -40157694.163180828        531269653.29924262     
  -5338587614.0181026       -20565376.991066694        511174308.54582322     
  -5130714681.3834953        3293819.5413072109        497824122.62536943     
  -4921561684.9408102        31419895.433939457        491219095.53787369     
  -4711128624.6900492        63812850.686830521        491359227.28334242     
  -5955870743.0543308       -22002069.627556562        357074841.52664453     
  -5739075220.4960041       -18779218.429607868        344027824.67007989     
  -5519105909.1047573       -4977071.1219208241        335861413.22982079     
  -5295962808.8805923        19404372.295490980        332575607.20587057     
  -5069645919.8235073        54365111.822641134        334170406.59822494     
  -6351182363.5556545        767146.82057666779        174302179.09454051     
  -6129511482.7416849       -13977656.598474741        170512835.99714634     
  -5902773088.0699539       -11830747.158329487        169739544.89940155     
  -5670967179.5404673        7207875.1410152912        171982305.80130991     
  -5434093757.1532154        43138210.299565554        177241118.70286593     
  -6731115344.3485947        28149955.181231976       -17048333.997064896     
  -6509896400.7551441       -6160691.4976875782       -9370657.4729773402     
  -6281716218.2790852       -17267208.567911625       -541482.36589557363     
  -6046574796.9204311       -5169596.0294890404        9439191.3241820056     
  -5804472136.6791716        30132146.117629051        20571363.597260844     
  -4358541871.7528524        71481426.892147303        648807580.75821245     
  -4311968395.0501623        50783158.342211008        665058698.92813075     
  -4268823485.5522881        18656332.442884207        681172909.18133461     
  -4229107143.2592268       -24899050.805814743        697150211.51782906     
  -4192819368.1709809       -79882991.403890848        712990605.93760824     
  -4711128624.6900492        63812850.686830521        491359227.28334242     
  -4663212800.5382309        45642853.199079752        502454125.33844978     
  -4617768984.3116045        19232829.294000864        514135059.10294372     
  -4574797176.0101795       -15417221.028393030        526402028.57682532     
  -4534297375.6339436       -58307297.768111706        539255033.76009619     
  -5069645919.8235073        54365111.822641134        334170406.59822494     
  -5018322195.0051231        39343051.362303972        341225070.36474198     
  -4968513918.8323231        19269495.416693687        349588713.46674699     
  -4920221091.3050947       -5855556.0141646862        359261335.90423530     
  -4873443712.4234533       -36032102.930298328        370242937.67721730     
  -5434093757.1532154        43138210.299565554        177241118.70286593     
  -5377296578.4508390        31883752.831877947        181371534.00701362     
  -5321058289.1144295        18766330.810976505        187533872.27274275     
  -5265378889.1439781        3785944.2368655205        195728133.50006035     
  -5210258378.5394964       -13057406.890452623        205954317.68896803     
  -5804472136.6791716        30132146.117629051        20571363.597260844     
  -5740135950.8753767        23264957.607819080        22893516.265254375     
  -5675402095.1579313        17723335.476835728        27970535.520935953     
  -5610270569.5268269        13507279.724726677        35802421.364296928     
  -5544741373.9820700        10616790.351450682        46389173.795358121     
  -4192819368.1709809       -79882991.403890848        712990605.93760824     
  -4014837018.0276790       -93179501.089457273        697608702.22514558     
  -3833967380.8580327       -96851720.687209129        686797893.68905389     
  -3650210456.6620312       -90899650.197109222        680558180.32933450     
  -3463566245.4396925       -75323289.619211793        678889562.14598882     
  -4534297375.6339436       -58307297.768111706        539255033.76009619     
  -4338441182.5192575       -58177393.204420090        527190137.37171179     
  -4142477994.5682478       -57690839.186300993        521204852.49665636     
  -3946407811.7809057       -56847635.713755369        521299179.13492525     
  -3750230634.1572371       -55647782.786792040        527473117.28652054     
  -4873443712.4234533       -36032102.930298328        370242937.67721730     
  -4655403629.6603661       -21182770.114236116        358251374.39122468     
  -4440036844.2509766       -15244428.477153301        353847938.95551139     
  -4227343356.1952734       -18217078.019046307        357032631.37008178     
  -4017323165.4932718       -30100718.739923716        367805451.63492990     
  -5210258378.5394964       -13057406.890452623        205954317.68896803     
  -4965724359.4509983        17804368.181090832        190792413.28367385     
  -4726643929.9062176        30487511.440243721        184727153.06561276     
  -4493017089.9051485        24992022.887023926        187758537.03479323     
  -4264843839.4478078        1317902.5213828087        199886565.19120133     
  -5544741373.9820700        10616790.351450682        46389173.795358121     
  -5269403371.8911572        58784021.681550503        24813254.049072403     
  -5002299251.5339813        79504980.565867424        13842494.826970445     
  -4743429012.9105368        72779667.004412889        13476896.129069701     
  -4492792656.0208263        38608080.997178078        23716457.955347270     
  -3463566245.4396925       -75323289.619211793        678889562.14598882     
  -3112362818.9644408        1950711.5272104740        608785272.90725291     
  -2755917090.9489379        96699051.141117096        554251585.08509767     
  -2394229061.3931971        208921729.22248888        515288498.67952669     
  -2027298730.2972183        338618745.77131963        491896013.69053441     
  -3750230634.1572371       -55647782.786792040        527473117.28652054     
  -3368437060.6011510        9381766.7722730637        467954841.68025661     
  -2981380298.6820278        91955277.541488886        419222489.70127833     
  -2589060348.3998480        192072749.52087319        381276061.34959596     
  -2191477209.7546263        309734182.71039808        354115556.62520248     
  -4017323165.4932718       -30100718.739923716        367805451.63492990     
  -3618609952.8257623        18583226.840960503        318897557.62106752     
  -3214612664.9724026        84880756.374675155        275990909.44520885     
  -2805331301.9331841        168791869.86125565        239085507.10735452     
  -2390765863.7081175        270316567.30065501        208181350.60750374     
  -4264843839.4478078        1317902.5213828087        199886565.19120133     
  -3862881495.6382718        29555091.733259201        161613420.72969136     
  -3455614189.8200641        75475487.640682220        124556844.31689432     
  -3043041921.9932041        139079090.24362767        88716835.952813074     
  -2625164692.1576848        220365899.54209721        54093395.637439884     
  -4492792656.0208263        38608080.997178078        23716457.955347270     
  -4101251689.0386486        42297361.449237585       -3897568.9938722458     
  -3704384873.2250209        63739471.339488983       -35079705.683670513     
  -3302192208.5799108        102934410.66800737       -69829952.114043847     
  -2894673695.1033478        159882179.43469083       -108148308.28498921     
  -2027298730.2972183        338618745.77131963        491896013.69053441     
  -2560226502.0339212        145301553.19711447        678855171.21859825     
  -3133379066.4800372       -182098281.74181533        844636361.99769068     
  -3746756423.6355615       -643580759.04543948        989239586.02782190     
  -4400358573.5004997       -1239145878.7137535        1112664843.3089738     
  -2191477209.7546263        309734182.71039808        354115556.62520248     
  -2783970325.2365246        126360250.91851878        497829152.38639653     
  -3384372226.0550675       -83376298.662187457        614606621.06587183     
  -3992682912.2102475       -319475466.03166974        704447962.66363132     
  -4608902383.7020779       -581937251.18999243        767353177.17966890     
  -2390765863.7081175        270316567.30065501        208181350.60750374     
  -3059276209.6002154        91950330.291590095        346351393.20339704     
  -3703379333.4561839       -5058499.9303820133        451827148.38481802     
  -4323075235.2760210       -20709923.365246296        524608616.15176827     
  -4918363915.0597343        44996059.986971617        564695796.50425839     
  -2625164692.1576848        220365899.54209721        54093395.637439884     
  -3386144155.1249838        42071791.316348076        224421893.66959488     
  -4090400388.6833816        52855114.453607082        356297943.95452613     
  -4737933392.8328648        252715868.95388293        449721546.49224043     
  -5328743167.5734844        641654054.81708765        504692701.28273523     
  -2894673695.1033478        159882179.43469083       -108148308.28498921     
  -3764574161.8108335       -23275366.007211685        132040653.78498848     
  -4545435391.7366657        90364544.489744186        328019007.77499938     
  -5237257384.8808117        500801910.92562962        479786753.68503255     
  -5840040141.2433033        1208036733.3003962        587343891.51510787     
 </DataArray>
 <DataArray  type="Float64" Name="VM" NumberOfComponents="1" format="ascii">
   12934558815.950026     
   11340875216.897875     
   10211865999.139660     
   9275723001.3486233     
   8307891615.9511833     
   10129983971.330233     
   9322465113.2562428     
   8827626734.6973419     
   8445320492.7263947     
   8037688395.4225769     
   7982408628.3602924     
   7735479720.3064356     
   7670041692.2902317     
   7670619591.7358303     
   7667278900.7118015     
   6491735147.3556013     
   6587202700.0403576     
   6757951042.4451818     
   6961826625.0957499     
   7172164948.5845385     
   5657494312.6019783     
   5890814836.8730221     
   6116558022.7399197     
   6332236953.2309799     
   6537595839.1996288     
   8307891615.9511833     
   8020556370.4575348     
   7775994739.2052660     
   7563391266.7053118     
   7377824694.2097826     
   8037688395.4225769     
   7746076504.9809046     
   7470632787.1341629     
   7209343133.9127045     
   6962258564.3198004     
   7667278900.7118015     
   7380041856.5633163     
   7098575107.9527407     
   6822961614.0860071     
   6553435296.5929136     
   7172164948.5845385     
   6909849478.2790852     
   6655716349.4171343     
   6405938315.2768764     
   6157367062.4599924     
   6537595839.1996288     
   6327806013.7458191     
   6140390556.3749390     
   5961456208.5786076     
   5781934053.9216700     
   7377824694.2097826     
   7233143861.7105551     
   7079868008.5155411     
   6917276668.5928059     
   6745299008.1105814     
   6962258564.3198004     
   6820007827.1489477     
   6672151126.3345737     
   6518388483.5137157     
   6358736825.7730398     
   6553435296.5929136     
   6413099088.4070349     
   6270256573.8861666     
   6124866891.3339977     
   5976984709.9711399     
   6157367062.4599924     
   6017443431.1179581     
   5878102898.7619066     
   5739378328.5189743     
   5601312335.7656717     
   5781934053.9216700     
   5639558153.9524326     
   5500754485.3431425     
   5365426328.6951170     
   5233569051.2586937     
   6745299008.1105814     
   6506838483.0953016     
   6273100505.9545307     
   6044013767.7699633     
   5819705787.8979855     
   6358736825.7730398     
   6129653664.4245014     
   5904190918.2627792     
   5682387706.7968464     
   5464420936.5370169     
   5976984709.9711399     
   5760609960.1034708     
   5547206006.1731710     
   5336870152.6491356     
   5129803773.5832415     
   5601312335.7656717     
   5401393161.7453499     
   5204289596.0575514     
   5010117780.4260988     
   4819101286.7614546     
   5233569051.2586937     
   5054236612.5558195     
   4878120820.9800987     
   4705327881.3250504     
   4536122294.3131399     
   5819705787.8979855     
   5751940397.4002094     
   5684490931.7255878     
   5617378679.9023809     
   5550638957.4304981     
   5464420936.5370169     
   5402450402.1640882     
   5340353647.5249157     
   5278171284.5747681     
   5215954557.0075550     
   5129803773.5832415     
   5072656628.8813620     
   5014865843.9154720     
   4956511410.8040562     
   4897692416.3037348     
   4819101286.7614546     
   4766325594.7109919     
   4712321894.5640106     
   4657228094.9056778     
   4601223510.0788193     
   4536122294.3131399     
   4487932148.7548923     
   4437886007.0381413     
   4386196725.0199261     
   4333156751.1222239     
   5550638957.4304981     
   5299214210.1745682     
   5042578839.1680422     
   4780291380.8577042     
   4512407547.5881052     
   5215954557.0075550     
   4985614526.8742485     
   4752743236.4960537     
   4517286411.2241039     
   4279530257.7746696     
   4897692416.3037348     
   4686112403.0857248     
   4474605996.5222301     
   4263352055.4578252     
   4052741008.3559160     
   4601223510.0788193     
   4405320151.2186394     
   4211820584.4871950     
   4020980082.3158207     
   3833186420.7756443     
   4333156751.1222239     
   4148912136.8448763     
   3968933592.4591632     
   3793412000.9356732     
   3622671759.1754122     
   4512407547.5881052     
   4122568623.8876801     
   3737156289.9735889     
   3357023466.5379806     
   2983721300.9923978     
   4279530257.7746696     
   3887833765.0226984     
   3500617554.8757634     
   3118698854.8816237     
   2743597223.7184620     
   4052741008.3559160     
   3669743273.7307363     
   3292766463.0652199     
   2922905593.1853428     
   2562247927.7707171     
   3833186420.7756443     
   3469150233.0210457     
   3114238332.6657205     
   2770113294.2084894     
   2439974691.2110300     
   3622671759.1754122     
   3287055825.5839877     
   2965216480.1694088     
   2659465040.0356684     
   2374230240.3950615     
   2983721300.9923978     
   3759952444.2027473     
   4626303464.3282633     
   5567143004.3213663     
   6607217430.4965496     
   2743597223.7184620     
   3429474995.2554407     
   4163077209.4857836     
   4931123288.0231209     
   5743742385.8141155     
   2562247927.7707171     
   3163669537.7778878     
   3782691307.7012906     
   4407439155.8106737     
   5036891748.7846861     
   2439974691.2110300     
   2976867877.8666477     
   3508842287.6327310     
   4031966960.3057332     
   4545880802.0949812     
   2374230240.3950615     
   2886244991.3945737     
   3379478187.4077649     
   3869990204.6256075     
   4377216098.2665758     
   5657494312.6019783     
   5890814836.8730221     
   6116558022.7399197     
   6332236953.2309799     
   6537595839.1996288     
   5150603905.6871548     
   5310948227.2369881     
   5467970473.1967783     
   5618752416.9901466     
   5761804129.5500050     
   4642276488.2842197     
   4754978329.4545498     
   4868838133.1629210     
   4981202377.9858398     
   5090128509.3532887     
   4132776303.2761006     
   4223745783.3539791     
   4320660947.2138433     
   4421849939.0445690     
   4525845576.6256590     
   3623620962.3226237     
   3719077899.3830438     
   3825802858.3361349     
   3943720642.0612454     
   4072727650.5738831     
   6537595839.1996288     
   6327806013.7458191     
   6140390556.3749390     
   5961456208.5786076     
   5781934053.9216700     
   5761804129.5500050     
   5651317098.0895596     
   5556989481.2466965     
   5469755918.6130791     
   5384018787.0356178     
   5090128509.3532887     
   5053253288.7832289     
   5027007328.9042587     
   5006175744.6681633     
   4987517741.8859377     
   4525845576.6256590     
   4538220183.7199221     
   4555334706.3620062     
   4574708891.0313053     
   4594605226.7722683     
   4072727650.5738831     
   4111561447.0310950     
   4147770646.1166844     
   4180471937.3509283     
   4208943988.4228725     
   5781934053.9216700     
   5639558153.9524326     
   5500754485.3431425     
   5365426328.6951170     
   5233569051.2586937     
   5384018787.0356178     
   5250771742.1734991     
   5120218782.3497372     
   4992395854.2469492     
   4867375041.8898630     
   4987517741.8859377     
   4868115142.4307108     
   4751482095.3726950     
   4637595754.9889498     
   4526510350.4618502     
   4594605226.7722683     
   4494261062.7591734     
   4397837699.0292330     
   4305051705.2799168     
   4215864277.6017728     
   4208943988.4228725     
   4133172745.0800309     
   4063729364.9850450     
   3999827502.9716859     
   3941255804.2258320     
   5233569051.2586937     
   5054236612.5558195     
   4878120820.9800987     
   4705327881.3250504     
   4536122294.3131399     
   4867375041.8898630     
   4708035984.5563717     
   4552560817.4672775     
   4401120135.3619890     
   4254019206.1908016     
   4526510350.4618502     
   4384863653.0563097     
   4247610581.0106678     
   4114962168.8000669     
   3987238861.0665283     
   4215864277.6017728     
   4089572211.6057487     
   3968032505.8926163     
   3851473938.9878564     
   3740210400.3686757     
   3941255804.2258320     
   3827969765.5262041     
   3719563536.2859669     
   3616263533.4922771     
   3518361071.1146560     
   4536122294.3131399     
   4487932148.7548923     
   4437886007.0381413     
   4386196725.0199261     
   4333156751.1222239     
   4254019206.1908016     
   4211582367.8190675     
   4168013148.7634659     
   4123544915.8022594     
   4078489404.4707131     
   3987238861.0665283     
   3953146226.8886843     
   3918862981.0080285     
   3884658288.5894656     
   3850879731.8444571     
   3740210400.3686757     
   3716892100.2823439     
   3694534556.9821768     
   3673447076.5974293     
   3654016744.4122882     
   3518361071.1146560     
   3507893520.1150851     
   3499721934.2287970     
   3494184314.3136387     
   3491693284.7168837     
   4333156751.1222239     
   4148912136.8448763     
   3968933592.4591632     
   3793412000.9356732     
   3622671759.1754122     
   4078489404.4707131     
   3907592797.5133414     
   3741479455.0261302     
   3580434038.4544926     
   3424874289.0561085     
   3850879731.8444571     
   3694761169.4172502     
   3544128688.0183535     
   3399369078.8940849     
   3261002660.2262902     
   3654016744.4122882     
   3514223175.2596464     
   3380794832.0256681     
   3254216301.1091738     
   3135103025.4239588     
   3491693284.7168837     
   3369757717.2949524     
   3255202896.3416004     
   3148587755.2155104     
   3050592709.0443544     
   3622671759.1754122     
   3287055825.5839877     
   2965216480.1694088     
   2659465040.0356684     
   2374230240.3950615     
   3424874289.0561085     
   3118108625.2371187     
   2825581770.0651426     
   2549384729.3960028     
   2293362895.2969923     
   3261002660.2262902     
   2977085323.8837471     
   2707444285.0952573     
   2453958390.8321042     
   2219966840.1954160     
   3135103025.4239588     
   2868089548.8437452     
   2614854476.5707116     
   2377084226.5219932     
   2157708884.7553616     
   3050592709.0443544     
   2794852083.8551145     
   2551786098.3602118     
   2322914009.8928351     
   2110859720.9056156     
   2374230240.3950615     
   2886244991.3945737     
   3379478187.4077649     
   3869990204.6256075     
   4377216098.2665758     
   2293362895.2969923     
   2810383261.0243158     
   3310774658.6859980     
   3804835810.5412717     
   4306287453.6998978     
   2219966840.1954160     
   2753087140.7808671     
   3272289124.0828285     
   3783245940.6173196     
   4294856032.8999281     
   2157708884.7553616     
   2714466486.0662112     
   3259623378.3897748     
   3795679120.8919396     
   4327902324.0778704     
   2110859720.9056156     
   2694468332.7673035     
   3268069165.4380455     
   3832472577.9858584     
   4390527154.0430460     
   3623620962.3226237     
   3719077899.3830438     
   3825802858.3361349     
   3943720642.0612454     
   4072727650.5738831     
   3136687619.1966653     
   3254950006.4728923     
   3382654445.3094783     
   3519315195.2610288     
   3664460139.5368533     
   2693546216.0060349     
   2830021604.9603133     
   2973843248.3635817     
   3123905176.9520111     
   3279277682.8827596     
   2297684733.6250114     
   2449089094.4613748     
   2605259289.8854551     
   2764240229.7240052     
   2924578539.9069366     
   1954311788.7325001     
   2119111957.7851503     
   2285320342.9299593     
   2449934451.5141702     
   2610968156.1093416     
   4072727650.5738831     
   4111561447.0310950     
   4147770646.1166844     
   4180471937.3509283     
   4208943988.4228725     
   3664460139.5368533     
   3701209847.3120580     
   3736617698.5282145     
   3769798856.4643302     
   3800013040.8420415     
   3279277682.8827596     
   3319838030.5402098     
   3360700054.7340994     
   3401055196.4987125     
   3440234458.0661826     
   2924578539.9069366     
   2974832284.2170010     
   3027397901.7650518     
   3081608710.3809676     
   3136941916.7195725     
   2610968156.1093416     
   2676240475.4671345     
   2746150929.6078453     
   2820206845.9078689     
   2898065897.5487218     
   4208943988.4228725     
   4133172745.0800309     
   4063729364.9850450     
   3999827502.9716859     
   3941255804.2258320     
   3800013040.8420415     
   3755964430.5523515     
   3717666887.1477752     
   3684691831.5498457     
   3656999363.8231087     
   3440234458.0661826     
   3423198881.3837552     
   3410924561.9521742     
   3403204144.1904960     
   3400049126.3599811     
   3136941916.7195725     
   3142522701.5303960     
   3151246113.2150574     
   3163009784.8229032     
   3177801377.1623306     
   2898065897.5487218     
   2922258617.2137709     
   2947165493.3470669     
   2972709248.3983951     
   2998832325.7067814     
   3941255804.2258320     
   3827969765.5262041     
   3719563536.2859669     
   3616263533.4922771     
   3518361071.1146560     
   3656999363.8231087     
   3554718792.0066819     
   3458124228.1774211     
   3367452897.0212088     
   3283007350.4440355     
   3400049126.3599811     
   3309764267.6340189     
   3226193070.7354259     
   3149567408.3692298     
   3080185336.8697176     
   3177801377.1623306     
   3100195185.0579000     
   3030541840.0830574     
   2969040982.2480197     
   2915958749.3766041     
   2998832325.7067814     
   2934020547.0166478     
   2878575236.1702108     
   2832627656.9383917     
   2796375868.5019703     
   3518361071.1146560     
   3507893520.1150851     
   3499721934.2287970     
   3494184314.3136387     
   3491693284.7168837     
   3283007350.4440355     
   3286582449.9471645     
   3292666442.9301848     
   3301538058.5487208     
   3313524822.2903395     
   3080185336.8697176     
   3096997385.3245692     
   3116321559.9745984     
   3138361484.3919067     
   3163348944.1687913     
   2915958749.3766041     
   2944920170.0908551     
   2976151461.8573833     
   3009777426.8333950     
   3045936940.4000788     
   2796375868.5019703     
   2836027740.0623112     
   2877452692.9455523     
   2920706922.6210237     
   2965852821.7363296     
   3491693284.7168837     
   3369757717.2949524     
   3255202896.3416004     
   3148587755.2155104     
   3050592709.0443544     
   3313524822.2903395     
   3206630450.8343053     
   3107885848.5376844     
   3017815170.4906340     
   2937042149.1324434     
   3163348944.1687913     
   3070798735.2127347     
   2987132033.3207626     
   2912808445.4595242     
   2848361990.0673275     
   3045936940.4000788     
   2966574962.7627840     
   2896758123.9558268     
   2836855539.1644597     
   2787285993.9319248     
   2965852821.7363296     
   2897968379.3954878     
   2840189079.8096442     
   2792778522.2388086     
   2756029334.9268665     
   3050592709.0443544     
   2794852083.8551145     
   2551786098.3602118     
   2322914009.8928351     
   2110859720.9056156     
   2937042149.1324434     
   2688645512.8573432     
   2454384368.3551221     
   2235598690.0318213     
   2034579559.4201682     
   2848361990.0673275     
   2607616325.3060136     
   2382637204.3915443     
   2174543450.6998239     
   1985224423.2372379     
   2787285993.9319248     
   2553999189.8581715     
   2338225405.3095865     
   2140822316.9228487     
   1963222184.0086730     
   2756029334.9268665     
   2529376645.1215143     
   2322037999.3009219     
   2134585882.1285281     
   1967975034.4751821     
   2110859720.9056156     
   2694468332.7673035     
   3268069165.4380455     
   3832472577.9858584     
   4390527154.0430460     
   2034579559.4201682     
   2645931452.9965053     
   3242360598.9293165     
   3823960263.6853700     
   4392841523.5758009     
   1985224423.2372379     
   2621246242.0963082     
   3236553565.2361574     
   3830917995.3866830     
   4405928928.5609436     
   1963222184.0086730     
   2620912387.8476839     
   3251683348.9246440     
   3855201401.8581409     
   4432651203.0535975     
   1967975034.4751821     
   2644768716.8778896     
   3288451993.4453502     
   3898626294.2737436     
   4476113231.4222317     
   1954311788.7325001     
   2119111957.7851503     
   2285320342.9299593     
   2449934451.5141702     
   2610968156.1093416     
   1652903486.4447773     
   1820166537.6329212     
   1989184014.5318959     
   2157220209.5117631     
   2322492763.7111173     
   1392774834.5682726     
   1571078518.1556673     
   1750433378.8574376     
   1928805827.9778409     
   2104928656.0430539     
   1206241616.1134889     
   1399239834.9388416     
   1591835206.5118172     
   1783239081.0727139     
   1972986830.7230370     
   1136006281.2634809     
   1335445791.1737511     
   1535204061.3448541     
   1735281091.7767911     
   1935676882.4695618     
   2610968156.1093416     
   2676240475.4671345     
   2746150929.6078453     
   2820206845.9078689     
   2898065897.5487218     
   2322492763.7111173     
   2406876615.1789708     
   2493823837.5222392     
   2582957944.8917613     
   2674011953.9079523     
   2104928656.0430539     
   2205969805.7377481     
   2307038166.3412471     
   2407905812.5430646     
   2508411085.4558282     
   1972986830.7230370     
   2087387602.5123196     
   2199046640.1917052     
   2307891560.1016545     
   2413871808.7498202     
   1935676882.4695618     
   2059601545.9902508     
   2178194094.8888669     
   2291454529.1654081     
   2399382848.8198752     
   2898065897.5487218     
   2922258617.2137709     
   2947165493.3470669     
   2972709248.3983951     
   2998832325.7067814     
   2674011953.9079523     
   2705178896.2879338     
   2738211605.1148233     
   2773079018.3313603     
   2809761757.4928689     
   2508411085.4558282     
   2546622836.2778530     
   2587881317.8146043     
   2632182083.3755021     
   2679525594.0375218     
   2413871808.7498202     
   2457558165.7732525     
   2505482896.6097360     
   2557648085.4239230     
   2614056789.4394245     
   2399382848.8198752     
   2445219319.9455976     
   2496501185.1014776     
   2553228444.2875128     
   2615401097.5037050     
   2998832325.7067814     
   2934020547.0166478     
   2878575236.1702108     
   2832627656.9383917     
   2796375868.5019703     
   2809761757.4928689     
   2759836411.1688490     
   2719116212.7371421     
   2687685889.5563760     
   2665665951.8122640     
   2679525594.0375218     
   2641543466.2446599     
   2612326896.3401794     
   2591914891.6889424     
   2580360755.6778374     
   2614056789.4394245     
   2584732176.9096513     
   2563443744.6549606     
   2550200496.6516504     
   2545014492.2768836     
   2615401097.5037050     
   2591388811.6014285     
   2574431534.2643046     
   2564529265.4923315     
   2561682005.2855091     
   2796375868.5019703     
   2836027740.0623112     
   2877452692.9455523     
   2920706922.6210237     
   2965852821.7363296     
   2665665951.8122640     
   2713872137.1543088     
   2764469676.7434525     
   2817496872.9238448     
   2872994294.9753947     
   2580360755.6778374     
   2635854005.1245861     
   2694314015.2486219     
   2755760884.7702789     
   2820215025.7663531     
   2545014492.2768836     
   2605529020.5535264     
   2669578711.7685461     
   2737169445.4688253     
   2808306991.4135718     
   2561682005.2855091     
   2624146109.5732021     
   2690746551.8735709     
   2761483332.1866155     
   2836356450.5123343     
   2965852821.7363296     
   2897968379.3954878     
   2840189079.8096442     
   2792778522.2388086     
   2756029334.9268665     
   2872994294.9753947     
   2818215006.6546049     
   2773902218.5914187     
   2740221317.6776137     
   2717350508.9447160     
   2820215025.7663531     
   2776015801.7031684     
   2742499645.3596821     
   2719745085.5617762     
   2707834579.9841723     
   2808306991.4135718     
   2771636015.7891622     
   2745752537.9627810     
   2730676719.4750643     
   2726429308.5391107     
   2836356450.5123343     
   2803845340.4793782     
   2782159155.8120608     
   2771297896.5103884     
   2771261562.5743589     
   2756029334.9268665     
   2529376645.1215143     
   2322037999.3009219     
   2134585882.1285281     
   1967975034.4751821     
   2717350508.9447160     
   2498163097.2129178     
   2297564917.0676646     
   2115856207.1632850     
   1953539990.3055460     
   2707834579.9841723     
   2494037384.7109680     
   2297991775.9158974     
   2119821091.4834123     
   1959732882.2307818     
   2726429308.5391107     
   2516352536.7968616     
   2323096457.6758337     
   2146689359.5827143     
   1987179026.1043010     
   2771261562.5743589     
   2563662009.0771456     
   2371892111.6656322     
   2195951870.3398175     
   2035841285.0996826     
   1967975034.4751821     
   2644768716.8778896     
   3288451993.4453502     
   3898626294.2737436     
   4476113231.4222317     
   1953539990.3055460     
   2647114457.8027406     
   3312339249.1172385     
   3948633259.4085655     
   4556287583.3925772     
   1959732882.2307818     
   2668855227.7347274     
   3354399484.7634859     
   4015960915.3710876     
   4653599658.8820009     
   1987179026.1043010     
   2707835456.1160784     
   3409945363.1917901     
   4093377785.7619953     
   4758133139.0401917     
   2035841285.0996826     
   2761723670.7989364     
   3474656271.2507472     
   4174639086.4551439     
   4861672116.4121075     
   1136006281.2634809     
   1335445791.1737511     
   1535204061.3448541     
   1735281091.7767911     
   1935676882.4695618     
   1206241615.7905002     
   1399239834.6235409     
   1591835206.1994913     
   1783239080.7595034     
   1972986830.4058633     
   1392774834.0372682     
   1571078517.6187825     
   1750433378.3111565     
   1928805827.4180167     
   2104928655.4657028     
   1652903485.8252811     
   1820166536.9862034     
   1989184013.8565114     
   2157220208.8043427     
   2322492762.9676652     
   1954311788.1095741     
   2119111957.1187429     
   2285320342.2192402     
   2449934450.7558908     
   2610968155.2992487     
   1935676882.4695618     
   2059601545.9902508     
   2178194094.8888669     
   2291454529.1654081     
   2399382848.8198752     
   1972986830.4058633     
   2087387602.1652696     
   2199046639.8127451     
   2307891559.6888418     
   2413871808.3012300     
   2104928655.4657028     
   2205969805.1018610     
   2307038165.6432309     
   2407905811.7794428     
   2508411084.6231194     
   2322492762.9676652     
   2406876614.3529181     
   2493823836.6083021     
   2582957943.8847737     
   2674011952.8027115     
   2610968155.2992487     
   2676240474.5585122     
   2746150928.5931611     
   2820206844.7796431     
   2898065896.2993684     
   2399382848.8198752     
   2445219319.9455976     
   2496501185.1014776     
   2553228444.2875128     
   2615401097.5037050     
   2413871808.3012300     
   2457558165.3712606     
   2505482896.2592411     
   2557648085.1300488     
   2614056789.2071829     
   2508411084.6231194     
   2546622835.5217018     
   2587881317.1437912     
   2632182082.7992816     
   2679525593.5650530     
   2674011952.8027115     
   2705178895.2714605     
   2738211604.1984892     
   2773079017.5272484     
   2809761756.8130789     
   2898065896.2993684     
   2922258616.0513825     
   2947165492.2841249     
   2972709247.4482126     
   2998832324.8828082     
   2615401097.5037050     
   2591388811.6014285     
   2574431534.2643046     
   2564529265.4923315     
   2561682005.2855091     
   2614056789.2071829     
   2584732176.8328791     
   2563443744.7581320     
   2550200496.9579659     
   2545014492.8079658     
   2679525593.5650530     
   2641543466.0473523     
   2612326896.4656711     
   2591914892.1828818     
   2580360756.5833569     
   2809761756.8130789     
   2759836410.8278952     
   2719116212.8036637     
   2687685890.0974350     
   2665665952.8927774     
   2998832324.8828082     
   2934020546.5292091     
   2878575236.1056423     
   2832627657.3831015     
   2796375869.5421362     
   2561682005.2855091     
   2624146109.5732021     
   2690746551.8735709     
   2761483332.1866155     
   2836356450.5123343     
   2545014492.8079658     
   2605529021.0089922     
   2669578712.1586108     
   2737169445.8059359     
   2808306991.7130356     
   2580360756.5833569     
   2635854005.8916140     
   2694314015.9008975     
   2755760885.3358569     
   2820215026.2786689     
   2665665952.8927774     
   2713872138.0292192     
   2764469677.4534402     
   2817496873.5158091     
   2872994295.5038643     
   2796375869.5421362     
   2836027740.8076015     
   2877452693.4563856     
   2920706922.9657927     
   2965852821.9929981     
   2836356450.5123343     
   2803845340.4793782     
   2782159155.8120608     
   2771297896.5103884     
   2771261562.5743589     
   2808306991.7130356     
   2771636016.1400466     
   2745752538.3851733     
   2730676719.9902301     
   2726429309.1696711     
   2820215026.2786689     
   2776015802.3140330     
   2742499646.1101441     
   2719745086.4954777     
   2707834581.1477079     
   2872994295.5038643     
   2818215007.3113551     
   2773902219.4399667     
   2740221318.7861176     
   2717350510.3865767     
   2965852821.9929981     
   2897968379.7789240     
   2840189080.4070582     
   2792778523.1450911     
   2756029336.2455225     
   2771261562.5743589     
   2563662009.0771456     
   2371892111.6656322     
   2195951870.3398175     
   2035841285.0996826     
   2726429309.1696711     
   2516352536.8647923     
   2323096457.1947498     
   2146689358.5430627     
   1987179024.4591992     
   2707834581.1477079     
   2494037384.9572706     
   2297991775.2858181     
   2119821089.9785357     
   1959732879.7914817     
   2717350510.3865767     
   2498163097.5697279     
   2297564916.4237823     
   2115856205.5578010     
   1953539987.7098863     
   2756029336.2455225     
   2529376645.3404341     
   2322037998.5674448     
   2134585880.5521264     
   1967975032.1128681     
   2035841285.0996826     
   2761723670.7989364     
   3474656271.2507472     
   4174639086.4551439     
   4861672116.4121075     
   1987179024.4591992     
   2707835446.9925146     
   3409945346.4724898     
   4093377761.4496083     
   4758133107.3090649     
   1959732879.7914817     
   2668855210.6861243     
   3354399452.7241464     
   4015960868.2695427     
   4653599597.0254717     
   1953539987.7098863     
   2647114434.0959902     
   3312339203.4521785     
   3948633191.5471735     
   4556287493.7382565     
   1967975032.1128681     
   2644768687.8140163     
   3288451936.1853414     
   3898626208.3432813     
   4476113117.3175430     
   1954311788.1095741     
   2119111957.1187429     
   2285320342.2192402     
   2449934450.7558908     
   2610968155.2992487     
   2297684733.0544157     
   2449089093.8443999     
   2605259289.2215199     
   2764240229.0112371     
   2924578539.1428232     
   2693546215.5236459     
   2830021604.4349256     
   2973843247.7938085     
   3123905176.3359184     
   3279277682.2180715     
   3136687618.8271413     
   3254950006.0680757     
   3382654444.8668494     
   3519315194.7777443     
   3664460139.0097680     
   3623620962.0844173     
   3719077899.1199937     
   3825802858.0446939     
   3943720641.7372904     
   4072727650.2127070     
   2610968155.2992487     
   2676240474.5585122     
   2746150928.5931611     
   2820206844.7796431     
   2898065896.2993684     
   2924578539.1428232     
   2974832283.3612757     
   3027397900.8095765     
   3081608709.3177485     
   3136941915.5405712     
   3279277682.2180715     
   3319838029.7982821     
   3360700053.9070663     
   3401055195.5791101     
   3440234457.0467343     
   3664460139.0097680     
   3701209846.7281060     
   3736617697.8806076     
   3769798855.7470999     
   3800013040.0498385     
   4072727650.2127070     
   4111561446.6378779     
   4147770645.6862478     
   4180471936.8794074     
   4208943987.9075685     
   2898065896.2993684     
   2922258616.0513825     
   2947165492.2841249     
   2972709247.4482126     
   2998832324.8828082     
   3136941915.5405712     
   3142522700.4379997     
   3151246112.2166734     
   3163009783.9266930     
   3177801376.3764415     
   3440234457.0467343     
   3423198880.4379916     
   3410924561.0792284     
   3403204143.3902769     
   3400049125.6329885     
   3800013040.0498385     
   3755964429.8158183     
   3717666886.4558315     
   3684691830.8917413     
   3656999363.1893253     
   4208943987.9075685     
   4133172744.6026158     
   4063729364.5236387     
   3999827502.5034881     
   3941255803.7293644     
   2998832324.8828082     
   2934020546.5292091     
   2878575236.1056423     
   2832627657.3831015     
   2796375869.5421362     
   3177801376.3764415     
   3100195184.5303459     
   3030541839.8855209     
   2969040982.4543986     
   2915958750.0634875     
   3400049125.6329885     
   3309764267.0404577     
   3226193070.3302722     
   3149567408.2105603     
   3080185337.0196066     
   3656999363.1893253     
   3554718791.3538871     
   3458124227.5424409     
   3367452896.4436054     
   3283007349.9669676     
   3941255803.7293644     
   3827969764.8458223     
   3719563535.4398279     
   3616263532.4999323     
   3518361069.9974842     
   2796375869.5421362     
   2836027740.8076015     
   2877452693.4563856     
   2920706922.9657927     
   2965852821.9929981     
   2915958750.0634875     
   2944920170.2861485     
   2976151461.6071548     
   3009777426.1902747     
   3045936939.4249167     
   3080185337.0196066     
   3096997384.8369951     
   3116321558.8908110     
   3138361482.7575035     
   3163348942.0348372     
   3283007349.9669676     
   3286582448.7323060     
   3292666441.0230269     
   3301538055.9966369     
   3313524819.1426210     
   3518361069.9974842     
   3507893518.1986060     
   3499721931.5706425     
   3494184310.9711976     
   3491693280.7457495     
   2965852821.9929981     
   2897968379.7789240     
   2840189080.4070582     
   2792778523.1450911     
   2756029336.2455225     
   3045936939.4249167     
   2966574961.6266890     
   2896758122.7242928     
   2836855537.9108400     
   2787285992.7384920     
   3163348942.0348372     
   3070798732.7000256     
   2987132030.4744897     
   2912808442.3316021     
   2848361986.7176261     
   3313524819.1426210     
   3206630447.1658897     
   3107885844.3759818     
   3017815165.8674283     
   2937042144.0851226     
   3491693280.7457495     
   3369757712.7377729     
   3255202891.2119207     
   3148587749.5281219     
   3050592702.8161736     
   2756029336.2455225     
   2529376645.3404341     
   2322037998.5674448     
   2134585880.5521264     
   1967975032.1128681     
   2787285992.7384920     
   2553999187.2243862     
   2338225401.3969264     
   2140822311.8778145     
   1963222177.9645224     
   2848361986.7176261     
   2607616320.3501883     
   2382637198.0238743     
   2174543443.1342039     
   1985224414.7332692     
   2937042144.0851226     
   2688645506.1896491     
   2454384360.3107266     
   2235598680.9184012     
   2034579549.6663501     
   3050592702.8161736     
   2794852076.1136713     
   2551786089.4124322     
   2322914000.1609497     
   2110859711.0189760     
   1967975032.1128681     
   2644768687.8140163     
   3288451936.1853414     
   3898626208.3432813     
   4476113117.3175430     
   1963222177.9645224     
   2620912351.9093218     
   3251683281.1760197     
   3855201301.2265773     
   4432651069.1200914     
   1985224414.7332692     
   2621246205.1145329     
   3236553497.5462089     
   3830917895.1908984     
   4405928794.2034369     
   2034579549.6663501     
   2645931420.3156009     
   3242360540.9986606     
   3823960177.8928065     
   4392841406.6989326     
   2110859711.0189760     
   2694468308.9420223     
   3268069125.6452332     
   3832472518.8012247     
   4390527070.3811941     
   3623620962.0844173     
   3719077899.1199937     
   3825802858.0446939     
   3943720641.7372904     
   4072727650.2127070     
   4132776303.1747236     
   4223745783.2410517     
   4320660947.0899534     
   4421849938.9084539     
   4525845576.4745159     
   4642276488.3147421     
   4754978329.4867535     
   4868838133.2015591     
   4981202378.0325651     
   5090128509.4073210     
   5150603905.8455791     
   5310948227.4092007     
   5467970473.3914528     
   5618752417.2116346     
   5761804129.7993460     
   5657494312.8858776     
   5890814837.1807575     
   6116558023.0837755     
   6332236953.6176977     
   6537595839.6317940     
   4072727650.2127070     
   4111561446.6378779     
   4147770645.6862478     
   4180471936.8794074     
   4208943987.9075685     
   4525845576.4745159     
   4538220183.5773449     
   4555334706.2251568     
   4574708890.8979235     
   4594605226.6398468     
   5090128509.4073210     
   5053253288.8798227     
   5027007329.0413790     
   5006175744.8440619     
   4987517742.0978851     
   5761804129.7993460     
   5651317098.4076881     
   5556989481.6313467     
   5469755919.0624828     
   5384018787.5469398     
   6537595839.6317940     
   6327806014.2649336     
   6140390556.9776478     
   5961456209.2625790     
   5781934054.6839857     
   4208943987.9075685     
   4133172744.6026158     
   4063729364.5236387     
   3999827502.5034881     
   3941255803.7293644     
   4594605226.6398468     
   4494261062.6662855     
   4397837698.9525728     
   4305051705.1951752     
   4215864277.4846683     
   4987517742.0978851     
   4868115142.6965284     
   4751482095.6687450     
   4637595755.2907581     
   4526510350.7442045     
   5384018787.5469398     
   5250771742.7648973     
   5120218782.9979172     
   4992395854.9281168     
   4867375042.5791445     
   5781934054.6839857     
   5639558154.8322792     
   5500754486.3179407     
   5365426329.7421894     
   5233569052.3541594     
   3941255803.7293644     
   3827969764.8458223     
   3719563535.4398279     
   3616263532.4999323     
   3518361069.9974842     
   4215864277.4846683     
   4089572211.1963558     
   3968032505.1856694     
   3851473937.9784484     
   3740210399.0526462     
   4526510350.7442045     
   4384863652.9871531     
   4247610580.5664625     
   4114962167.9560728     
   3987238859.7968459     
   4867375042.5791445     
   4708035984.8874388     
   4552560817.4033136     
   4401120134.8630877     
   4254019205.2134085     
   5233569052.3541594     
   5054236613.3397408     
   4878120821.4069309     
   4705327881.3442249     
   4536122293.8676853     
   3518361069.9974842     
   3507893518.1986060     
   3499721931.5706425     
   3494184310.9711976     
   3491693280.7457495     
   3740210399.0526462     
   3716892098.1553783     
   3694534554.0906386     
   3673447072.9858408     
   3654016740.1210885     
   3987238859.7968459     
   3953146224.8265901     
   3918862978.1947746     
   3884658285.0629177     
   3850879727.6361623     
   4254019205.2134085     
   4211582366.0999007     
   4168013146.3444533     
   4123544912.7206841     
   4078489400.7556934     
   4536122293.8676853     
   4487932147.6505251     
   4437886005.3224831     
   4386196722.7350922     
   4333156748.3008852     
   3491693280.7457495     
   3369757712.7377729     
   3255202891.2119207     
   3148587749.5281219     
   3050592702.8161736     
   3654016740.1210885     
   3514223170.3038425     
   3380794826.3628421     
   3254216294.6924901     
   3135103018.2019186     
   3850879727.6361623     
   3694761164.5861864     
   3544128682.4778094     
   3399369072.5468698     
   3261002652.9624858     
   4078489400.7556934     
   3907592793.3503327     
   3741479450.2977080     
   3580434033.0276666     
   3424874282.7776976     
   4333156748.3008852     
   4148912133.8869205     
   3968933589.2297201     
   3793411997.2807994     
   3622671754.9151487     
   3050592702.8161736     
   2794852076.1136713     
   2551786089.4124322     
   2322914000.1609497     
   2110859711.0189760     
   3135103018.2019186     
   2868089540.0615816     
   2614854466.4836521     
   2377084215.5154099     
   2157708873.4471350     
   3261002652.9624858     
   2977085315.2282500     
   2707444275.2677326     
   2453958380.1929817     
   2219966829.3536558     
   3424874282.7776976     
   3118108617.9494085     
   2825581761.9674697     
   2549384720.8362951     
   2293362886.8800187     
   3622671754.9151487     
   3287055820.8983669     
   2965216475.2514153     
   2659465035.2347684     
   2374230236.3215332     
   2110859711.0189760     
   2694468308.9420223     
   3268069125.6452332     
   3832472518.8012247     
   4390527070.3811941     
   2157708873.4471350     
   2714466469.6335530     
   3259623355.1522236     
   3795679087.2371845     
   4327902274.1965799     
   2219966829.3536558     
   2753087132.2651882     
   3272289116.8602991     
   3783245931.0406604     
   4294856014.4834814     
   2293362886.8800187     
   2810383260.9229140     
   3310774666.5951004     
   3804835822.8101969     
   4306287463.1445560     
   2374230236.3215332     
   2886245000.1396251     
   3379478209.1978230     
   3869990235.6568789     
   4377216130.5450869     
   5657494312.8858776     
   5890814837.1807575     
   6116558023.0837755     
   6332236953.6176977     
   6537595839.6317940     
   6491735147.7363634     
   6587202700.5031242     
   6757951042.9885645     
   6961826625.7088671     
   7172164949.2519560     
   7982408628.7845383     
   7735479720.8622932     
   7670041692.9699001     
   7670619592.5205402     
   7667278901.5787449     
   10129983971.747108     
   9322465113.8469582     
   8827626735.4542751     
   8445320493.6296654     
   8037688396.4509382     
   12934558816.309381     
   11340875217.470663     
   10211865999.921997     
   9275723002.3211803     
   8307891617.0969105     
   6537595839.6317940     
   6327806014.2649336     
   6140390556.9776478     
   5961456209.2625790     
   5781934054.6839857     
   7172164949.2519560     
   6909849479.0238581     
   6655716350.2383146     
   6405938316.1744261     
   6157367063.4343300     
   7667278901.5787449     
   7380041857.5025558     
   7098575108.9651308     
   6822961615.1726856     
   6553435297.7554674     
   8037688396.4509382     
   7746076506.0828972     
   7470632788.3119221     
   7209343135.1679478     
   6962258565.6541138     
   8307891617.0969105     
   8020556371.6874418     
   7775994740.5222511     
   7563391268.1112318     
   7377824695.7055054     
   5781934054.6839857     
   5639558154.8322792     
   5500754486.3179407     
   5365426329.7421894     
   5233569052.3541594     
   6157367063.4343300     
   6017443432.2375011     
   5878102900.0139713     
   5739378329.8907051     
   5601312337.2440052     
   6553435297.7554674     
   6413099089.7129269     
   6270256575.3301754     
   6124866892.9109249     
   5976984711.6761866     
   6962258565.6541138     
   6820007828.5911322     
   6672151127.8849430     
   6518388485.1725197     
   6358736827.5407543     
   7377824695.7055054     
   7233143863.2425938     
   7079868010.0880108     
   6917276670.2090359     
   6745299009.7727432     
   5233569052.3541594     
   5054236613.3397408     
   4878120821.4069309     
   4705327881.3442249     
   4536122293.8676853     
   5601312337.2440052     
   5401393163.0226717     
   5204289597.1009226     
   5010117781.1985788     
   4819101287.2204695     
   5976984711.6761866     
   5760609961.7009411     
   5547206007.6405287     
   5336870153.9612379     
   5129803774.7107925     
   6358736827.5407543     
   6129653666.1579294     
   5904190919.9475632     
   5682387708.4175043     
   5464420938.0757046     
   6745299009.7727432     
   6506838484.7744589     
   6273100507.6426306     
   6044013769.4592371     
   5819705789.5802078     
   4536122293.8676853     
   4487932147.6505251     
   4437886005.3224831     
   4386196722.7350922     
   4333156748.3008852     
   4819101287.2204695     
   4766325594.6957378     
   4712321894.1179771     
   4657228094.0685873     
   4601223508.8843966     
   5129803774.7107925     
   5072656629.6545715     
   5014865844.3692055     
   4956511410.9708862     
   4897692416.2129431     
   5464420938.0757046     
   5402450403.4159307     
   5340353648.5135813     
   5278171285.3229160     
   5215954557.5366096     
   5819705789.5802078     
   5751940398.8224401     
   5684490932.8992577     
   5617378680.8390503     
   5550638958.1419153     
   4333156748.3008852     
   4148912133.8869205     
   3968933589.2297201     
   3793411997.2807994     
   3622671754.9151487     
   4601223508.8843966     
   4405320150.3994570     
   4211820583.9504781     
   4020980081.9464154     
   3833186420.4275799     
   4897692416.2129431     
   4686112403.8682804     
   4474605998.1306562     
   4263352057.8244414     
   4052741011.3826389     
   5215954557.5366096     
   4985614528.7469482     
   4752743239.7089643     
   4517286415.7609882     
   4279530263.5948372     
   5550638958.1419153     
   5299214212.6634731     
   5042578843.4688034     
   4780291387.0032253     
   4512407555.5975628     
   3622671754.9151487     
   3287055820.8983669     
   2965216475.2514153     
   2659465035.2347684     
   2374230236.3215332     
   3833186420.4275799     
   3469150233.3027773     
   3114238333.6657324     
   2770113296.1365066     
   2439974694.4665112     
   4052741011.3826389     
   3669743278.9477048     
   3292766470.5149312     
   2922905603.0083060     
   2562247940.2565017     
   4279530263.5948372     
   3887833775.1285210     
   3500617569.3145428     
   3118698873.7900872     
   2743597247.3780837     
   4512407555.5975628     
   4122568638.8277016     
   3737156311.9429340     
   3357023495.7242775     
   2983721337.7432156     
   2374230236.3215332     
   2886245000.1396251     
   3379478209.1978230     
   3869990235.6568789     
   4377216130.5450869     
   2439974694.4665112     
   2976867895.7175145     
   3508842321.6414251     
   4031967010.4131093     
   4545880867.1395988     
   2562247940.2565017     
   3163669564.0528483     
   3782691349.7989917     
   4407439215.0521908     
   5036891826.5041780     
   2743597247.3780837     
   3429475030.4161549     
   4163077258.2512407     
   4931123351.5189371     
   5743742464.6967649     
   2983721337.7432156     
   3759952489.5555491     
   4626303519.9195518     
   5567143070.0915079     
   6607217504.7902946     
 </DataArray>
 <DataArray  type="Float64" Name="strain" NumberOfComponents="3" format="ascii">
  0.20344971836325365        0.0000000000000000       0.12546275229274598     
  0.18664843436785816       -2.7357163747456260E-002   7.4392300117951504E-002
  0.16984715037246262       -4.4714137616051745E-002   3.5138372400428559E-002
  0.15304586637706713       -5.2070921605786455E-002   7.7009691401772433E-003
  0.13624458238167161       -4.9427515716660389E-002  -7.9199096628025517E-003
  0.15984494077878650        0.0000000000000000        9.6466027955625533E-002
  0.15318126391400161       -2.1868697333979149E-002   6.2706701666045070E-002
  0.14651758704921675       -3.6202409361208117E-002   3.7406065180414338E-002
  0.13985391018443188       -4.3001136081686916E-002   2.0564118498733387E-002
  0.13319023331964702       -4.2264877495415520E-002   1.2180861621002063E-002
  0.12646261881338877        0.0000000000000000        7.4190372318037490E-002
  0.12657871442589272       -1.6380230920502042E-002   5.5276967341560471E-002
  0.12669481003839667       -2.7690681106364495E-002   4.1464417515711331E-002
  0.12681090565090058       -3.3931350557587364E-002   3.2752722840490037E-002
  0.12692700126340450       -3.5102239274170659E-002   2.9141883315896688E-002
  0.10330275246706055        0.0000000000000000        5.8635785379981868E-002
  0.10684078590353147       -1.0891764507024931E-002   5.2103097144497693E-002
  0.11037881934000235       -1.9178952851520874E-002   4.7313429406319538E-002
  0.11391685277647325       -2.4861565033487826E-002   4.4266782165447459E-002
  0.11745488621294413       -2.7939601052925783E-002   4.2963155421881380E-002
   9.0365341739801805E-002   0.0000000000000000        4.9802267141458648E-002
   9.3967478346917821E-002  -5.4032980935478214E-003   5.3185091074856701E-002
   9.7569614954033837E-002  -1.0667224596677245E-002   5.4953100852238958E-002
  0.10117175156114985       -1.5791779509388270E-002   5.5106296473605432E-002
  0.10477388816826586       -2.0776962831680915E-002   5.3644677938956067E-002
  0.13624458238167161       -4.9427515716660389E-002  -7.9199096628025517E-003
  0.13297533776088183       -4.2854828602034191E-002  -3.4561513020306411E-003
  0.12970609314009204       -3.8423768915268594E-002  -3.8408632572813767E-004
  0.12643684851930220       -3.6134336656363425E-002   1.2962852661048546E-003
  0.12316760389851247       -3.5986531825318885E-002   1.5849634734687035E-003
  0.13319023331964702       -4.2264877495415520E-002   1.2180861621002063E-002
  0.12891418417821152       -3.8370211279711880E-002   1.2140727113506580E-002
  0.12463813503677601       -3.5693715111893835E-002   1.1478676949189116E-002
  0.12036208589534056       -3.4235388991961421E-002   1.0194711128049467E-002
  0.11608603675390503       -3.3995232919914659E-002   8.2888296500878283E-003
  0.12692700126340450       -3.5102239274170659E-002   2.9141883315896688E-002
  0.12241392532897061       -3.3885593957389507E-002   2.5521313320108818E-002
  0.11790084939453668       -3.2963661308519097E-002   2.2048605395146151E-002
  0.11338777346010272       -3.2336441327559431E-002   1.8723759541008762E-002
  0.10887469752566883       -3.2003934014510446E-002   1.5546775757696550E-002
  0.11745488621294413       -2.7939601052925783E-002   4.2963155421881380E-002
  0.11347456121315908       -2.9400976635067168E-002   3.6685607317775940E-002
  0.10949423621337406       -3.0233607505144349E-002   3.1325699012143049E-002
  0.10551391121358902       -3.0437493663157372E-002   2.6883430504982726E-002
  0.10153358621380398       -3.0012635109106227E-002   2.3358801796294910E-002
  0.10477388816826586       -2.0776962831680915E-002   5.3644677938956067E-002
  0.10209609183077700       -2.4916359312744822E-002   4.5633609106508072E-002
   9.9418295493288136E-002  -2.7503553701769625E-002   3.9309957800179832E-002
   9.6740499155799270E-002  -2.8538545998755358E-002   3.4673724019971486E-002
   9.4062702818310417E-002  -2.8021336203702008E-002   3.1724907765882965E-002
  0.12316760389851247       -3.5986531825318885E-002   1.5849634734687035E-003
  0.12045720429586512       -3.6562426662813577E-002   7.5496779493788857E-004
  0.11774680469321779       -3.6444093409526250E-002   9.1015131895813561E-005
  0.11503640509057045       -3.5631532065456856E-002  -4.0689451565772278E-004
  0.11232600548792310       -3.4124742630605553E-002  -7.3876114772242207E-004
  0.11608603675390503       -3.3995232919914659E-002   8.2888296500878283E-003
  0.11352874633971508       -3.4132771175681878E-002   7.8946328024167428E-003
  0.11097145592552508       -3.3807528039191535E-002   7.6406113161717748E-003
  0.10841416551133509       -3.3019503510443492E-002   7.5267651913529625E-003
  0.10585687509714511       -3.1768697589437844E-002   7.5530944279600942E-003
  0.10887469752566883       -3.2003934014510446E-002   1.5546775757696550E-002
  0.10644464864587361       -3.1703115688550255E-002   1.5356931042360987E-002
  0.10401459976607844       -3.1170962668856796E-002   1.5281394034388943E-002
  0.10158455088628322       -3.0407474955430100E-002   1.5320164733780230E-002
   9.9154502006487982E-002  -2.9412652548270163E-002   1.5473243140535053E-002
  0.10153358621380398       -3.0012635109106227E-002   2.3358801796294910E-002
   9.9204911214340941E-002  -2.9273460201418595E-002   2.3141862514770378E-002
   9.6876236214877856E-002  -2.8534397298522057E-002   2.3013363286546726E-002
   9.4547561215414772E-002  -2.7795446400416722E-002   2.2973304111623828E-002
   9.2218886215951729E-002  -2.7056607507102523E-002   2.3021684990001845E-002
   9.4062702818310417E-002  -2.8021336203702008E-002   3.1724907765882965E-002
   9.1809534045116908E-002  -2.6843804714286906E-002   3.1249427219645055E-002
   8.9556365271923358E-002  -2.5897831928187350E-002   3.0836519072645410E-002
   8.7303196498729835E-002  -2.5183417845403358E-002   3.0486183324884016E-002
   8.5050027725536298E-002  -2.4700562465934855E-002   3.0198419976360746E-002
  0.11232600548792310       -3.4124742630605553E-002  -7.3876114772242207E-004
  0.10846746986126421       -3.2446803800207424E-002  -4.0606183011507313E-004
  0.10460893423460521       -3.1120794269497876E-002  -2.3464240240550494E-005
  0.10075039860794627       -3.0146714038476852E-002   4.0903162190075726E-004
   9.6891862981287324E-002  -2.9524563107144519E-002   8.9142575630862808E-004
  0.10585687509714511       -3.1768697589437844E-002   7.5530944279600942E-003
  0.10208863640025725       -3.0414596461966467E-002   7.3888895636855384E-003
   9.8320397703369464E-002  -2.9316686313821283E-002   7.3553802866863360E-003
   9.4552159006481645E-002  -2.8474967145002236E-002   7.4525665969627647E-003
   9.0783920309593757E-002  -2.7889438955509605E-002   7.6804484945144358E-003
   9.9154502006487982E-002  -2.9412652548270163E-002   1.5473243140535053E-002
   9.5557357554379940E-002  -2.8382389123725565E-002   1.4907872414740550E-002
   9.1960213102271884E-002  -2.7512578358144801E-002   1.4553994591230204E-002
   8.8363068650163773E-002  -2.6803220251527843E-002   1.4411609670003891E-002
   8.4765924198055745E-002  -2.6254314803874718E-002   1.4480717651061695E-002
   9.2218886215951729E-002  -2.7056607507102523E-002   2.3021684990001845E-002
   8.8873633323632073E-002  -2.6350181785484691E-002   2.2150886723049927E-002
   8.5528380431312404E-002  -2.5708470402468209E-002   2.1572378673390659E-002
   8.2183127538992720E-002  -2.5131473358053324E-002   2.1286160841024200E-002
   7.8837874646673065E-002  -2.4619190652239817E-002   2.1292233225950596E-002
   8.5050027725536298E-002  -2.4700562465934855E-002   3.0198419976360746E-002
   8.2037463708013694E-002  -2.4317974447243734E-002   2.9117932488613732E-002
   7.9024899690491091E-002  -2.3904362446791699E-002   2.8410532533168095E-002
   7.6012335672968501E-002  -2.3459726464578758E-002   2.8076220110023892E-002
   7.2999771655445883E-002  -2.2984066500604944E-002   2.8114995219180872E-002
   9.6891862981287324E-002  -2.9524563107144519E-002   8.9142575630862808E-004
   9.5785257279831504E-002  -2.9088429036938257E-002   9.9205237132127255E-004
   9.4678651578375655E-002  -2.8672399389296901E-002   1.2120565381535664E-003
   9.3572045876919793E-002  -2.8276474164218999E-002   1.5514382568054125E-003
   9.2465440175463987E-002  -2.7900653361705996E-002   2.0101975272771577E-003
   9.0783920309593757E-002  -2.7889438955509605E-002   7.6804484945144358E-003
   8.9781028381502759E-002  -2.7417878773569798E-002   7.8594331620554236E-003
   8.8778136453411760E-002  -2.6918063627409658E-002   8.1264678245066835E-003
   8.7775244525320720E-002  -2.6389993517029305E-002   8.4815524818678406E-003
   8.6772352597229707E-002  -2.5833668442428404E-002   8.9246871341388534E-003
   8.4765924198055745E-002  -2.6254314803874718E-002   1.4480717651061695E-002
   8.3835418486419774E-002  -2.5747328510201034E-002   1.4786419757916044E-002
   8.2904912774783790E-002  -2.5163727865522519E-002   1.5148844302770519E-002
   8.1974407063147764E-002  -2.4503512869838998E-002   1.5567991285625315E-002
   8.1043901351511821E-002  -2.3766683523150867E-002   1.6043860706480256E-002
   7.8837874646673065E-002  -2.4619190652239817E-002   2.1292233225950596E-002
   7.7948427594582426E-002  -2.4076778246832312E-002   2.1773012158902639E-002
   7.7058980542491745E-002  -2.3409392103635438E-002   2.2279185972945106E-002
   7.6169533490401092E-002  -2.2617032222649110E-002   2.2810754668077936E-002
   7.5280086438310426E-002  -2.1699698603873302E-002   2.3367718244301248E-002
   7.2999771655445883E-002  -2.2984066500604944E-002   2.8114995219180872E-002
   7.2120055705990754E-002  -2.2406227983463686E-002   2.8819210365015280E-002
   7.1240339756535639E-002  -2.1655056341748420E-002   2.9517492835030232E-002
   7.0360623807080525E-002  -2.0730551575459083E-002   3.0209842629225971E-002
   6.9480907857625396E-002  -1.9632713684595737E-002   3.0896259747602350E-002
   9.2465440175463987E-002  -2.7900653361705996E-002   2.0101975272771577E-003
   8.8117309599684390E-002  -2.7326750536435129E-002   1.0752410178315186E-003
   8.3769179023904738E-002  -2.6336579243084329E-002   5.9984147158953505E-004
   7.9421048448125142E-002  -2.4930139481654019E-002   5.8399888855018012E-004
   7.5072917872345490E-002  -2.3107431252143651E-002   1.0277132687147583E-003
   8.6772352597229707E-002  -2.5833668442428404E-002   8.9246871341388534E-003
   8.2851094463938846E-002  -2.5125361260315421E-002   8.2676712959371679E-003
   7.8929836330647957E-002  -2.4141344827398409E-002   8.0048433795102125E-003
   7.5008578197357068E-002  -2.2881619143677236E-002   8.1362033848574045E-003
   7.1087320064066206E-002  -2.1346184209151797E-002   8.6617513119791600E-003
   8.1043901351511821E-002  -2.3766683523150867E-002   1.6043860706480256E-002
   7.7484146619280922E-002  -2.2923971984195907E-002   1.5524226322246898E-002
   7.3924391887049884E-002  -2.1946110411712474E-002   1.5333410818359275E-002
   7.0364637154818943E-002  -2.0833098805700671E-002   1.5471414194817068E-002
   6.6804882422587974E-002  -1.9584937166160221E-002   1.5938236451620347E-002
   7.5280086438310426E-002  -2.1699698603873302E-002   2.3367718244301248E-002
   7.2016466065710577E-002  -2.0722582708076462E-002   2.2844906096760813E-002
   6.8752845693110631E-002  -1.9750875996026547E-002   2.2585543788137107E-002
   6.5489225320510686E-002  -1.8784578467724106E-002   2.2589631318429809E-002
   6.2225604947910830E-002  -1.7823690123168562E-002   2.2857168687639290E-002
   6.9480907857625396E-002  -1.9632713684595737E-002   3.0896259747602350E-002
   6.6448052803227742E-002  -1.8521193431956795E-002   3.0229710619478850E-002
   6.3415197748830088E-002  -1.7555641580340675E-002   2.9761242288843276E-002
   6.0382342694432406E-002  -1.6736058129747336E-002   2.9490854755695378E-002
   5.7349487640034724E-002  -1.6062443080176791E-002   2.9418548020035518E-002
   7.5072917872345490E-002  -2.3107431252143651E-002   1.0277132687147583E-003
   6.8565681372479426E-002  -2.1211214407343582E-002  -1.6889461841140818E-004
   6.2058444872613250E-002  -1.9584248800042170E-002  -1.5201205389037131E-003
   5.5551208372747157E-002  -1.8226534430240859E-002  -3.0259644927609353E-003
   4.9043971872881009E-002  -1.7138071297938651E-002  -4.6864264799841848E-003
   7.1087320064066206E-002  -2.1346184209151797E-002   8.6617513119791600E-003
   6.4529133543847206E-002  -1.9806992293497305E-002   7.0032483416443969E-003
   5.7970947023628150E-002  -1.8535995666387695E-002   5.3974633639694569E-003
   5.1412760503409122E-002  -1.7533194327823229E-002   3.8443963789541041E-003
   4.4854573983190094E-002  -1.6798588277804116E-002   2.3440473865987688E-003
   6.6804882422587974E-002  -1.9584937166160221E-002   1.5938236451620347E-002
   6.0403081908041528E-002  -1.8402770179651223E-002   1.3818894347031596E-002
   5.4001281393495040E-002  -1.7487742532732886E-002   1.1959606261127700E-002
   4.7599480878948601E-002  -1.6839854225405598E-002   1.0360372193909104E-002
   4.1197680364402023E-002  -1.6459105257669193E-002   9.0211921453760835E-003
   6.2225604947910830E-002  -1.7823690123168562E-002   2.2857168687639290E-002
   5.6187526465062344E-002  -1.6998548065805044E-002   2.0278043397750453E-002
   5.0149447982213893E-002  -1.6439489399078244E-002   1.8166308152572065E-002
   4.4111369499365408E-002  -1.6146514122988079E-002   1.6521962952104438E-002
   3.8073291016516957E-002  -1.6119622237534686E-002   1.5345007796347350E-002
   5.7349487640034724E-002  -1.6062443080176791E-002   2.9418548020035518E-002
   5.1882467214909744E-002  -1.5594325951958921E-002   2.6380695493800510E-002
   4.6415446789784709E-002  -1.5391236265423547E-002   2.4017569038302045E-002
   4.0948426364659729E-002  -1.5453174020570490E-002   2.2329168653539413E-002
   3.5481405939534749E-002  -1.5780139217399958E-002   2.1315494339513408E-002
   4.9043971872881009E-002  -1.7138071297938651E-002  -4.6864264799841848E-003
   6.2626525110281328E-002  -1.8434947838376070E-002   5.7217615232340036E-003
   7.6209078347681647E-002  -2.4233252486792173E-002   1.4214156474322059E-002
   8.9791631585082049E-002  -3.4532985243187618E-002   2.0790758373279677E-002
  0.10337418482248228       -4.9334146107562038E-002   2.5451567220108551E-002
   4.4854573983190094E-002  -1.6798588277804116E-002   2.3440473865987688E-003
   5.6646094315834672E-002  -1.7631917045745793E-002   9.7249485804158375E-003
   6.8437614648479139E-002  -2.1332920161063751E-002   1.5439577016850781E-002
   8.0229134981123801E-002  -2.7901597623758781E-002   1.9487932695904847E-002
   9.2020655313768240E-002  -3.7337949433830175E-002   2.1870015617576177E-002
   4.1197680364402023E-002  -1.6459105257669193E-002   9.0211921453760835E-003
   5.1447688087038951E-002  -1.6828886253115738E-002   1.5008560290394768E-002
   6.1697695809675865E-002  -1.8432587835335787E-002   1.9579175972779597E-002
   7.1947703532312640E-002  -2.1270210004329892E-002   2.2733039192530911E-002
   8.2197711254949568E-002  -2.5341752760098091E-002   2.4470149949648468E-002
   3.8073291016516957E-002  -1.6119622237534686E-002   1.5345007796347350E-002
   4.7031306423894192E-002  -1.6025855460485350E-002   2.1572596653170281E-002
   5.5989321831271366E-002  -1.5532255509607594E-002   2.6632953342107423E-002
   6.4947337238648636E-002  -1.4638822384901251E-002   3.0526077863158849E-002
   7.3905352646025865E-002  -1.3345556086366228E-002   3.3251970216325227E-002
   3.5481405939534749E-002  -1.5780139217399958E-002   2.1315494339513408E-002
   4.3396949326400425E-002  -1.5222824667855295E-002   2.9417057668742530E-002
   5.1312492713266100E-002  -1.2631923183879401E-002   3.6600909124834657E-002
   5.9228036100131776E-002  -8.0074347654724709E-003   4.2867048707789068E-002
   6.7143579486997451E-002  -1.3493594126343655E-003   4.8215476417605707E-002
   9.0365341739801805E-002   0.0000000000000000        4.9802267141458648E-002
   9.3967478346917821E-002  -5.4032980935478214E-003   5.3185091074856701E-002
   9.7569614954033837E-002  -1.0667224596677245E-002   5.4953100852238958E-002
  0.10117175156114985       -1.5791779509388270E-002   5.5106296473605432E-002
  0.10477388816826586       -2.0776962831680915E-002   5.3644677938956067E-002
   8.2418856009799132E-002   0.0000000000000000        4.4751074561587348E-002
   8.4634578391597798E-002  -4.5732067283719407E-003   4.8247573138949396E-002
   8.6850300773396491E-002  -9.0340243715166368E-003   5.0586057421692587E-002
   8.9066023155195170E-002  -1.3382452929434090E-002   5.1766527409816902E-002
   9.1281745536993850E-002  -1.7618492402124299E-002   5.1788983103322354E-002
   7.4231764655239146E-002   0.0000000000000000        4.0543464599487523E-002
   7.5517872673117450E-002  -3.7431153631960609E-003   4.4126655315622404E-002
   7.6803980690995727E-002  -7.4008241463560283E-003   4.7008631598535369E-002
   7.8090088708874031E-002  -1.0973126349479901E-002   4.9189393448226398E-002
   7.9376196726752321E-002  -1.4460021972567690E-002   5.0668940864695512E-002
   6.5804067676121875E-002   0.0000000000000000        3.7179437255159140E-002
   6.6617361191476723E-002  -2.9130239980201802E-003   4.0822337604875712E-002
   6.7430654706831544E-002  -5.7676239211954207E-003   4.4220823382767289E-002
   6.8243948222186365E-002  -8.5637997695257179E-003   4.7374894588833871E-002
   6.9057241737541228E-002  -1.1301551543011077E-002   5.0284551223075485E-002
   5.7135765072447289E-002   0.0000000000000000        3.4658992528602217E-002
   5.7933043946675616E-002  -2.0829326328443004E-003   3.8334620006709320E-002
   5.8730322820903944E-002  -4.1344236960348113E-003   4.2222632774388369E-002
   5.9527601695132264E-002  -6.1544731895715292E-003   4.6323030831639390E-002
   6.0324880569360584E-002  -8.1430811134544645E-003   5.0635814178462336E-002
  0.10477388816826586       -2.0776962831680915E-002   5.3644677938956067E-002
  0.10209609183077700       -2.4916359312744822E-002   4.5633609106508072E-002
   9.9418295493288136E-002  -2.7503553701769625E-002   3.9309957800179832E-002
   9.6740499155799270E-002  -2.8538545998755358E-002   3.4673724019971486E-002
   9.4062702818310417E-002  -2.8021336203702008E-002   3.1724907765882965E-002
   9.1281745536993850E-002  -1.7618492402124299E-002   5.1788983103322354E-002
   9.0053938061631394E-002  -2.1192184200696129E-002   4.6509333605435688E-002
   8.8826130586268939E-002  -2.3553569736258384E-002   4.2442244305681963E-002
   8.7598323110906498E-002  -2.4702649008811139E-002   3.9587715204061284E-002
   8.6370515635544043E-002  -2.4639422018354291E-002   3.7945746300573513E-002
   7.9376196726752321E-002  -1.4460021972567690E-002   5.0668940864695512E-002
   7.9123520785529394E-002  -1.7468009088647426E-002   4.7780814872340621E-002
   7.8870844844306495E-002  -1.9603585770747150E-002   4.5630391750131866E-002
   7.8618168903083610E-002  -2.0866752018866855E-002   4.4217671498069266E-002
   7.8365492961860683E-002  -2.1257507833006575E-002   4.3542654116152692E-002
   6.9057241737541228E-002  -1.1301551543011077E-002   5.0284551223075485E-002
   6.9304840002471016E-002  -1.3743833976598729E-002   4.9448052907222900E-002
   6.9552438267400804E-002  -1.5653601805235905E-002   4.8874400133529533E-002
   6.9800036532330564E-002  -1.7030855028922608E-002   4.8563592901995432E-002
   7.0047634797260366E-002  -1.7875593647658859E-002   4.8515631212620682E-002
   6.0324880569360584E-002  -8.1430811134544645E-003   5.0635814178462336E-002
   6.0597895712456218E-002  -1.0019658864550031E-002   5.1511047710082483E-002
   6.0870910855551838E-002  -1.1703617839724683E-002   5.2174269455875000E-002
   6.1143925998647451E-002  -1.3194958038978346E-002   5.2625479415839956E-002
   6.1416941141743085E-002  -1.4493679462311136E-002   5.2864677589977281E-002
   9.4062702818310417E-002  -2.8021336203702008E-002   3.1724907765882965E-002
   9.1809534045116908E-002  -2.6843804714286906E-002   3.1249427219645055E-002
   8.9556365271923358E-002  -2.5897831928187350E-002   3.0836519072645410E-002
   8.7303196498729835E-002  -2.5183417845403358E-002   3.0486183324884016E-002
   8.5050027725536298E-002  -2.4700562465934855E-002   3.0198419976360746E-002
   8.6370515635544043E-002  -2.4639422018354291E-002   3.7945746300573513E-002
   8.4228255296744631E-002  -2.4007600475040199E-002   3.7052428368269281E-002
   8.2085994957945232E-002  -2.3450896089021060E-002   3.6318354905515070E-002
   7.9943734619145806E-002  -2.2969308860296907E-002   3.5743525912310836E-002
   7.7801474280346408E-002  -2.2562838788867751E-002   3.5327941388656733E-002
   7.8365492961860683E-002  -2.1257507833006575E-002   4.3542654116152692E-002
   7.6430813127767200E-002  -2.1171396235793491E-002   4.2387940343802770E-002
   7.4496133293673730E-002  -2.1003960249854795E-002   4.1489143111314589E-002
   7.2561453459580247E-002  -2.0755199875190540E-002   4.0846262418688224E-002
   7.0626773625486763E-002  -2.0425115111800660E-002   4.0459298265923760E-002
   7.0047634797260366E-002  -1.7875593647658859E-002   4.8515631212620682E-002
   6.8417207538184630E-002  -1.8335191996546790E-002   4.7255963146245500E-002
   6.6786780279108851E-002  -1.8557024410688495E-002   4.6348883690043960E-002
   6.5156353020033073E-002  -1.8541090890084148E-002   4.5794392844015978E-002
   6.3525925760957308E-002  -1.8287391434733548E-002   4.5592490608161708E-002
   6.1416941141743085E-002  -1.4493679462311136E-002   5.2864677589977281E-002
   6.0187438527996844E-002  -1.5498987757300083E-002   5.1656496775597527E-002
   5.8957935914250595E-002  -1.6110088571522248E-002   5.0897576641703177E-002
   5.7728433300504367E-002  -1.6326981904977739E-002   5.0587917188294189E-002
   5.6498930686758125E-002  -1.6149667757666450E-002   5.0727518415370695E-002
   8.5050027725536298E-002  -2.4700562465934855E-002   3.0198419976360746E-002
   8.2037463708013694E-002  -2.4317974447243734E-002   2.9117932488613732E-002
   7.9024899690491091E-002  -2.3904362446791699E-002   2.8410532533168095E-002
   7.6012335672968501E-002  -2.3459726464578758E-002   2.8076220110023892E-002
   7.2999771655445883E-002  -2.2984066500604944E-002   2.8114995219180872E-002
   7.7801474280346408E-002  -2.2562838788867751E-002   3.5327941388656733E-002
   7.5139530536422028E-002  -2.2189211001235998E-002   3.4319067718267399E-002
   7.2477586792497634E-002  -2.1806150623903973E-002   3.3638347062772980E-002
   6.9815643048573267E-002  -2.1413657656871574E-002   3.3285779422173749E-002
   6.7153699304648901E-002  -2.1011732100139097E-002   3.3261364796469559E-002
   7.0626773625486763E-002  -2.0425115111800660E-002   4.0459298265923760E-002
   6.8270515637754270E-002  -2.0060447555228192E-002   3.9500447020831365E-002
   6.5914257650021790E-002  -1.9707938801016137E-002   3.8824814273227655E-002
   6.3557999662289297E-002  -1.9367588849164469E-002   3.8432400023112712E-002
   6.1201741674556796E-002  -1.9039397699673236E-002   3.8323204270486501E-002
   6.3525925760957308E-002  -1.8287391434733548E-002   4.5592490608161708E-002
   6.1430419012010427E-002  -1.7931684109220435E-002   4.4662070396305667E-002
   5.9334912263063484E-002  -1.7609726978128369E-002   4.3969934164531974E-002
   5.7239405514116527E-002  -1.7321520041457310E-002   4.3516081912840669E-002
   5.5143898765169660E-002  -1.7067063299207381E-002   4.3300513641231893E-002
   5.6498930686758125E-002  -1.6149667757666450E-002   5.0727518415370695E-002
   5.4619240659190438E-002  -1.5802920663212622E-002   4.9803937844690283E-002
   5.2739550631622764E-002  -1.5511515155240557E-002   4.9073706736685964E-002
   5.0859860604055084E-002  -1.5275451233750192E-002   4.8536825091357705E-002
   4.8980170576487403E-002  -1.5094728898741527E-002   4.8193292908705637E-002
   7.2999771655445883E-002  -2.2984066500604944E-002   2.8114995219180872E-002
   7.2120055705990754E-002  -2.2406227983463686E-002   2.8819210365015280E-002
   7.1240339756535639E-002  -2.1655056341748420E-002   2.9517492835030232E-002
   7.0360623807080525E-002  -2.0730551575459083E-002   3.0209842629225971E-002
   6.9480907857625396E-002  -1.9632713684595737E-002   3.0896259747602350E-002
   6.7153699304648901E-002  -2.1011732100139097E-002   3.3261364796469559E-002
   6.6285069684660997E-002  -2.0523073390979502E-002   3.4045397088159235E-002
   6.5416440064673093E-002  -1.9870380966666192E-002   3.4857534714602713E-002
   6.4547810444685161E-002  -1.9053654827199083E-002   3.5697777675799958E-002
   6.3679180824697340E-002  -1.8072894972578302E-002   3.6566125971751046E-002
   6.1201741674556796E-002  -1.9039397699673236E-002   3.8323204270486501E-002
   6.0378236394609187E-002  -1.8639918798495435E-002   3.9177754298611291E-002
   5.9554731114661613E-002  -1.8085705591584098E-002   4.0094447672063049E-002
   5.8731225834714060E-002  -1.7376758078939278E-002   4.1073284390841562E-002
   5.7907720554766423E-002  -1.6513076260560866E-002   4.2114264454946981E-002
   5.5143898765169660E-002  -1.7067063299207381E-002   4.3300513641231893E-002
   5.4399555835835486E-002  -1.6756764206011309E-002   4.4216281996371620E-002
   5.3655212906501298E-002  -1.6301030216501963E-002   4.5228231707411234E-002
   5.2910869977167117E-002  -1.5699861330679347E-002   4.6336362774350832E-002
   5.2166527047832999E-002  -1.4953257548543486E-002   4.7540675197190366E-002
   4.8980170576487403E-002  -1.5094728898741527E-002   4.8193292908705637E-002
   4.8349028008339734E-002  -1.4873609613527156E-002   4.9160980181440023E-002
   4.7717885440192079E-002  -1.4516354841419832E-002   5.0258886820647303E-002
   4.7086742872044403E-002  -1.4022964582419445E-002   5.1487012826327713E-002
   4.6455600303896755E-002  -1.3393438836525995E-002   5.2845358198481129E-002
   6.9480907857625396E-002  -1.9632713684595737E-002   3.0896259747602350E-002
   6.6448052803227742E-002  -1.8521193431956795E-002   3.0229710619478850E-002
   6.3415197748830088E-002  -1.7555641580340675E-002   2.9761242288843276E-002
   6.0382342694432406E-002  -1.6736058129747336E-002   2.9490854755695378E-002
   5.7349487640034724E-002  -1.6062443080176791E-002   2.9418548020035518E-002
   6.3679180824697340E-002  -1.8072894972578302E-002   3.6566125971751046E-002
   6.0851494342752027E-002  -1.7066436045344593E-002   3.5807629396114052E-002
   5.8023807860806728E-002  -1.6172612688038865E-002   3.5261389167893897E-002
   5.5196121378861464E-002  -1.5391424900661293E-002   3.4927405287091220E-002
   5.2368434896916172E-002  -1.4722872683211652E-002   3.4805677753705189E-002
   5.7907720554766423E-002  -1.6513076260560866E-002   4.2114264454946981E-002
   5.5299378195202788E-002  -1.5611678658732420E-002   4.1297153262891351E-002
   5.2691035835639125E-002  -1.4789583795737166E-002   4.0706473968181764E-002
   5.0082693476075461E-002  -1.4046791671575250E-002   4.0342226570818540E-002
   4.7474351116511826E-002  -1.3383302286246512E-002   4.0204411070801360E-002
   5.2166527047832999E-002  -1.4953257548543486E-002   4.7540675197190366E-002
   4.9791704360580107E-002  -1.4156921272120176E-002   4.6698282219810705E-002
   4.7416881673327207E-002  -1.3406554903435466E-002   4.6096496689706556E-002
   4.5042058986074343E-002  -1.2702158442489123E-002   4.5735318606877573E-002
   4.2667236298821465E-002  -1.2043731889281373E-002   4.5614747971324185E-002
   4.6455600303896755E-002  -1.3393438836525995E-002   5.2845358198481129E-002
   4.4328472838883887E-002  -1.2702163885508072E-002   5.2011016266872268E-002
   4.2201345373871033E-002  -1.2023526011133656E-002   5.1431457332468150E-002
   4.0074217908858172E-002  -1.1357525213403191E-002   5.1106681395268388E-002
   3.7947090443845310E-002  -1.0704161492316178E-002   5.1036688455273371E-002
   5.7349487640034724E-002  -1.6062443080176791E-002   2.9418548020035518E-002
   5.1882467214909744E-002  -1.5594325951958921E-002   2.6380695493800510E-002
   4.6415446789784709E-002  -1.5391236265423547E-002   2.4017569038302045E-002
   4.0948426364659729E-002  -1.5453174020570490E-002   2.2329168653539413E-002
   3.5481405939534749E-002  -1.5780139217399958E-002   2.1315494339513408E-002
   5.2368434896916172E-002  -1.4722872683211652E-002   3.4805677753705189E-002
   4.7533607233042063E-002  -1.4248332328316876E-002   3.1542053082266902E-002
   4.2698779569167816E-002  -1.4049180128604025E-002   2.8868087862594066E-002
   3.7863951905293666E-002  -1.4125416084072643E-002   2.6783782094686751E-002
   3.3029124241419516E-002  -1.4477040194723179E-002   2.5289135778545024E-002
   4.7474351116511826E-002  -1.3383302286246512E-002   4.0204411070801360E-002
   4.3186649594917650E-002  -1.2902338704674970E-002   3.6704653540660673E-002
   3.8898948073323544E-002  -1.2707123991784502E-002   3.3709488843314539E-002
   3.4611246551729410E-002  -1.2797658147574907E-002   3.1218916978762994E-002
   3.0323545030135263E-002  -1.3173941172046399E-002   2.9232937947006266E-002
   4.2667236298821465E-002  -1.2043731889281373E-002   4.5614747971324185E-002
   3.8841594300536644E-002  -1.1556345081032940E-002   4.1868496868981392E-002
   3.5015952302251803E-002  -1.1365067854964897E-002   3.8541771980462512E-002
   3.1190310303966965E-002  -1.1469900211077116E-002   3.5634573305767650E-002
   2.7364668305682148E-002  -1.1870842149369731E-002   3.3146900844896632E-002
   3.7947090443845310E-002  -1.0704161492316178E-002   5.1036688455273371E-002
   3.4498441349898989E-002  -1.0210351457391020E-002   4.7033583067229379E-002
   3.1049792255952641E-002  -1.0023011718145403E-002   4.3364937274038673E-002
   2.7601143162006306E-002  -1.0142142274579338E-002   4.0030751075700977E-002
   2.4152494068059999E-002  -1.0567743126692786E-002   3.7031024472216234E-002
   3.5481405939534749E-002  -1.5780139217399958E-002   2.1315494339513408E-002
   4.3396949326400425E-002  -1.5222824667855295E-002   2.9417057668742530E-002
   5.1312492713266100E-002  -1.2631923183879401E-002   3.6600909124834657E-002
   5.9228036100131776E-002  -8.0074347654724709E-003   4.2867048707789068E-002
   6.7143579486997451E-002  -1.3493594126343655E-003   4.8215476417605707E-002
   3.3029124241419516E-002  -1.4477040194723179E-002   2.5289135778545024E-002
   4.0087056655236847E-002  -1.4079813360457771E-002   3.5100840984417098E-002
   4.7144989069054261E-002  -1.1909496481178145E-002   4.4115036117330197E-002
   5.4202921482871633E-002  -7.9660895568845549E-003   5.2331721177284213E-002
   6.1260853896689005E-002  -2.2495925875771761E-003   5.9750896164278866E-002
   3.0323545030135263E-002  -1.3173941172046399E-002   2.9232937947006266E-002
   3.6644068271082755E-002  -1.2936802053060081E-002   4.0494288140104057E-002
   4.2964591512030248E-002  -1.1187069778476832E-002   5.1078330060421090E-002
   4.9285114752977796E-002  -7.9247443482965280E-003   6.0985063707957587E-002
   5.5605637993925289E-002  -3.1498257625196535E-003   7.0214489082713383E-002
   2.7364668305682148E-002  -1.1870842149369731E-002   3.3146900844896632E-002
   3.3067984173938150E-002  -1.1793790745662586E-002   4.5597399135803039E-002
   3.8771300042194180E-002  -1.0464643075775437E-002   5.7490790954107029E-002
   4.4474615910450169E-002  -7.8833991397087785E-003   6.8827076299808942E-002
   5.0177931778706261E-002  -4.0500589374623530E-003   7.9606255172908480E-002
   2.4152494068059999E-002  -1.0567743126692786E-002   3.7031024472216234E-002
   2.9358804363802976E-002  -1.0650779438265034E-002   5.0410173971514149E-002
   3.4565114659545870E-002  -9.7422163730742500E-003   6.3352418798388238E-002
   3.9771424955288848E-002  -7.8420539311206926E-003   7.5857758952838486E-002
   4.4977735251031825E-002  -4.9502921124049415E-003   8.7926194434864602E-002
   5.7135765072447289E-002   0.0000000000000000        3.4658992528602217E-002
   5.7933043946675616E-002  -2.0829326328443004E-003   3.8334620006709320E-002
   5.8730322820903944E-002  -4.1344236960348113E-003   4.2222632774388369E-002
   5.9527601695132264E-002  -6.1544731895715292E-003   4.6323030831639390E-002
   6.0324880569360584E-002  -8.1430811134544645E-003   5.0635814178462336E-002
   4.8637360153289712E-002   0.0000000000000000        3.2758905185300030E-002
   4.9581788678792968E-002  -1.7081668335407630E-003   3.6958773238920717E-002
   5.0526217204296231E-002  -3.4296247962966892E-003   4.1240555305519309E-002
   5.1470645729799480E-002  -5.1643738882677943E-003   4.5604251385095822E-002
   5.2415074255302743E-002  -6.9124141094540573E-003   5.0049861477650268E-002
   4.0719356227723429E-002   0.0000000000000000        3.1255949990735860E-002
   4.1680463127907581E-002  -1.3334010342372247E-003   3.5935325921001175E-002
   4.2641570028091727E-002  -2.7248258965585741E-003   4.0566144587650371E-002
   4.3602676928275887E-002  -4.1742745869640541E-003   4.5148405990683434E-002
   4.4563783828460039E-002  -5.6817471054536536E-003   4.9682110130100363E-002
   3.3381753295748440E-002   0.0000000000000000        3.0150126944909709E-002
   3.4229067294019450E-002  -9.5863523493368730E-004   3.5264278052950709E-002
   3.5076381292290452E-002  -2.0200269968204607E-003   4.0199400620781527E-002
   3.5923695290561455E-002  -3.1841752856603131E-003   4.4955494648402192E-002
   3.6771009288832472E-002  -4.4510801014532517E-003   4.9532560135812670E-002
   2.6624551357364759E-002   0.0000000000000000        2.9441436047821571E-002
   2.7227601177128573E-002  -5.8386943563014989E-004   3.4945629634769285E-002
   2.7830650996892393E-002  -1.3152280970823386E-003   4.0140323404912782E-002
   2.8433700816656211E-002  -2.1940759843565756E-003   4.5025517358252068E-002
   2.9036750636420028E-002  -3.2204130974528436E-003   4.9601211494787141E-002
   6.0324880569360584E-002  -8.1430811134544645E-003   5.0635814178462336E-002
   6.0597895712456218E-002  -1.0019658864550031E-002   5.1511047710082483E-002
   6.0870910855551838E-002  -1.1703617839724683E-002   5.2174269455875000E-002
   6.1143925998647451E-002  -1.3194958038978346E-002   5.2625479415839956E-002
   6.1416941141743085E-002  -1.4493679462311136E-002   5.2864677589977281E-002
   5.2415074255302743E-002  -6.9124141094540573E-003   5.0049861477650268E-002
   5.2515635697457708E-002  -8.5737758293799975E-003   5.1212802435200822E-002
   5.2616197139612672E-002  -1.0048489417570153E-002   5.2242847776697646E-002
   5.2716758581767623E-002  -1.1336554874024466E-002   5.3139997502140726E-002
   5.2817320023922587E-002  -1.2437972198742986E-002   5.3904251611530056E-002
   4.4563783828460039E-002  -5.6817471054536536E-003   4.9682110130100363E-002
   4.4571007739448193E-002  -7.1278927942099802E-003   5.1126787869396235E-002
   4.4578231650436353E-002  -8.3933609954156239E-003   5.2517686162412217E-002
   4.4585455561424500E-002  -9.4781517090705789E-003   5.3854805009148306E-002
   4.4592679472412654E-002  -1.0382264935174853E-002   5.5138144409604496E-002
   3.6771009288832472E-002  -4.4510801014532517E-003   4.9532560135812670E-002
   3.6764011838427660E-002  -5.6820097590399524E-003   5.1253004012668690E-002
   3.6757014388022854E-002  -6.7382325732610899E-003   5.2998784613018685E-002
   3.6750016937618049E-002  -7.6197485441166926E-003   5.4769901936862687E-002
   3.6743019487213244E-002  -8.3265576716067182E-003   5.6566355984200595E-002
   2.9036750636420028E-002  -3.2204130974528436E-003   4.9601211494787141E-002
   2.9094647994396115E-002  -4.2361267238699265E-003   5.1591450865018228E-002
   2.9152545352372203E-002  -5.0831041511065645E-003   5.3686143128517140E-002
   2.9210442710348294E-002  -5.7613453791628072E-003   5.5885288285283857E-002
   2.9268340068324385E-002  -6.2708504080385766E-003   5.8188886335318386E-002
   6.1416941141743085E-002  -1.4493679462311136E-002   5.2864677589977281E-002
   6.0187438527996844E-002  -1.5498987757300083E-002   5.1656496775597527E-002
   5.8957935914250595E-002  -1.6110088571522248E-002   5.0897576641703177E-002
   5.7728433300504367E-002  -1.6326981904977739E-002   5.0587917188294189E-002
   5.6498930686758125E-002  -1.6149667757666450E-002   5.0727518415370695E-002
   5.2817320023922587E-002  -1.2437972198742986E-002   5.3904251611530056E-002
   5.1982748941389212E-002  -1.3289396772836710E-002   5.3370494639328539E-002
   5.1148177858855837E-002  -1.3827483977416559E-002   5.3177340049067337E-002
   5.0313606776322455E-002  -1.4052233812482667E-002   5.3324787840746402E-002
   4.9479035693789072E-002  -1.3963646278034897E-002   5.3812838014365816E-002
   4.4592679472412654E-002  -1.0382264935174853E-002   5.5138144409604496E-002
   4.4044381622547001E-002  -1.1079805788373354E-002   5.5197941168328331E-002
   4.3496083772681354E-002  -1.1544879383310908E-002   5.5489682010447329E-002
   4.2947785922815708E-002  -1.1777485719987610E-002   5.6013366935961463E-002
   4.2399488072950055E-002  -1.1777624798403379E-002   5.6768995944870865E-002
   3.6743019487213244E-002  -8.3265576716067182E-003   5.6566355984200595E-002
   3.6372336571470223E-002  -8.8702148039099763E-003   5.7138836362596909E-002
   3.6001653655727196E-002  -9.2622747892052801E-003   5.7834602525843187E-002
   3.5630970739984169E-002  -9.5027376274925447E-003   5.8653654473939595E-002
   3.5260287824241142E-002  -9.5916033187718568E-003   5.9595992206886016E-002
   2.9268340068324385E-002  -6.2708504080385766E-003   5.8188886335318386E-002
   2.8966613788158853E-002  -6.6606238194466191E-003   5.9193180222134177E-002
   2.8664887507993324E-002  -6.9796701950995809E-003   6.0212101595254891E-002
   2.8363161227827796E-002  -7.2279895349974775E-003   6.1245650454680542E-002
   2.8061434947662271E-002  -7.4055818391403211E-003   6.2293826800411109E-002
   5.6498930686758125E-002  -1.6149667757666450E-002   5.0727518415370695E-002
   5.4619240659190438E-002  -1.5802920663212622E-002   4.9803937844690283E-002
   5.2739550631622764E-002  -1.5511515155240557E-002   4.9073706736685964E-002
   5.0859860604055084E-002  -1.5275451233750192E-002   4.8536825091357705E-002
   4.8980170576487403E-002  -1.5094728898741527E-002   4.8193292908705637E-002
   4.9479035693789072E-002  -1.3963646278034897E-002   5.3812838014365816E-002
   4.7804150804491206E-002  -1.3731208669132820E-002   5.2800571087865768E-002
   4.6129265915193382E-002  -1.3524408280835898E-002   5.2004564975229359E-002
   4.4454381025895502E-002  -1.3343245113144130E-002   5.1424819676456519E-002
   4.2779496136597678E-002  -1.3187719166057488E-002   5.1061335191547180E-002
   4.2399488072950055E-002  -1.1777624798403379E-002   5.6768995944870865E-002
   4.0952319673109548E-002  -1.1659496675052991E-002   5.5697747028427808E-002
   3.9505151273269021E-002  -1.1537301406431213E-002   5.4865670277035795E-002
   3.8057982873428514E-002  -1.1411038992538028E-002   5.4272765690694905E-002
   3.6610814473587987E-002  -1.1280709433373420E-002   5.3919033269405101E-002
   3.5260287824241142E-002  -9.5916033187718568E-003   5.9595992206886016E-002
   3.4063747265045456E-002  -9.5877846809731757E-003   5.8495465666376430E-002
   3.2867206705849770E-002  -9.5501945320265146E-003   5.7657022642105461E-002
   3.1670666146654078E-002  -9.4788328719319307E-003   5.7080663134073027E-002
   3.0474125587458406E-002  -9.3736997006893530E-003   5.6766387142279218E-002
   2.8061434947662271E-002  -7.4055818391403211E-003   6.2293826800411109E-002
   2.7138433580298910E-002  -7.5160726868933742E-003   6.1193727001711579E-002
   2.6215432212935565E-002  -7.5630876576218871E-003   6.0378622070438169E-002
   2.5292430845572221E-002  -7.5466267513258677E-003   5.9848512006590818E-002
   2.4369429478208859E-002  -7.4666899680053134E-003   5.9603396810169629E-002
   4.8980170576487403E-002  -1.5094728898741527E-002   4.8193292908705637E-002
   4.8349028008339734E-002  -1.4873609613527156E-002   4.9160980181440023E-002
   4.7717885440192079E-002  -1.4516354841419832E-002   5.0258886820647303E-002
   4.7086742872044403E-002  -1.4022964582419445E-002   5.1487012826327713E-002
   4.6455600303896755E-002  -1.3393438836525995E-002   5.2845358198481129E-002
   4.2779496136597678E-002  -1.3187719166057488E-002   5.1061335191547180E-002
   4.2267412194916545E-002  -1.2987226270211094E-002   5.2175707803663929E-002
   4.1755328253235427E-002  -1.2671162256240404E-002   5.3397978302240454E-002
   4.1243244311554295E-002  -1.2239527124145048E-002   5.4728146687277178E-002
   4.0731160369873162E-002  -1.1692320873925244E-002   5.6166212958773692E-002
   3.6610814473587987E-002  -1.1280709433373420E-002   5.3919033269405101E-002
   3.6195467678360377E-002  -1.1100842926895102E-002   5.5159526852135585E-002
   3.5780120883132746E-002  -1.0825969671060837E-002   5.6485596841312921E-002
   3.5364774087905122E-002  -1.0456089665870624E-002   5.7897243236937207E-002
   3.4949427292677505E-002  -9.9912029113243817E-003   5.9394466039008609E-002
   3.0474125587458406E-002  -9.3736997006893530E-003   5.6766387142279218E-002
   3.0133194458671228E-002  -9.2144595835790752E-003   5.8112437326854900E-002
   2.9792263329884053E-002  -8.9807770858813391E-003   5.9521742437864400E-002
   2.9451332201096869E-002  -8.6726522075962140E-003   6.0994302475308050E-002
   2.9110401072309701E-002  -8.2900849487235195E-003   6.2530117439185545E-002
   2.4369429478208859E-002  -7.4666899680053134E-003   5.9603396810169629E-002
   2.4080592535849113E-002  -7.3280762402630484E-003   6.1034439227821952E-002
   2.3791755593489353E-002  -7.1355845007018137E-003   6.2506415091895334E-002
   2.3502918651129592E-002  -6.8892147493218106E-003   6.4019324402389582E-002
   2.3214081708769832E-002  -6.5889669861227129E-003   6.5573167159304668E-002
   4.6455600303896755E-002  -1.3393438836525995E-002   5.2845358198481129E-002
   4.4328472838883887E-002  -1.2702163885508072E-002   5.2011016266872268E-002
   4.2201345373871033E-002  -1.2023526011133656E-002   5.1431457332468150E-002
   4.0074217908858172E-002  -1.1357525213403191E-002   5.1106681395268388E-002
   3.7947090443845310E-002  -1.0704161492316178E-002   5.1036688455273371E-002
   4.0731160369873162E-002  -1.1692320873925244E-002   5.6166212958773692E-002
   3.8860590353245669E-002  -1.1091302411673470E-002   5.5266060449821436E-002
   3.6990020336618142E-002  -1.0498230643482293E-002   5.4624239840435115E-002
   3.5119450319990642E-002  -9.9131055693519529E-003   5.4240751130615168E-002
   3.3248880303363149E-002  -9.3359271892821116E-003   5.4115594320361005E-002
   3.4949427292677505E-002  -9.9912029113243817E-003   5.9394466039008609E-002
   3.3338963626796878E-002  -9.4804409378389659E-003   5.8433193335295813E-002
   3.1728499960916229E-002  -8.9729352758310399E-003   5.7733801433510604E-002
   3.0118036295035622E-002  -8.4686859253007701E-003   5.7296290333652897E-002
   2.8507572629154945E-002  -7.9676928862480734E-003   5.7120660035722998E-002
   2.9110401072309701E-002  -8.2900849487235195E-003   6.2530117439185545E-002
   2.7763592659537473E-002  -7.8695794640044128E-003   6.1512414923295268E-002
   2.6416784246765228E-002  -7.4476399081798705E-003   6.0760142111694213E-002
   2.5069975833992987E-002  -7.0242662812496706E-003   6.0273299004382323E-002
   2.3723167421220732E-002  -6.5994585832139935E-003   6.0051885601359600E-002
   2.3214081708769832E-002  -6.5889669861227129E-003   6.5573167159304668E-002
   2.2134477451467502E-002  -6.2587179901698597E-003   6.4503725213820057E-002
   2.1054873194165186E-002  -5.9223445405284514E-003   6.3703261874986261E-002
   1.9975268936862849E-002  -5.5798466371984115E-003   6.3171777142803115E-002
   1.8895664679560539E-002  -5.2312242801799136E-003   6.2909271017270674E-002
   3.7947090443845310E-002  -1.0704161492316178E-002   5.1036688455273371E-002
   3.4498441349898989E-002  -1.0210351457391020E-002   4.7033583067229379E-002
   3.1049792255952641E-002  -1.0023011718145403E-002   4.3364937274038673E-002
   2.7601143162006306E-002  -1.0142142274579338E-002   4.0030751075700977E-002
   2.4152494068059999E-002  -1.0567743126692786E-002   3.7031024472216234E-002
   3.3248880303363149E-002  -9.3359271892821116E-003   5.4115594320361005E-002
   3.0154997762012178E-002  -8.8991001980351370E-003   4.9800085166700980E-002
   2.7061115220661250E-002  -8.7350292903732168E-003   4.5859649523378621E-002
   2.3967232679310328E-002  -8.8437144662961535E-003   4.2294287390393703E-002
   2.0873350137959365E-002  -9.2251557258041794E-003   3.9103998767746562E-002
   2.8507572629154945E-002  -7.9676928862480734E-003   5.7120660035722998E-002
   2.5809070555883863E-002  -7.5878489386793646E-003   5.2526461328541482E-002
   2.3110568482612774E-002  -7.4470468626010866E-003   4.8347950047182037E-002
   2.0412066409341661E-002  -7.5452866580131353E-003   4.4585126191644731E-002
   1.7713564336070603E-002  -7.8825683249156009E-003   4.1237989761929508E-002
   2.3723167421220732E-002  -6.5994585832139935E-003   6.0051885601359600E-002
   2.1460659731513995E-002  -6.2765976793236200E-003   5.5212711552751204E-002
   1.9198152041807234E-002  -6.1590644348288176E-003   5.0829838845449359E-002
   1.6935644352100494E-002  -6.2468588497299228E-003   4.6903267479454031E-002
   1.4673136662393733E-002  -6.5399809240269530E-003   4.3432997454765421E-002
   1.8895664679560539E-002  -5.2312242801799136E-003   6.2909271017270674E-002
   1.7109765288902568E-002  -4.9653464199676534E-003   5.7858835839329936E-002
   1.5323865898244617E-002  -4.8710820070566735E-003   5.3305315918180218E-002
   1.3537966507586662E-002  -4.9484310414468526E-003   4.9248711253821673E-002
   1.1752067116928694E-002  -5.1973935231383050E-003   4.5689021846254008E-002
   2.4152494068059999E-002  -1.0567743126692786E-002   3.7031024472216234E-002
   2.9358804363802976E-002  -1.0650779438265034E-002   5.0410173971514149E-002
   3.4565114659545870E-002  -9.7422163730742500E-003   6.3352418798388238E-002
   3.9771424955288848E-002  -7.8420539311206926E-003   7.5857758952838486E-002
   4.4977735251031825E-002  -4.9502921124049415E-003   8.7926194434864602E-002
   2.0873350137959365E-002  -9.2251557258041794E-003   3.9103998767746562E-002
   2.5582227214999559E-002  -9.2955781103711832E-003   5.3485174454092399E-002
   3.0291104292039787E-002  -8.4712066614709286E-003   6.7308388375456357E-002
   3.4999981369079988E-002  -6.7520413791031485E-003   8.0573640531839061E-002
   3.9708858446120210E-002  -4.1380822632686165E-003   9.3280930923239636E-002
   1.7713564336070603E-002  -7.8825683249156009E-003   4.1237989761929508E-002
   2.1803951101850266E-002  -7.9403767824774707E-003   5.6524386092027742E-002
   2.5894337867629971E-002  -7.2001969498672810E-003   7.1131763564586586E-002
   2.9984724633409635E-002  -5.6620288270856061E-003   8.5060122179606262E-002
   3.4075111399189326E-002  -3.3258724141320695E-003   9.8309461937085896E-002
   1.4673136662393733E-002  -6.5399809240269530E-003   4.3432997454765421E-002
   1.8023976024355105E-002  -6.5851754545835778E-003   5.9527808885320665E-002
   2.1374815386316495E-002  -5.9291872382639631E-003   7.4822544365778745E-002
   2.4725654748277891E-002  -4.5720162750680629E-003   8.9317203896139633E-002
   2.8076494110239224E-002  -2.5136625649956890E-003  0.10301178747640341     
   1.1752067116928694E-002  -5.1973935231383050E-003   4.5689021846254008E-002
   1.4242301982514027E-002  -5.2299741266898514E-003   6.2495442833970793E-002
   1.6732536848099333E-002  -4.6581775266605063E-003   7.8380730779032792E-002
   1.9222771713684667E-002  -3.4820037230503184E-003   9.3344885681439699E-002
   2.1713006579270000E-002  -1.7014527158591974E-003  0.10738790754119165     
   2.6624551357364759E-002   0.0000000000000000        2.9441436047821571E-002
   2.7227601177128573E-002  -5.8386943563014989E-004   3.4945629634769285E-002
   2.7830650996892393E-002  -1.3152280970823386E-003   4.0140323404912782E-002
   2.8433700816656211E-002  -2.1940759843565756E-003   4.5025517358252068E-002
   2.9036750636420028E-002  -3.2204130974528436E-003   4.9601211494787141E-002
   2.0110265816677145E-002   0.0000000000000000        2.8995076827741606E-002
   2.0443500160150275E-002  -4.3790207708859028E-004   3.4315333484444877E-002
   2.0776734503623405E-002  -9.8642107347274820E-004   3.9405459005370978E-002
   2.1109968847096535E-002  -1.6455569891524772E-003   4.4265453390519925E-002
   2.1443203190569669E-002  -2.4153098241277695E-003   4.8895316639891696E-002
   1.3501412077790383E-002   0.0000000000000000        2.8676248812939960E-002
   1.3644199625999867E-002  -2.9193471854703024E-004   3.3849440845925262E-002
   1.3786987174209354E-002  -6.5761404986315695E-004   3.8871870424160446E-002
   1.3929774722418839E-002  -1.0970379939483858E-003   4.3743537547645511E-002
   1.4072562270628326E-002  -1.6102065508027089E-003   4.8464442216380459E-002
   6.7979901407044605E-003   0.0000000000000000        2.8484952003416643E-002
   6.8296995746773481E-003  -1.4596736000546998E-004   3.3547951719210455E-002
   6.8614090086502348E-003  -3.2880702625356787E-004   3.8539557661281199E-002
   6.8931184426231215E-003  -5.4851899874428563E-004   4.3459769829628854E-002
   6.9248278765960099E-003  -8.0510327747763976E-004   4.8308588224253421E-002
   5.4193871612540079E-012   0.0000000000000000        2.8421186399171648E-002
   6.1827192671115583E-012  -1.4639105899716398E-012   3.3410866104300441E-002
   6.9460518066499777E-012  -2.6439735817396226E-012   3.8408520716733195E-002
   7.7093832619862246E-012  -3.5401976489213283E-012   4.3414150236469912E-002
   8.4727155846842095E-012  -4.1525749852611149E-012   4.8427754663510611E-002
   2.9036750636420028E-002  -3.2204130974528436E-003   4.9601211494787141E-002
   2.9094647994396115E-002  -4.2361267238699265E-003   5.1591450865018228E-002
   2.9152545352372203E-002  -5.0831041511065645E-003   5.3686143128517140E-002
   2.9210442710348294E-002  -5.7613453791628072E-003   5.5885288285283857E-002
   2.9268340068324385E-002  -6.2708504080385766E-003   5.8188886335318386E-002
   2.1443203190569669E-002  -2.4153098241277695E-003   4.8895316639891696E-002
   2.1575821633671239E-002  -3.1770950440456695E-003   5.1226374902184887E-002
   2.1708440076772820E-002  -3.8123281145531849E-003   5.3602422441461219E-002
   2.1841058519874390E-002  -4.3210090356503150E-003   5.6023459257720690E-002
   2.1973676962975964E-002  -4.7031378073370614E-003   5.8489485350963301E-002
   1.4072562270628326E-002  -1.6102065508027089E-003   4.8464442216380459E-002
   1.4220438182570719E-002  -2.1180633642214120E-003   5.1094135320965683E-002
   1.4368314094513111E-002  -2.5415520779997836E-003   5.3709354086249397E-002
   1.4516190006455505E-002  -2.8806726921378378E-003   5.6310098512231579E-002
   1.4664065918397898E-002  -3.1354252066355427E-003   5.8896368598912244E-002
   6.9248278765960099E-003  -8.0510327747763976E-004   4.8308588224253421E-002
   7.0284976410945497E-003  -1.0590316843971583E-003   5.1194732121360650E-002
   7.1321674055930904E-003  -1.2707760414463966E-003   5.4006938062881669E-002
   7.2358371700916311E-003  -1.4403363486253601E-003   5.6745206048816520E-002
   7.3395069345901683E-003  -1.5677126059340397E-003   5.9409536079165166E-002
   8.4727155846842095E-012  -4.1525749852611149E-012   4.8427754663510611E-002
   9.2427341821799125E-012  -4.5729045550224612E-012   5.1528165303369768E-002
   1.0012752345994747E-011  -4.8930011518205641E-012   5.4495174371358084E-002
   1.0782772027692622E-011  -5.1128784908129055E-012   5.7328781867475538E-002
   1.1552789974667022E-011  -5.2325019317400745E-012   6.0028987791722131E-002
   2.9268340068324385E-002  -6.2708504080385766E-003   5.8188886335318386E-002
   2.8966613788158853E-002  -6.6606238194466191E-003   5.9193180222134177E-002
   2.8664887507993324E-002  -6.9796701950995809E-003   6.0212101595254891E-002
   2.8363161227827796E-002  -7.2279895349974775E-003   6.1245650454680542E-002
   2.8061434947662271E-002  -7.4055818391403211E-003   6.2293826800411109E-002
   2.1973676962975964E-002  -4.7031378073370614E-003   5.8489485350963301E-002
   2.1701779190085174E-002  -4.9954678657698690E-003   5.9555918475945512E-002
   2.1429881417194381E-002  -5.2347526471052275E-003   6.0667381129172263E-002
   2.1157983644303595E-002  -5.4209921513430105E-003   6.1823873310643568E-002
   2.0886085871412798E-002  -5.5541863784833723E-003   6.3025395020359365E-002
   1.4664065918397898E-002  -3.1354252066355427E-003   5.8896368598912244E-002
   1.4452398694721450E-002  -3.3303119120931222E-003   6.0007259203403288E-002
   1.4240731471044998E-002  -3.4898350991108195E-003   6.1193581378078461E-002
   1.4029064247368554E-002  -3.6139947676885730E-003   6.2455335122937834E-002
   1.3817397023692104E-002  -3.7027909178264165E-003   6.3792520437981254E-002
   7.3395069345901683E-003  -1.5677126059340397E-003   5.9409536079165166E-002
   7.2184723020676661E-003  -1.6651559584163877E-003   6.0547202404507484E-002
   7.0974376695451639E-003  -1.7449175511164250E-003   6.1790702341973550E-002
   6.9764030370226627E-003  -1.8069973840341000E-003   6.3140035891563376E-002
   6.8553684045001579E-003  -1.8513954571694642E-003   6.4595203053276928E-002
   1.1552789974667022E-011  -5.2325019317400745E-012   6.0028987791722131E-002
   1.2123836656829923E-011  -4.7396392366394480E-012   6.1175748079258130E-002
   1.2694883338992824E-011  -3.1220217383554072E-012   6.2458744020857507E-002
   1.3265930021155725E-011  -3.7967328933574684E-013   6.3877975616520213E-002
   1.3836976703318626E-011   3.4874880761037730E-012   6.5433442866246305E-002
   2.8061434947662271E-002  -7.4055818391403211E-003   6.2293826800411109E-002
   2.7138433580298910E-002  -7.5160726868933742E-003   6.1193727001711579E-002
   2.6215432212935565E-002  -7.5630876576218871E-003   6.0378622070438169E-002
   2.5292430845572221E-002  -7.5466267513258677E-003   5.9848512006590818E-002
   2.4369429478208859E-002  -7.4666899680053134E-003   5.9603396810169629E-002
   2.0886085871412798E-002  -5.5541863784833723E-003   6.3025395020359365E-002
   2.0234518239807670E-002  -5.6370545130495012E-003   6.2073935711058396E-002
   1.9582950608202532E-002  -5.6723157395647400E-003   6.1380349005847858E-002
   1.8931382976597397E-002  -5.6599700580289673E-003   6.0944634904727679E-002
   1.8279815344992255E-002  -5.6000174684422421E-003   6.0766793407697778E-002
   1.3817397023692104E-002  -3.7027909178264165E-003   6.3792520437981254E-002
   1.3410140864509430E-002  -3.7580363392056351E-003   6.2973832649105402E-002
   1.3002884705326751E-002  -3.7815438215075079E-003   6.2385895200984108E-002
   1.2595628546144081E-002  -3.7733133647320388E-003   6.2028708093617456E-002
   1.2188372386961396E-002  -3.7333449688792264E-003   6.1902271327005320E-002
   6.8553684045001579E-003  -1.8513954571694642E-003   6.4595203053276928E-002
   6.6653014544041924E-003  -1.8790181653617656E-003   6.3893417815852505E-002
   6.4752345043082296E-003  -1.8907719034503183E-003   6.3395260655846858E-002
   6.2851675542122711E-003  -1.8866566714351243E-003   6.3100731573260099E-002
   6.0951006041163047E-003  -1.8666724693161829E-003   6.3009830568092146E-002
   1.3836976703318626E-011   3.4874880761037730E-012   6.5433442866246305E-002
   9.4919731796760942E-012   8.4821177859240038E-012   6.4832691211299670E-002
   5.1469713907570380E-012   1.4606815756934566E-011   6.4408445370436163E-002
   8.0196873447624384E-013   2.1861804033740384E-011   6.4160705343655741E-002
  -3.5430339218045503E-012   3.0246860571736534E-011   6.4089471130958392E-002
   2.4369429478208859E-002  -7.4666899680053134E-003   5.9603396810169629E-002
   2.4080592535849113E-002  -7.3280762402630484E-003   6.1034439227821952E-002
   2.3791755593489353E-002  -7.1355845007018137E-003   6.2506415091895334E-002
   2.3502918651129592E-002  -6.8892147493218106E-003   6.4019324402389582E-002
   2.3214081708769832E-002  -6.5889669861227129E-003   6.5573167159304668E-002
   1.8279815344992255E-002  -5.6000174684422421E-003   6.0766793407697778E-002
   1.8039730795853276E-002  -5.4960571708652234E-003   6.2250969207210252E-002
   1.7799646246714308E-002  -5.3516883653582856E-003   6.3791716346743410E-002
   1.7559561697575332E-002  -5.1669110519215519E-003   6.5389034826297196E-002
   1.7319477148436353E-002  -4.9417252305548887E-003   6.7042924645871665E-002
   1.2188372386961396E-002  -3.7333449688792264E-003   6.1902271327005320E-002
   1.2012678124642993E-002  -3.6640381014673706E-003   6.3426111004488694E-002
   1.1836983862324582E-002  -3.5677922300146742E-003   6.5022159915592709E-002
   1.1661289600006182E-002  -3.4446073545212931E-003   6.6690418060316975E-002
   1.1485595337687768E-002  -3.2944834749870366E-003   6.8430885438661854E-002
   6.0951006041163047E-003  -1.8666724693161829E-003   6.3009830568092146E-002
   5.9994345222182492E-003  -1.8320190320695040E-003   6.4559864619657459E-002
   5.9037684403202007E-003  -1.7838960946711044E-003   6.6197745798443092E-002
   5.8081023584221503E-003  -1.7223036571210344E-003   6.7923474104448892E-002
   5.7124362765240966E-003  -1.6472417194192540E-003   6.9737049537675039E-002
  -3.5430339218045503E-012   3.0246860571736534E-011   6.4089471130958392E-002
  -1.1420947521045832E-011   3.7328334867581248E-011   6.5652230052716559E-002
  -1.9298857650840162E-011   4.0672534784569336E-011   6.7318473995294753E-002
  -2.7176767780634492E-011   4.0279227869755019E-011   6.9088202958692974E-002
  -3.5054681379875774E-011   3.6148639637190172E-011   7.0961416942911193E-002
   2.3214081708769832E-002  -6.5889669861227129E-003   6.5573167159304668E-002
   2.2134477451467502E-002  -6.2587179901698597E-003   6.4503725213820057E-002
   2.1054873194165186E-002  -5.9223445405284514E-003   6.3703261874986261E-002
   1.9975268936862849E-002  -5.5798466371984115E-003   6.3171777142803115E-002
   1.8895664679560539E-002  -5.2312242801799136E-003   6.2909271017270674E-002
   1.7319477148436353E-002  -4.9417252305548887E-003   6.7042924645871665E-002
   1.6509082112144836E-002  -4.6940384852945105E-003   6.6039794961105347E-002
   1.5698687075853323E-002  -4.4417584001765972E-003   6.5306105111709895E-002
   1.4888292039561815E-002  -4.1848849752009667E-003   6.4841855097685488E-002
   1.4077897003270307E-002  -3.9234182103677351E-003   6.4647044919031893E-002
   1.1485595337687768E-002  -3.2944834749870366E-003   6.8430885438661854E-002
   1.0944870751127350E-002  -3.1293589804191058E-003   6.7492536900782607E-002
   1.0404146164566933E-002  -2.9611722598246321E-003   6.6824089426994679E-002
   9.8634215780065149E-003  -2.7899233132034108E-003   6.6425543017297778E-002
   9.3226969914460937E-003  -2.6156121405556954E-003   6.6296897671692404E-002
   5.7124362765240966E-003  -1.6472417194192540E-003   6.9737049537675039E-002
   5.4418433684150537E-003  -1.5646794755437288E-003   6.8861951032851934E-002
   5.1712504603060178E-003  -1.4805861194726669E-003   6.8257214820840434E-002
   4.9006575521969818E-003  -1.3949616512059105E-003   6.7922840901640413E-002
   4.6300646440879381E-003  -1.3078060707435862E-003   6.7858829275251886E-002
  -3.5054681379875774E-011   3.6148639637190172E-011   7.0961416942911193E-002
  -3.5992063496248505E-011   2.9331620465811170E-011   7.0148037357313370E-002
  -3.6929435204280381E-011   2.0879215023583697E-011   6.9605481293247257E-002
  -3.7866812116482684E-011   1.0791735560733429E-011   6.9333748750713048E-002
  -3.8804189028684988E-011  -9.3142160650927508E-013   6.9332839729710660E-002
   1.8895664679560539E-002  -5.2312242801799136E-003   6.2909271017270674E-002
   1.7109765288902568E-002  -4.9653464199676534E-003   5.7858835839329936E-002
   1.5323865898244617E-002  -4.8710820070566735E-003   5.3305315918180218E-002
   1.3537966507586662E-002  -4.9484310414468526E-003   4.9248711253821673E-002
   1.1752067116928694E-002  -5.1973935231383050E-003   4.5689021846254008E-002
   1.4077897003270307E-002  -3.9234182103677351E-003   6.4647044919031893E-002
   1.2776302766733388E-002  -3.7240098199335103E-003   5.9496405534908869E-002
   1.1474708530196470E-002  -3.6533115181544978E-003   5.4817461202237072E-002
   1.0173114293659555E-002  -3.7113233050310411E-003   5.0610211921016210E-002
   8.8715200571226338E-003  -3.8980451805628036E-003   4.6874657691246380E-002
   9.3226969914460937E-003  -2.6156121405556954E-003   6.6296897671692404E-002
   8.4801877036902312E-003  -2.4826732198993395E-003   6.1088957440033106E-002
   7.6376784159343635E-003  -2.4355410292524818E-003   5.6327492054484680E-002
   6.7951691281784949E-003  -2.4742155686151169E-003   5.2012501515047396E-002
   5.9526598404226333E-003  -2.5986968379873576E-003   4.8143985821721136E-002
   4.6300646440879381E-003  -1.3078060707435862E-003   6.7858829275251886E-002
   4.2214200997731143E-003  -1.2413366198649606E-003   6.2636491554702009E-002
   3.8127755554582857E-003  -1.2177705403504414E-003   5.7835408474923189E-002
   3.4041310111434572E-003  -1.2371078321993601E-003   5.3455580035915322E-002
   2.9954864668286334E-003  -1.2993484954117729E-003   4.9497006237678630E-002
  -3.8804189028684988E-011  -9.3142160650927508E-013   6.9332839729710660E-002
  -4.5017978927974767E-011  -1.9831053466035087E-011   6.4139007878915966E-002
  -5.1231761888370642E-011  -5.1448317828217682E-011   5.9341210463552452E-002
  -5.7445550052936944E-011  -9.5783471432131506E-011   5.4939447483620091E-002
  -6.3659334748056295E-011  -1.5283646570551923E-010   5.0933718939118411E-002
   1.1752067116928694E-002  -5.1973935231383050E-003   4.5689021846254008E-002
   1.4242301982514027E-002  -5.2299741266898514E-003   6.2495442833970793E-002
   1.6732536848099333E-002  -4.6581775266605063E-003   7.8380730779032792E-002
   1.9222771713684667E-002  -3.4820037230503184E-003   9.3344885681439699E-002
   2.1713006579270000E-002  -1.7014527158591974E-003  0.10738790754119165     
   8.8715200571226338E-003  -3.8980451805628036E-003   4.6874657691246380E-002
   1.0515265466226061E-002  -3.9224806602072837E-003   6.4246239150247852E-002
   1.2159010875329501E-002  -3.4936332594214803E-003   8.0845974738940451E-002
   1.3802756284432907E-002  -2.6115029782058791E-003   9.6673864457324107E-002
   1.5446501693536341E-002  -1.2760898165600221E-003  0.11172990830539919     
   5.9526598404226333E-003  -2.5986968379873576E-003   4.8143985821721136E-002
   6.8992029653902574E-003  -2.6149871937245217E-003   6.5929633428856410E-002
   7.8457460903578816E-003  -2.3290889921826347E-003   8.3092722338028738E-002
   8.7922892153255230E-003  -1.7410022333614987E-003   9.9633252549238466E-002
   9.7388323402931298E-003  -8.5072691726095773E-004  0.11555122406248541     
   2.9954864668286334E-003  -1.2993484954117729E-003   4.9497006237678630E-002
   3.3941144800065780E-003  -1.3074937272419124E-003   6.7545625669796619E-002
   3.7927424931845349E-003  -1.1645447249436988E-003   8.5120973576298262E-002
   4.1913705063624778E-003  -8.7050148851697783E-004  0.10222304995718311     
   4.5899985195404364E-003  -4.2536401796183787E-004  0.11885185481245114     
  -6.3659334748056295E-011  -1.5283646570551923E-010   5.0933718939118411E-002
   1.0075055373315323E-011  -2.6075941406134007E-010   6.9094215873068854E-002
   8.3809442025239989E-011  -4.5770472134609719E-010   8.6930728453748413E-002
   1.5754382000354727E-010  -7.4367266858499370E-010  0.10444325668115780     
   2.3127821879853627E-010  -1.1186627180137521E-009  0.12163180055529654     
   5.4193871612540079E-012   0.0000000000000000        2.8421186399171648E-002
   6.1827192671115583E-012  -1.4639105899716398E-012   3.3410866104300441E-002
   6.9460518066499777E-012  -2.6439735817396226E-012   3.8408520716733195E-002
   7.7093832619862246E-012  -3.5401976489213283E-012   4.3414150236469912E-002
   8.4727155846842095E-012  -4.1525749852611149E-012   4.8427754663510611E-002
  -6.7979901300691242E-003   0.0000000000000000        2.8484952000311703E-002
  -6.8296995625390143E-003   1.4596735727398242E-004   3.3547951716225544E-002
  -6.8614089950089028E-003   3.2880702132404623E-004   3.8539557658368973E-002
  -6.8931184274787938E-003   5.4851899215018970E-004   4.3459769826741997E-002
  -6.9248278599486823E-003   8.0510326975241370E-004   4.8308588221344602E-002
  -1.3501412067765362E-002   0.0000000000000000        2.8676248806943531E-002
  -1.3644199614542852E-002   2.9193471601187543E-004   3.3849440840134658E-002
  -1.3786987161320338E-002   6.5761404529206691E-004   3.8871870418481003E-002
  -1.3929774708097829E-002   1.0970379878405779E-003   4.3743537541982548E-002
  -1.4072562254875314E-002   1.6102065436574063E-003   4.8464442210639308E-002
  -2.0110265807669316E-002   0.0000000000000000        2.8995076819067139E-002
  -2.0443500149828785E-002   4.3790207474976887E-004   3.4315333476027790E-002
  -2.0776734491988250E-002   9.8642106926008890E-004   3.9405458997069265E-002
  -2.1109968834147712E-002   1.6455569835309657E-003   4.4265453382191601E-002
  -2.1443203176307178E-002   2.4153098175623885E-003   4.8895316631394743E-002
  -2.6624551349780999E-002   0.0000000000000000        2.9441436036682520E-002
  -2.7227601168396821E-002   5.8386943348766058E-004   3.4945629623904927E-002
  -2.7830650987012637E-002   1.3152280932281091E-003   4.0140323394133794E-002
  -2.8433700805628459E-002   2.1940759792213518E-003   4.5025517347369107E-002
  -2.9036750624244274E-002   3.2204130914673850E-003   4.9601211483610901E-002
   8.4727155846842095E-012  -4.1525749852611149E-012   4.8427754663510611E-002
   9.2427341821799125E-012  -4.5729045550224612E-012   5.1528165303369768E-002
   1.0012752345994747E-011  -4.8930011518205641E-012   5.4495174371358084E-002
   1.0782772027692622E-011  -5.1128784908129055E-012   5.7328781867475538E-002
   1.1552789974667022E-011  -5.2325019317400745E-012   6.0028987791722131E-002
  -6.9248278599486823E-003   8.0510326975241370E-004   4.8308588221344602E-002
  -7.0284976229421587E-003   1.0590316758946339E-003   5.1194732118007957E-002
  -7.1321673859356350E-003   1.2707760323407470E-003   5.4006938059015207E-002
  -7.2358371489291131E-003   1.4403363390907743E-003   5.6745206044366309E-002
  -7.3395069119225878E-003   1.5677125961447297E-003   5.9409536074061256E-002
  -1.4072562254875314E-002   1.6102065436574063E-003   4.8464442210639308E-002
  -1.4220438165417560E-002   2.1180633563621758E-003   5.1094135314310549E-002
  -1.4368314075959811E-002   2.5415520695745300E-003   5.3709354078540349E-002
  -1.4516189986502058E-002   2.8806726832944444E-003   5.6310098503328805E-002
  -1.4664065897044304E-002   3.1354251975219440E-003   5.8896368588675786E-002
  -2.1443203176307178E-002   2.4153098175623885E-003   4.8895316631394743E-002
  -2.1575821618183482E-002   3.1770950368297194E-003   5.1226374892277507E-002
  -2.1708440060059772E-002   3.8123281068082921E-003   5.3602422429933599E-002
  -2.1841058501936069E-002   4.3210090274981268E-003   5.6023459244363014E-002
  -2.1973676943812366E-002   4.7031377988991738E-003   5.8489485335565715E-002
  -2.9036750624244274E-002   3.2204130914673850E-003   4.9601211483610901E-002
  -2.9094647981239893E-002   4.2361267172972656E-003   5.1591450851908881E-002
  -2.9152545338235525E-002   5.0831041440420775E-003   5.3686143113194904E-002
  -2.9210442695231143E-002   5.7613453717017720E-003   5.5885288267468927E-002
  -2.9268340052226768E-002   6.2708504002763968E-003   5.8188886314731049E-002
   1.1552789974667022E-011  -5.2325019317400745E-012   6.0028987791722131E-002
   1.2123836656829923E-011  -4.7396392366394480E-012   6.1175748079258130E-002
   1.2694883338992824E-011  -3.1220217383554072E-012   6.2458744020857507E-002
   1.3265930021155725E-011  -3.7967328933574684E-013   6.3877975616520213E-002
   1.3836976703318626E-011   3.4874880761037730E-012   6.5433442866246305E-002
  -7.3395069119225878E-003   1.5677125961447297E-003   5.9409536074061256E-002
  -7.2184722782582499E-003   1.6651559494749550E-003   6.0547202400667605E-002
  -7.0974376445939076E-003   1.7449175450539173E-003   6.1790702339397201E-002
  -6.9764030109295680E-003   1.8069973828815471E-003   6.3140035890249954E-002
  -6.8553683772652231E-003   1.8513954629579277E-003   6.4595203053226052E-002
  -1.4664065897044304E-002   3.1354251975219440E-003   5.8896368588675786E-002
  -1.4452398672226786E-002   3.3303119036895493E-003   6.0007259195476406E-002
  -1.4240731447409267E-002   3.4898350932298277E-003   6.1193581372460178E-002
  -1.4029064222591755E-002   3.6139947661427392E-003   6.2455335119627024E-002
  -1.3817396997774230E-002   3.7027909224283118E-003   6.3792520436977029E-002
  -2.1973676943812366E-002   4.7031377988991738E-003   5.8489485335565715E-002
  -2.1701779169781783E-002   4.9954678579041782E-003   5.9555918463684562E-002
  -2.1429881395751200E-002   5.2347526414057242E-003   6.0667381120046410E-002
  -2.1157983621720614E-002   5.4209921494039184E-003   6.1823873304651292E-002
  -2.0886085847690031E-002   5.5541863818987236E-003   6.3025395017499153E-002
  -2.9268340052226768E-002   6.2708504002763968E-003   5.8188886314731049E-002
  -2.8966613770923237E-002   6.6606238121187447E-003   5.9193180205292073E-002
  -2.8664887489619702E-002   6.9796701895816857E-003   6.0212101582155980E-002
  -2.8363161208316168E-002   7.2279895326651123E-003   6.1245650445322798E-002
  -2.8061434927012636E-002   7.4055818413691354E-003   6.2293826794792478E-002
   1.3836976703318626E-011   3.4874880761037730E-012   6.5433442866246305E-002
   9.4919731796760942E-012   8.4821177859240038E-012   6.4832691211299670E-002
   5.1469713907570380E-012   1.4606815756934566E-011   6.4408445370436163E-002
   8.0196873447624384E-013   2.1861804033740384E-011   6.4160705343655741E-002
  -3.5430339218045503E-012   3.0246860571736534E-011   6.4089471130958392E-002
  -6.8553683772652231E-003   1.8513954629579277E-003   6.4595203053226052E-002
  -6.6653014355797244E-003   1.8790181801180555E-003   6.3893417817344617E-002
  -6.4752344938942266E-003   1.8907719291971353E-003   6.3395260659441038E-002
  -6.2851675522087331E-003   1.8866567101951844E-003   6.3100731579515443E-002
  -6.0951006105232301E-003   1.8666725231120951E-003   6.3009830577567760E-002
  -1.3817396997774230E-002   3.7027909224283118E-003   6.3792520436977029E-002
  -1.3410140846163401E-002   3.7580363517540696E-003   6.2973832650949468E-002
  -1.3002884694552571E-002   3.7815438437874549E-003   6.2385895206794675E-002
  -1.2595628542941741E-002   3.7733133985285786E-003   6.2028708104512623E-002
  -1.2188372391330906E-002   3.7333450159773296E-003   6.1902271344103324E-002
  -2.0886085847690031E-002   5.5541863818987236E-003   6.3025395017499153E-002
  -2.0234518222259041E-002   5.6370545233900317E-003   6.2073935712114267E-002
  -1.9582950596828051E-002   5.6723157583777745E-003   6.1380349012497039E-002
  -1.8931382971397064E-002   5.6599700868619658E-003   6.0944634918647322E-002
  -1.8279815345966073E-002   5.6000175088425919E-003   6.0766793430565152E-002
  -2.8061434927012636E-002   7.4055818413691354E-003   6.2293826794792478E-002
  -2.7138433563866651E-002   7.5160726950260145E-003   6.1193727000839082E-002
  -2.6215432200720677E-002   7.5630876729680732E-003   6.0378622076548052E-002
  -2.5292430837574702E-002   7.5466267751953895E-003   5.9848512021919438E-002
  -2.4369429474428717E-002   7.4666900017078264E-003   5.9603396836953232E-002
  -3.5430339218045503E-012   3.0246860571736534E-011   6.4089471130958392E-002
  -1.1420947521045832E-011   3.7328334867581248E-011   6.5652230052716559E-002
  -1.9298857650840162E-011   4.0672534784569336E-011   6.7318473995294753E-002
  -2.7176767780634492E-011   4.0279227869755019E-011   6.9088202958692974E-002
  -3.5054681379875774E-011   3.6148639637190172E-011   7.0961416942911193E-002
  -6.0951006105232301E-003   1.8666725231120951E-003   6.3009830577567760E-002
  -5.9994345439363444E-003   1.8320190985022244E-003   6.4559864623788321E-002
  -5.9037684773494631E-003   1.7838961669198877E-003   6.6197745798118379E-002
  -5.8081024107625809E-003   1.7223037283651023E-003   6.7923474100557962E-002
  -5.7124363441757031E-003   1.6472417828377883E-003   6.9737049531107181E-002
  -1.2188372391330906E-002   3.7333450159773296E-003   6.1902271344103324E-002
  -1.2012678142989702E-002   3.6640381596761279E-003   6.3426111011551115E-002
  -1.1836983894648500E-002   3.5677922931673725E-003   6.5022159914397887E-002
  -1.1661289646307289E-002   3.4446074164510305E-003   6.6690418052643863E-002
  -1.1485595397966092E-002   3.2944835295269925E-003   6.8430885426288807E-002
  -1.8279815345966073E-002   5.6000175088425919E-003   6.0766793430565152E-002
  -1.8039730808581022E-002   5.4960572208500383E-003   6.2250969216005106E-002
  -1.7799646271195974E-002   5.3516884194147636E-003   6.3791716344133512E-002
  -1.7559561733810916E-002   5.1669111045368485E-003   6.5389034814950564E-002
  -1.7319477196425868E-002   4.9417252762161412E-003   6.7042924628456346E-002
  -2.4369429474428717E-002   7.4666900017078264E-003   5.9603396836953232E-002
  -2.4080592540710283E-002   7.3280762820239348E-003   6.1034439237150073E-002
  -2.3791755606991864E-002   7.1355845456622310E-003   6.2506415087325087E-002
  -2.3502918673273438E-002   6.8892147926228105E-003   6.4019324387478205E-002
  -2.3214081739555012E-002   6.5889670229054009E-003   6.5573167137609578E-002
  -3.5054681379875774E-011   3.6148639637190172E-011   7.0961416942911193E-002
  -3.5992063496248505E-011   2.9331620465811170E-011   7.0148037357313370E-002
  -3.6929435204280381E-011   2.0879215023583697E-011   6.9605481293247257E-002
  -3.7866812116482684E-011   1.0791735560733429E-011   6.9333748750713048E-002
  -3.8804189028684988E-011  -9.3142160650927508E-013   6.9332839729710660E-002
  -5.7124363441757031E-003   1.6472417828377883E-003   6.9737049531107181E-002
  -5.4418434376107437E-003   1.5646795261310270E-003   6.8861951028299631E-002
  -5.1712505310457929E-003   1.4805861540379481E-003   6.8257214818964865E-002
  -4.9006576244808300E-003   1.3949616665584457E-003   6.7922840903102993E-002
  -4.6300647179158827E-003   1.3078060636925182E-003   6.7858829280713989E-002
  -1.1485595397966092E-002   3.2944835295269925E-003   6.8430885426288807E-002
  -1.0944870811957750E-002   3.1293590229304752E-003   6.7492536892520522E-002
  -1.0404146225949410E-002   2.9611722871965146E-003   6.6824089424166205E-002
  -9.8634216399410713E-003   2.7899233223253224E-003   6.6425543021225719E-002
  -9.3226970539327415E-003   2.6156121283166522E-003   6.6296897683699146E-002
  -1.7319477196425868E-002   4.9417252762161412E-003   6.7042924628456346E-002
  -1.6509082159033087E-002   4.6940385197299303E-003   6.6039794949976249E-002
  -1.5698687121640308E-002   4.4417584203551644E-003   6.5306105108851153E-002
  -1.4888292084247530E-002   4.1848849780921158E-003   6.4841855105081073E-002
  -1.4077897046854752E-002   3.9234181929406892E-003   6.4647044938665826E-002
  -2.3214081739555012E-002   6.5889670229054009E-003   6.5573167137609578E-002
  -2.2134477478836748E-002   6.2587180165293022E-003   6.4503725200666717E-002
  -2.1054873218118469E-002   5.9223445535138558E-003   6.3703261873019917E-002
  -1.9975268957400198E-002   5.5798466338589196E-003   6.3171777154669109E-002
  -1.8895664696681934E-002   5.2312242575646706E-003   6.2909271045614390E-002
  -3.8804189028684988E-011  -9.3142160650927508E-013   6.9332839729710660E-002
  -4.5017978927974767E-011  -1.9831053466035087E-011   6.4139007878915966E-002
  -5.1231761888370642E-011  -5.1448317828217682E-011   5.9341210463552452E-002
  -5.7445550052936944E-011  -9.5783471432131506E-011   5.4939447483620091E-002
  -6.3659334748056295E-011  -1.5283646570551923E-010   5.0933718939118411E-002
  -4.6300647179158827E-003   1.3078060636925182E-003   6.7858829280713989E-002
  -4.2214201852999490E-003   1.2413365786911879E-003   6.2636491545611739E-002
  -3.8127756526840032E-003   1.2177704448051441E-003   5.7835408452737838E-002
  -3.4041311200680635E-003   1.2371076620342064E-003   5.3455580002092419E-002
  -2.9954865874521237E-003   1.2993482303787496E-003   4.9497006193675364E-002
  -9.3226970539327415E-003   2.6156121283166522E-003   6.6296897683699146E-002
  -8.4801877756897001E-003   2.4826731772134430E-003   6.1088957428122120E-002
  -7.6376784974466596E-003   2.4355409410586198E-003   5.6327492021571030E-002
  -6.7951692192036225E-003   2.4742154198521098E-003   5.2012501464045603E-002
  -5.9526599409605915E-003   2.5986966135938816E-003   4.8143985755545946E-002
  -1.4077897046854752E-002   3.9234181929406892E-003   6.4647044938665826E-002
  -1.2776302816187250E-002   3.7240097757356636E-003   5.9496405526447305E-002
  -1.1474708585519723E-002   3.6533114373120332E-003   5.4817461170051873E-002
  -1.0173114354852211E-002   3.7113231776698449E-003   5.0610211869479553E-002
  -8.8715201241846998E-003   3.8980449968091108E-003   4.6874657624730420E-002
  -1.8895664696681934E-002   5.2312242575646706E-003   6.2909271045614390E-002
  -1.7109765306792570E-002   4.9653463742579396E-003   5.7858835840587153E-002
  -1.5323865916903212E-002   4.8710819335655853E-003   5.3305315898180522E-002
  -1.3537966527013858E-002   4.9484309354877534E-003   4.9248711218394331E-002
  -1.1752067137124497E-002   5.1973933800241734E-003   4.5689021801228746E-002
  -6.3659334748056295E-011  -1.5283646570551923E-010   5.0933718939118411E-002
   1.0075055373315323E-011  -2.6075941406134007E-010   6.9094215873068854E-002
   8.3809442025239989E-011  -4.5770472134609719E-010   8.6930728453748413E-002
   1.5754382000354727E-010  -7.4367266858499370E-010  0.10444325668115780     
   2.3127821879853627E-010  -1.1186627180137521E-009  0.12163180055529654     
  -2.9954865874521237E-003   1.2993482303787496E-003   4.9497006193675364E-002
  -3.3941144566688626E-003   1.3074932694831232E-003   6.7545625458920261E-002
  -3.7927423258856032E-003   1.1645438989919266E-003   8.5120973191533639E-002
  -4.1913701951023586E-003   8.7050011890511120E-004  0.10222304939151514     
  -4.5899980643190896E-003   4.2536192922293381E-004  0.11885185405886478     
  -5.9526599409605915E-003   2.5986966135938816E-003   4.8143985755545946E-002
  -6.8992029324897010E-003   2.6149867997254939E-003   6.5929633031512558E-002
  -7.8457459240188245E-003   2.3290882556884704E-003   8.3092721595486196E-002
  -8.7922889155479574E-003   1.7410009814828927E-003   9.9633251447466611E-002
  -9.7388319070770592E-003   8.5072497710858563E-004  0.11555122258745443     
  -8.8715201241846998E-003   3.8980449968091108E-003   4.6874657624730420E-002
  -1.0515265417387454E-002   3.9224803299678368E-003   6.4246238590845606E-002
  -1.2159010710590192E-002   3.4936326123851773E-003   8.0845973665606460E-002
  -1.3802756003792953E-002   2.6115018440606179E-003   9.6673862849013303E-002
  -1.5446501296995700E-002   1.2760880249942930E-003  0.11172990614106568     
  -1.1752067137124497E-002   5.1973933800241734E-003   4.5689021801228746E-002
  -1.4242301911362130E-002   5.2299738602104573E-003   6.2495442136919210E-002
  -1.6732536685599753E-002   4.6581769690817870E-003   7.8380729401894472E-002
  -1.9222771459837397E-002   3.4820027066383465E-003   9.3344883596154130E-002
  -2.1713006234075002E-002   1.7014510728798893E-003  0.10738790471969817     
  -2.6624551349780999E-002   0.0000000000000000        2.9441436036682520E-002
  -2.7227601168396821E-002   5.8386943348766058E-004   3.4945629623904927E-002
  -2.7830650987012637E-002   1.3152280932281091E-003   4.0140323394133794E-002
  -2.8433700805628459E-002   2.1940759792213518E-003   4.5025517347369107E-002
  -2.9036750624244274E-002   3.2204130914673850E-003   4.9601211483610901E-002
  -3.3381753289872765E-002   0.0000000000000000        3.0150126931676444E-002
  -3.4229067287193701E-002   9.5863523326569344E-004   3.5264278040200339E-002
  -3.5076381284514638E-002   2.0200269938096052E-003   4.0199400608307533E-002
  -3.5923695281835574E-002   3.1841752816317379E-003   4.4955494635998051E-002
  -3.6771009279156511E-002   4.4510800967320855E-003   4.9532560123271875E-002
  -4.0719356223716988E-002   0.0000000000000000        3.1255949975935685E-002
  -4.1680463123166180E-002   1.3334010330437267E-003   3.5935325906786490E-002
  -4.2641570022615372E-002   2.7248258943911004E-003   4.0566144573797452E-002
  -4.3602676922064577E-002   4.1742745840421249E-003   4.5148405976968599E-002
  -4.4563783821513762E-002   5.6817471019967956E-003   4.9682110116299895E-002
  -4.8637360151313654E-002   0.0000000000000000        3.2758905169460249E-002
  -4.9581788676314249E-002   1.7081668328217598E-003   3.6958773223663380E-002
  -5.0526217201314859E-002   3.4296247949725973E-003   4.1240555290603553E-002
  -5.1470645726315455E-002   5.1643738864525068E-003   4.5604251370280742E-002
  -5.2415074251316043E-002   6.9124141072615082E-003   5.0049861462694953E-002
  -5.7135765072662777E-002   0.0000000000000000        3.4658992512250131E-002
  -5.7933043946637924E-002   2.0829326325997920E-003   3.8334619990831043E-002
  -5.8730322820613072E-002   4.1344236955540899E-003   4.2222632758725828E-002
  -5.9527601694588227E-002   6.1544731888628947E-003   4.6323030815934495E-002
  -6.0324880568563374E-002   8.1430811125262105E-003   5.0635814162457049E-002
  -2.9036750624244274E-002   3.2204130914673850E-003   4.9601211483610901E-002
  -2.9094647981239893E-002   4.2361267172972656E-003   5.1591450851908881E-002
  -2.9152545338235525E-002   5.0831041440420775E-003   5.3686143113194904E-002
  -2.9210442695231143E-002   5.7613453717017720E-003   5.5885288267468927E-002
  -2.9268340052226768E-002   6.2708504002763968E-003   5.8188886314731049E-002
  -3.6771009279156511E-002   4.4510800967320855E-003   4.9532560123271875E-002
  -3.6764011828061674E-002   5.6820097538576326E-003   5.1253003998070805E-002
  -3.6757014376966823E-002   6.7382325677553447E-003   5.2998784596062623E-002
  -3.6750016925871980E-002   7.6197485384252219E-003   5.4769901917247329E-002
  -3.6743019474777150E-002   8.3265576658672902E-003   5.6566355961624938E-002
  -4.4563783821513762E-002   5.6817471019967956E-003   4.9682110116299895E-002
  -4.4571007732123594E-002   7.1278927904180039E-003   5.1126787853457006E-002
  -4.4578231642733439E-002   8.3933609914686406E-003   5.2517686144011880E-002
  -4.4585455553343277E-002   9.4781517051486883E-003   5.3854804987964515E-002
  -4.4592679463953108E-002   1.0382264931458166E-002   5.5138144385314870E-002
  -5.2415074251316043E-002   6.9124141072615082E-003   5.0049861462694953E-002
  -5.2515635693425718E-002   8.5737758269783752E-003   5.1212802418067527E-002
  -5.2616197135535371E-002   1.0048489415181928E-002   5.2242847757042694E-002
  -5.2716758577645025E-002   1.1336554871872141E-002   5.3139997479620470E-002
  -5.2817320019754692E-002   1.2437972197049023E-002   5.3904251585800859E-002
  -6.0324880568563374E-002   8.1430811125262105E-003   5.0635814162457049E-002
  -6.0597895711967983E-002   1.0019658863538745E-002   5.1511047691902317E-002
  -6.0870910855372613E-002   1.1703617838895210E-002   5.2174269435155039E-002
  -6.1143925998777236E-002   1.3194958038595597E-002   5.2625479392215256E-002
  -6.1416941142181852E-002   1.4493679462639929E-002   5.2864677563082905E-002
  -2.9268340052226768E-002   6.2708504002763968E-003   5.8188886314731049E-002
  -2.8966613770923237E-002   6.6606238121187447E-003   5.9193180205292073E-002
  -2.8664887489619702E-002   6.9796701895816857E-003   6.0212101582155980E-002
  -2.8363161208316168E-002   7.2279895326651123E-003   6.1245650445322798E-002
  -2.8061434927012636E-002   7.4055818413691354E-003   6.2293826794792478E-002
  -3.6743019474777150E-002   8.3265576658672902E-003   5.6566355961624938E-002
  -3.6372336557940935E-002   8.8702147985609651E-003   5.7138836344465968E-002
  -3.6001653641104740E-002   9.2622747849857370E-003   5.7834602512069441E-002
  -3.5630970724268539E-002   9.5027376251416284E-003   5.8653654464435372E-002
  -3.5260287807432331E-002   9.5916033190286132E-003   5.9595992201563745E-002
  -4.4592679463953108E-002   1.0382264931458166E-002   5.5138144385314870E-002
  -4.4044381613124683E-002   1.1079805785003175E-002   5.5197941148546460E-002
  -4.3496083762296245E-002   1.1544879380389856E-002   5.5489681995000040E-002
  -4.2947785911467813E-002   1.1777485717618131E-002   5.6013366924675602E-002
  -4.2399488060639381E-002   1.1777624796688119E-002   5.6768995937573237E-002
  -5.2817320019754692E-002   1.2437972197049023E-002   5.3904251585800859E-002
  -5.1982748936474463E-002   1.3289396771445377E-002   5.3370494617533550E-002
  -5.1148177853194247E-002   1.3827483975793914E-002   5.3177340030947824E-002
  -5.0313606769914032E-002   1.4052233810094652E-002   5.3324787826043614E-002
  -4.9479035686633817E-002   1.3963646274347624E-002   5.3812838002821023E-002
  -6.1416941142181852E-002   1.4493679462639929E-002   5.2864677563082905E-002
  -6.0187438527990286E-002   1.5498987757887595E-002   5.1656496751427285E-002
  -5.8957935913798720E-002   1.6110088571198028E-002   5.0897576619912718E-002
  -5.7728433299607168E-002   1.6326981902571161E-002   5.0587917168539304E-002
  -5.6498930685415602E-002   1.6149667752007116E-002   5.0727518397307006E-002
  -2.8061434927012636E-002   7.4055818413691354E-003   6.2293826794792478E-002
  -2.7138433563866651E-002   7.5160726950260145E-003   6.1193727000839082E-002
  -2.6215432200720677E-002   7.5630876729680732E-003   6.0378622076548052E-002
  -2.5292430837574702E-002   7.5466267751953895E-003   5.9848512021919438E-002
  -2.4369429474428717E-002   7.4666900017078264E-003   5.9603396836953232E-002
  -3.5260287807432331E-002   9.5916033190286132E-003   5.9595992201563745E-002
  -3.4063747250299828E-002   9.5877846845229056E-003   5.8495465666031400E-002
  -3.2867206693167325E-002   9.5501945395006227E-003   5.7657022648809717E-002
  -3.1670666136034815E-002   9.4788328839618824E-003   5.7080663149898639E-002
  -3.0474125578902306E-002   9.3736997179065806E-003   5.6766387169298230E-002
  -4.2399488060639381E-002   1.1777624796688119E-002   5.6768995937573237E-002
  -4.0952319660872136E-002   1.1659496674019772E-002   5.5697747025660257E-002
  -3.9505151261104862E-002   1.1537301406033224E-002   5.4865670280706158E-002
  -3.8057982861337596E-002   1.1411038992728401E-002   5.4272765702710959E-002
  -3.6610814461570357E-002   1.1280709434105349E-002   5.3919033291674599E-002
  -4.9479035686633817E-002   1.3963646274347624E-002   5.3812838002821023E-002
  -4.7804150795583561E-002   1.3731208663516651E-002   5.2800571079725710E-002
  -4.6129265904533305E-002   1.3524408272565786E-002   5.2004564972237467E-002
  -4.4454381013483042E-002   1.3343245101494880E-002   5.1424819680356358E-002
  -4.2779496122432793E-002   1.3187719150304124E-002   5.1061335204082396E-002
  -5.6498930685415602E-002   1.6149667752007116E-002   5.0727518397307006E-002
  -5.4619240654434124E-002   1.5802920653013537E-002   4.9803937828227646E-002
  -5.2739550623452647E-002   1.5511515139098365E-002   4.9073706723403561E-002
  -5.0859860592471183E-002   1.5275451210261439E-002   4.8536825082834856E-002
  -4.8980170561489692E-002   1.5094728866502871E-002   4.8193292906521523E-002
  -2.4369429474428717E-002   7.4666900017078264E-003   5.9603396836953232E-002
  -2.4080592540710283E-002   7.3280762820239348E-003   6.1034439237150073E-002
  -2.3791755606991864E-002   7.1355845456622310E-003   6.2506415087325087E-002
  -2.3502918673273438E-002   6.8892147926228105E-003   6.4019324387478205E-002
  -2.3214081739555012E-002   6.5889670229054009E-003   6.5573167137609578E-002
  -3.0474125578902306E-002   9.3736997179065806E-003   5.6766387169298230E-002
  -3.0133194455404001E-002   9.2144596048450295E-003   5.8112437331015579E-002
  -2.9792263331905697E-002   8.9807771082876936E-003   5.9521742422314471E-002
  -2.9451332208407406E-002   8.6726522282343614E-003   6.0994302443195009E-002
  -2.9110401084909088E-002   8.2900849646851960E-003   6.2530117393657186E-002
  -3.6610814461570357E-002   1.1280709434105349E-002   5.3919033291674599E-002
  -3.6195467668688690E-002   1.1100842927666145E-002   5.5159526848094290E-002
  -3.5780120875807009E-002   1.0825969670913104E-002   5.6485596813699107E-002
  -3.5364774082925356E-002   1.0456089663845970E-002   5.7897243188488969E-002
  -3.4949427290043675E-002   9.9912029064649632E-003   5.9394465972463964E-002
  -4.2779496122432793E-002   1.3187719150304124E-002   5.1061335204082396E-002
  -4.2267412180564297E-002   1.2987226250487292E-002   5.2175707788386441E-002
  -4.1755328238695787E-002   1.2671162233538568E-002   5.3397978261478955E-002
  -4.1243244296827290E-002   1.2239527099457687E-002   5.4728146623360133E-002
  -4.0731160354958773E-002   1.1692320848244828E-002   5.6166212874029967E-002
  -4.8980170561489692E-002   1.5094728866502871E-002   4.8193292906521523E-002
  -4.8349027991030843E-002   1.4873609573308355E-002   4.9160980151891770E-002
  -4.7717885420572037E-002   1.4516354796164005E-002   5.0258886765654154E-002
  -4.7086742850113203E-002   1.4022964535069231E-002   5.1487012747808550E-002
  -4.6455600279654383E-002   1.3393438790024581E-002   5.2845358098355000E-002
  -2.3214081739555012E-002   6.5889670229054009E-003   6.5573167137609578E-002
  -2.2134477478836748E-002   6.2587180165293022E-003   6.4503725200666717E-002
  -2.1054873218118469E-002   5.9223445535138558E-003   6.3703261873019917E-002
  -1.9975268957400198E-002   5.5798466338589196E-003   6.3171777154669109E-002
  -1.8895664696681934E-002   5.2312242575646706E-003   6.2909271045614390E-002
  -2.9110401084909088E-002   8.2900849646851960E-003   6.2530117393657186E-002
  -2.7763592666383258E-002   7.8695794729050500E-003   6.1512414880642699E-002
  -2.6416784247857428E-002   7.4476399081586930E-003   6.0760142073947213E-002
  -2.5069975829331605E-002   7.0242662704463679E-003   6.0273298973571011E-002
  -2.3723167410805768E-002   6.5994585597679012E-003   6.0051885579513742E-002
  -3.4949427290043675E-002   9.9912029064649632E-003   5.9394465972463964E-002
  -3.3338963616687194E-002   9.4804409292805619E-003   5.8433193267051153E-002
  -3.1728499943330685E-002   8.9729352628035372E-003   5.7733801364980485E-002
  -3.0118036269974183E-002   8.4686859070335959E-003   5.7296290266252006E-002
  -2.8507572596617667E-002   7.9676928619710485E-003   5.7120659970865767E-002
  -4.0731160354958773E-002   1.1692320848244828E-002   5.6166212874029967E-002
  -3.8860590329748528E-002   1.1091302385656192E-002   5.5266060359892046E-002
  -3.6990020304538254E-002   1.0498230617448295E-002   5.4624239746119456E-002
  -3.5119450279328016E-002   9.9131055436209904E-003   5.4240751032712163E-002
  -3.3248880254117742E-002   9.3359271641743485E-003   5.4115594219670139E-002
  -4.6455600279654383E-002   1.3393438790024581E-002   5.2845358098355000E-002
  -4.4328472805567246E-002   1.2702163842031822E-002   5.2011016159165480E-002
  -4.2201345331480129E-002   1.2023525972093177E-002   5.1431457217364335E-002
  -4.0074217857392985E-002   1.1357525180208234E-002   5.1106681272951579E-002
  -3.7947090383305876E-002   1.0704161466377371E-002   5.1036688325927226E-002
  -1.8895664696681934E-002   5.2312242575646706E-003   6.2909271045614390E-002
  -1.7109765306792570E-002   4.9653463742579396E-003   5.7858835840587153E-002
  -1.5323865916903212E-002   4.8710819335655853E-003   5.3305315898180522E-002
  -1.3537966527013858E-002   4.9484309354877534E-003   4.9248711218394331E-002
  -1.1752067137124497E-002   5.1973933800241734E-003   4.5689021801228746E-002
  -2.3723167410805768E-002   6.5994585597679012E-003   6.0051885579513742E-002
  -2.1460659716197754E-002   6.2765976423225789E-003   5.5212711495919914E-002
  -1.9198152021589775E-002   6.1590643843094373E-003   5.0829838759142792E-002
  -1.6935644326981768E-002   6.2468587857284694E-003   4.6903267369182253E-002
  -1.4673136632373782E-002   6.5399808465796405E-003   4.3432997326038614E-002
  -2.8507572596617667E-002   7.9676928619710485E-003   5.7120659970865767E-002
  -2.5809070513094834E-002   7.5878489103872182E-003   5.2526461225523000E-002
  -2.3110568429572022E-002   7.4470468350532198E-003   4.8347949911193067E-002
  -2.0412066346049182E-002   7.5452866359692373E-003   4.4585126027876142E-002
  -1.7713564262526377E-002   7.8825683131351354E-003   4.1237989575572079E-002
  -3.3248880254117742E-002   9.3359271641743485E-003   5.4115594219670139E-002
  -3.0154997697483855E-002   8.8991001784517465E-003   4.9800085029396278E-002
  -2.7061115140850002E-002   8.7350292857968151E-003   4.5859649354331372E-002
  -2.3967232584216118E-002   8.8437144862098683E-003   4.2294287194475783E-002
  -2.0873350027582237E-002   9.2251557796908384E-003   3.9103998549829252E-002
  -3.7947090383305876E-002   1.0704161466377371E-002   5.1036688325927226E-002
  -3.4498441269364771E-002   1.0210351446516497E-002   4.7033582907539950E-002
  -3.1049792155423667E-002   1.0023011736540799E-002   4.3364937088557903E-002
  -2.7601143041482548E-002   1.0142142336450818E-002   4.0030750868981418E-002
  -2.4152493927541457E-002   1.0567743246246153E-002   3.7031024248809941E-002
  -1.1752067137124497E-002   5.1973933800241734E-003   4.5689021801228746E-002
  -1.4242301911362130E-002   5.2299738602104573E-003   6.2495442136919210E-002
  -1.6732536685599753E-002   4.6581769690817870E-003   7.8380729401894472E-002
  -1.9222771459837397E-002   3.4820027066383465E-003   9.3344883596154130E-002
  -2.1713006234075002E-002   1.7014510728798893E-003  0.10738790471969817     
  -1.4673136632373782E-002   6.5399808465796405E-003   4.3432997326038614E-002
  -1.8023975933034175E-002   6.5851753287480552E-003   5.9527807977062280E-002
  -2.1374815233694562E-002   5.9291869941187209E-003   7.4822542645955947E-002
  -2.4725654534355011E-002   4.5720158426916270E-003   8.9317201332719434E-002
  -2.8076493835015391E-002   2.5136618744666661E-003  0.10301178403735312     
  -1.7713564262526377E-002   7.8825683131351354E-003   4.1237989575572079E-002
  -2.1803951001024082E-002   7.9403767972857919E-003   5.6524385096445987E-002
  -2.5894337739521822E-002   7.2001970191558143E-003   7.1131761723775250E-002
  -2.9984724478019493E-002   5.6620289787449613E-003   8.5060119457559924E-002
  -3.4075111216517240E-002   3.3258726760534429E-003   9.8309458297799968E-002
  -2.0873350027582237E-002   9.2251557796908384E-003   3.9103998549829252E-002
  -2.5582227115331847E-002   9.2955782658235148E-003   5.3485173495070343E-002
  -3.0291104203081429E-002   8.4712070441927724E-003   6.7308386635352241E-002
  -3.4999981290830991E-002   6.7520421147982687E-003   8.0573637970675058E-002
  -3.9708858378580597E-002   4.1380834776403308E-003   9.3280927501038710E-002
  -2.4152493927541457E-002   1.0567743246246153E-002   3.7031024248809941E-002
  -2.9358804275957454E-002   1.0650779734361238E-002   5.0410173172935502E-002
  -3.4565114624373436E-002   9.7422170692299387E-003   6.3352417380687115E-002
  -3.9771424972789439E-002   7.8420552508516005E-003   7.5857756872065349E-002
  -4.4977735321205414E-002   4.9502942792269966E-003   8.7926191647069496E-002
  -5.7135765072662777E-002   0.0000000000000000        3.4658992512250131E-002
  -5.7933043946637924E-002   2.0829326325997920E-003   3.8334619990831043E-002
  -5.8730322820613072E-002   4.1344236955540899E-003   4.2222632758725828E-002
  -5.9527601694588227E-002   6.1544731888628947E-003   4.6323030815934495E-002
  -6.0324880568563374E-002   8.1430811125262105E-003   5.0635814162457049E-002
  -6.5804067678556913E-002   0.0000000000000000        3.7179437238841109E-002
  -6.6617361193906710E-002   2.9130239982730621E-003   4.0822337589086807E-002
  -6.7430654709256521E-002   5.7676239215733900E-003   4.4220823367269298E-002
  -6.8243948224606318E-002   8.5637997699009837E-003   4.7374894573388601E-002
  -6.9057241739956116E-002   1.1301551543255847E-002   5.0284551207444711E-002
  -7.4231764659788618E-002   0.0000000000000000        4.0543464583768986E-002
  -7.5517872677890147E-002   3.7431153639463310E-003   4.4126655300352209E-002
  -7.6803980695991675E-002   7.4008241475926866E-003   4.7008631583495185E-002
  -7.8090088714093217E-002   1.0973126350939066E-002   4.9189393433197885E-002
  -7.9376196732194745E-002   1.4460021973985481E-002   5.0668940849460324E-002
  -8.2418856016357886E-002   0.0000000000000000        4.4751074547033746E-002
  -8.4634578398588220E-002   4.5732067296195989E-003   4.8247573124627276E-002
  -8.6850300780818568E-002   9.0340243736119867E-003   5.0586057407403476E-002
  -8.9066023163048888E-002   1.3382452931977156E-002   5.1766527395362319E-002
  -9.1281745545279208E-002   1.7618492404715115E-002   5.1788983088503854E-002
  -9.0365341748264730E-002   0.0000000000000000        4.9802267128635398E-002
  -9.3967478356000930E-002   5.4032980952928699E-003   5.3185091061911979E-002
  -9.7569614963737145E-002   1.0667224599631285E-002   5.4953100838994164E-002
 -0.10117175157147335        1.5791779513015240E-002   5.5106296459881930E-002
 -0.10477388817920955        2.0776962835444751E-002   5.3644677924575314E-002
  -6.0324880568563374E-002   8.1430811125262105E-003   5.0635814162457049E-002
  -6.0597895711967983E-002   1.0019658863538745E-002   5.1511047691902317E-002
  -6.0870910855372613E-002   1.1703617838895210E-002   5.2174269435155039E-002
  -6.1143925998777236E-002   1.3194958038595597E-002   5.2625479392215256E-002
  -6.1416941142181852E-002   1.4493679462639929E-002   5.2864677563082905E-002
  -6.9057241739956116E-002   1.1301551543255847E-002   5.0284551207444711E-002
  -6.9304840005508045E-002   1.3743833976795274E-002   4.9448052889932266E-002
  -6.9552438271059974E-002   1.5653601805676591E-002   4.8874400114317727E-002
  -6.9800036536611917E-002   1.7030855029899750E-002   4.8563592880601157E-002
  -7.0047634802163819E-002   1.7875593649464817E-002   4.8515631188782452E-002
  -7.9376196732194745E-002   1.4460021973985481E-002   5.0668940849460324E-002
  -7.9123520791803514E-002   1.7468009090051813E-002   4.7780814855988098E-002
  -7.8870844851412283E-002   1.9603585772457962E-002   4.5630391732504258E-002
  -7.8618168911021025E-002   2.0866752021203926E-002   4.4217671479008784E-002
  -7.8365492970629794E-002   2.1257507836289723E-002   4.3542654095501718E-002
  -9.1281745545279208E-002   1.7618492404715115E-002   5.1788983088503854E-002
  -9.0053938070854364E-002   2.1192184203308352E-002   4.6509333590069764E-002
  -8.8826130596429506E-002   2.3553569739239347E-002   4.2442244289714562E-002
  -8.7598323122004648E-002   2.4702649012508102E-002   3.9587715187438186E-002
  -8.6370515647579776E-002   2.4639422023114602E-002   3.7945746283240676E-002
 -0.10477388817920955        2.0776962835444751E-002   5.3644677924575314E-002
 -0.10209609184266059        2.4916359316564878E-002   4.5633609092177355E-002
  -9.9418295506111670E-002   2.7503553706020707E-002   3.9309957785948715E-002
  -9.6740499169562733E-002   2.8538546003812261E-002   3.4673724005889396E-002
  -9.4062702833013809E-002   2.8021336209939525E-002   3.1724907751999383E-002
  -6.1416941142181852E-002   1.4493679462639929E-002   5.2864677563082905E-002
  -6.0187438527990286E-002   1.5498987757887595E-002   5.1656496751427285E-002
  -5.8957935913798720E-002   1.6110088571198028E-002   5.0897576619912718E-002
  -5.7728433299607168E-002   1.6326981902571161E-002   5.0587917168539304E-002
  -5.6498930685415602E-002   1.6149667752007116E-002   5.0727518397307006E-002
  -7.0047634802163819E-002   1.7875593649464817E-002   4.8515631188782452E-002
  -6.8417207543052819E-002   1.8335191998741118E-002   4.7255963124492803E-002
  -6.6786780283941832E-002   1.8557024412098083E-002   4.6348883669900913E-002
  -6.5156353024830832E-002   1.8541090889535729E-002   4.5794392825006733E-002
  -6.3525925765719846E-002   1.8287391431053984E-002   4.5592490589810332E-002
  -7.8365492970629794E-002   2.1257507836289723E-002   4.3542654095501718E-002
  -7.6430813137042738E-002   2.1171396239594693E-002   4.2387940324595974E-002
  -7.4496133303455697E-002   2.1003960252998180E-002   4.1489143092944589E-002
  -7.2561453469868642E-002   2.0755199876500270E-002   4.0846262400547562E-002
  -7.0626773636281587E-002   2.0425115110100846E-002   4.0459298247404962E-002
  -8.6370515647579776E-002   2.4639422023114602E-002   3.7945746283240676E-002
  -8.4228255309960073E-002   2.4007600480448258E-002   3.7052428351736715E-002
  -8.2085994972340329E-002   2.3450896093898305E-002   3.6318354889043843E-002
  -7.9943734634720570E-002   2.2969308863464769E-002   3.5743525895161790E-002
  -7.7801474297100853E-002   2.2562838789147711E-002   3.5327941370090848E-002
  -9.4062702833013809E-002   2.8021336209939525E-002   3.1724907751999383E-002
  -9.1809534061804740E-002   2.6843804721301795E-002   3.1249427205915094E-002
  -8.9556365290595713E-002   2.5897831934798374E-002   3.0836519058198422E-002
  -8.7303196519386672E-002   2.5183417850429355E-002   3.0486183308849411E-002
  -8.5050027748177617E-002   2.4700562468194590E-002   3.0198419957867997E-002
  -5.6498930685415602E-002   1.6149667752007116E-002   5.0727518397307006E-002
  -5.4619240654434124E-002   1.5802920653013537E-002   4.9803937828227646E-002
  -5.2739550623452647E-002   1.5511515139098365E-002   4.9073706723403561E-002
  -5.0859860592471183E-002   1.5275451210261439E-002   4.8536825082834856E-002
  -4.8980170561489692E-002   1.5094728866502871E-002   4.8193292906521523E-002
  -6.3525925765719846E-002   1.8287391431053984E-002   4.5592490589810332E-002
  -6.1430419012162854E-002   1.7931684101049908E-002   4.4662070377770063E-002
  -5.9334912258605849E-002   1.7609726963920456E-002   4.3969934146625533E-002
  -5.7239405505048843E-002   1.7321520019665727E-002   4.3516081896376714E-002
  -5.5143898751491852E-002   1.7067063268285471E-002   4.3300513627023557E-002
  -7.0626773636281587E-002   2.0425115110100846E-002   4.0459298247404962E-002
  -6.8270515643508736E-002   2.0060447549086206E-002   3.9500447000200230E-002
  -6.5914257650735858E-002   1.9707938788742489E-002   3.8824814250531449E-002
  -6.3557999657962980E-002   1.9367588829069873E-002   3.8432399998398793E-002
  -6.1201741665190115E-002   1.9039397670068126E-002   3.8323204243802145E-002
  -7.7801474297100853E-002   2.2562838789147711E-002   3.5327941370090848E-002
  -7.5139530548471778E-002   2.2189210997122524E-002   3.4319067695517867E-002
  -7.2477586799842661E-002   2.1806150613564664E-002   3.3638347035121315E-002
  -6.9815643051213572E-002   2.1413657638474019E-002   3.3285779388901184E-002
  -6.7153699302584483E-002   2.1011732071850711E-002   3.3261364756857335E-002
  -8.5050027748177617E-002   2.4700562468194590E-002   3.0198419957867997E-002
  -8.2037463727051910E-002   2.4317974445158860E-002   2.9117932463723184E-002
  -7.9024899705926299E-002   2.3904362438386621E-002   2.8410532500395193E-002
  -7.6012335684800633E-002   2.3459726447878276E-002   2.8076220067883777E-002
  -7.2999771663674939E-002   2.2984066473633380E-002   2.8114995166189205E-002
  -4.8980170561489692E-002   1.5094728866502871E-002   4.8193292906521523E-002
  -4.8349027991030843E-002   1.4873609573308355E-002   4.9160980151891770E-002
  -4.7717885420572037E-002   1.4516354796164005E-002   5.0258886765654154E-002
  -4.7086742850113203E-002   1.4022964535069231E-002   5.1487012747808550E-002
  -4.6455600279654383E-002   1.3393438790024581E-002   5.2845358098355000E-002
  -5.5143898751491852E-002   1.7067063268285471E-002   4.3300513627023557E-002
  -5.4399555818238812E-002   1.6756764166886512E-002   4.4216281954668646E-002
  -5.3655212884985808E-002   1.6301030172575316E-002   4.5228231639510064E-002
  -5.2910869951732747E-002   1.5699861285351786E-002   4.6336362681547921E-002
  -5.2166527018479764E-002   1.4953257505215978E-002   4.7540675080782024E-002
  -6.1201741665190115E-002   1.9039397670068126E-002   3.8323204243802145E-002
  -6.0378236380338610E-002   1.8639918760464697E-002   3.9177754244759951E-002
  -5.9554731095487125E-002   1.8085705548986711E-002   4.0094447591718277E-002
  -5.8731225810635640E-002   1.7376758035634262E-002   4.1073284284677290E-002
  -5.7907720525784190E-002   1.6513076220407347E-002   4.2114264323636866E-002
  -6.7153699302584483E-002   2.1011732071850711E-002   3.3261364756857335E-002
  -6.6285069677330277E-002   2.0523073354042784E-002   3.4045397022165587E-002
  -6.5416440052076058E-002   1.9870380925398105E-002   3.4857534622278696E-002
  -6.4547810426821867E-002   1.9053654785916863E-002   3.5697777557196629E-002
  -6.3679180801567620E-002   1.8072894935598730E-002   3.6566125826919343E-002
  -7.2999771663674939E-002   2.2984066473633380E-002   2.8114995166189205E-002
  -7.2120055709213760E-002   2.2406227947620996E-002   2.8819210286885666E-002
  -7.1240339754752566E-002   2.1655056301809514E-002   2.9517492731191169E-002
  -7.0360623800291372E-002   2.0730551536199220E-002   3.0209842499105924E-002
  -6.9480907845830220E-002   1.9632713650790057E-002   3.0896259590629693E-002
  -4.6455600279654383E-002   1.3393438790024581E-002   5.2845358098355000E-002
  -4.4328472805567246E-002   1.2702163842031822E-002   5.2011016159165480E-002
  -4.2201345331480129E-002   1.2023525972093177E-002   5.1431457217364335E-002
  -4.0074217857392985E-002   1.1357525180208234E-002   5.1106681272951579E-002
  -3.7947090383305876E-002   1.0704161466377371E-002   5.1036688325927226E-002
  -5.2166527018479764E-002   1.4953257505215978E-002   4.7540675080782024E-002
  -4.9791704322805767E-002   1.4156921232852435E-002   4.6698282090567242E-002
  -4.7416881627131771E-002   1.3406554868945764E-002   4.6096496546137844E-002
  -4.5042058931457761E-002   1.2702158413495757E-002   4.5735318447493678E-002
  -4.2667236235783772E-002   1.2043731866502649E-002   4.5614747794634980E-002
  -5.7907720525784190E-002   1.6513076220407347E-002   4.2114264323636866E-002
  -5.5299378160126367E-002   1.5611678623672964E-002   4.1297153112799620E-002
  -5.2691035794468585E-002   1.4789583765798288E-002   4.0706473796144775E-002
  -5.0082693428810769E-002   1.4046791646783277E-002   4.0342226373672060E-002
  -4.7474351063152981E-002   1.3383302266627845E-002   4.0204410845381733E-002
  -6.3679180801567620E-002   1.8072894935598730E-002   3.6566125826919343E-002
  -6.0851494317529134E-002   1.7066436014493619E-002   3.5807629225862676E-002
  -5.8023807833490634E-002   1.6172612662650954E-002   3.5261388967385204E-002
  -5.5196121349452086E-002   1.5391424880070826E-002   3.4927405051486851E-002
  -5.2368434865413600E-002   1.4722872666752998E-002   3.4805677478167860E-002
  -6.9480907845830220E-002   1.9632713650790057E-002   3.0896259590629693E-002
  -6.6448052795014034E-002   1.8521193405314107E-002   3.0229710429756307E-002
  -6.3415197744197835E-002   1.7555641559503343E-002   2.9761242059859000E-002
  -6.0382342693381642E-002   1.6736058113358335E-002   2.9490854480937828E-002
  -5.7349487642565478E-002   1.6062443066878263E-002   2.9418547692992847E-002
  -3.7947090383305876E-002   1.0704161466377371E-002   5.1036688325927226E-002
  -3.4498441269364771E-002   1.0210351446516497E-002   4.7033582907539950E-002
  -3.1049792155423667E-002   1.0023011736540799E-002   4.3364937088557903E-002
  -2.7601143041482548E-002   1.0142142336450818E-002   4.0030750868981418E-002
  -2.4152493927541457E-002   1.0567743246246153E-002   3.7031024248809941E-002
  -4.2667236235783772E-002   1.2043731866502649E-002   4.5614747794634980E-002
  -3.8841594214689849E-002   1.1556345073289565E-002   4.1868496663598265E-002
  -3.5015952193595920E-002   1.1365067879179638E-002   3.8541771747461762E-002
  -3.1190310172501991E-002   1.1469900284173291E-002   3.5634573046225540E-002
  -2.7364668151408020E-002   1.1870842288270012E-002   3.3146900559889669E-002
  -4.7474351063152981E-002   1.3383302266627845E-002   4.0204410845381733E-002
  -4.3186649519411306E-002   1.2902338700062743E-002   3.6704653290913339E-002
  -3.8898947975669583E-002   1.2707124021818700E-002   3.3709488566840085E-002
  -3.4611246431927846E-002   1.2797658231895763E-002   3.1218916673162206E-002
  -3.0323544888186192E-002   1.3173941330293842E-002   2.9232937609879592E-002
  -5.2368434865413600E-002   1.4722872666752998E-002   3.4805677478167860E-002
  -4.7533607183529121E-002   1.4248332326835922E-002   3.1542052789485367E-002
  -4.2698779501644690E-002   1.4049180164457650E-002   2.8868087546693219E-002
  -3.7863951819760266E-002   1.4125416179618235E-002   2.6783781749791315E-002
  -3.3029124137875732E-002   1.4477040372317632E-002   2.5289135398779593E-002
  -5.7349487642565478E-002   1.6062443066878263E-002   2.9418547692992847E-002
  -5.1882467207043398E-002   1.5594325953609045E-002   2.6380695159314294E-002
  -4.6415446771521221E-002   1.5391236307096642E-002   2.4017568687020902E-002
  -4.0948426335999065E-002   1.5453174127340801E-002   2.2329168276112824E-002
  -3.5481405900476909E-002   1.5780139414341421E-002   2.1315493926589824E-002
  -2.4152493927541457E-002   1.0567743246246153E-002   3.7031024248809941E-002
  -2.9358804275957454E-002   1.0650779734361238E-002   5.0410173172935502E-002
  -3.4565114624373436E-002   9.7422170692299387E-003   6.3352417380687115E-002
  -3.9771424972789439E-002   7.8420552508516005E-003   7.5857756872065349E-002
  -4.4977735321205414E-002   4.9502942792269966E-003   8.7926191647069496E-002
  -2.7364668151408020E-002   1.1870842288270012E-002   3.3146900559889669E-002
  -3.3067984113207938E-002   1.1793791066634751E-002   4.5597398472186329E-002
  -3.8771300075007807E-002   1.0464643794431419E-002   5.7490789874088732E-002
  -4.4474616036807565E-002   7.8834004716605462E-003   6.8827074765596907E-002
  -5.0177931998607594E-002   4.0500610983218444E-003   7.9606253146711436E-002
  -3.0323544888186192E-002   1.3173941330293842E-002   2.9232937609879592E-002
  -3.6644068257390340E-002   1.2936802398908098E-002   4.0494287613026134E-002
  -4.2964591626594523E-002   1.1187070519633240E-002   5.1078329311758132E-002
  -4.9285114995798698E-002   7.9247456924693826E-003   6.0985062706075455E-002
  -5.5605638365002846E-002   3.1498279174168031E-003   7.0214487795978719E-002
  -3.3029124137875732E-002   1.4477040372317632E-002   2.5289135398779593E-002
  -4.0087056708504681E-002   1.4079813731181362E-002   3.5100840595454902E-002
  -4.7144989279133548E-002   1.1909497244834946E-002   4.4115035693695182E-002
  -5.4202921849762303E-002   7.9660909132783300E-003   5.2331720693500401E-002
  -6.1260854420391302E-002   2.2495947365117064E-003   5.9750895594870887E-002
  -3.5481405900476909E-002   1.5780139414341421E-002   2.1315493926589824E-002
  -4.3396949466550927E-002   1.5222825063454848E-002   2.9417057419472592E-002
  -5.1312493032624876E-002   1.2631923970036596E-002   3.6600909019899930E-002
  -5.9228036598698831E-002   8.0074361340871508E-003   4.2867048727872281E-002
  -6.7143580164772898E-002   1.3493615556066096E-003   4.8215476543388869E-002
  -9.0365341748264730E-002   0.0000000000000000        4.9802267128635398E-002
  -9.3967478356000930E-002   5.4032980952928699E-003   5.3185091061911979E-002
  -9.7569614963737145E-002   1.0667224599631285E-002   5.4953100838994164E-002
 -0.10117175157147335        1.5791779513015240E-002   5.5106296459881930E-002
 -0.10477388817920955        2.0776962835444751E-002   5.3644677924575314E-002
 -0.10330275247685361        0.0000000000000000        5.8635785369279624E-002
 -0.10684078591421811        1.0891764508968399E-002   5.2103097134068632E-002
 -0.11037881935158263        1.9178952854836888E-002   4.7313429395795428E-002
 -0.11391685278894714        2.4861565037605480E-002   4.4266782154460040E-002
 -0.11745488622631167        2.7939601057274156E-002   4.2963155410062438E-002
 -0.12646261882346899        0.0000000000000000        7.4190372309672112E-002
 -0.12657871443732960        1.6380230922643926E-002   5.5276967333828093E-002
 -0.12669481005119021        2.7690681110042498E-002   4.1464417508054054E-002
 -0.12681090566505085        3.3931350562195713E-002   3.2752722832350048E-002
 -0.12692700127891146        3.5102239279103567E-002   2.9141883306716028E-002
 -0.15984494078811087        0.0000000000000000        9.6466027949812835E-002
 -0.15318126392533538        2.1868697336319458E-002   6.2706701661190328E-002
 -0.14651758706255991        3.6202409365248107E-002   3.7406065175770040E-002
 -0.13985391019978438        4.3001136086785970E-002   2.0564118493551907E-002
 -0.13319023333700891        4.2264877500932975E-002   1.2180861614536043E-002
 -0.20344971837077924        0.0000000000000000       0.12546275228970183     
 -0.18664843437823547        2.7357163749994987E-002   7.4392300116155413E-002
 -0.16984715038569165        4.4714137620453710E-002   3.5138372398943366E-002
 -0.15304586639314788        5.2070921611376185E-002   7.7009691380657552E-003
 -0.13624458240060408        4.9427515722762397E-002  -7.9199096664774732E-003
 -0.10477388817920955        2.0776962835444751E-002   5.3644677924575314E-002
 -0.10209609184266059        2.4916359316564878E-002   4.5633609092177355E-002
  -9.9418295506111670E-002   2.7503553706020707E-002   3.9309957785948715E-002
  -9.6740499169562733E-002   2.8538546003812261E-002   3.4673724005889396E-002
  -9.4062702833013809E-002   2.8021336209939525E-002   3.1724907751999383E-002
 -0.11745488622631167        2.7939601057274156E-002   4.2963155410062438E-002
 -0.11347456122746517        2.9400976639507751E-002   3.6685607306577710E-002
 -0.10949423622861872        3.0233607509971092E-002   3.1325699001518763E-002
 -0.10551391122977226        3.0437493668664158E-002   2.6883430494885528E-002
 -0.10153358623092579        3.0012635115586959E-002   2.3358801786678110E-002
 -0.12692700127891146        3.5102239279103567E-002   2.9141883306716028E-002
 -0.12241392534551104        3.3885593962450618E-002   2.5521313312038611E-002
 -0.11790084941211058        3.2963661313921470E-002   2.2048605388043315E-002
 -0.11338777347871017        3.2336441333516021E-002   1.8723759534730319E-002
 -0.10887469754530971        3.2003934021234359E-002   1.5546775752099390E-002
 -0.13319023333700891        4.2264877500932975E-002   1.2180861614536043E-002
 -0.12891418419679809        3.8370211285393516E-002   1.2140727108559924E-002
 -0.12463813505658729        3.5693715117871762E-002   1.1478676945522372E-002
 -0.12036208591637644        3.4235388998367908E-002   1.0194711125423493E-002
 -0.11608603677616561        3.3995232926881835E-002   8.2888296482631664E-003
 -0.13624458240060408        4.9427515722762397E-002  -7.9199096664774732E-003
 -0.13297533778132645        4.2854828608336365E-002  -3.4561513038582348E-003
 -0.12970609316204879        3.8423768921822192E-002  -3.8408632604406204E-004
 -0.12643684854277112        3.6134336663219788E-002   1.2962852669652974E-003
 -0.12316760392349346        3.5986531832529228E-002   1.5849634751696207E-003
  -9.4062702833013809E-002   2.8021336209939525E-002   3.1724907751999383E-002
  -9.1809534061804740E-002   2.6843804721301795E-002   3.1249427205915094E-002
  -8.9556365290595713E-002   2.5897831934798374E-002   3.0836519058198422E-002
  -8.7303196519386672E-002   2.5183417850429355E-002   3.0486183308849411E-002
  -8.5050027748177617E-002   2.4700562468194590E-002   3.0198419957867997E-002
 -0.10153358623092579        3.0012635115586959E-002   2.3358801786678110E-002
  -9.9204911234009652E-002   2.9273460208609971E-002   2.3141862504513909E-002
  -9.6876236237093544E-002   2.8534397305603733E-002   2.3013363275396201E-002
  -9.4547561240177380E-002   2.7795446406568242E-002   2.2973304099325090E-002
  -9.2218886243261286E-002   2.7056607511503475E-002   2.3021684976300513E-002
 -0.10887469754530971        3.2003934021234359E-002   1.5546775752099390E-002
 -0.10644464866800758        3.1703115695918188E-002   1.5356931035691685E-002
 -0.10401459979070539        3.1170962676409057E-002   1.5281394027009246E-002
 -0.10158455091340325        3.0407474962707168E-002   1.5320164726052469E-002
  -9.9154502036101072E-002   2.9412652554812381E-002   1.5473243132821262E-002
 -0.11608603677616561        3.3995232926881835E-002   8.2888296482631664E-003
 -0.11352874636379845        3.4132771183226371E-002   7.8946327994482042E-003
 -0.11097145595143136        3.3807528047214423E-002   7.6406113130378320E-003
 -0.10841416553906424        3.3019503518846076E-002   7.5267651890317646E-003
 -0.10585687512669713        3.1768697598121218E-002   7.5530944274300885E-003
 -0.12316760392349346        3.5986531832529228E-002   1.5849634751696207E-003
 -0.12045720432138246        3.6562426670534498E-002   7.5496779578397566E-004
 -0.11774680471927143        3.6444093418019692E-002   9.1015133481628374E-005
 -0.11503640511716041        3.5631532074984970E-002  -4.0689451173724425E-004
 -0.11232600551504940        3.4124742641430172E-002  -7.3876113987281222E-004
  -8.5050027748177617E-002   2.4700562468194590E-002   3.0198419957867997E-002
  -8.2037463727051910E-002   2.4317974445158860E-002   2.9117932463723184E-002
  -7.9024899705926299E-002   2.3904362438386621E-002   2.8410532500395193E-002
  -7.6012335684800633E-002   2.3459726447878276E-002   2.8076220067883777E-002
  -7.2999771663674939E-002   2.2984066473633380E-002   2.8114995166189205E-002
  -9.2218886243261286E-002   2.7056607511503475E-002   2.3021684976300513E-002
  -8.8873633348679718E-002   2.6350181786906068E-002   2.2150886703652339E-002
  -8.5528380454098135E-002   2.5708470399272602E-002   2.1572378647099343E-002
  -8.2183127559516539E-002   2.5131473348603044E-002   2.1286160806641193E-002
  -7.8837874664934984E-002   2.4619190634897425E-002   2.1292233182278172E-002
  -9.9154502036101072E-002   2.9412652554812381E-002   1.5473243132821262E-002
  -9.5557357582785371E-002   2.8382389128653228E-002   1.4907872402370129E-002
  -9.1960213129469684E-002   2.7512578360158441E-002   1.4553994573292236E-002
  -8.8363068676153997E-002   2.6803220249327811E-002   1.4411609645587724E-002
  -8.4765924222838324E-002   2.6254314796161554E-002   1.4480717619256414E-002
 -0.10585687512669713        3.1768697598121218E-002   7.5530944274300885E-003
 -0.10208863642936904        3.0414596470400509E-002   7.3888895598763415E-003
  -9.8320397732040932E-002   2.9316686321044283E-002   7.3553802789740677E-003
  -9.4552159034712868E-002   2.8474967150052592E-002   7.4525665847234301E-003
  -9.0783920337384749E-002   2.7889438957425502E-002   7.6804484771241903E-003
 -0.11232600551504940        3.4124742641430172E-002  -7.3876113987281222E-004
 -0.10846746988843065        3.2446803812147595E-002  -4.0606182382901812E-004
 -0.10460893426181186        3.1120794281930236E-002  -2.3464235855474858E-005
 -0.10075039863519307        3.0146714050777339E-002   4.0903162404788695E-004
  -9.6891863008574330E-002   2.9524563118689673E-002   8.9142575588130324E-004
  -7.2999771663674939E-002   2.2984066473633380E-002   2.8114995166189205E-002
  -7.2120055709213760E-002   2.2406227947620996E-002   2.8819210286885666E-002
  -7.1240339754752566E-002   2.1655056301809514E-002   2.9517492731191169E-002
  -7.0360623800291372E-002   2.0730551536199220E-002   3.0209842499105924E-002
  -6.9480907845830220E-002   1.9632713650790057E-002   3.0896259590629693E-002
  -7.8837874664934984E-002   2.4619190634897425E-002   2.1292233182278172E-002
  -7.7948427608299245E-002   2.4076778222675815E-002   2.1773012097999492E-002
  -7.7058980551663409E-002   2.3409392076458035E-002   2.2279185894460894E-002
  -7.6169533495027697E-002   2.2617032196244349E-002   2.2810754571662432E-002
  -7.5280086438391833E-002   2.1699698582034521E-002   2.3367718129604170E-002
  -8.4765924222838324E-002   2.6254314796161554E-002   1.4480717619256414E-002
  -8.3835418506896908E-002   2.5747328497730683E-002   1.4786419715805486E-002
  -8.2904912790955521E-002   2.5163727851106509E-002   1.5148844250225703E-002
  -8.1974407075014091E-002   2.4503512856289399E-002   1.5567991222516862E-002
  -8.1043901359072718E-002   2.3766683513278958E-002   1.6043860632679416E-002
  -9.0783920337384749E-002   2.7889438957425502E-002   7.6804484771241903E-003
  -8.9781028405006721E-002   2.7417878772785498E-002   7.8594331403039237E-003
  -8.8778136472628708E-002   2.6918063625755089E-002   8.1264677984855191E-003
  -8.7775244540250638E-002   2.6389993516334320E-002   8.4815524516692817E-003
  -8.6772352607872666E-002   2.5833668444523269E-002   8.9246870998552809E-003
  -9.6891863008574330E-002   2.9524563118689673E-002   8.9142575588130324E-004
  -9.5785257302628712E-002   2.9088429047840536E-002   9.9205237149435632E-004
  -9.4678651596683039E-002   2.8672399400403586E-002   1.2120565392405580E-003
  -9.3572045890737421E-002   2.8276474176379580E-002   1.5514382591195336E-003
  -9.2465440184791747E-002   2.7900653375767859E-002   2.0101975311321851E-003
  -6.9480907845830220E-002   1.9632713650790057E-002   3.0896259590629693E-002
  -6.6448052795014034E-002   1.8521193405314107E-002   3.0229710429756307E-002
  -6.3415197744197835E-002   1.7555641559503343E-002   2.9761242059859000E-002
  -6.0382342693381642E-002   1.6736058113358335E-002   2.9490854480937828E-002
  -5.7349487642565478E-002   1.6062443066878263E-002   2.9418547692992847E-002
  -7.5280086438391833E-002   2.1699698582034521E-002   2.3367718129604170E-002
  -7.2016466075965541E-002   2.0722582692522626E-002   2.2844905952774178E-002
  -6.8752845713539290E-002   1.9750875986402891E-002   2.2585543608188444E-002
  -6.5489225351112984E-002   1.8784578463675271E-002   2.2589631095846760E-002
  -6.2225604988686664E-002   1.7823690124339653E-002   2.2857168415749224E-002
  -8.1043901359072718E-002   2.3766683513278958E-002   1.6043860632679416E-002
  -7.7484146643768251E-002   2.2923971979731228E-002   1.5524226223619736E-002
  -7.3924391928463840E-002   2.1946110413302328E-002   1.5333410688072160E-002
  -7.0364637213159331E-002   2.0833098813992264E-002   1.5471414026036877E-002
  -6.6804882497854906E-002   1.9584937181800960E-002   1.5938236237513628E-002
  -8.6772352607872666E-002   2.5833668444523269E-002   8.9246870998552809E-003
  -8.2851094498422109E-002   2.5125361266939844E-002   8.2676712422925340E-003
  -7.8929836388971525E-002   2.4141344840201820E-002   8.0048432995098867E-003
  -7.5008578279520940E-002   2.2881619164309478E-002   8.1362032715077068E-003
  -7.1087320170070384E-002   2.1346184239262087E-002   8.6617511582853905E-003
  -9.2465440184791747E-002   2.7900653375767859E-002   2.0101975311321851E-003
  -8.8117309639927033E-002   2.7326750554148294E-002   1.0752410087931374E-003
  -8.3769179095062374E-002   2.6336579267101035E-002   5.9984144250205262E-004
  -7.9421048550197687E-002   2.4930139514626234E-002   5.8399883225968702E-004
  -7.5072918005333000E-002   2.3107431296723768E-002   1.0277131780650484E-003
  -5.7349487642565478E-002   1.6062443066878263E-002   2.9418547692992847E-002
  -5.1882467207043398E-002   1.5594325953609045E-002   2.6380695159314294E-002
  -4.6415446771521221E-002   1.5391236307096642E-002   2.4017568687020902E-002
  -4.0948426335999065E-002   1.5453174127340801E-002   2.2329168276112824E-002
  -3.5481405900476909E-002   1.5780139414341421E-002   2.1315493926589824E-002
  -6.2225604988686664E-002   1.7823690124339653E-002   2.2857168415749224E-002
  -5.6187526510547217E-002   1.6998548082543641E-002   2.0278043139477786E-002
  -5.0149448032407902E-002   1.6439489452434952E-002   1.8166307887055394E-002
  -4.4111369554268504E-002   1.6146514234013795E-002   1.6521962658482492E-002
  -3.8073291076129098E-002   1.6119622427279767E-002   1.5345007453758774E-002
  -6.6804882497854906E-002   1.9584937181800960E-002   1.5938236237513628E-002
  -6.0403082014634173E-002   1.8402770211478153E-002   1.3818894163579593E-002
  -5.4001281531413425E-002   1.7487742597773269E-002   1.1959606075959049E-002
  -4.7599481048192685E-002   1.6839854340686848E-002   1.0360371974652029E-002
  -4.1197680564971896E-002   1.6459105440218169E-002   9.0211918596584950E-003
  -7.1087320170070384E-002   2.1346184239262087E-002   8.6617511582853905E-003
  -6.4529133719304160E-002   1.9806992340412347E-002   7.0032482316199594E-003
  -5.7970947268537812E-002   1.8535995743111693E-002   5.3974632537320873E-003
  -5.1412760817771540E-002   1.7533194447359814E-002   3.8443962246219000E-003
  -4.4854574367005233E-002   1.6798588453156710E-002   2.3440471442890617E-003
  -7.5072918005333000E-002   2.3107431296723768E-002   1.0277131780650484E-003
  -6.8565681624557007E-002   2.1211214469347206E-002  -1.6889465640113066E-004
  -6.2058445243781124E-002   1.9584248888449923E-002  -1.5201205796257222E-003
  -5.5551208863005214E-002   1.8226534554033010E-002  -3.0259645916085667E-003
  -4.9043972482229248E-002   1.7138071466094917E-002  -4.6864266923495324E-003
  -3.5481405900476909E-002   1.5780139414341421E-002   2.1315493926589824E-002
  -4.3396949466550927E-002   1.5222825063454848E-002   2.9417057419472592E-002
  -5.1312493032624876E-002   1.2631923970036596E-002   3.6600909019899930E-002
  -5.9228036598698831E-002   8.0074361340871508E-003   4.2867048727872281E-002
  -6.7143580164772898E-002   1.3493615556066096E-003   4.8215476543388869E-002
  -3.8073291076129098E-002   1.6119622427279767E-002   1.5345007453758774E-002
  -4.7031306675201334E-002   1.6025855808157935E-002   2.1572596603410515E-002
  -5.5989322274273522E-002   1.5532256152572213E-002   2.6632953579521113E-002
  -6.4947337873345778E-002   1.4638823460523410E-002   3.0526078382090691E-002
  -7.3905353472418001E-002   1.3345557732010516E-002   3.3251971011118986E-002
  -4.1197680564971896E-002   1.6459105440218169E-002   9.0211918596584950E-003
  -5.1447688478128209E-002   1.6828886552860911E-002   1.5008560372147206E-002
  -6.1697696391284487E-002   1.8432588335107886E-002   1.9579176430008782E-002
  -7.1947704304440793E-002   2.1270210786959336E-002   2.2733040033243293E-002
  -8.2197712217597099E-002   2.5341753908414866E-002   2.4470151181851196E-002
  -4.4854574367005233E-002   1.6798588453156710E-002   2.3440471442890617E-003
  -5.6646094875331468E-002   1.7631917297564054E-002   9.7249487256824453E-003
  -6.8437615383657738E-002   2.1332920517643697E-002   1.5439577571362800E-002
  -8.0229135891983827E-002   2.7901598113395706E-002   1.9487933681330418E-002
  -9.2020656400310180E-002   3.7337950084818883E-002   2.1870017055585195E-002
  -4.9043972482229248E-002   1.7138071466094917E-002  -4.6864266923495324E-003
  -6.2626525866811167E-002   1.8434948042267307E-002   5.7217616640161673E-003
  -7.6209079251393141E-002   2.4233252700179064E-002   1.4214157003583305E-002
  -8.9791632635975005E-002   3.4532985439831215E-002   2.0790759326351410E-002
 -0.10337418602055704        4.9334146261223122E-002   2.5451568632321342E-002
 </DataArray>
 </PointData>
 </Piece>
 <Piece  NumberOfPoints="          1600 "  NumberOfCells="         1024 ">
 <Points>
 <DataArray  type="Float64" NumberOfComponents="3"  format="ascii" >
  0.50000000000000000        0.0000000000000000        0.0000000000000000     
  0.53125000000000000        0.0000000000000000        0.0000000000000000     
  0.56250000000000000        0.0000000000000000        0.0000000000000000     
  0.59375000000000000        0.0000000000000000        0.0000000000000000     
  0.62500000000000000        0.0000000000000000        0.0000000000000000     
  0.50000000000000000        3.1250000000000000E-002   0.0000000000000000     
  0.53125000000000000        3.1250000000000000E-002   0.0000000000000000     
  0.56250000000000000        3.1250000000000000E-002   0.0000000000000000     
  0.59375000000000000        3.1250000000000000E-002   0.0000000000000000     
  0.62500000000000000        3.1250000000000000E-002   0.0000000000000000     
  0.50000000000000000        6.2500000000000000E-002   0.0000000000000000     
  0.53125000000000000        6.2500000000000000E-002   0.0000000000000000     
  0.56250000000000000        6.2500000000000000E-002   0.0000000000000000     
  0.59375000000000000        6.2500000000000000E-002   0.0000000000000000     
  0.62500000000000000        6.2500000000000000E-002   0.0000000000000000     
  0.50000000000000000        9.3750000000000000E-002   0.0000000000000000     
  0.53125000000000000        9.3750000000000000E-002   0.0000000000000000     
  0.56250000000000000        9.3750000000000000E-002   0.0000000000000000     
  0.59375000000000000        9.3750000000000000E-002   0.0000000000000000     
  0.62500000000000000        9.3750000000000000E-002   0.0000000000000000     
  0.50000000000000000       0.12500000000000000        0.0000000000000000     
  0.53125000000000000       0.12500000000000000        0.0000000000000000     
  0.56250000000000000       0.12500000000000000        0.0000000000000000     
  0.59375000000000000       0.12500000000000000        0.0000000000000000     
  0.62500000000000000       0.12500000000000000        0.0000000000000000     
  0.62500000000000000        0.0000000000000000        0.0000000000000000     
  0.65625000000000000        0.0000000000000000        0.0000000000000000     
  0.68750000000000000        0.0000000000000000        0.0000000000000000     
  0.71875000000000000        0.0000000000000000        0.0000000000000000     
  0.75000000000000000        0.0000000000000000        0.0000000000000000     
  0.62500000000000000        3.1250000000000000E-002   0.0000000000000000     
  0.65625000000000000        3.1250000000000000E-002   0.0000000000000000     
  0.68750000000000000        3.1250000000000000E-002   0.0000000000000000     
  0.71875000000000000        3.1250000000000000E-002   0.0000000000000000     
  0.75000000000000000        3.1250000000000000E-002   0.0000000000000000     
  0.62500000000000000        6.2500000000000000E-002   0.0000000000000000     
  0.65625000000000000        6.2500000000000000E-002   0.0000000000000000     
  0.68750000000000000        6.2500000000000000E-002   0.0000000000000000     
  0.71875000000000000        6.2500000000000000E-002   0.0000000000000000     
  0.75000000000000000        6.2500000000000000E-002   0.0000000000000000     
  0.62500000000000000        9.3750000000000000E-002   0.0000000000000000     
  0.65625000000000000        9.3750000000000000E-002   0.0000000000000000     
  0.68750000000000000        9.3750000000000000E-002   0.0000000000000000     
  0.71875000000000000        9.3750000000000000E-002   0.0000000000000000     
  0.75000000000000000        9.3750000000000000E-002   0.0000000000000000     
  0.62500000000000000       0.12500000000000000        0.0000000000000000     
  0.65625000000000000       0.12500000000000000        0.0000000000000000     
  0.68750000000000000       0.12500000000000000        0.0000000000000000     
  0.71875000000000000       0.12500000000000000        0.0000000000000000     
  0.75000000000000000       0.12500000000000000        0.0000000000000000     
  0.75000000000000000        0.0000000000000000        0.0000000000000000     
  0.78125000000000000        0.0000000000000000        0.0000000000000000     
  0.81250000000000000        0.0000000000000000        0.0000000000000000     
  0.84375000000000000        0.0000000000000000        0.0000000000000000     
  0.87500000000000000        0.0000000000000000        0.0000000000000000     
  0.75000000000000000        3.1250000000000000E-002   0.0000000000000000     
  0.78125000000000000        3.1250000000000000E-002   0.0000000000000000     
  0.81250000000000000        3.1250000000000000E-002   0.0000000000000000     
  0.84375000000000000        3.1250000000000000E-002   0.0000000000000000     
  0.87500000000000000        3.1250000000000000E-002   0.0000000000000000     
  0.75000000000000000        6.2500000000000000E-002   0.0000000000000000     
  0.78125000000000000        6.2500000000000000E-002   0.0000000000000000     
  0.81250000000000000        6.2500000000000000E-002   0.0000000000000000     
  0.84375000000000000        6.2500000000000000E-002   0.0000000000000000     
  0.87500000000000000        6.2500000000000000E-002   0.0000000000000000     
  0.75000000000000000        9.3750000000000000E-002   0.0000000000000000     
  0.78125000000000000        9.3750000000000000E-002   0.0000000000000000     
  0.81250000000000000        9.3750000000000000E-002   0.0000000000000000     
  0.84375000000000000        9.3750000000000000E-002   0.0000000000000000     
  0.87500000000000000        9.3750000000000000E-002   0.0000000000000000     
  0.75000000000000000       0.12500000000000000        0.0000000000000000     
  0.78125000000000000       0.12500000000000000        0.0000000000000000     
  0.81250000000000000       0.12500000000000000        0.0000000000000000     
  0.84375000000000000       0.12500000000000000        0.0000000000000000     
  0.87500000000000000       0.12500000000000000        0.0000000000000000     
  0.87500000000000000        0.0000000000000000        0.0000000000000000     
  0.90625000000000000        0.0000000000000000        0.0000000000000000     
  0.93750000000000000        0.0000000000000000        0.0000000000000000     
  0.96875000000000000        0.0000000000000000        0.0000000000000000     
   1.0000000000000000        0.0000000000000000        0.0000000000000000     
  0.87500000000000000        3.1250000000000000E-002   0.0000000000000000     
  0.90625000000000000        3.1250000000000000E-002   0.0000000000000000     
  0.93750000000000000        3.1250000000000000E-002   0.0000000000000000     
  0.96875000000000000        3.1250000000000000E-002   0.0000000000000000     
   1.0000000000000000        3.1250000000000000E-002   0.0000000000000000     
  0.87500000000000000        6.2500000000000000E-002   0.0000000000000000     
  0.90625000000000000        6.2500000000000000E-002   0.0000000000000000     
  0.93750000000000000        6.2500000000000000E-002   0.0000000000000000     
  0.96875000000000000        6.2500000000000000E-002   0.0000000000000000     
   1.0000000000000000        6.2500000000000000E-002   0.0000000000000000     
  0.87500000000000000        9.3750000000000000E-002   0.0000000000000000     
  0.90625000000000000        9.3750000000000000E-002   0.0000000000000000     
  0.93750000000000000        9.3750000000000000E-002   0.0000000000000000     
  0.96875000000000000        9.3750000000000000E-002   0.0000000000000000     
   1.0000000000000000        9.3750000000000000E-002   0.0000000000000000     
  0.87500000000000000       0.12500000000000000        0.0000000000000000     
  0.90625000000000000       0.12500000000000000        0.0000000000000000     
  0.93750000000000000       0.12500000000000000        0.0000000000000000     
  0.96875000000000000       0.12500000000000000        0.0000000000000000     
   1.0000000000000000       0.12500000000000000        0.0000000000000000     
   1.0000000000000000        0.0000000000000000        0.0000000000000000     
   1.0312500000000000        0.0000000000000000        0.0000000000000000     
   1.0625000000000000        0.0000000000000000        0.0000000000000000     
   1.0937500000000000        0.0000000000000000        0.0000000000000000     
   1.1250000000000000        0.0000000000000000        0.0000000000000000     
   1.0000000000000000        3.1250000000000000E-002   0.0000000000000000     
   1.0312500000000000        3.1250000000000000E-002   0.0000000000000000     
   1.0625000000000000        3.1250000000000000E-002   0.0000000000000000     
   1.0937500000000000        3.1250000000000000E-002   0.0000000000000000     
   1.1250000000000000        3.1250000000000000E-002   0.0000000000000000     
   1.0000000000000000        6.2500000000000000E-002   0.0000000000000000     
   1.0312500000000000        6.2500000000000000E-002   0.0000000000000000     
   1.0625000000000000        6.2500000000000000E-002   0.0000000000000000     
   1.0937500000000000        6.2500000000000000E-002   0.0000000000000000     
   1.1250000000000000        6.2500000000000000E-002   0.0000000000000000     
   1.0000000000000000        9.3750000000000000E-002   0.0000000000000000     
   1.0312500000000000        9.3750000000000000E-002   0.0000000000000000     
   1.0625000000000000        9.3750000000000000E-002   0.0000000000000000     
   1.0937500000000000        9.3750000000000000E-002   0.0000000000000000     
   1.1250000000000000        9.3750000000000000E-002   0.0000000000000000     
   1.0000000000000000       0.12500000000000000        0.0000000000000000     
   1.0312500000000000       0.12500000000000000        0.0000000000000000     
   1.0625000000000000       0.12500000000000000        0.0000000000000000     
   1.0937500000000000       0.12500000000000000        0.0000000000000000     
   1.1250000000000000       0.12500000000000000        0.0000000000000000     
   1.1250000000000000        0.0000000000000000        0.0000000000000000     
   1.1562500000000000        0.0000000000000000        0.0000000000000000     
   1.1875000000000000        0.0000000000000000        0.0000000000000000     
   1.2187500000000000        0.0000000000000000        0.0000000000000000     
   1.2500000000000000        0.0000000000000000        0.0000000000000000     
   1.1250000000000000        3.1250000000000000E-002   0.0000000000000000     
   1.1562500000000000        3.1250000000000000E-002   0.0000000000000000     
   1.1875000000000000        3.1250000000000000E-002   0.0000000000000000     
   1.2187500000000000        3.1250000000000000E-002   0.0000000000000000     
   1.2500000000000000        3.1250000000000000E-002   0.0000000000000000     
   1.1250000000000000        6.2500000000000000E-002   0.0000000000000000     
   1.1562500000000000        6.2500000000000000E-002   0.0000000000000000     
   1.1875000000000000        6.2500000000000000E-002   0.0000000000000000     
   1.2187500000000000        6.2500000000000000E-002   0.0000000000000000     
   1.2500000000000000        6.2500000000000000E-002   0.0000000000000000     
   1.1250000000000000        9.3750000000000000E-002   0.0000000000000000     
   1.1562500000000000        9.3750000000000000E-002   0.0000000000000000     
   1.1875000000000000        9.3750000000000000E-002   0.0000000000000000     
   1.2187500000000000        9.3750000000000000E-002   0.0000000000000000     
   1.2500000000000000        9.3750000000000000E-002   0.0000000000000000     
   1.1250000000000000       0.12500000000000000        0.0000000000000000     
   1.1562500000000000       0.12500000000000000        0.0000000000000000     
   1.1875000000000000       0.12500000000000000        0.0000000000000000     
   1.2187500000000000       0.12500000000000000        0.0000000000000000     
   1.2500000000000000       0.12500000000000000        0.0000000000000000     
   1.2500000000000000        0.0000000000000000        0.0000000000000000     
   1.2812500000000000        0.0000000000000000        0.0000000000000000     
   1.3125000000000000        0.0000000000000000        0.0000000000000000     
   1.3437500000000000        0.0000000000000000        0.0000000000000000     
   1.3750000000000000        0.0000000000000000        0.0000000000000000     
   1.2500000000000000        3.1250000000000000E-002   0.0000000000000000     
   1.2812500000000000        3.1250000000000000E-002   0.0000000000000000     
   1.3125000000000000        3.1250000000000000E-002   0.0000000000000000     
   1.3437500000000000        3.1250000000000000E-002   0.0000000000000000     
   1.3750000000000000        3.1250000000000000E-002   0.0000000000000000     
   1.2500000000000000        6.2500000000000000E-002   0.0000000000000000     
   1.2812500000000000        6.2500000000000000E-002   0.0000000000000000     
   1.3125000000000000        6.2500000000000000E-002   0.0000000000000000     
   1.3437500000000000        6.2500000000000000E-002   0.0000000000000000     
   1.3750000000000000        6.2500000000000000E-002   0.0000000000000000     
   1.2500000000000000        9.3750000000000000E-002   0.0000000000000000     
   1.2812500000000000        9.3750000000000000E-002   0.0000000000000000     
   1.3125000000000000        9.3750000000000000E-002   0.0000000000000000     
   1.3437500000000000        9.3750000000000000E-002   0.0000000000000000     
   1.3750000000000000        9.3750000000000000E-002   0.0000000000000000     
   1.2500000000000000       0.12500000000000000        0.0000000000000000     
   1.2812500000000000       0.12500000000000000        0.0000000000000000     
   1.3125000000000000       0.12500000000000000        0.0000000000000000     
   1.3437500000000000       0.12500000000000000        0.0000000000000000     
   1.3750000000000000       0.12500000000000000        0.0000000000000000     
   1.3750000000000000        0.0000000000000000        0.0000000000000000     
   1.4062500000000000        0.0000000000000000        0.0000000000000000     
   1.4375000000000000        0.0000000000000000        0.0000000000000000     
   1.4687500000000000        0.0000000000000000        0.0000000000000000     
   1.5000000000000000        0.0000000000000000        0.0000000000000000     
   1.3750000000000000        3.1250000000000000E-002   0.0000000000000000     
   1.4062500000000000        3.1250000000000000E-002   0.0000000000000000     
   1.4375000000000000        3.1250000000000000E-002   0.0000000000000000     
   1.4687500000000000        3.1250000000000000E-002   0.0000000000000000     
   1.5000000000000000        3.1250000000000000E-002   0.0000000000000000     
   1.3750000000000000        6.2500000000000000E-002   0.0000000000000000     
   1.4062500000000000        6.2500000000000000E-002   0.0000000000000000     
   1.4375000000000000        6.2500000000000000E-002   0.0000000000000000     
   1.4687500000000000        6.2500000000000000E-002   0.0000000000000000     
   1.5000000000000000        6.2500000000000000E-002   0.0000000000000000     
   1.3750000000000000        9.3750000000000000E-002   0.0000000000000000     
   1.4062500000000000        9.3750000000000000E-002   0.0000000000000000     
   1.4375000000000000        9.3750000000000000E-002   0.0000000000000000     
   1.4687500000000000        9.3750000000000000E-002   0.0000000000000000     
   1.5000000000000000        9.3750000000000000E-002   0.0000000000000000     
   1.3750000000000000       0.12500000000000000        0.0000000000000000     
   1.4062500000000000       0.12500000000000000        0.0000000000000000     
   1.4375000000000000       0.12500000000000000        0.0000000000000000     
   1.4687500000000000       0.12500000000000000        0.0000000000000000     
   1.5000000000000000       0.12500000000000000        0.0000000000000000     
  0.50000000000000000       0.12500000000000000        0.0000000000000000     
  0.53125000000000000       0.12500000000000000        0.0000000000000000     
  0.56250000000000000       0.12500000000000000        0.0000000000000000     
  0.59375000000000000       0.12500000000000000        0.0000000000000000     
  0.62500000000000000       0.12500000000000000        0.0000000000000000     
  0.50000000000000000       0.15625000000000000        0.0000000000000000     
  0.53125000000000000       0.15625000000000000        0.0000000000000000     
  0.56250000000000000       0.15625000000000000        0.0000000000000000     
  0.59375000000000000       0.15625000000000000        0.0000000000000000     
  0.62500000000000000       0.15625000000000000        0.0000000000000000     
  0.50000000000000000       0.18750000000000000        0.0000000000000000     
  0.53125000000000000       0.18750000000000000        0.0000000000000000     
  0.56250000000000000       0.18750000000000000        0.0000000000000000     
  0.59375000000000000       0.18750000000000000        0.0000000000000000     
  0.62500000000000000       0.18750000000000000        0.0000000000000000     
  0.50000000000000000       0.21875000000000000        0.0000000000000000     
  0.53125000000000000       0.21875000000000000        0.0000000000000000     
  0.56250000000000000       0.21875000000000000        0.0000000000000000     
  0.59375000000000000       0.21875000000000000        0.0000000000000000     
  0.62500000000000000       0.21875000000000000        0.0000000000000000     
  0.50000000000000000       0.25000000000000000        0.0000000000000000     
  0.53125000000000000       0.25000000000000000        0.0000000000000000     
  0.56250000000000000       0.25000000000000000        0.0000000000000000     
  0.59375000000000000       0.25000000000000000        0.0000000000000000     
  0.62500000000000000       0.25000000000000000        0.0000000000000000     
  0.62500000000000000       0.12500000000000000        0.0000000000000000     
  0.65625000000000000       0.12500000000000000        0.0000000000000000     
  0.68750000000000000       0.12500000000000000        0.0000000000000000     
  0.71875000000000000       0.12500000000000000        0.0000000000000000     
  0.75000000000000000       0.12500000000000000        0.0000000000000000     
  0.62500000000000000       0.15625000000000000        0.0000000000000000     
  0.65625000000000000       0.15625000000000000        0.0000000000000000     
  0.68750000000000000       0.15625000000000000        0.0000000000000000     
  0.71875000000000000       0.15625000000000000        0.0000000000000000     
  0.75000000000000000       0.15625000000000000        0.0000000000000000     
  0.62500000000000000       0.18750000000000000        0.0000000000000000     
  0.65625000000000000       0.18750000000000000        0.0000000000000000     
  0.68750000000000000       0.18750000000000000        0.0000000000000000     
  0.71875000000000000       0.18750000000000000        0.0000000000000000     
  0.75000000000000000       0.18750000000000000        0.0000000000000000     
  0.62500000000000000       0.21875000000000000        0.0000000000000000     
  0.65625000000000000       0.21875000000000000        0.0000000000000000     
  0.68750000000000000       0.21875000000000000        0.0000000000000000     
  0.71875000000000000       0.21875000000000000        0.0000000000000000     
  0.75000000000000000       0.21875000000000000        0.0000000000000000     
  0.62500000000000000       0.25000000000000000        0.0000000000000000     
  0.65625000000000000       0.25000000000000000        0.0000000000000000     
  0.68750000000000000       0.25000000000000000        0.0000000000000000     
  0.71875000000000000       0.25000000000000000        0.0000000000000000     
  0.75000000000000000       0.25000000000000000        0.0000000000000000     
  0.75000000000000000       0.12500000000000000        0.0000000000000000     
  0.78125000000000000       0.12500000000000000        0.0000000000000000     
  0.81250000000000000       0.12500000000000000        0.0000000000000000     
  0.84375000000000000       0.12500000000000000        0.0000000000000000     
  0.87500000000000000       0.12500000000000000        0.0000000000000000     
  0.75000000000000000       0.15625000000000000        0.0000000000000000     
  0.78125000000000000       0.15625000000000000        0.0000000000000000     
  0.81250000000000000       0.15625000000000000        0.0000000000000000     
  0.84375000000000000       0.15625000000000000        0.0000000000000000     
  0.87500000000000000       0.15625000000000000        0.0000000000000000     
  0.75000000000000000       0.18750000000000000        0.0000000000000000     
  0.78125000000000000       0.18750000000000000        0.0000000000000000     
  0.81250000000000000       0.18750000000000000        0.0000000000000000     
  0.84375000000000000       0.18750000000000000        0.0000000000000000     
  0.87500000000000000       0.18750000000000000        0.0000000000000000     
  0.75000000000000000       0.21875000000000000        0.0000000000000000     
  0.78125000000000000       0.21875000000000000        0.0000000000000000     
  0.81250000000000000       0.21875000000000000        0.0000000000000000     
  0.84375000000000000       0.21875000000000000        0.0000000000000000     
  0.87500000000000000       0.21875000000000000        0.0000000000000000     
  0.75000000000000000       0.25000000000000000        0.0000000000000000     
  0.78125000000000000       0.25000000000000000        0.0000000000000000     
  0.81250000000000000       0.25000000000000000        0.0000000000000000     
  0.84375000000000000       0.25000000000000000        0.0000000000000000     
  0.87500000000000000       0.25000000000000000        0.0000000000000000     
  0.87500000000000000       0.12500000000000000        0.0000000000000000     
  0.90625000000000000       0.12500000000000000        0.0000000000000000     
  0.93750000000000000       0.12500000000000000        0.0000000000000000     
  0.96875000000000000       0.12500000000000000        0.0000000000000000     
   1.0000000000000000       0.12500000000000000        0.0000000000000000     
  0.87500000000000000       0.15625000000000000        0.0000000000000000     
  0.90625000000000000       0.15625000000000000        0.0000000000000000     
  0.93750000000000000       0.15625000000000000        0.0000000000000000     
  0.96875000000000000       0.15625000000000000        0.0000000000000000     
   1.0000000000000000       0.15625000000000000        0.0000000000000000     
  0.87500000000000000       0.18750000000000000        0.0000000000000000     
  0.90625000000000000       0.18750000000000000        0.0000000000000000     
  0.93750000000000000       0.18750000000000000        0.0000000000000000     
  0.96875000000000000       0.18750000000000000        0.0000000000000000     
   1.0000000000000000       0.18750000000000000        0.0000000000000000     
  0.87500000000000000       0.21875000000000000        0.0000000000000000     
  0.90625000000000000       0.21875000000000000        0.0000000000000000     
  0.93750000000000000       0.21875000000000000        0.0000000000000000     
  0.96875000000000000       0.21875000000000000        0.0000000000000000     
   1.0000000000000000       0.21875000000000000        0.0000000000000000     
  0.87500000000000000       0.25000000000000000        0.0000000000000000     
  0.90625000000000000       0.25000000000000000        0.0000000000000000     
  0.93750000000000000       0.25000000000000000        0.0000000000000000     
  0.96875000000000000       0.25000000000000000        0.0000000000000000     
   1.0000000000000000       0.25000000000000000        0.0000000000000000     
   1.0000000000000000       0.12500000000000000        0.0000000000000000     
   1.0312500000000000       0.12500000000000000        0.0000000000000000     
   1.0625000000000000       0.12500000000000000        0.0000000000000000     
   1.0937500000000000       0.12500000000000000        0.0000000000000000     
   1.1250000000000000       0.12500000000000000        0.0000000000000000     
   1.0000000000000000       0.15625000000000000        0.0000000000000000     
   1.0312500000000000       0.15625000000000000        0.0000000000000000     
   1.0625000000000000       0.15625000000000000        0.0000000000000000     
   1.0937500000000000       0.15625000000000000        0.0000000000000000     
   1.1250000000000000       0.15625000000000000        0.0000000000000000     
   1.0000000000000000       0.18750000000000000        0.0000000000000000     
   1.0312500000000000       0.18750000000000000        0.0000000000000000     
   1.0625000000000000       0.18750000000000000        0.0000000000000000     
   1.0937500000000000       0.18750000000000000        0.0000000000000000     
   1.1250000000000000       0.18750000000000000        0.0000000000000000     
   1.0000000000000000       0.21875000000000000        0.0000000000000000     
   1.0312500000000000       0.21875000000000000        0.0000000000000000     
   1.0625000000000000       0.21875000000000000        0.0000000000000000     
   1.0937500000000000       0.21875000000000000        0.0000000000000000     
   1.1250000000000000       0.21875000000000000        0.0000000000000000     
   1.0000000000000000       0.25000000000000000        0.0000000000000000     
   1.0312500000000000       0.25000000000000000        0.0000000000000000     
   1.0625000000000000       0.25000000000000000        0.0000000000000000     
   1.0937500000000000       0.25000000000000000        0.0000000000000000     
   1.1250000000000000       0.25000000000000000        0.0000000000000000     
   1.1250000000000000       0.12500000000000000        0.0000000000000000     
   1.1562500000000000       0.12500000000000000        0.0000000000000000     
   1.1875000000000000       0.12500000000000000        0.0000000000000000     
   1.2187500000000000       0.12500000000000000        0.0000000000000000     
   1.2500000000000000       0.12500000000000000        0.0000000000000000     
   1.1250000000000000       0.15625000000000000        0.0000000000000000     
   1.1562500000000000       0.15625000000000000        0.0000000000000000     
   1.1875000000000000       0.15625000000000000        0.0000000000000000     
   1.2187500000000000       0.15625000000000000        0.0000000000000000     
   1.2500000000000000       0.15625000000000000        0.0000000000000000     
   1.1250000000000000       0.18750000000000000        0.0000000000000000     
   1.1562500000000000       0.18750000000000000        0.0000000000000000     
   1.1875000000000000       0.18750000000000000        0.0000000000000000     
   1.2187500000000000       0.18750000000000000        0.0000000000000000     
   1.2500000000000000       0.18750000000000000        0.0000000000000000     
   1.1250000000000000       0.21875000000000000        0.0000000000000000     
   1.1562500000000000       0.21875000000000000        0.0000000000000000     
   1.1875000000000000       0.21875000000000000        0.0000000000000000     
   1.2187500000000000       0.21875000000000000        0.0000000000000000     
   1.2500000000000000       0.21875000000000000        0.0000000000000000     
   1.1250000000000000       0.25000000000000000        0.0000000000000000     
   1.1562500000000000       0.25000000000000000        0.0000000000000000     
   1.1875000000000000       0.25000000000000000        0.0000000000000000     
   1.2187500000000000       0.25000000000000000        0.0000000000000000     
   1.2500000000000000       0.25000000000000000        0.0000000000000000     
   1.2500000000000000       0.12500000000000000        0.0000000000000000     
   1.2812500000000000       0.12500000000000000        0.0000000000000000     
   1.3125000000000000       0.12500000000000000        0.0000000000000000     
   1.3437500000000000       0.12500000000000000        0.0000000000000000     
   1.3750000000000000       0.12500000000000000        0.0000000000000000     
   1.2500000000000000       0.15625000000000000        0.0000000000000000     
   1.2812500000000000       0.15625000000000000        0.0000000000000000     
   1.3125000000000000       0.15625000000000000        0.0000000000000000     
   1.3437500000000000       0.15625000000000000        0.0000000000000000     
   1.3750000000000000       0.15625000000000000        0.0000000000000000     
   1.2500000000000000       0.18750000000000000        0.0000000000000000     
   1.2812500000000000       0.18750000000000000        0.0000000000000000     
   1.3125000000000000       0.18750000000000000        0.0000000000000000     
   1.3437500000000000       0.18750000000000000        0.0000000000000000     
   1.3750000000000000       0.18750000000000000        0.0000000000000000     
   1.2500000000000000       0.21875000000000000        0.0000000000000000     
   1.2812500000000000       0.21875000000000000        0.0000000000000000     
   1.3125000000000000       0.21875000000000000        0.0000000000000000     
   1.3437500000000000       0.21875000000000000        0.0000000000000000     
   1.3750000000000000       0.21875000000000000        0.0000000000000000     
   1.2500000000000000       0.25000000000000000        0.0000000000000000     
   1.2812500000000000       0.25000000000000000        0.0000000000000000     
   1.3125000000000000       0.25000000000000000        0.0000000000000000     
   1.3437500000000000       0.25000000000000000        0.0000000000000000     
   1.3750000000000000       0.25000000000000000        0.0000000000000000     
   1.3750000000000000       0.12500000000000000        0.0000000000000000     
   1.4062500000000000       0.12500000000000000        0.0000000000000000     
   1.4375000000000000       0.12500000000000000        0.0000000000000000     
   1.4687500000000000       0.12500000000000000        0.0000000000000000     
   1.5000000000000000       0.12500000000000000        0.0000000000000000     
   1.3750000000000000       0.15625000000000000        0.0000000000000000     
   1.4062500000000000       0.15625000000000000        0.0000000000000000     
   1.4375000000000000       0.15625000000000000        0.0000000000000000     
   1.4687500000000000       0.15625000000000000        0.0000000000000000     
   1.5000000000000000       0.15625000000000000        0.0000000000000000     
   1.3750000000000000       0.18750000000000000        0.0000000000000000     
   1.4062500000000000       0.18750000000000000        0.0000000000000000     
   1.4375000000000000       0.18750000000000000        0.0000000000000000     
   1.4687500000000000       0.18750000000000000        0.0000000000000000     
   1.5000000000000000       0.18750000000000000        0.0000000000000000     
   1.3750000000000000       0.21875000000000000        0.0000000000000000     
   1.4062500000000000       0.21875000000000000        0.0000000000000000     
   1.4375000000000000       0.21875000000000000        0.0000000000000000     
   1.4687500000000000       0.21875000000000000        0.0000000000000000     
   1.5000000000000000       0.21875000000000000        0.0000000000000000     
   1.3750000000000000       0.25000000000000000        0.0000000000000000     
   1.4062500000000000       0.25000000000000000        0.0000000000000000     
   1.4375000000000000       0.25000000000000000        0.0000000000000000     
   1.4687500000000000       0.25000000000000000        0.0000000000000000     
   1.5000000000000000       0.25000000000000000        0.0000000000000000     
  0.50000000000000000       0.25000000000000000        0.0000000000000000     
  0.53125000000000000       0.25000000000000000        0.0000000000000000     
  0.56250000000000000       0.25000000000000000        0.0000000000000000     
  0.59375000000000000       0.25000000000000000        0.0000000000000000     
  0.62500000000000000       0.25000000000000000        0.0000000000000000     
  0.50000000000000000       0.28125000000000000        0.0000000000000000     
  0.53125000000000000       0.28125000000000000        0.0000000000000000     
  0.56250000000000000       0.28125000000000000        0.0000000000000000     
  0.59375000000000000       0.28125000000000000        0.0000000000000000     
  0.62500000000000000       0.28125000000000000        0.0000000000000000     
  0.50000000000000000       0.31250000000000000        0.0000000000000000     
  0.53125000000000000       0.31250000000000000        0.0000000000000000     
  0.56250000000000000       0.31250000000000000        0.0000000000000000     
  0.59375000000000000       0.31250000000000000        0.0000000000000000     
  0.62500000000000000       0.31250000000000000        0.0000000000000000     
  0.50000000000000000       0.34375000000000000        0.0000000000000000     
  0.53125000000000000       0.34375000000000000        0.0000000000000000     
  0.56250000000000000       0.34375000000000000        0.0000000000000000     
  0.59375000000000000       0.34375000000000000        0.0000000000000000     
  0.62500000000000000       0.34375000000000000        0.0000000000000000     
  0.50000000000000000       0.37500000000000000        0.0000000000000000     
  0.53125000000000000       0.37500000000000000        0.0000000000000000     
  0.56250000000000000       0.37500000000000000        0.0000000000000000     
  0.59375000000000000       0.37500000000000000        0.0000000000000000     
  0.62500000000000000       0.37500000000000000        0.0000000000000000     
  0.62500000000000000       0.25000000000000000        0.0000000000000000     
  0.65625000000000000       0.25000000000000000        0.0000000000000000     
  0.68750000000000000       0.25000000000000000        0.0000000000000000     
  0.71875000000000000       0.25000000000000000        0.0000000000000000     
  0.75000000000000000       0.25000000000000000        0.0000000000000000     
  0.62500000000000000       0.28125000000000000        0.0000000000000000     
  0.65625000000000000       0.28125000000000000        0.0000000000000000     
  0.68750000000000000       0.28125000000000000        0.0000000000000000     
  0.71875000000000000       0.28125000000000000        0.0000000000000000     
  0.75000000000000000       0.28125000000000000        0.0000000000000000     
  0.62500000000000000       0.31250000000000000        0.0000000000000000     
  0.65625000000000000       0.31250000000000000        0.0000000000000000     
  0.68750000000000000       0.31250000000000000        0.0000000000000000     
  0.71875000000000000       0.31250000000000000        0.0000000000000000     
  0.75000000000000000       0.31250000000000000        0.0000000000000000     
  0.62500000000000000       0.34375000000000000        0.0000000000000000     
  0.65625000000000000       0.34375000000000000        0.0000000000000000     
  0.68750000000000000       0.34375000000000000        0.0000000000000000     
  0.71875000000000000       0.34375000000000000        0.0000000000000000     
  0.75000000000000000       0.34375000000000000        0.0000000000000000     
  0.62500000000000000       0.37500000000000000        0.0000000000000000     
  0.65625000000000000       0.37500000000000000        0.0000000000000000     
  0.68750000000000000       0.37500000000000000        0.0000000000000000     
  0.71875000000000000       0.37500000000000000        0.0000000000000000     
  0.75000000000000000       0.37500000000000000        0.0000000000000000     
  0.75000000000000000       0.25000000000000000        0.0000000000000000     
  0.78125000000000000       0.25000000000000000        0.0000000000000000     
  0.81250000000000000       0.25000000000000000        0.0000000000000000     
  0.84375000000000000       0.25000000000000000        0.0000000000000000     
  0.87500000000000000       0.25000000000000000        0.0000000000000000     
  0.75000000000000000       0.28125000000000000        0.0000000000000000     
  0.78125000000000000       0.28125000000000000        0.0000000000000000     
  0.81250000000000000       0.28125000000000000        0.0000000000000000     
  0.84375000000000000       0.28125000000000000        0.0000000000000000     
  0.87500000000000000       0.28125000000000000        0.0000000000000000     
  0.75000000000000000       0.31250000000000000        0.0000000000000000     
  0.78125000000000000       0.31250000000000000        0.0000000000000000     
  0.81250000000000000       0.31250000000000000        0.0000000000000000     
  0.84375000000000000       0.31250000000000000        0.0000000000000000     
  0.87500000000000000       0.31250000000000000        0.0000000000000000     
  0.75000000000000000       0.34375000000000000        0.0000000000000000     
  0.78125000000000000       0.34375000000000000        0.0000000000000000     
  0.81250000000000000       0.34375000000000000        0.0000000000000000     
  0.84375000000000000       0.34375000000000000        0.0000000000000000     
  0.87500000000000000       0.34375000000000000        0.0000000000000000     
  0.75000000000000000       0.37500000000000000        0.0000000000000000     
  0.78125000000000000       0.37500000000000000        0.0000000000000000     
  0.81250000000000000       0.37500000000000000        0.0000000000000000     
  0.84375000000000000       0.37500000000000000        0.0000000000000000     
  0.87500000000000000       0.37500000000000000        0.0000000000000000     
  0.87500000000000000       0.25000000000000000        0.0000000000000000     
  0.90625000000000000       0.25000000000000000        0.0000000000000000     
  0.93750000000000000       0.25000000000000000        0.0000000000000000     
  0.96875000000000000       0.25000000000000000        0.0000000000000000     
   1.0000000000000000       0.25000000000000000        0.0000000000000000     
  0.87500000000000000       0.28125000000000000        0.0000000000000000     
  0.90625000000000000       0.28125000000000000        0.0000000000000000     
  0.93750000000000000       0.28125000000000000        0.0000000000000000     
  0.96875000000000000       0.28125000000000000        0.0000000000000000     
   1.0000000000000000       0.28125000000000000        0.0000000000000000     
  0.87500000000000000       0.31250000000000000        0.0000000000000000     
  0.90625000000000000       0.31250000000000000        0.0000000000000000     
  0.93750000000000000       0.31250000000000000        0.0000000000000000     
  0.96875000000000000       0.31250000000000000        0.0000000000000000     
   1.0000000000000000       0.31250000000000000        0.0000000000000000     
  0.87500000000000000       0.34375000000000000        0.0000000000000000     
  0.90625000000000000       0.34375000000000000        0.0000000000000000     
  0.93750000000000000       0.34375000000000000        0.0000000000000000     
  0.96875000000000000       0.34375000000000000        0.0000000000000000     
   1.0000000000000000       0.34375000000000000        0.0000000000000000     
  0.87500000000000000       0.37500000000000000        0.0000000000000000     
  0.90625000000000000       0.37500000000000000        0.0000000000000000     
  0.93750000000000000       0.37500000000000000        0.0000000000000000     
  0.96875000000000000       0.37500000000000000        0.0000000000000000     
   1.0000000000000000       0.37500000000000000        0.0000000000000000     
   1.0000000000000000       0.25000000000000000        0.0000000000000000     
   1.0312500000000000       0.25000000000000000        0.0000000000000000     
   1.0625000000000000       0.25000000000000000        0.0000000000000000     
   1.0937500000000000       0.25000000000000000        0.0000000000000000     
   1.1250000000000000       0.25000000000000000        0.0000000000000000     
   1.0000000000000000       0.28125000000000000        0.0000000000000000     
   1.0312500000000000       0.28125000000000000        0.0000000000000000     
   1.0625000000000000       0.28125000000000000        0.0000000000000000     
   1.0937500000000000       0.28125000000000000        0.0000000000000000     
   1.1250000000000000       0.28125000000000000        0.0000000000000000     
   1.0000000000000000       0.31250000000000000        0.0000000000000000     
   1.0312500000000000       0.31250000000000000        0.0000000000000000     
   1.0625000000000000       0.31250000000000000        0.0000000000000000     
   1.0937500000000000       0.31250000000000000        0.0000000000000000     
   1.1250000000000000       0.31250000000000000        0.0000000000000000     
   1.0000000000000000       0.34375000000000000        0.0000000000000000     
   1.0312500000000000       0.34375000000000000        0.0000000000000000     
   1.0625000000000000       0.34375000000000000        0.0000000000000000     
   1.0937500000000000       0.34375000000000000        0.0000000000000000     
   1.1250000000000000       0.34375000000000000        0.0000000000000000     
   1.0000000000000000       0.37500000000000000        0.0000000000000000     
   1.0312500000000000       0.37500000000000000        0.0000000000000000     
   1.0625000000000000       0.37500000000000000        0.0000000000000000     
   1.0937500000000000       0.37500000000000000        0.0000000000000000     
   1.1250000000000000       0.37500000000000000        0.0000000000000000     
   1.1250000000000000       0.25000000000000000        0.0000000000000000     
   1.1562500000000000       0.25000000000000000        0.0000000000000000     
   1.1875000000000000       0.25000000000000000        0.0000000000000000     
   1.2187500000000000       0.25000000000000000        0.0000000000000000     
   1.2500000000000000       0.25000000000000000        0.0000000000000000     
   1.1250000000000000       0.28125000000000000        0.0000000000000000     
   1.1562500000000000       0.28125000000000000        0.0000000000000000     
   1.1875000000000000       0.28125000000000000        0.0000000000000000     
   1.2187500000000000       0.28125000000000000        0.0000000000000000     
   1.2500000000000000       0.28125000000000000        0.0000000000000000     
   1.1250000000000000       0.31250000000000000        0.0000000000000000     
   1.1562500000000000       0.31250000000000000        0.0000000000000000     
   1.1875000000000000       0.31250000000000000        0.0000000000000000     
   1.2187500000000000       0.31250000000000000        0.0000000000000000     
   1.2500000000000000       0.31250000000000000        0.0000000000000000     
   1.1250000000000000       0.34375000000000000        0.0000000000000000     
   1.1562500000000000       0.34375000000000000        0.0000000000000000     
   1.1875000000000000       0.34375000000000000        0.0000000000000000     
   1.2187500000000000       0.34375000000000000        0.0000000000000000     
   1.2500000000000000       0.34375000000000000        0.0000000000000000     
   1.1250000000000000       0.37500000000000000        0.0000000000000000     
   1.1562500000000000       0.37500000000000000        0.0000000000000000     
   1.1875000000000000       0.37500000000000000        0.0000000000000000     
   1.2187500000000000       0.37500000000000000        0.0000000000000000     
   1.2500000000000000       0.37500000000000000        0.0000000000000000     
   1.2500000000000000       0.25000000000000000        0.0000000000000000     
   1.2812500000000000       0.25000000000000000        0.0000000000000000     
   1.3125000000000000       0.25000000000000000        0.0000000000000000     
   1.3437500000000000       0.25000000000000000        0.0000000000000000     
   1.3750000000000000       0.25000000000000000        0.0000000000000000     
   1.2500000000000000       0.28125000000000000        0.0000000000000000     
   1.2812500000000000       0.28125000000000000        0.0000000000000000     
   1.3125000000000000       0.28125000000000000        0.0000000000000000     
   1.3437500000000000       0.28125000000000000        0.0000000000000000     
   1.3750000000000000       0.28125000000000000        0.0000000000000000     
   1.2500000000000000       0.31250000000000000        0.0000000000000000     
   1.2812500000000000       0.31250000000000000        0.0000000000000000     
   1.3125000000000000       0.31250000000000000        0.0000000000000000     
   1.3437500000000000       0.31250000000000000        0.0000000000000000     
   1.3750000000000000       0.31250000000000000        0.0000000000000000     
   1.2500000000000000       0.34375000000000000        0.0000000000000000     
   1.2812500000000000       0.34375000000000000        0.0000000000000000     
   1.3125000000000000       0.34375000000000000        0.0000000000000000     
   1.3437500000000000       0.34375000000000000        0.0000000000000000     
   1.3750000000000000       0.34375000000000000        0.0000000000000000     
   1.2500000000000000       0.37500000000000000        0.0000000000000000     
   1.2812500000000000       0.37500000000000000        0.0000000000000000     
   1.3125000000000000       0.37500000000000000        0.0000000000000000     
   1.3437500000000000       0.37500000000000000        0.0000000000000000     
   1.3750000000000000       0.37500000000000000        0.0000000000000000     
   1.3750000000000000       0.25000000000000000        0.0000000000000000     
   1.4062500000000000       0.25000000000000000        0.0000000000000000     
   1.4375000000000000       0.25000000000000000        0.0000000000000000     
   1.4687500000000000       0.25000000000000000        0.0000000000000000     
   1.5000000000000000       0.25000000000000000        0.0000000000000000     
   1.3750000000000000       0.28125000000000000        0.0000000000000000     
   1.4062500000000000       0.28125000000000000        0.0000000000000000     
   1.4375000000000000       0.28125000000000000        0.0000000000000000     
   1.4687500000000000       0.28125000000000000        0.0000000000000000     
   1.5000000000000000       0.28125000000000000        0.0000000000000000     
   1.3750000000000000       0.31250000000000000        0.0000000000000000     
   1.4062500000000000       0.31250000000000000        0.0000000000000000     
   1.4375000000000000       0.31250000000000000        0.0000000000000000     
   1.4687500000000000       0.31250000000000000        0.0000000000000000     
   1.5000000000000000       0.31250000000000000        0.0000000000000000     
   1.3750000000000000       0.34375000000000000        0.0000000000000000     
   1.4062500000000000       0.34375000000000000        0.0000000000000000     
   1.4375000000000000       0.34375000000000000        0.0000000000000000     
   1.4687500000000000       0.34375000000000000        0.0000000000000000     
   1.5000000000000000       0.34375000000000000        0.0000000000000000     
   1.3750000000000000       0.37500000000000000        0.0000000000000000     
   1.4062500000000000       0.37500000000000000        0.0000000000000000     
   1.4375000000000000       0.37500000000000000        0.0000000000000000     
   1.4687500000000000       0.37500000000000000        0.0000000000000000     
   1.5000000000000000       0.37500000000000000        0.0000000000000000     
  0.50000000000000000       0.37500000000000000        0.0000000000000000     
  0.53125000000000000       0.37500000000000000        0.0000000000000000     
  0.56250000000000000       0.37500000000000000        0.0000000000000000     
  0.59375000000000000       0.37500000000000000        0.0000000000000000     
  0.62500000000000000       0.37500000000000000        0.0000000000000000     
  0.50000000000000000       0.40625000000000000        0.0000000000000000     
  0.53125000000000000       0.40625000000000000        0.0000000000000000     
  0.56250000000000000       0.40625000000000000        0.0000000000000000     
  0.59375000000000000       0.40625000000000000        0.0000000000000000     
  0.62500000000000000       0.40625000000000000        0.0000000000000000     
  0.50000000000000000       0.43750000000000000        0.0000000000000000     
  0.53125000000000000       0.43750000000000000        0.0000000000000000     
  0.56250000000000000       0.43750000000000000        0.0000000000000000     
  0.59375000000000000       0.43750000000000000        0.0000000000000000     
  0.62500000000000000       0.43750000000000000        0.0000000000000000     
  0.50000000000000000       0.46875000000000000        0.0000000000000000     
  0.53125000000000000       0.46875000000000000        0.0000000000000000     
  0.56250000000000000       0.46875000000000000        0.0000000000000000     
  0.59375000000000000       0.46875000000000000        0.0000000000000000     
  0.62500000000000000       0.46875000000000000        0.0000000000000000     
  0.50000000000000000       0.50000000000000000        0.0000000000000000     
  0.53125000000000000       0.50000000000000000        0.0000000000000000     
  0.56250000000000000       0.50000000000000000        0.0000000000000000     
  0.59375000000000000       0.50000000000000000        0.0000000000000000     
  0.62500000000000000       0.50000000000000000        0.0000000000000000     
  0.62500000000000000       0.37500000000000000        0.0000000000000000     
  0.65625000000000000       0.37500000000000000        0.0000000000000000     
  0.68750000000000000       0.37500000000000000        0.0000000000000000     
  0.71875000000000000       0.37500000000000000        0.0000000000000000     
  0.75000000000000000       0.37500000000000000        0.0000000000000000     
  0.62500000000000000       0.40625000000000000        0.0000000000000000     
  0.65625000000000000       0.40625000000000000        0.0000000000000000     
  0.68750000000000000       0.40625000000000000        0.0000000000000000     
  0.71875000000000000       0.40625000000000000        0.0000000000000000     
  0.75000000000000000       0.40625000000000000        0.0000000000000000     
  0.62500000000000000       0.43750000000000000        0.0000000000000000     
  0.65625000000000000       0.43750000000000000        0.0000000000000000     
  0.68750000000000000       0.43750000000000000        0.0000000000000000     
  0.71875000000000000       0.43750000000000000        0.0000000000000000     
  0.75000000000000000       0.43750000000000000        0.0000000000000000     
  0.62500000000000000       0.46875000000000000        0.0000000000000000     
  0.65625000000000000       0.46875000000000000        0.0000000000000000     
  0.68750000000000000       0.46875000000000000        0.0000000000000000     
  0.71875000000000000       0.46875000000000000        0.0000000000000000     
  0.75000000000000000       0.46875000000000000        0.0000000000000000     
  0.62500000000000000       0.50000000000000000        0.0000000000000000     
  0.65625000000000000       0.50000000000000000        0.0000000000000000     
  0.68750000000000000       0.50000000000000000        0.0000000000000000     
  0.71875000000000000       0.50000000000000000        0.0000000000000000     
  0.75000000000000000       0.50000000000000000        0.0000000000000000     
  0.75000000000000000       0.37500000000000000        0.0000000000000000     
  0.78125000000000000       0.37500000000000000        0.0000000000000000     
  0.81250000000000000       0.37500000000000000        0.0000000000000000     
  0.84375000000000000       0.37500000000000000        0.0000000000000000     
  0.87500000000000000       0.37500000000000000        0.0000000000000000     
  0.75000000000000000       0.40625000000000000        0.0000000000000000     
  0.78125000000000000       0.40625000000000000        0.0000000000000000     
  0.81250000000000000       0.40625000000000000        0.0000000000000000     
  0.84375000000000000       0.40625000000000000        0.0000000000000000     
  0.87500000000000000       0.40625000000000000        0.0000000000000000     
  0.75000000000000000       0.43750000000000000        0.0000000000000000     
  0.78125000000000000       0.43750000000000000        0.0000000000000000     
  0.81250000000000000       0.43750000000000000        0.0000000000000000     
  0.84375000000000000       0.43750000000000000        0.0000000000000000     
  0.87500000000000000       0.43750000000000000        0.0000000000000000     
  0.75000000000000000       0.46875000000000000        0.0000000000000000     
  0.78125000000000000       0.46875000000000000        0.0000000000000000     
  0.81250000000000000       0.46875000000000000        0.0000000000000000     
  0.84375000000000000       0.46875000000000000        0.0000000000000000     
  0.87500000000000000       0.46875000000000000        0.0000000000000000     
  0.75000000000000000       0.50000000000000000        0.0000000000000000     
  0.78125000000000000       0.50000000000000000        0.0000000000000000     
  0.81250000000000000       0.50000000000000000        0.0000000000000000     
  0.84375000000000000       0.50000000000000000        0.0000000000000000     
  0.87500000000000000       0.50000000000000000        0.0000000000000000     
  0.87500000000000000       0.37500000000000000        0.0000000000000000     
  0.90625000000000000       0.37500000000000000        0.0000000000000000     
  0.93750000000000000       0.37500000000000000        0.0000000000000000     
  0.96875000000000000       0.37500000000000000        0.0000000000000000     
   1.0000000000000000       0.37500000000000000        0.0000000000000000     
  0.87500000000000000       0.40625000000000000        0.0000000000000000     
  0.90625000000000000       0.40625000000000000        0.0000000000000000     
  0.93750000000000000       0.40625000000000000        0.0000000000000000     
  0.96875000000000000       0.40625000000000000        0.0000000000000000     
   1.0000000000000000       0.40625000000000000        0.0000000000000000     
  0.87500000000000000       0.43750000000000000        0.0000000000000000     
  0.90625000000000000       0.43750000000000000        0.0000000000000000     
  0.93750000000000000       0.43750000000000000        0.0000000000000000     
  0.96875000000000000       0.43750000000000000        0.0000000000000000     
   1.0000000000000000       0.43750000000000000        0.0000000000000000     
  0.87500000000000000       0.46875000000000000        0.0000000000000000     
  0.90625000000000000       0.46875000000000000        0.0000000000000000     
  0.93750000000000000       0.46875000000000000        0.0000000000000000     
  0.96875000000000000       0.46875000000000000        0.0000000000000000     
   1.0000000000000000       0.46875000000000000        0.0000000000000000     
  0.87500000000000000       0.50000000000000000        0.0000000000000000     
  0.90625000000000000       0.50000000000000000        0.0000000000000000     
  0.93750000000000000       0.50000000000000000        0.0000000000000000     
  0.96875000000000000       0.50000000000000000        0.0000000000000000     
   1.0000000000000000       0.50000000000000000        0.0000000000000000     
   1.0000000000000000       0.37500000000000000        0.0000000000000000     
   1.0312500000000000       0.37500000000000000        0.0000000000000000     
   1.0625000000000000       0.37500000000000000        0.0000000000000000     
   1.0937500000000000       0.37500000000000000        0.0000000000000000     
   1.1250000000000000       0.37500000000000000        0.0000000000000000     
   1.0000000000000000       0.40625000000000000        0.0000000000000000     
   1.0312500000000000       0.40625000000000000        0.0000000000000000     
   1.0625000000000000       0.40625000000000000        0.0000000000000000     
   1.0937500000000000       0.40625000000000000        0.0000000000000000     
   1.1250000000000000       0.40625000000000000        0.0000000000000000     
   1.0000000000000000       0.43750000000000000        0.0000000000000000     
   1.0312500000000000       0.43750000000000000        0.0000000000000000     
   1.0625000000000000       0.43750000000000000        0.0000000000000000     
   1.0937500000000000       0.43750000000000000        0.0000000000000000     
   1.1250000000000000       0.43750000000000000        0.0000000000000000     
   1.0000000000000000       0.46875000000000000        0.0000000000000000     
   1.0312500000000000       0.46875000000000000        0.0000000000000000     
   1.0625000000000000       0.46875000000000000        0.0000000000000000     
   1.0937500000000000       0.46875000000000000        0.0000000000000000     
   1.1250000000000000       0.46875000000000000        0.0000000000000000     
   1.0000000000000000       0.50000000000000000        0.0000000000000000     
   1.0312500000000000       0.50000000000000000        0.0000000000000000     
   1.0625000000000000       0.50000000000000000        0.0000000000000000     
   1.0937500000000000       0.50000000000000000        0.0000000000000000     
   1.1250000000000000       0.50000000000000000        0.0000000000000000     
   1.1250000000000000       0.37500000000000000        0.0000000000000000     
   1.1562500000000000       0.37500000000000000        0.0000000000000000     
   1.1875000000000000       0.37500000000000000        0.0000000000000000     
   1.2187500000000000       0.37500000000000000        0.0000000000000000     
   1.2500000000000000       0.37500000000000000        0.0000000000000000     
   1.1250000000000000       0.40625000000000000        0.0000000000000000     
   1.1562500000000000       0.40625000000000000        0.0000000000000000     
   1.1875000000000000       0.40625000000000000        0.0000000000000000     
   1.2187500000000000       0.40625000000000000        0.0000000000000000     
   1.2500000000000000       0.40625000000000000        0.0000000000000000     
   1.1250000000000000       0.43750000000000000        0.0000000000000000     
   1.1562500000000000       0.43750000000000000        0.0000000000000000     
   1.1875000000000000       0.43750000000000000        0.0000000000000000     
   1.2187500000000000       0.43750000000000000        0.0000000000000000     
   1.2500000000000000       0.43750000000000000        0.0000000000000000     
   1.1250000000000000       0.46875000000000000        0.0000000000000000     
   1.1562500000000000       0.46875000000000000        0.0000000000000000     
   1.1875000000000000       0.46875000000000000        0.0000000000000000     
   1.2187500000000000       0.46875000000000000        0.0000000000000000     
   1.2500000000000000       0.46875000000000000        0.0000000000000000     
   1.1250000000000000       0.50000000000000000        0.0000000000000000     
   1.1562500000000000       0.50000000000000000        0.0000000000000000     
   1.1875000000000000       0.50000000000000000        0.0000000000000000     
   1.2187500000000000       0.50000000000000000        0.0000000000000000     
   1.2500000000000000       0.50000000000000000        0.0000000000000000     
   1.2500000000000000       0.37500000000000000        0.0000000000000000     
   1.2812500000000000       0.37500000000000000        0.0000000000000000     
   1.3125000000000000       0.37500000000000000        0.0000000000000000     
   1.3437500000000000       0.37500000000000000        0.0000000000000000     
   1.3750000000000000       0.37500000000000000        0.0000000000000000     
   1.2500000000000000       0.40625000000000000        0.0000000000000000     
   1.2812500000000000       0.40625000000000000        0.0000000000000000     
   1.3125000000000000       0.40625000000000000        0.0000000000000000     
   1.3437500000000000       0.40625000000000000        0.0000000000000000     
   1.3750000000000000       0.40625000000000000        0.0000000000000000     
   1.2500000000000000       0.43750000000000000        0.0000000000000000     
   1.2812500000000000       0.43750000000000000        0.0000000000000000     
   1.3125000000000000       0.43750000000000000        0.0000000000000000     
   1.3437500000000000       0.43750000000000000        0.0000000000000000     
   1.3750000000000000       0.43750000000000000        0.0000000000000000     
   1.2500000000000000       0.46875000000000000        0.0000000000000000     
   1.2812500000000000       0.46875000000000000        0.0000000000000000     
   1.3125000000000000       0.46875000000000000        0.0000000000000000     
   1.3437500000000000       0.46875000000000000        0.0000000000000000     
   1.3750000000000000       0.46875000000000000        0.0000000000000000     
   1.2500000000000000       0.50000000000000000        0.0000000000000000     
   1.2812500000000000       0.50000000000000000        0.0000000000000000     
   1.3125000000000000       0.50000000000000000        0.0000000000000000     
   1.3437500000000000       0.50000000000000000        0.0000000000000000     
   1.3750000000000000       0.50000000000000000        0.0000000000000000     
   1.3750000000000000       0.37500000000000000        0.0000000000000000     
   1.4062500000000000       0.37500000000000000        0.0000000000000000     
   1.4375000000000000       0.37500000000000000        0.0000000000000000     
   1.4687500000000000       0.37500000000000000        0.0000000000000000     
   1.5000000000000000       0.37500000000000000        0.0000000000000000     
   1.3750000000000000       0.40625000000000000        0.0000000000000000     
   1.4062500000000000       0.40625000000000000        0.0000000000000000     
   1.4375000000000000       0.40625000000000000        0.0000000000000000     
   1.4687500000000000       0.40625000000000000        0.0000000000000000     
   1.5000000000000000       0.40625000000000000        0.0000000000000000     
   1.3750000000000000       0.43750000000000000        0.0000000000000000     
   1.4062500000000000       0.43750000000000000        0.0000000000000000     
   1.4375000000000000       0.43750000000000000        0.0000000000000000     
   1.4687500000000000       0.43750000000000000        0.0000000000000000     
   1.5000000000000000       0.43750000000000000        0.0000000000000000     
   1.3750000000000000       0.46875000000000000        0.0000000000000000     
   1.4062500000000000       0.46875000000000000        0.0000000000000000     
   1.4375000000000000       0.46875000000000000        0.0000000000000000     
   1.4687500000000000       0.46875000000000000        0.0000000000000000     
   1.5000000000000000       0.46875000000000000        0.0000000000000000     
   1.3750000000000000       0.50000000000000000        0.0000000000000000     
   1.4062500000000000       0.50000000000000000        0.0000000000000000     
   1.4375000000000000       0.50000000000000000        0.0000000000000000     
   1.4687500000000000       0.50000000000000000        0.0000000000000000     
   1.5000000000000000       0.50000000000000000        0.0000000000000000     
  0.50000000000000000       0.50000000000000000        0.0000000000000000     
  0.53125000000000000       0.50000000000000000        0.0000000000000000     
  0.56250000000000000       0.50000000000000000        0.0000000000000000     
  0.59375000000000000       0.50000000000000000        0.0000000000000000     
  0.62500000000000000       0.50000000000000000        0.0000000000000000     
  0.50000000000000000       0.53125000000000000        0.0000000000000000     
  0.53125000000000000       0.53125000000000000        0.0000000000000000     
  0.56250000000000000       0.53125000000000000        0.0000000000000000     
  0.59375000000000000       0.53125000000000000        0.0000000000000000     
  0.62500000000000000       0.53125000000000000        0.0000000000000000     
  0.50000000000000000       0.56250000000000000        0.0000000000000000     
  0.53125000000000000       0.56250000000000000        0.0000000000000000     
  0.56250000000000000       0.56250000000000000        0.0000000000000000     
  0.59375000000000000       0.56250000000000000        0.0000000000000000     
  0.62500000000000000       0.56250000000000000        0.0000000000000000     
  0.50000000000000000       0.59375000000000000        0.0000000000000000     
  0.53125000000000000       0.59375000000000000        0.0000000000000000     
  0.56250000000000000       0.59375000000000000        0.0000000000000000     
  0.59375000000000000       0.59375000000000000        0.0000000000000000     
  0.62500000000000000       0.59375000000000000        0.0000000000000000     
  0.50000000000000000       0.62500000000000000        0.0000000000000000     
  0.53125000000000000       0.62500000000000000        0.0000000000000000     
  0.56250000000000000       0.62500000000000000        0.0000000000000000     
  0.59375000000000000       0.62500000000000000        0.0000000000000000     
  0.62500000000000000       0.62500000000000000        0.0000000000000000     
  0.62500000000000000       0.50000000000000000        0.0000000000000000     
  0.65625000000000000       0.50000000000000000        0.0000000000000000     
  0.68750000000000000       0.50000000000000000        0.0000000000000000     
  0.71875000000000000       0.50000000000000000        0.0000000000000000     
  0.75000000000000000       0.50000000000000000        0.0000000000000000     
  0.62500000000000000       0.53125000000000000        0.0000000000000000     
  0.65625000000000000       0.53125000000000000        0.0000000000000000     
  0.68750000000000000       0.53125000000000000        0.0000000000000000     
  0.71875000000000000       0.53125000000000000        0.0000000000000000     
  0.75000000000000000       0.53125000000000000        0.0000000000000000     
  0.62500000000000000       0.56250000000000000        0.0000000000000000     
  0.65625000000000000       0.56250000000000000        0.0000000000000000     
  0.68750000000000000       0.56250000000000000        0.0000000000000000     
  0.71875000000000000       0.56250000000000000        0.0000000000000000     
  0.75000000000000000       0.56250000000000000        0.0000000000000000     
  0.62500000000000000       0.59375000000000000        0.0000000000000000     
  0.65625000000000000       0.59375000000000000        0.0000000000000000     
  0.68750000000000000       0.59375000000000000        0.0000000000000000     
  0.71875000000000000       0.59375000000000000        0.0000000000000000     
  0.75000000000000000       0.59375000000000000        0.0000000000000000     
  0.62500000000000000       0.62500000000000000        0.0000000000000000     
  0.65625000000000000       0.62500000000000000        0.0000000000000000     
  0.68750000000000000       0.62500000000000000        0.0000000000000000     
  0.71875000000000000       0.62500000000000000        0.0000000000000000     
  0.75000000000000000       0.62500000000000000        0.0000000000000000     
  0.75000000000000000       0.50000000000000000        0.0000000000000000     
  0.78125000000000000       0.50000000000000000        0.0000000000000000     
  0.81250000000000000       0.50000000000000000        0.0000000000000000     
  0.84375000000000000       0.50000000000000000        0.0000000000000000     
  0.87500000000000000       0.50000000000000000        0.0000000000000000     
  0.75000000000000000       0.53125000000000000        0.0000000000000000     
  0.78125000000000000       0.53125000000000000        0.0000000000000000     
  0.81250000000000000       0.53125000000000000        0.0000000000000000     
  0.84375000000000000       0.53125000000000000        0.0000000000000000     
  0.87500000000000000       0.53125000000000000        0.0000000000000000     
  0.75000000000000000       0.56250000000000000        0.0000000000000000     
  0.78125000000000000       0.56250000000000000        0.0000000000000000     
  0.81250000000000000       0.56250000000000000        0.0000000000000000     
  0.84375000000000000       0.56250000000000000        0.0000000000000000     
  0.87500000000000000       0.56250000000000000        0.0000000000000000     
  0.75000000000000000       0.59375000000000000        0.0000000000000000     
  0.78125000000000000       0.59375000000000000        0.0000000000000000     
  0.81250000000000000       0.59375000000000000        0.0000000000000000     
  0.84375000000000000       0.59375000000000000        0.0000000000000000     
  0.87500000000000000       0.59375000000000000        0.0000000000000000     
  0.75000000000000000       0.62500000000000000        0.0000000000000000     
  0.78125000000000000       0.62500000000000000        0.0000000000000000     
  0.81250000000000000       0.62500000000000000        0.0000000000000000     
  0.84375000000000000       0.62500000000000000        0.0000000000000000     
  0.87500000000000000       0.62500000000000000        0.0000000000000000     
  0.87500000000000000       0.50000000000000000        0.0000000000000000     
  0.90625000000000000       0.50000000000000000        0.0000000000000000     
  0.93750000000000000       0.50000000000000000        0.0000000000000000     
  0.96875000000000000       0.50000000000000000        0.0000000000000000     
   1.0000000000000000       0.50000000000000000        0.0000000000000000     
  0.87500000000000000       0.53125000000000000        0.0000000000000000     
  0.90625000000000000       0.53125000000000000        0.0000000000000000     
  0.93750000000000000       0.53125000000000000        0.0000000000000000     
  0.96875000000000000       0.53125000000000000        0.0000000000000000     
   1.0000000000000000       0.53125000000000000        0.0000000000000000     
  0.87500000000000000       0.56250000000000000        0.0000000000000000     
  0.90625000000000000       0.56250000000000000        0.0000000000000000     
  0.93750000000000000       0.56250000000000000        0.0000000000000000     
  0.96875000000000000       0.56250000000000000        0.0000000000000000     
   1.0000000000000000       0.56250000000000000        0.0000000000000000     
  0.87500000000000000       0.59375000000000000        0.0000000000000000     
  0.90625000000000000       0.59375000000000000        0.0000000000000000     
  0.93750000000000000       0.59375000000000000        0.0000000000000000     
  0.96875000000000000       0.59375000000000000        0.0000000000000000     
   1.0000000000000000       0.59375000000000000        0.0000000000000000     
  0.87500000000000000       0.62500000000000000        0.0000000000000000     
  0.90625000000000000       0.62500000000000000        0.0000000000000000     
  0.93750000000000000       0.62500000000000000        0.0000000000000000     
  0.96875000000000000       0.62500000000000000        0.0000000000000000     
   1.0000000000000000       0.62500000000000000        0.0000000000000000     
   1.0000000000000000       0.50000000000000000        0.0000000000000000     
   1.0312500000000000       0.50000000000000000        0.0000000000000000     
   1.0625000000000000       0.50000000000000000        0.0000000000000000     
   1.0937500000000000       0.50000000000000000        0.0000000000000000     
   1.1250000000000000       0.50000000000000000        0.0000000000000000     
   1.0000000000000000       0.53125000000000000        0.0000000000000000     
   1.0312500000000000       0.53125000000000000        0.0000000000000000     
   1.0625000000000000       0.53125000000000000        0.0000000000000000     
   1.0937500000000000       0.53125000000000000        0.0000000000000000     
   1.1250000000000000       0.53125000000000000        0.0000000000000000     
   1.0000000000000000       0.56250000000000000        0.0000000000000000     
   1.0312500000000000       0.56250000000000000        0.0000000000000000     
   1.0625000000000000       0.56250000000000000        0.0000000000000000     
   1.0937500000000000       0.56250000000000000        0.0000000000000000     
   1.1250000000000000       0.56250000000000000        0.0000000000000000     
   1.0000000000000000       0.59375000000000000        0.0000000000000000     
   1.0312500000000000       0.59375000000000000        0.0000000000000000     
   1.0625000000000000       0.59375000000000000        0.0000000000000000     
   1.0937500000000000       0.59375000000000000        0.0000000000000000     
   1.1250000000000000       0.59375000000000000        0.0000000000000000     
   1.0000000000000000       0.62500000000000000        0.0000000000000000     
   1.0312500000000000       0.62500000000000000        0.0000000000000000     
   1.0625000000000000       0.62500000000000000        0.0000000000000000     
   1.0937500000000000       0.62500000000000000        0.0000000000000000     
   1.1250000000000000       0.62500000000000000        0.0000000000000000     
   1.1250000000000000       0.50000000000000000        0.0000000000000000     
   1.1562500000000000       0.50000000000000000        0.0000000000000000     
   1.1875000000000000       0.50000000000000000        0.0000000000000000     
   1.2187500000000000       0.50000000000000000        0.0000000000000000     
   1.2500000000000000       0.50000000000000000        0.0000000000000000     
   1.1250000000000000       0.53125000000000000        0.0000000000000000     
   1.1562500000000000       0.53125000000000000        0.0000000000000000     
   1.1875000000000000       0.53125000000000000        0.0000000000000000     
   1.2187500000000000       0.53125000000000000        0.0000000000000000     
   1.2500000000000000       0.53125000000000000        0.0000000000000000     
   1.1250000000000000       0.56250000000000000        0.0000000000000000     
   1.1562500000000000       0.56250000000000000        0.0000000000000000     
   1.1875000000000000       0.56250000000000000        0.0000000000000000     
   1.2187500000000000       0.56250000000000000        0.0000000000000000     
   1.2500000000000000       0.56250000000000000        0.0000000000000000     
   1.1250000000000000       0.59375000000000000        0.0000000000000000     
   1.1562500000000000       0.59375000000000000        0.0000000000000000     
   1.1875000000000000       0.59375000000000000        0.0000000000000000     
   1.2187500000000000       0.59375000000000000        0.0000000000000000     
   1.2500000000000000       0.59375000000000000        0.0000000000000000     
   1.1250000000000000       0.62500000000000000        0.0000000000000000     
   1.1562500000000000       0.62500000000000000        0.0000000000000000     
   1.1875000000000000       0.62500000000000000        0.0000000000000000     
   1.2187500000000000       0.62500000000000000        0.0000000000000000     
   1.2500000000000000       0.62500000000000000        0.0000000000000000     
   1.2500000000000000       0.50000000000000000        0.0000000000000000     
   1.2812500000000000       0.50000000000000000        0.0000000000000000     
   1.3125000000000000       0.50000000000000000        0.0000000000000000     
   1.3437500000000000       0.50000000000000000        0.0000000000000000     
   1.3750000000000000       0.50000000000000000        0.0000000000000000     
   1.2500000000000000       0.53125000000000000        0.0000000000000000     
   1.2812500000000000       0.53125000000000000        0.0000000000000000     
   1.3125000000000000       0.53125000000000000        0.0000000000000000     
   1.3437500000000000       0.53125000000000000        0.0000000000000000     
   1.3750000000000000       0.53125000000000000        0.0000000000000000     
   1.2500000000000000       0.56250000000000000        0.0000000000000000     
   1.2812500000000000       0.56250000000000000        0.0000000000000000     
   1.3125000000000000       0.56250000000000000        0.0000000000000000     
   1.3437500000000000       0.56250000000000000        0.0000000000000000     
   1.3750000000000000       0.56250000000000000        0.0000000000000000     
   1.2500000000000000       0.59375000000000000        0.0000000000000000     
   1.2812500000000000       0.59375000000000000        0.0000000000000000     
   1.3125000000000000       0.59375000000000000        0.0000000000000000     
   1.3437500000000000       0.59375000000000000        0.0000000000000000     
   1.3750000000000000       0.59375000000000000        0.0000000000000000     
   1.2500000000000000       0.62500000000000000        0.0000000000000000     
   1.2812500000000000       0.62500000000000000        0.0000000000000000     
   1.3125000000000000       0.62500000000000000        0.0000000000000000     
   1.3437500000000000       0.62500000000000000        0.0000000000000000     
   1.3750000000000000       0.62500000000000000        0.0000000000000000     
   1.3750000000000000       0.50000000000000000        0.0000000000000000     
   1.4062500000000000       0.50000000000000000        0.0000000000000000     
   1.4375000000000000       0.50000000000000000        0.0000000000000000     
   1.4687500000000000       0.50000000000000000        0.0000000000000000     
   1.5000000000000000       0.50000000000000000        0.0000000000000000     
   1.3750000000000000       0.53125000000000000        0.0000000000000000     
   1.4062500000000000       0.53125000000000000        0.0000000000000000     
   1.4375000000000000       0.53125000000000000        0.0000000000000000     
   1.4687500000000000       0.53125000000000000        0.0000000000000000     
   1.5000000000000000       0.53125000000000000        0.0000000000000000     
   1.3750000000000000       0.56250000000000000        0.0000000000000000     
   1.4062500000000000       0.56250000000000000        0.0000000000000000     
   1.4375000000000000       0.56250000000000000        0.0000000000000000     
   1.4687500000000000       0.56250000000000000        0.0000000000000000     
   1.5000000000000000       0.56250000000000000        0.0000000000000000     
   1.3750000000000000       0.59375000000000000        0.0000000000000000     
   1.4062500000000000       0.59375000000000000        0.0000000000000000     
   1.4375000000000000       0.59375000000000000        0.0000000000000000     
   1.4687500000000000       0.59375000000000000        0.0000000000000000     
   1.5000000000000000       0.59375000000000000        0.0000000000000000     
   1.3750000000000000       0.62500000000000000        0.0000000000000000     
   1.4062500000000000       0.62500000000000000        0.0000000000000000     
   1.4375000000000000       0.62500000000000000        0.0000000000000000     
   1.4687500000000000       0.62500000000000000        0.0000000000000000     
   1.5000000000000000       0.62500000000000000        0.0000000000000000     
  0.50000000000000000       0.62500000000000000        0.0000000000000000     
  0.53125000000000000       0.62500000000000000        0.0000000000000000     
  0.56250000000000000       0.62500000000000000        0.0000000000000000     
  0.59375000000000000       0.62500000000000000        0.0000000000000000     
  0.62500000000000000       0.62500000000000000        0.0000000000000000     
  0.50000000000000000       0.65625000000000000        0.0000000000000000     
  0.53125000000000000       0.65625000000000000        0.0000000000000000     
  0.56250000000000000       0.65625000000000000        0.0000000000000000     
  0.59375000000000000       0.65625000000000000        0.0000000000000000     
  0.62500000000000000       0.65625000000000000        0.0000000000000000     
  0.50000000000000000       0.68750000000000000        0.0000000000000000     
  0.53125000000000000       0.68750000000000000        0.0000000000000000     
  0.56250000000000000       0.68750000000000000        0.0000000000000000     
  0.59375000000000000       0.68750000000000000        0.0000000000000000     
  0.62500000000000000       0.68750000000000000        0.0000000000000000     
  0.50000000000000000       0.71875000000000000        0.0000000000000000     
  0.53125000000000000       0.71875000000000000        0.0000000000000000     
  0.56250000000000000       0.71875000000000000        0.0000000000000000     
  0.59375000000000000       0.71875000000000000        0.0000000000000000     
  0.62500000000000000       0.71875000000000000        0.0000000000000000     
  0.50000000000000000       0.75000000000000000        0.0000000000000000     
  0.53125000000000000       0.75000000000000000        0.0000000000000000     
  0.56250000000000000       0.75000000000000000        0.0000000000000000     
  0.59375000000000000       0.75000000000000000        0.0000000000000000     
  0.62500000000000000       0.75000000000000000        0.0000000000000000     
  0.62500000000000000       0.62500000000000000        0.0000000000000000     
  0.65625000000000000       0.62500000000000000        0.0000000000000000     
  0.68750000000000000       0.62500000000000000        0.0000000000000000     
  0.71875000000000000       0.62500000000000000        0.0000000000000000     
  0.75000000000000000       0.62500000000000000        0.0000000000000000     
  0.62500000000000000       0.65625000000000000        0.0000000000000000     
  0.65625000000000000       0.65625000000000000        0.0000000000000000     
  0.68750000000000000       0.65625000000000000        0.0000000000000000     
  0.71875000000000000       0.65625000000000000        0.0000000000000000     
  0.75000000000000000       0.65625000000000000        0.0000000000000000     
  0.62500000000000000       0.68750000000000000        0.0000000000000000     
  0.65625000000000000       0.68750000000000000        0.0000000000000000     
  0.68750000000000000       0.68750000000000000        0.0000000000000000     
  0.71875000000000000       0.68750000000000000        0.0000000000000000     
  0.75000000000000000       0.68750000000000000        0.0000000000000000     
  0.62500000000000000       0.71875000000000000        0.0000000000000000     
  0.65625000000000000       0.71875000000000000        0.0000000000000000     
  0.68750000000000000       0.71875000000000000        0.0000000000000000     
  0.71875000000000000       0.71875000000000000        0.0000000000000000     
  0.75000000000000000       0.71875000000000000        0.0000000000000000     
  0.62500000000000000       0.75000000000000000        0.0000000000000000     
  0.65625000000000000       0.75000000000000000        0.0000000000000000     
  0.68750000000000000       0.75000000000000000        0.0000000000000000     
  0.71875000000000000       0.75000000000000000        0.0000000000000000     
  0.75000000000000000       0.75000000000000000        0.0000000000000000     
  0.75000000000000000       0.62500000000000000        0.0000000000000000     
  0.78125000000000000       0.62500000000000000        0.0000000000000000     
  0.81250000000000000       0.62500000000000000        0.0000000000000000     
  0.84375000000000000       0.62500000000000000        0.0000000000000000     
  0.87500000000000000       0.62500000000000000        0.0000000000000000     
  0.75000000000000000       0.65625000000000000        0.0000000000000000     
  0.78125000000000000       0.65625000000000000        0.0000000000000000     
  0.81250000000000000       0.65625000000000000        0.0000000000000000     
  0.84375000000000000       0.65625000000000000        0.0000000000000000     
  0.87500000000000000       0.65625000000000000        0.0000000000000000     
  0.75000000000000000       0.68750000000000000        0.0000000000000000     
  0.78125000000000000       0.68750000000000000        0.0000000000000000     
  0.81250000000000000       0.68750000000000000        0.0000000000000000     
  0.84375000000000000       0.68750000000000000        0.0000000000000000     
  0.87500000000000000       0.68750000000000000        0.0000000000000000     
  0.75000000000000000       0.71875000000000000        0.0000000000000000     
  0.78125000000000000       0.71875000000000000        0.0000000000000000     
  0.81250000000000000       0.71875000000000000        0.0000000000000000     
  0.84375000000000000       0.71875000000000000        0.0000000000000000     
  0.87500000000000000       0.71875000000000000        0.0000000000000000     
  0.75000000000000000       0.75000000000000000        0.0000000000000000     
  0.78125000000000000       0.75000000000000000        0.0000000000000000     
  0.81250000000000000       0.75000000000000000        0.0000000000000000     
  0.84375000000000000       0.75000000000000000        0.0000000000000000     
  0.87500000000000000       0.75000000000000000        0.0000000000000000     
  0.87500000000000000       0.62500000000000000        0.0000000000000000     
  0.90625000000000000       0.62500000000000000        0.0000000000000000     
  0.93750000000000000       0.62500000000000000        0.0000000000000000     
  0.96875000000000000       0.62500000000000000        0.0000000000000000     
   1.0000000000000000       0.62500000000000000        0.0000000000000000     
  0.87500000000000000       0.65625000000000000        0.0000000000000000     
  0.90625000000000000       0.65625000000000000        0.0000000000000000     
  0.93750000000000000       0.65625000000000000        0.0000000000000000     
  0.96875000000000000       0.65625000000000000        0.0000000000000000     
   1.0000000000000000       0.65625000000000000        0.0000000000000000     
  0.87500000000000000       0.68750000000000000        0.0000000000000000     
  0.90625000000000000       0.68750000000000000        0.0000000000000000     
  0.93750000000000000       0.68750000000000000        0.0000000000000000     
  0.96875000000000000       0.68750000000000000        0.0000000000000000     
   1.0000000000000000       0.68750000000000000        0.0000000000000000     
  0.87500000000000000       0.71875000000000000        0.0000000000000000     
  0.90625000000000000       0.71875000000000000        0.0000000000000000     
  0.93750000000000000       0.71875000000000000        0.0000000000000000     
  0.96875000000000000       0.71875000000000000        0.0000000000000000     
   1.0000000000000000       0.71875000000000000        0.0000000000000000     
  0.87500000000000000       0.75000000000000000        0.0000000000000000     
  0.90625000000000000       0.75000000000000000        0.0000000000000000     
  0.93750000000000000       0.75000000000000000        0.0000000000000000     
  0.96875000000000000       0.75000000000000000        0.0000000000000000     
   1.0000000000000000       0.75000000000000000        0.0000000000000000     
   1.0000000000000000       0.62500000000000000        0.0000000000000000     
   1.0312500000000000       0.62500000000000000        0.0000000000000000     
   1.0625000000000000       0.62500000000000000        0.0000000000000000     
   1.0937500000000000       0.62500000000000000        0.0000000000000000     
   1.1250000000000000       0.62500000000000000        0.0000000000000000     
   1.0000000000000000       0.65625000000000000        0.0000000000000000     
   1.0312500000000000       0.65625000000000000        0.0000000000000000     
   1.0625000000000000       0.65625000000000000        0.0000000000000000     
   1.0937500000000000       0.65625000000000000        0.0000000000000000     
   1.1250000000000000       0.65625000000000000        0.0000000000000000     
   1.0000000000000000       0.68750000000000000        0.0000000000000000     
   1.0312500000000000       0.68750000000000000        0.0000000000000000     
   1.0625000000000000       0.68750000000000000        0.0000000000000000     
   1.0937500000000000       0.68750000000000000        0.0000000000000000     
   1.1250000000000000       0.68750000000000000        0.0000000000000000     
   1.0000000000000000       0.71875000000000000        0.0000000000000000     
   1.0312500000000000       0.71875000000000000        0.0000000000000000     
   1.0625000000000000       0.71875000000000000        0.0000000000000000     
   1.0937500000000000       0.71875000000000000        0.0000000000000000     
   1.1250000000000000       0.71875000000000000        0.0000000000000000     
   1.0000000000000000       0.75000000000000000        0.0000000000000000     
   1.0312500000000000       0.75000000000000000        0.0000000000000000     
   1.0625000000000000       0.75000000000000000        0.0000000000000000     
   1.0937500000000000       0.75000000000000000        0.0000000000000000     
   1.1250000000000000       0.75000000000000000        0.0000000000000000     
   1.1250000000000000       0.62500000000000000        0.0000000000000000     
   1.1562500000000000       0.62500000000000000        0.0000000000000000     
   1.1875000000000000       0.62500000000000000        0.0000000000000000     
   1.2187500000000000       0.62500000000000000        0.0000000000000000     
   1.2500000000000000       0.62500000000000000        0.0000000000000000     
   1.1250000000000000       0.65625000000000000        0.0000000000000000     
   1.1562500000000000       0.65625000000000000        0.0000000000000000     
   1.1875000000000000       0.65625000000000000        0.0000000000000000     
   1.2187500000000000       0.65625000000000000        0.0000000000000000     
   1.2500000000000000       0.65625000000000000        0.0000000000000000     
   1.1250000000000000       0.68750000000000000        0.0000000000000000     
   1.1562500000000000       0.68750000000000000        0.0000000000000000     
   1.1875000000000000       0.68750000000000000        0.0000000000000000     
   1.2187500000000000       0.68750000000000000        0.0000000000000000     
   1.2500000000000000       0.68750000000000000        0.0000000000000000     
   1.1250000000000000       0.71875000000000000        0.0000000000000000     
   1.1562500000000000       0.71875000000000000        0.0000000000000000     
   1.1875000000000000       0.71875000000000000        0.0000000000000000     
   1.2187500000000000       0.71875000000000000        0.0000000000000000     
   1.2500000000000000       0.71875000000000000        0.0000000000000000     
   1.1250000000000000       0.75000000000000000        0.0000000000000000     
   1.1562500000000000       0.75000000000000000        0.0000000000000000     
   1.1875000000000000       0.75000000000000000        0.0000000000000000     
   1.2187500000000000       0.75000000000000000        0.0000000000000000     
   1.2500000000000000       0.75000000000000000        0.0000000000000000     
   1.2500000000000000       0.62500000000000000        0.0000000000000000     
   1.2812500000000000       0.62500000000000000        0.0000000000000000     
   1.3125000000000000       0.62500000000000000        0.0000000000000000     
   1.3437500000000000       0.62500000000000000        0.0000000000000000     
   1.3750000000000000       0.62500000000000000        0.0000000000000000     
   1.2500000000000000       0.65625000000000000        0.0000000000000000     
   1.2812500000000000       0.65625000000000000        0.0000000000000000     
   1.3125000000000000       0.65625000000000000        0.0000000000000000     
   1.3437500000000000       0.65625000000000000        0.0000000000000000     
   1.3750000000000000       0.65625000000000000        0.0000000000000000     
   1.2500000000000000       0.68750000000000000        0.0000000000000000     
   1.2812500000000000       0.68750000000000000        0.0000000000000000     
   1.3125000000000000       0.68750000000000000        0.0000000000000000     
   1.3437500000000000       0.68750000000000000        0.0000000000000000     
   1.3750000000000000       0.68750000000000000        0.0000000000000000     
   1.2500000000000000       0.71875000000000000        0.0000000000000000     
   1.2812500000000000       0.71875000000000000        0.0000000000000000     
   1.3125000000000000       0.71875000000000000        0.0000000000000000     
   1.3437500000000000       0.71875000000000000        0.0000000000000000     
   1.3750000000000000       0.71875000000000000        0.0000000000000000     
   1.2500000000000000       0.75000000000000000        0.0000000000000000     
   1.2812500000000000       0.75000000000000000        0.0000000000000000     
   1.3125000000000000       0.75000000000000000        0.0000000000000000     
   1.3437500000000000       0.75000000000000000        0.0000000000000000     
   1.3750000000000000       0.75000000000000000        0.0000000000000000     
   1.3750000000000000       0.62500000000000000        0.0000000000000000     
   1.4062500000000000       0.62500000000000000        0.0000000000000000     
   1.4375000000000000       0.62500000000000000        0.0000000000000000     
   1.4687500000000000       0.62500000000000000        0.0000000000000000     
   1.5000000000000000       0.62500000000000000        0.0000000000000000     
   1.3750000000000000       0.65625000000000000        0.0000000000000000     
   1.4062500000000000       0.65625000000000000        0.0000000000000000     
   1.4375000000000000       0.65625000000000000        0.0000000000000000     
   1.4687500000000000       0.65625000000000000        0.0000000000000000     
   1.5000000000000000       0.65625000000000000        0.0000000000000000     
   1.3750000000000000       0.68750000000000000        0.0000000000000000     
   1.4062500000000000       0.68750000000000000        0.0000000000000000     
   1.4375000000000000       0.68750000000000000        0.0000000000000000     
   1.4687500000000000       0.68750000000000000        0.0000000000000000     
   1.5000000000000000       0.68750000000000000        0.0000000000000000     
   1.3750000000000000       0.71875000000000000        0.0000000000000000     
   1.4062500000000000       0.71875000000000000        0.0000000000000000     
   1.4375000000000000       0.71875000000000000        0.0000000000000000     
   1.4687500000000000       0.71875000000000000        0.0000000000000000     
   1.5000000000000000       0.71875000000000000        0.0000000000000000     
   1.3750000000000000       0.75000000000000000        0.0000000000000000     
   1.4062500000000000       0.75000000000000000        0.0000000000000000     
   1.4375000000000000       0.75000000000000000        0.0000000000000000     
   1.4687500000000000       0.75000000000000000        0.0000000000000000     
   1.5000000000000000       0.75000000000000000        0.0000000000000000     
  0.50000000000000000       0.75000000000000000        0.0000000000000000     
  0.53125000000000000       0.75000000000000000        0.0000000000000000     
  0.56250000000000000       0.75000000000000000        0.0000000000000000     
  0.59375000000000000       0.75000000000000000        0.0000000000000000     
  0.62500000000000000       0.75000000000000000        0.0000000000000000     
  0.50000000000000000       0.78125000000000000        0.0000000000000000     
  0.53125000000000000       0.78125000000000000        0.0000000000000000     
  0.56250000000000000       0.78125000000000000        0.0000000000000000     
  0.59375000000000000       0.78125000000000000        0.0000000000000000     
  0.62500000000000000       0.78125000000000000        0.0000000000000000     
  0.50000000000000000       0.81250000000000000        0.0000000000000000     
  0.53125000000000000       0.81250000000000000        0.0000000000000000     
  0.56250000000000000       0.81250000000000000        0.0000000000000000     
  0.59375000000000000       0.81250000000000000        0.0000000000000000     
  0.62500000000000000       0.81250000000000000        0.0000000000000000     
  0.50000000000000000       0.84375000000000000        0.0000000000000000     
  0.53125000000000000       0.84375000000000000        0.0000000000000000     
  0.56250000000000000       0.84375000000000000        0.0000000000000000     
  0.59375000000000000       0.84375000000000000        0.0000000000000000     
  0.62500000000000000       0.84375000000000000        0.0000000000000000     
  0.50000000000000000       0.87500000000000000        0.0000000000000000     
  0.53125000000000000       0.87500000000000000        0.0000000000000000     
  0.56250000000000000       0.87500000000000000        0.0000000000000000     
  0.59375000000000000       0.87500000000000000        0.0000000000000000     
  0.62500000000000000       0.87500000000000000        0.0000000000000000     
  0.62500000000000000       0.75000000000000000        0.0000000000000000     
  0.65625000000000000       0.75000000000000000        0.0000000000000000     
  0.68750000000000000       0.75000000000000000        0.0000000000000000     
  0.71875000000000000       0.75000000000000000        0.0000000000000000     
  0.75000000000000000       0.75000000000000000        0.0000000000000000     
  0.62500000000000000       0.78125000000000000        0.0000000000000000     
  0.65625000000000000       0.78125000000000000        0.0000000000000000     
  0.68750000000000000       0.78125000000000000        0.0000000000000000     
  0.71875000000000000       0.78125000000000000        0.0000000000000000     
  0.75000000000000000       0.78125000000000000        0.0000000000000000     
  0.62500000000000000       0.81250000000000000        0.0000000000000000     
  0.65625000000000000       0.81250000000000000        0.0000000000000000     
  0.68750000000000000       0.81250000000000000        0.0000000000000000     
  0.71875000000000000       0.81250000000000000        0.0000000000000000     
  0.75000000000000000       0.81250000000000000        0.0000000000000000     
  0.62500000000000000       0.84375000000000000        0.0000000000000000     
  0.65625000000000000       0.84375000000000000        0.0000000000000000     
  0.68750000000000000       0.84375000000000000        0.0000000000000000     
  0.71875000000000000       0.84375000000000000        0.0000000000000000     
  0.75000000000000000       0.84375000000000000        0.0000000000000000     
  0.62500000000000000       0.87500000000000000        0.0000000000000000     
  0.65625000000000000       0.87500000000000000        0.0000000000000000     
  0.68750000000000000       0.87500000000000000        0.0000000000000000     
  0.71875000000000000       0.87500000000000000        0.0000000000000000     
  0.75000000000000000       0.87500000000000000        0.0000000000000000     
  0.75000000000000000       0.75000000000000000        0.0000000000000000     
  0.78125000000000000       0.75000000000000000        0.0000000000000000     
  0.81250000000000000       0.75000000000000000        0.0000000000000000     
  0.84375000000000000       0.75000000000000000        0.0000000000000000     
  0.87500000000000000       0.75000000000000000        0.0000000000000000     
  0.75000000000000000       0.78125000000000000        0.0000000000000000     
  0.78125000000000000       0.78125000000000000        0.0000000000000000     
  0.81250000000000000       0.78125000000000000        0.0000000000000000     
  0.84375000000000000       0.78125000000000000        0.0000000000000000     
  0.87500000000000000       0.78125000000000000        0.0000000000000000     
  0.75000000000000000       0.81250000000000000        0.0000000000000000     
  0.78125000000000000       0.81250000000000000        0.0000000000000000     
  0.81250000000000000       0.81250000000000000        0.0000000000000000     
  0.84375000000000000       0.81250000000000000        0.0000000000000000     
  0.87500000000000000       0.81250000000000000        0.0000000000000000     
  0.75000000000000000       0.84375000000000000        0.0000000000000000     
  0.78125000000000000       0.84375000000000000        0.0000000000000000     
  0.81250000000000000       0.84375000000000000        0.0000000000000000     
  0.84375000000000000       0.84375000000000000        0.0000000000000000     
  0.87500000000000000       0.84375000000000000        0.0000000000000000     
  0.75000000000000000       0.87500000000000000        0.0000000000000000     
  0.78125000000000000       0.87500000000000000        0.0000000000000000     
  0.81250000000000000       0.87500000000000000        0.0000000000000000     
  0.84375000000000000       0.87500000000000000        0.0000000000000000     
  0.87500000000000000       0.87500000000000000        0.0000000000000000     
  0.87500000000000000       0.75000000000000000        0.0000000000000000     
  0.90625000000000000       0.75000000000000000        0.0000000000000000     
  0.93750000000000000       0.75000000000000000        0.0000000000000000     
  0.96875000000000000       0.75000000000000000        0.0000000000000000     
   1.0000000000000000       0.75000000000000000        0.0000000000000000     
  0.87500000000000000       0.78125000000000000        0.0000000000000000     
  0.90625000000000000       0.78125000000000000        0.0000000000000000     
  0.93750000000000000       0.78125000000000000        0.0000000000000000     
  0.96875000000000000       0.78125000000000000        0.0000000000000000     
   1.0000000000000000       0.78125000000000000        0.0000000000000000     
  0.87500000000000000       0.81250000000000000        0.0000000000000000     
  0.90625000000000000       0.81250000000000000        0.0000000000000000     
  0.93750000000000000       0.81250000000000000        0.0000000000000000     
  0.96875000000000000       0.81250000000000000        0.0000000000000000     
   1.0000000000000000       0.81250000000000000        0.0000000000000000     
  0.87500000000000000       0.84375000000000000        0.0000000000000000     
  0.90625000000000000       0.84375000000000000        0.0000000000000000     
  0.93750000000000000       0.84375000000000000        0.0000000000000000     
  0.96875000000000000       0.84375000000000000        0.0000000000000000     
   1.0000000000000000       0.84375000000000000        0.0000000000000000     
  0.87500000000000000       0.87500000000000000        0.0000000000000000     
  0.90625000000000000       0.87500000000000000        0.0000000000000000     
  0.93750000000000000       0.87500000000000000        0.0000000000000000     
  0.96875000000000000       0.87500000000000000        0.0000000000000000     
   1.0000000000000000       0.87500000000000000        0.0000000000000000     
   1.0000000000000000       0.75000000000000000        0.0000000000000000     
   1.0312500000000000       0.75000000000000000        0.0000000000000000     
   1.0625000000000000       0.75000000000000000        0.0000000000000000     
   1.0937500000000000       0.75000000000000000        0.0000000000000000     
   1.1250000000000000       0.75000000000000000        0.0000000000000000     
   1.0000000000000000       0.78125000000000000        0.0000000000000000     
   1.0312500000000000       0.78125000000000000        0.0000000000000000     
   1.0625000000000000       0.78125000000000000        0.0000000000000000     
   1.0937500000000000       0.78125000000000000        0.0000000000000000     
   1.1250000000000000       0.78125000000000000        0.0000000000000000     
   1.0000000000000000       0.81250000000000000        0.0000000000000000     
   1.0312500000000000       0.81250000000000000        0.0000000000000000     
   1.0625000000000000       0.81250000000000000        0.0000000000000000     
   1.0937500000000000       0.81250000000000000        0.0000000000000000     
   1.1250000000000000       0.81250000000000000        0.0000000000000000     
   1.0000000000000000       0.84375000000000000        0.0000000000000000     
   1.0312500000000000       0.84375000000000000        0.0000000000000000     
   1.0625000000000000       0.84375000000000000        0.0000000000000000     
   1.0937500000000000       0.84375000000000000        0.0000000000000000     
   1.1250000000000000       0.84375000000000000        0.0000000000000000     
   1.0000000000000000       0.87500000000000000        0.0000000000000000     
   1.0312500000000000       0.87500000000000000        0.0000000000000000     
   1.0625000000000000       0.87500000000000000        0.0000000000000000     
   1.0937500000000000       0.87500000000000000        0.0000000000000000     
   1.1250000000000000       0.87500000000000000        0.0000000000000000     
   1.1250000000000000       0.75000000000000000        0.0000000000000000     
   1.1562500000000000       0.75000000000000000        0.0000000000000000     
   1.1875000000000000       0.75000000000000000        0.0000000000000000     
   1.2187500000000000       0.75000000000000000        0.0000000000000000     
   1.2500000000000000       0.75000000000000000        0.0000000000000000     
   1.1250000000000000       0.78125000000000000        0.0000000000000000     
   1.1562500000000000       0.78125000000000000        0.0000000000000000     
   1.1875000000000000       0.78125000000000000        0.0000000000000000     
   1.2187500000000000       0.78125000000000000        0.0000000000000000     
   1.2500000000000000       0.78125000000000000        0.0000000000000000     
   1.1250000000000000       0.81250000000000000        0.0000000000000000     
   1.1562500000000000       0.81250000000000000        0.0000000000000000     
   1.1875000000000000       0.81250000000000000        0.0000000000000000     
   1.2187500000000000       0.81250000000000000        0.0000000000000000     
   1.2500000000000000       0.81250000000000000        0.0000000000000000     
   1.1250000000000000       0.84375000000000000        0.0000000000000000     
   1.1562500000000000       0.84375000000000000        0.0000000000000000     
   1.1875000000000000       0.84375000000000000        0.0000000000000000     
   1.2187500000000000       0.84375000000000000        0.0000000000000000     
   1.2500000000000000       0.84375000000000000        0.0000000000000000     
   1.1250000000000000       0.87500000000000000        0.0000000000000000     
   1.1562500000000000       0.87500000000000000        0.0000000000000000     
   1.1875000000000000       0.87500000000000000        0.0000000000000000     
   1.2187500000000000       0.87500000000000000        0.0000000000000000     
   1.2500000000000000       0.87500000000000000        0.0000000000000000     
   1.2500000000000000       0.75000000000000000        0.0000000000000000     
   1.2812500000000000       0.75000000000000000        0.0000000000000000     
   1.3125000000000000       0.75000000000000000        0.0000000000000000     
   1.3437500000000000       0.75000000000000000        0.0000000000000000     
   1.3750000000000000       0.75000000000000000        0.0000000000000000     
   1.2500000000000000       0.78125000000000000        0.0000000000000000     
   1.2812500000000000       0.78125000000000000        0.0000000000000000     
   1.3125000000000000       0.78125000000000000        0.0000000000000000     
   1.3437500000000000       0.78125000000000000        0.0000000000000000     
   1.3750000000000000       0.78125000000000000        0.0000000000000000     
   1.2500000000000000       0.81250000000000000        0.0000000000000000     
   1.2812500000000000       0.81250000000000000        0.0000000000000000     
   1.3125000000000000       0.81250000000000000        0.0000000000000000     
   1.3437500000000000       0.81250000000000000        0.0000000000000000     
   1.3750000000000000       0.81250000000000000        0.0000000000000000     
   1.2500000000000000       0.84375000000000000        0.0000000000000000     
   1.2812500000000000       0.84375000000000000        0.0000000000000000     
   1.3125000000000000       0.84375000000000000        0.0000000000000000     
   1.3437500000000000       0.84375000000000000        0.0000000000000000     
   1.3750000000000000       0.84375000000000000        0.0000000000000000     
   1.2500000000000000       0.87500000000000000        0.0000000000000000     
   1.2812500000000000       0.87500000000000000        0.0000000000000000     
   1.3125000000000000       0.87500000000000000        0.0000000000000000     
   1.3437500000000000       0.87500000000000000        0.0000000000000000     
   1.3750000000000000       0.87500000000000000        0.0000000000000000     
   1.3750000000000000       0.75000000000000000        0.0000000000000000     
   1.4062500000000000       0.75000000000000000        0.0000000000000000     
   1.4375000000000000       0.75000000000000000        0.0000000000000000     
   1.4687500000000000       0.75000000000000000        0.0000000000000000     
   1.5000000000000000       0.75000000000000000        0.0000000000000000     
   1.3750000000000000       0.78125000000000000        0.0000000000000000     
   1.4062500000000000       0.78125000000000000        0.0000000000000000     
   1.4375000000000000       0.78125000000000000        0.0000000000000000     
   1.4687500000000000       0.78125000000000000        0.0000000000000000     
   1.5000000000000000       0.78125000000000000        0.0000000000000000     
   1.3750000000000000       0.81250000000000000        0.0000000000000000     
   1.4062500000000000       0.81250000000000000        0.0000000000000000     
   1.4375000000000000       0.81250000000000000        0.0000000000000000     
   1.4687500000000000       0.81250000000000000        0.0000000000000000     
   1.5000000000000000       0.81250000000000000        0.0000000000000000     
   1.3750000000000000       0.84375000000000000        0.0000000000000000     
   1.4062500000000000       0.84375000000000000        0.0000000000000000     
   1.4375000000000000       0.84375000000000000        0.0000000000000000     
   1.4687500000000000       0.84375000000000000        0.0000000000000000     
   1.5000000000000000       0.84375000000000000        0.0000000000000000     
   1.3750000000000000       0.87500000000000000        0.0000000000000000     
   1.4062500000000000       0.87500000000000000        0.0000000000000000     
   1.4375000000000000       0.87500000000000000        0.0000000000000000     
   1.4687500000000000       0.87500000000000000        0.0000000000000000     
   1.5000000000000000       0.87500000000000000        0.0000000000000000     
  0.50000000000000000       0.87500000000000000        0.0000000000000000     
  0.53125000000000000       0.87500000000000000        0.0000000000000000     
  0.56250000000000000       0.87500000000000000        0.0000000000000000     
  0.59375000000000000       0.87500000000000000        0.0000000000000000     
  0.62500000000000000       0.87500000000000000        0.0000000000000000     
  0.50000000000000000       0.90625000000000000        0.0000000000000000     
  0.53125000000000000       0.90625000000000000        0.0000000000000000     
  0.56250000000000000       0.90625000000000000        0.0000000000000000     
  0.59375000000000000       0.90625000000000000        0.0000000000000000     
  0.62500000000000000       0.90625000000000000        0.0000000000000000     
  0.50000000000000000       0.93750000000000000        0.0000000000000000     
  0.53125000000000000       0.93750000000000000        0.0000000000000000     
  0.56250000000000000       0.93750000000000000        0.0000000000000000     
  0.59375000000000000       0.93750000000000000        0.0000000000000000     
  0.62500000000000000       0.93750000000000000        0.0000000000000000     
  0.50000000000000000       0.96875000000000000        0.0000000000000000     
  0.53125000000000000       0.96875000000000000        0.0000000000000000     
  0.56250000000000000       0.96875000000000000        0.0000000000000000     
  0.59375000000000000       0.96875000000000000        0.0000000000000000     
  0.62500000000000000       0.96875000000000000        0.0000000000000000     
  0.50000000000000000        1.0000000000000000        0.0000000000000000     
  0.53125000000000000        1.0000000000000000        0.0000000000000000     
  0.56250000000000000        1.0000000000000000        0.0000000000000000     
  0.59375000000000000        1.0000000000000000        0.0000000000000000     
  0.62500000000000000        1.0000000000000000        0.0000000000000000     
  0.62500000000000000       0.87500000000000000        0.0000000000000000     
  0.65625000000000000       0.87500000000000000        0.0000000000000000     
  0.68750000000000000       0.87500000000000000        0.0000000000000000     
  0.71875000000000000       0.87500000000000000        0.0000000000000000     
  0.75000000000000000       0.87500000000000000        0.0000000000000000     
  0.62500000000000000       0.90625000000000000        0.0000000000000000     
  0.65625000000000000       0.90625000000000000        0.0000000000000000     
  0.68750000000000000       0.90625000000000000        0.0000000000000000     
  0.71875000000000000       0.90625000000000000        0.0000000000000000     
  0.75000000000000000       0.90625000000000000        0.0000000000000000     
  0.62500000000000000       0.93750000000000000        0.0000000000000000     
  0.65625000000000000       0.93750000000000000        0.0000000000000000     
  0.68750000000000000       0.93750000000000000        0.0000000000000000     
  0.71875000000000000       0.93750000000000000        0.0000000000000000     
  0.75000000000000000       0.93750000000000000        0.0000000000000000     
  0.62500000000000000       0.96875000000000000        0.0000000000000000     
  0.65625000000000000       0.96875000000000000        0.0000000000000000     
  0.68750000000000000       0.96875000000000000        0.0000000000000000     
  0.71875000000000000       0.96875000000000000        0.0000000000000000     
  0.75000000000000000       0.96875000000000000        0.0000000000000000     
  0.62500000000000000        1.0000000000000000        0.0000000000000000     
  0.65625000000000000        1.0000000000000000        0.0000000000000000     
  0.68750000000000000        1.0000000000000000        0.0000000000000000     
  0.71875000000000000        1.0000000000000000        0.0000000000000000     
  0.75000000000000000        1.0000000000000000        0.0000000000000000     
  0.75000000000000000       0.87500000000000000        0.0000000000000000     
  0.78125000000000000       0.87500000000000000        0.0000000000000000     
  0.81250000000000000       0.87500000000000000        0.0000000000000000     
  0.84375000000000000       0.87500000000000000        0.0000000000000000     
  0.87500000000000000       0.87500000000000000        0.0000000000000000     
  0.75000000000000000       0.90625000000000000        0.0000000000000000     
  0.78125000000000000       0.90625000000000000        0.0000000000000000     
  0.81250000000000000       0.90625000000000000        0.0000000000000000     
  0.84375000000000000       0.90625000000000000        0.0000000000000000     
  0.87500000000000000       0.90625000000000000        0.0000000000000000     
  0.75000000000000000       0.93750000000000000        0.0000000000000000     
  0.78125000000000000       0.93750000000000000        0.0000000000000000     
  0.81250000000000000       0.93750000000000000        0.0000000000000000     
  0.84375000000000000       0.93750000000000000        0.0000000000000000     
  0.87500000000000000       0.93750000000000000        0.0000000000000000     
  0.75000000000000000       0.96875000000000000        0.0000000000000000     
  0.78125000000000000       0.96875000000000000        0.0000000000000000     
  0.81250000000000000       0.96875000000000000        0.0000000000000000     
  0.84375000000000000       0.96875000000000000        0.0000000000000000     
  0.87500000000000000       0.96875000000000000        0.0000000000000000     
  0.75000000000000000        1.0000000000000000        0.0000000000000000     
  0.78125000000000000        1.0000000000000000        0.0000000000000000     
  0.81250000000000000        1.0000000000000000        0.0000000000000000     
  0.84375000000000000        1.0000000000000000        0.0000000000000000     
  0.87500000000000000        1.0000000000000000        0.0000000000000000     
  0.87500000000000000       0.87500000000000000        0.0000000000000000     
  0.90625000000000000       0.87500000000000000        0.0000000000000000     
  0.93750000000000000       0.87500000000000000        0.0000000000000000     
  0.96875000000000000       0.87500000000000000        0.0000000000000000     
   1.0000000000000000       0.87500000000000000        0.0000000000000000     
  0.87500000000000000       0.90625000000000000        0.0000000000000000     
  0.90625000000000000       0.90625000000000000        0.0000000000000000     
  0.93750000000000000       0.90625000000000000        0.0000000000000000     
  0.96875000000000000       0.90625000000000000        0.0000000000000000     
   1.0000000000000000       0.90625000000000000        0.0000000000000000     
  0.87500000000000000       0.93750000000000000        0.0000000000000000     
  0.90625000000000000       0.93750000000000000        0.0000000000000000     
  0.93750000000000000       0.93750000000000000        0.0000000000000000     
  0.96875000000000000       0.93750000000000000        0.0000000000000000     
   1.0000000000000000       0.93750000000000000        0.0000000000000000     
  0.87500000000000000       0.96875000000000000        0.0000000000000000     
  0.90625000000000000       0.96875000000000000        0.0000000000000000     
  0.93750000000000000       0.96875000000000000        0.0000000000000000     
  0.96875000000000000       0.96875000000000000        0.0000000000000000     
   1.0000000000000000       0.96875000000000000        0.0000000000000000     
  0.87500000000000000        1.0000000000000000        0.0000000000000000     
  0.90625000000000000        1.0000000000000000        0.0000000000000000     
  0.93750000000000000        1.0000000000000000        0.0000000000000000     
  0.96875000000000000        1.0000000000000000        0.0000000000000000     
   1.0000000000000000        1.0000000000000000        0.0000000000000000     
   1.0000000000000000       0.87500000000000000        0.0000000000000000     
   1.0312500000000000       0.87500000000000000        0.0000000000000000     
   1.0625000000000000       0.87500000000000000        0.0000000000000000     
   1.0937500000000000       0.87500000000000000        0.0000000000000000     
   1.1250000000000000       0.87500000000000000        0.0000000000000000     
   1.0000000000000000       0.90625000000000000        0.0000000000000000     
   1.0312500000000000       0.90625000000000000        0.0000000000000000     
   1.0625000000000000       0.90625000000000000        0.0000000000000000     
   1.0937500000000000       0.90625000000000000        0.0000000000000000     
   1.1250000000000000       0.90625000000000000        0.0000000000000000     
   1.0000000000000000       0.93750000000000000        0.0000000000000000     
   1.0312500000000000       0.93750000000000000        0.0000000000000000     
   1.0625000000000000       0.93750000000000000        0.0000000000000000     
   1.0937500000000000       0.93750000000000000        0.0000000000000000     
   1.1250000000000000       0.93750000000000000        0.0000000000000000     
   1.0000000000000000       0.96875000000000000        0.0000000000000000     
   1.0312500000000000       0.96875000000000000        0.0000000000000000     
   1.0625000000000000       0.96875000000000000        0.0000000000000000     
   1.0937500000000000       0.96875000000000000        0.0000000000000000     
   1.1250000000000000       0.96875000000000000        0.0000000000000000     
   1.0000000000000000        1.0000000000000000        0.0000000000000000     
   1.0312500000000000        1.0000000000000000        0.0000000000000000     
   1.0625000000000000        1.0000000000000000        0.0000000000000000     
   1.0937500000000000        1.0000000000000000        0.0000000000000000     
   1.1250000000000000        1.0000000000000000        0.0000000000000000     
   1.1250000000000000       0.87500000000000000        0.0000000000000000     
   1.1562500000000000       0.87500000000000000        0.0000000000000000     
   1.1875000000000000       0.87500000000000000        0.0000000000000000     
   1.2187500000000000       0.87500000000000000        0.0000000000000000     
   1.2500000000000000       0.87500000000000000        0.0000000000000000     
   1.1250000000000000       0.90625000000000000        0.0000000000000000     
   1.1562500000000000       0.90625000000000000        0.0000000000000000     
   1.1875000000000000       0.90625000000000000        0.0000000000000000     
   1.2187500000000000       0.90625000000000000        0.0000000000000000     
   1.2500000000000000       0.90625000000000000        0.0000000000000000     
   1.1250000000000000       0.93750000000000000        0.0000000000000000     
   1.1562500000000000       0.93750000000000000        0.0000000000000000     
   1.1875000000000000       0.93750000000000000        0.0000000000000000     
   1.2187500000000000       0.93750000000000000        0.0000000000000000     
   1.2500000000000000       0.93750000000000000        0.0000000000000000     
   1.1250000000000000       0.96875000000000000        0.0000000000000000     
   1.1562500000000000       0.96875000000000000        0.0000000000000000     
   1.1875000000000000       0.96875000000000000        0.0000000000000000     
   1.2187500000000000       0.96875000000000000        0.0000000000000000     
   1.2500000000000000       0.96875000000000000        0.0000000000000000     
   1.1250000000000000        1.0000000000000000        0.0000000000000000     
   1.1562500000000000        1.0000000000000000        0.0000000000000000     
   1.1875000000000000        1.0000000000000000        0.0000000000000000     
   1.2187500000000000        1.0000000000000000        0.0000000000000000     
   1.2500000000000000        1.0000000000000000        0.0000000000000000     
   1.2500000000000000       0.87500000000000000        0.0000000000000000     
   1.2812500000000000       0.87500000000000000        0.0000000000000000     
   1.3125000000000000       0.87500000000000000        0.0000000000000000     
   1.3437500000000000       0.87500000000000000        0.0000000000000000     
   1.3750000000000000       0.87500000000000000        0.0000000000000000     
   1.2500000000000000       0.90625000000000000        0.0000000000000000     
   1.2812500000000000       0.90625000000000000        0.0000000000000000     
   1.3125000000000000       0.90625000000000000        0.0000000000000000     
   1.3437500000000000       0.90625000000000000        0.0000000000000000     
   1.3750000000000000       0.90625000000000000        0.0000000000000000     
   1.2500000000000000       0.93750000000000000        0.0000000000000000     
   1.2812500000000000       0.93750000000000000        0.0000000000000000     
   1.3125000000000000       0.93750000000000000        0.0000000000000000     
   1.3437500000000000       0.93750000000000000        0.0000000000000000     
   1.3750000000000000       0.93750000000000000        0.0000000000000000     
   1.2500000000000000       0.96875000000000000        0.0000000000000000     
   1.2812500000000000       0.96875000000000000        0.0000000000000000     
   1.3125000000000000       0.96875000000000000        0.0000000000000000     
   1.3437500000000000       0.96875000000000000        0.0000000000000000     
   1.3750000000000000       0.96875000000000000        0.0000000000000000     
   1.2500000000000000        1.0000000000000000        0.0000000000000000     
   1.2812500000000000        1.0000000000000000        0.0000000000000000     
   1.3125000000000000        1.0000000000000000        0.0000000000000000     
   1.3437500000000000        1.0000000000000000        0.0000000000000000     
   1.3750000000000000        1.0000000000000000        0.0000000000000000     
   1.3750000000000000       0.87500000000000000        0.0000000000000000     
   1.4062500000000000       0.87500000000000000        0.0000000000000000     
   1.4375000000000000       0.87500000000000000        0.0000000000000000     
   1.4687500000000000       0.87500000000000000        0.0000000000000000     
   1.5000000000000000       0.87500000000000000        0.0000000000000000     
   1.3750000000000000       0.90625000000000000        0.0000000000000000     
   1.4062500000000000       0.90625000000000000        0.0000000000000000     
   1.4375000000000000       0.90625000000000000        0.0000000000000000     
   1.4687500000000000       0.90625000000000000        0.0000000000000000     
   1.5000000000000000       0.90625000000000000        0.0000000000000000     
   1.3750000000000000       0.93750000000000000        0.0000000000000000     
   1.4062500000000000       0.93750000000000000        0.0000000000000000     
   1.4375000000000000       0.93750000000000000        0.0000000000000000     
   1.4687500000000000       0.93750000000000000        0.0000000000000000     
   1.5000000000000000       0.93750000000000000        0.0000000000000000     
   1.3750000000000000       0.96875000000000000        0.0000000000000000     
   1.4062500000000000       0.96875000000000000        0.0000000000000000     
   1.4375000000000000       0.96875000000000000        0.0000000000000000     
   1.4687500000000000       0.96875000000000000        0.0000000000000000     
   1.5000000000000000       0.96875000000000000        0.0000000000000000     
   1.3750000000000000        1.0000000000000000        0.0000000000000000     
   1.4062500000000000        1.0000000000000000        0.0000000000000000     
   1.4375000000000000        1.0000000000000000        0.0000000000000000     
   1.4687500000000000        1.0000000000000000        0.0000000000000000     
   1.5000000000000000        1.0000000000000000        0.0000000000000000     
 </DataArray>
 </Points>
 <Cells>
 <DataArray  type="Int32"  Name="connectivity"  format="ascii">
           0           1           6           5
           1           2           7           6
           2           3           8           7
           3           4           9           8
           5           6          11          10
           6           7          12          11
           7           8          13          12
           8           9          14          13
          10          11          16          15
          11          12          17          16
          12          13          18          17
          13          14          19          18
          15          16          21          20
          16          17          22          21
          17          18          23          22
          18          19          24          23
          25          26          31          30
          26          27          32          31
          27          28          33          32
          28          29          34          33
          30          31          36          35
          31          32          37          36
          32          33          38          37
          33          34          39          38
          35          36          41          40
          36          37          42          41
          37          38          43          42
          38          39          44          43
          40          41          46          45
          41          42          47          46
          42          43          48          47
          43          44          49          48
          50          51          56          55
          51          52          57          56
          52          53          58          57
          53          54          59          58
          55          56          61          60
          56          57          62          61
          57          58          63          62
          58          59          64          63
          60          61          66          65
          61          62          67          66
          62          63          68          67
          63          64          69          68
          65          66          71          70
          66          67          72          71
          67          68          73          72
          68          69          74          73
          75          76          81          80
          76          77          82          81
          77          78          83          82
          78          79          84          83
          80          81          86          85
          81          82          87          86
          82          83          88          87
          83          84          89          88
          85          86          91          90
          86          87          92          91
          87          88          93          92
          88          89          94          93
          90          91          96          95
          91          92          97          96
          92          93          98          97
          93          94          99          98
         100         101         106         105
         101         102         107         106
         102         103         108         107
         103         104         109         108
         105         106         111         110
         106         107         112         111
         107         108         113         112
         108         109         114         113
         110         111         116         115
         111         112         117         116
         112         113         118         117
         113         114         119         118
         115         116         121         120
         116         117         122         121
         117         118         123         122
         118         119         124         123
         125         126         131         130
         126         127         132         131
         127         128         133         132
         128         129         134         133
         130         131         136         135
         131         132         137         136
         132         133         138         137
         133         134         139         138
         135         136         141         140
         136         137         142         141
         137         138         143         142
         138         139         144         143
         140         141         146         145
         141         142         147         146
         142         143         148         147
         143         144         149         148
         150         151         156         155
         151         152         157         156
         152         153         158         157
         153         154         159         158
         155         156         161         160
         156         157         162         161
         157         158         163         162
         158         159         164         163
         160         161         166         165
         161         162         167         166
         162         163         168         167
         163         164         169         168
         165         166         171         170
         166         167         172         171
         167         168         173         172
         168         169         174         173
         175         176         181         180
         176         177         182         181
         177         178         183         182
         178         179         184         183
         180         181         186         185
         181         182         187         186
         182         183         188         187
         183         184         189         188
         185         186         191         190
         186         187         192         191
         187         188         193         192
         188         189         194         193
         190         191         196         195
         191         192         197         196
         192         193         198         197
         193         194         199         198
         200         201         206         205
         201         202         207         206
         202         203         208         207
         203         204         209         208
         205         206         211         210
         206         207         212         211
         207         208         213         212
         208         209         214         213
         210         211         216         215
         211         212         217         216
         212         213         218         217
         213         214         219         218
         215         216         221         220
         216         217         222         221
         217         218         223         222
         218         219         224         223
         225         226         231         230
         226         227         232         231
         227         228         233         232
         228         229         234         233
         230         231         236         235
         231         232         237         236
         232         233         238         237
         233         234         239         238
         235         236         241         240
         236         237         242         241
         237         238         243         242
         238         239         244         243
         240         241         246         245
         241         242         247         246
         242         243         248         247
         243         244         249         248
         250         251         256         255
         251         252         257         256
         252         253         258         257
         253         254         259         258
         255         256         261         260
         256         257         262         261
         257         258         263         262
         258         259         264         263
         260         261         266         265
         261         262         267         266
         262         263         268         267
         263         264         269         268
         265         266         271         270
         266         267         272         271
         267         268         273         272
         268         269         274         273
         275         276         281         280
         276         277         282         281
         277         278         283         282
         278         279         284         283
         280         281         286         285
         281         282         287         286
         282         283         288         287
         283         284         289         288
         285         286         291         290
         286         287         292         291
         287         288         293         292
         288         289         294         293
         290         291         296         295
         291         292         297         296
         292         293         298         297
         293         294         299         298
         300         301         306         305
         301         302         307         306
         302         303         308         307
         303         304         309         308
         305         306         311         310
         306         307         312         311
         307         308         313         312
         308         309         314         313
         310         311         316         315
         311         312         317         316
         312         313         318         317
         313         314         319         318
         315         316         321         320
         316         317         322         321
         317         318         323         322
         318         319         324         323
         325         326         331         330
         326         327         332         331
         327         328         333         332
         328         329         334         333
         330         331         336         335
         331         332         337         336
         332         333         338         337
         333         334         339         338
         335         336         341         340
         336         337         342         341
         337         338         343         342
         338         339         344         343
         340         341         346         345
         341         342         347         346
         342         343         348         347
         343         344         349         348
         350         351         356         355
         351         352         357         356
         352         353         358         357
         353         354         359         358
         355         356         361         360
         356         357         362         361
         357         358         363         362
         358         359         364         363
         360         361         366         365
         361         362         367         366
         362         363         368         367
         363         364         369         368
         365         366         371         370
         366         367         372         371
         367         368         373         372
         368         369         374         373
         375         376         381         380
         376         377         382         381
         377         378         383         382
         378         379         384         383
         380         381         386         385
         381         382         387         386
         382         383         388         387
         383         384         389         388
         385         386         391         390
         386         387         392         391
         387         388         393         392
         388         389         394         393
         390         391         396         395
         391         392         397         396
         392         393         398         397
         393         394         399         398
         400         401         406         405
         401         402         407         406
         402         403         408         407
         403         404         409         408
         405         406         411         410
         406         407         412         411
         407         408         413         412
         408         409         414         413
         410         411         416         415
         411         412         417         416
         412         413         418         417
         413         414         419         418
         415         416         421         420
         416         417         422         421
         417         418         423         422
         418         419         424         423
         425         426         431         430
         426         427         432         431
         427         428         433         432
         428         429         434         433
         430         431         436         435
         431         432         437         436
         432         433         438         437
         433         434         439         438
         435         436         441         440
         436         437         442         441
         437         438         443         442
         438         439         444         443
         440         441         446         445
         441         442         447         446
         442         443         448         447
         443         444         449         448
         450         451         456         455
         451         452         457         456
         452         453         458         457
         453         454         459         458
         455         456         461         460
         456         457         462         461
         457         458         463         462
         458         459         464         463
         460         461         466         465
         461         462         467         466
         462         463         468         467
         463         464         469         468
         465         466         471         470
         466         467         472         471
         467         468         473         472
         468         469         474         473
         475         476         481         480
         476         477         482         481
         477         478         483         482
         478         479         484         483
         480         481         486         485
         481         482         487         486
         482         483         488         487
         483         484         489         488
         485         486         491         490
         486         487         492         491
         487         488         493         492
         488         489         494         493
         490         491         496         495
         491         492         497         496
         492         493         498         497
         493         494         499         498
         500         501         506         505
         501         502         507         506
         502         503         508         507
         503         504         509         508
         505         506         511         510
         506         507         512         511
         507         508         513         512
         508         509         514         513
         510         511         516         515
         511         512         517         516
         512         513         518         517
         513         514         519         518
         515         516         521         520
         516         517         522         521
         517         518         523         522
         518         519         524         523
         525         526         531         530
         526         527         532         531
         527         528         533         532
         528         529         534         533
         530         531         536         535
         531         532         537         536
         532         533         538         537
         533         534         539         538
         535         536         541         540
         536         537         542         541
         537         538         543         542
         538         539         544         543
         540         541         546         545
         541         542         547         546
         542         543         548         547
         543         544         549         548
         550         551         556         555
         551         552         557         556
         552         553         558         557
         553         554         559         558
         555         556         561         560
         556         557         562         561
         557         558         563         562
         558         559         564         563
         560         561         566         565
         561         562         567         566
         562         563         568         567
         563         564         569         568
         565         566         571         570
         566         567         572         571
         567         568         573         572
         568         569         574         573
         575         576         581         580
         576         577         582         581
         577         578         583         582
         578         579         584         583
         580         581         586         585
         581         582         587         586
         582         583         588         587
         583         584         589         588
         585         586         591         590
         586         587         592         591
         587         588         593         592
         588         589         594         593
         590         591         596         595
         591         592         597         596
         592         593         598         597
         593         594         599         598
         600         601         606         605
         601         602         607         606
         602         603         608         607
         603         604         609         608
         605         606         611         610
         606         607         612         611
         607         608         613         612
         608         609         614         613
         610         611         616         615
         611         612         617         616
         612         613         618         617
         613         614         619         618
         615         616         621         620
         616         617         622         621
         617         618         623         622
         618         619         624         623
         625         626         631         630
         626         627         632         631
         627         628         633         632
         628         629         634         633
         630         631         636         635
         631         632         637         636
         632         633         638         637
         633         634         639         638
         635         636         641         640
         636         637         642         641
         637         638         643         642
         638         639         644         643
         640         641         646         645
         641         642         647         646
         642         643         648         647
         643         644         649         648
         650         651         656         655
         651         652         657         656
         652         653         658         657
         653         654         659         658
         655         656         661         660
         656         657         662         661
         657         658         663         662
         658         659         664         663
         660         661         666         665
         661         662         667         666
         662         663         668         667
         663         664         669         668
         665         666         671         670
         666         667         672         671
         667         668         673         672
         668         669         674         673
         675         676         681         680
         676         677         682         681
         677         678         683         682
         678         679         684         683
         680         681         686         685
         681         682         687         686
         682         683         688         687
         683         684         689         688
         685         686         691         690
         686         687         692         691
         687         688         693         692
         688         689         694         693
         690         691         696         695
         691         692         697         696
         692         693         698         697
         693         694         699         698
         700         701         706         705
         701         702         707         706
         702         703         708         707
         703         704         709         708
         705         706         711         710
         706         707         712         711
         707         708         713         712
         708         709         714         713
         710         711         716         715
         711         712         717         716
         712         713         718         717
         713         714         719         718
         715         716         721         720
         716         717         722         721
         717         718         723         722
         718         719         724         723
         725         726         731         730
         726         727         732         731
         727         728         733         732
         728         729         734         733
         730         731         736         735
         731         732         737         736
         732         733         738         737
         733         734         739         738
         735         736         741         740
         736         737         742         741
         737         738         743         742
         738         739         744         743
         740         741         746         745
         741         742         747         746
         742         743         748         747
         743         744         749         748
         750         751         756         755
         751         752         757         756
         752         753         758         757
         753         754         759         758
         755         756         761         760
         756         757         762         761
         757         758         763         762
         758         759         764         763
         760         761         766         765
         761         762         767         766
         762         763         768         767
         763         764         769         768
         765         766         771         770
         766         767         772         771
         767         768         773         772
         768         769         774         773
         775         776         781         780
         776         777         782         781
         777         778         783         782
         778         779         784         783
         780         781         786         785
         781         782         787         786
         782         783         788         787
         783         784         789         788
         785         786         791         790
         786         787         792         791
         787         788         793         792
         788         789         794         793
         790         791         796         795
         791         792         797         796
         792         793         798         797
         793         794         799         798
         800         801         806         805
         801         802         807         806
         802         803         808         807
         803         804         809         808
         805         806         811         810
         806         807         812         811
         807         808         813         812
         808         809         814         813
         810         811         816         815
         811         812         817         816
         812         813         818         817
         813         814         819         818
         815         816         821         820
         816         817         822         821
         817         818         823         822
         818         819         824         823
         825         826         831         830
         826         827         832         831
         827         828         833         832
         828         829         834         833
         830         831         836         835
         831         832         837         836
         832         833         838         837
         833         834         839         838
         835         836         841         840
         836         837         842         841
         837         838         843         842
         838         839         844         843
         840         841         846         845
         841         842         847         846
         842         843         848         847
         843         844         849         848
         850         851         856         855
         851         852         857         856
         852         853         858         857
         853         854         859         858
         855         856         861         860
         856         857         862         861
         857         858         863         862
         858         859         864         863
         860         861         866         865
         861         862         867         866
         862         863         868         867
         863         864         869         868
         865         866         871         870
         866         867         872         871
         867         868         873         872
         868         869         874         873
         875         876         881         880
         876         877         882         881
         877         878         883         882
         878         879         884         883
         880         881         886         885
         881         882         887         886
         882         883         888         887
         883         884         889         888
         885         886         891         890
         886         887         892         891
         887         888         893         892
         888         889         894         893
         890         891         896         895
         891         892         897         896
         892         893         898         897
         893         894         899         898
         900         901         906         905
         901         902         907         906
         902         903         908         907
         903         904         909         908
         905         906         911         910
         906         907         912         911
         907         908         913         912
         908         909         914         913
         910         911         916         915
         911         912         917         916
         912         913         918         917
         913         914         919         918
         915         916         921         920
         916         917         922         921
         917         918         923         922
         918         919         924         923
         925         926         931         930
         926         927         932         931
         927         928         933         932
         928         929         934         933
         930         931         936         935
         931         932         937         936
         932         933         938         937
         933         934         939         938
         935         936         941         940
         936         937         942         941
         937         938         943         942
         938         939         944         943
         940         941         946         945
         941         942         947         946
         942         943         948         947
         943         944         949         948
         950         951         956         955
         951         952         957         956
         952         953         958         957
         953         954         959         958
         955         956         961         960
         956         957         962         961
         957         958         963         962
         958         959         964         963
         960         961         966         965
         961         962         967         966
         962         963         968         967
         963         964         969         968
         965         966         971         970
         966         967         972         971
         967         968         973         972
         968         969         974         973
         975         976         981         980
         976         977         982         981
         977         978         983         982
         978         979         984         983
         980         981         986         985
         981         982         987         986
         982         983         988         987
         983         984         989         988
         985         986         991         990
         986         987         992         991
         987         988         993         992
         988         989         994         993
         990         991         996         995
         991         992         997         996
         992         993         998         997
         993         994         999         998
        1000        1001        1006        1005
        1001        1002        1007        1006
        1002        1003        1008        1007
        1003        1004        1009        1008
        1005        1006        1011        1010
        1006        1007        1012        1011
        1007        1008        1013        1012
        1008        1009        1014        1013
        1010        1011        1016        1015
        1011        1012        1017        1016
        1012        1013        1018        1017
        1013        1014        1019        1018
        1015        1016        1021        1020
        1016        1017        1022        1021
        1017        1018        1023        1022
        1018        1019        1024        1023
        1025        1026        1031        1030
        1026        1027        1032        1031
        1027        1028        1033        1032
        1028        1029        1034        1033
        1030        1031        1036        1035
        1031        1032        1037        1036
        1032        1033        1038        1037
        1033        1034        1039        1038
        1035        1036        1041        1040
        1036        1037        1042        1041
        1037        1038        1043        1042
        1038        1039        1044        1043
        1040        1041        1046        1045
        1041        1042        1047        1046
        1042        1043        1048        1047
        1043        1044        1049        1048
        1050        1051        1056        1055
        1051        1052        1057        1056
        1052        1053        1058        1057
        1053        1054        1059        1058
        1055        1056        1061        1060
        1056        1057        1062        1061
        1057        1058        1063        1062
        1058        1059        1064        1063
        1060        1061        1066        1065
        1061        1062        1067        1066
        1062        1063        1068        1067
        1063        1064        1069        1068
        1065        1066        1071        1070
        1066        1067        1072        1071
        1067        1068        1073        1072
        1068        1069        1074        1073
        1075        1076        1081        1080
        1076        1077        1082        1081
        1077        1078        1083        1082
        1078        1079        1084        1083
        1080        1081        1086        1085
        1081        1082        1087        1086
        1082        1083        1088        1087
        1083        1084        1089        1088
        1085        1086        1091        1090
        1086        1087        1092        1091
        1087        1088        1093        1092
        1088        1089        1094        1093
        1090        1091        1096        1095
        1091        1092        1097        1096
        1092        1093        1098        1097
        1093        1094        1099        1098
        1100        1101        1106        1105
        1101        1102        1107        1106
        1102        1103        1108        1107
        1103        1104        1109        1108
        1105        1106        1111        1110
        1106        1107        1112        1111
        1107        1108        1113        1112
        1108        1109        1114        1113
        1110        1111        1116        1115
        1111        1112        1117        1116
        1112        1113        1118        1117
        1113        1114        1119        1118
        1115        1116        1121        1120
        1116        1117        1122        1121
        1117        1118        1123        1122
        1118        1119        1124        1123
        1125        1126        1131        1130
        1126        1127        1132        1131
        1127        1128        1133        1132
        1128        1129        1134        1133
        1130        1131        1136        1135
        1131        1132        1137        1136
        1132        1133        1138        1137
        1133        1134        1139        1138
        1135        1136        1141        1140
        1136        1137        1142        1141
        1137        1138        1143        1142
        1138        1139        1144        1143
        1140        1141        1146        1145
        1141        1142        1147        1146
        1142        1143        1148        1147
        1143        1144        1149        1148
        1150        1151        1156        1155
        1151        1152        1157        1156
        1152        1153        1158        1157
        1153        1154        1159        1158
        1155        1156        1161        1160
        1156        1157        1162        1161
        1157        1158        1163        1162
        1158        1159        1164        1163
        1160        1161        1166        1165
        1161        1162        1167        1166
        1162        1163        1168        1167
        1163        1164        1169        1168
        1165        1166        1171        1170
        1166        1167        1172        1171
        1167        1168        1173        1172
        1168        1169        1174        1173
        1175        1176        1181        1180
        1176        1177        1182        1181
        1177        1178        1183        1182
        1178        1179        1184        1183
        1180        1181        1186        1185
        1181        1182        1187        1186
        1182        1183        1188        1187
        1183        1184        1189        1188
        1185        1186        1191        1190
        1186        1187        1192        1191
        1187        1188        1193        1192
        1188        1189        1194        1193
        1190        1191        1196        1195
        1191        1192        1197        1196
        1192        1193        1198        1197
        1193        1194        1199        1198
        1200        1201        1206        1205
        1201        1202        1207        1206
        1202        1203        1208        1207
        1203        1204        1209        1208
        1205        1206        1211        1210
        1206        1207        1212        1211
        1207        1208        1213        1212
        1208        1209        1214        1213
        1210        1211        1216        1215
        1211        1212        1217        1216
        1212        1213        1218        1217
        1213        1214        1219        1218
        1215        1216        1221        1220
        1216        1217        1222        1221
        1217        1218        1223        1222
        1218        1219        1224        1223
        1225        1226        1231        1230
        1226        1227        1232        1231
        1227        1228        1233        1232
        1228        1229        1234        1233
        1230        1231        1236        1235
        1231        1232        1237        1236
        1232        1233        1238        1237
        1233        1234        1239        1238
        1235        1236        1241        1240
        1236        1237        1242        1241
        1237        1238        1243        1242
        1238        1239        1244        1243
        1240        1241        1246        1245
        1241        1242        1247        1246
        1242        1243        1248        1247
        1243        1244        1249        1248
        1250        1251        1256        1255
        1251        1252        1257        1256
        1252        1253        1258        1257
        1253        1254        1259        1258
        1255        1256        1261        1260
        1256        1257        1262        1261
        1257        1258        1263        1262
        1258        1259        1264        1263
        1260        1261        1266        1265
        1261        1262        1267        1266
        1262        1263        1268        1267
        1263        1264        1269        1268
        1265        1266        1271        1270
        1266        1267        1272        1271
        1267        1268        1273        1272
        1268        1269        1274        1273
        1275        1276        1281        1280
        1276        1277        1282        1281
        1277        1278        1283        1282
        1278        1279        1284        1283
        1280        1281        1286        1285
        1281        1282        1287        1286
        1282        1283        1288        1287
        1283        1284        1289        1288
        1285        1286        1291        1290
        1286        1287        1292        1291
        1287        1288        1293        1292
        1288        1289        1294        1293
        1290        1291        1296        1295
        1291        1292        1297        1296
        1292        1293        1298        1297
        1293        1294        1299        1298
        1300        1301        1306        1305
        1301        1302        1307        1306
        1302        1303        1308        1307
        1303        1304        1309        1308
        1305        1306        1311        1310
        1306        1307        1312        1311
        1307        1308        1313        1312
        1308        1309        1314        1313
        1310        1311        1316        1315
        1311        1312        1317        1316
        1312        1313        1318        1317
        1313        1314        1319        1318
        1315        1316        1321        1320
        1316        1317        1322        1321
        1317        1318        1323        1322
        1318        1319        1324        1323
        1325        1326        1331        1330
        1326        1327        1332        1331
        1327        1328        1333        1332
        1328        1329        1334        1333
        1330        1331        1336        1335
        1331        1332        1337        1336
        1332        1333        1338        1337
        1333        1334        1339        1338
        1335        1336        1341        1340
        1336        1337        1342        1341
        1337        1338        1343        1342
        1338        1339        1344        1343
        1340        1341        1346        1345
        1341        1342        1347        1346
        1342        1343        1348        1347
        1343        1344        1349        1348
        1350        1351        1356        1355
        1351        1352        1357        1356
        1352        1353        1358        1357
        1353        1354        1359        1358
        1355        1356        1361        1360
        1356        1357        1362        1361
        1357        1358        1363        1362
        1358        1359        1364        1363
        1360        1361        1366        1365
        1361        1362        1367        1366
        1362        1363        1368        1367
        1363        1364        1369        1368
        1365        1366        1371        1370
        1366        1367        1372        1371
        1367        1368        1373        1372
        1368        1369        1374        1373
        1375        1376        1381        1380
        1376        1377        1382        1381
        1377        1378        1383        1382
        1378        1379        1384        1383
        1380        1381        1386        1385
        1381        1382        1387        1386
        1382        1383        1388        1387
        1383        1384        1389        1388
        1385        1386        1391        1390
        1386        1387        1392        1391
        1387        1388        1393        1392
        1388        1389        1394        1393
        1390        1391        1396        1395
        1391        1392        1397        1396
        1392        1393        1398        1397
        1393        1394        1399        1398
        1400        1401        1406        1405
        1401        1402        1407        1406
        1402        1403        1408        1407
        1403        1404        1409        1408
        1405        1406        1411        1410
        1406        1407        1412        1411
        1407        1408        1413        1412
        1408        1409        1414        1413
        1410        1411        1416        1415
        1411        1412        1417        1416
        1412        1413        1418        1417
        1413        1414        1419        1418
        1415        1416        1421        1420
        1416        1417        1422        1421
        1417        1418        1423        1422
        1418        1419        1424        1423
        1425        1426        1431        1430
        1426        1427        1432        1431
        1427        1428        1433        1432
        1428        1429        1434        1433
        1430        1431        1436        1435
        1431        1432        1437        1436
        1432        1433        1438        1437
        1433        1434        1439        1438
        1435        1436        1441        1440
        1436        1437        1442        1441
        1437        1438        1443        1442
        1438        1439        1444        1443
        1440        1441        1446        1445
        1441        1442        1447        1446
        1442        1443        1448        1447
        1443        1444        1449        1448
        1450        1451        1456        1455
        1451        1452        1457        1456
        1452        1453        1458        1457
        1453        1454        1459        1458
        1455        1456        1461        1460
        1456        1457        1462        1461
        1457        1458        1463        1462
        1458        1459        1464        1463
        1460        1461        1466        1465
        1461        1462        1467        1466
        1462        1463        1468        1467
        1463        1464        1469        1468
        1465        1466        1471        1470
        1466        1467        1472        1471
        1467        1468        1473        1472
        1468        1469        1474        1473
        1475        1476        1481        1480
        1476        1477        1482        1481
        1477        1478        1483        1482
        1478        1479        1484        1483
        1480        1481        1486        1485
        1481        1482        1487        1486
        1482        1483        1488        1487
        1483        1484        1489        1488
        1485        1486        1491        1490
        1486        1487        1492        1491
        1487        1488        1493        1492
        1488        1489        1494        1493
        1490        1491        1496        1495
        1491        1492        1497        1496
        1492        1493        1498        1497
        1493        1494        1499        1498
        1500        1501        1506        1505
        1501        1502        1507        1506
        1502        1503        1508        1507
        1503        1504        1509        1508
        1505        1506        1511        1510
        1506        1507        1512        1511
        1507        1508        1513        1512
        1508        1509        1514        1513
        1510        1511        1516        1515
        1511        1512        1517        1516
        1512        1513        1518        1517
        1513        1514        1519        1518
        1515        1516        1521        1520
        1516        1517        1522        1521
        1517        1518        1523        1522
        1518        1519        1524        1523
        1525        1526        1531        1530
        1526        1527        1532        1531
        1527        1528        1533        1532
        1528        1529        1534        1533
        1530        1531        1536        1535
        1531        1532        1537        1536
        1532        1533        1538        1537
        1533        1534        1539        1538
        1535        1536        1541        1540
        1536        1537        1542        1541
        1537        1538        1543        1542
        1538        1539        1544        1543
        1540        1541        1546        1545
        1541        1542        1547        1546
        1542        1543        1548        1547
        1543        1544        1549        1548
        1550        1551        1556        1555
        1551        1552        1557        1556
        1552        1553        1558        1557
        1553        1554        1559        1558
        1555        1556        1561        1560
        1556        1557        1562        1561
        1557        1558        1563        1562
        1558        1559        1564        1563
        1560        1561        1566        1565
        1561        1562        1567        1566
        1562        1563        1568        1567
        1563        1564        1569        1568
        1565        1566        1571        1570
        1566        1567        1572        1571
        1567        1568        1573        1572
        1568        1569        1574        1573
        1575        1576        1581        1580
        1576        1577        1582        1581
        1577        1578        1583        1582
        1578        1579        1584        1583
        1580        1581        1586        1585
        1581        1582        1587        1586
        1582        1583        1588        1587
        1583        1584        1589        1588
        1585        1586        1591        1590
        1586        1587        1592        1591
        1587        1588        1593        1592
        1588        1589        1594        1593
        1590        1591        1596        1595
        1591        1592        1597        1596
        1592        1593        1598        1597
        1593        1594        1599        1598
 </DataArray>
 <DataArray  type="Int32"  Name="offsets"  format="ascii"> 
           4
           8
          12
          16
          20
          24
          28
          32
          36
          40
          44
          48
          52
          56
          60
          64
          68
          72
          76
          80
          84
          88
          92
          96
         100
         104
         108
         112
         116
         120
         124
         128
         132
         136
         140
         144
         148
         152
         156
         160
         164
         168
         172
         176
         180
         184
         188
         192
         196
         200
         204
         208
         212
         216
         220
         224
         228
         232
         236
         240
         244
         248
         252
         256
         260
         264
         268
         272
         276
         280
         284
         288
         292
         296
         300
         304
         308
         312
         316
         320
         324
         328
         332
         336
         340
         344
         348
         352
         356
         360
         364
         368
         372
         376
         380
         384
         388
         392
         396
         400
         404
         408
         412
         416
         420
         424
         428
         432
         436
         440
         444
         448
         452
         456
         460
         464
         468
         472
         476
         480
         484
         488
         492
         496
         500
         504
         508
         512
         516
         520
         524
         528
         532
         536
         540
         544
         548
         552
         556
         560
         564
         568
         572
         576
         580
         584
         588
         592
         596
         600
         604
         608
         612
         616
         620
         624
         628
         632
         636
         640
         644
         648
         652
         656
         660
         664
         668
         672
         676
         680
         684
         688
         692
         696
         700
         704
         708
         712
         716
         720
         724
         728
         732
         736
         740
         744
         748
         752
         756
         760
         764
         768
         772
         776
         780
         784
         788
         792
         796
         800
         804
         808
         812
         816
         820
         824
         828
         832
         836
         840
         844
         848
         852
         856
         860
         864
         868
         872
         876
         880
         884
         888
         892
         896
         900
         904
         908
         912
         916
         920
         924
         928
         932
         936
         940
         944
         948
         952
         956
         960
         964
         968
         972
         976
         980
         984
         988
         992
         996
        1000
        1004
        1008
        1012
        1016
        1020
        1024
        1028
        1032
        1036
        1040
        1044
        1048
        1052
        1056
        1060
        1064
        1068
        1072
        1076
        1080
        1084
        1088
        1092
        1096
        1100
        1104
        1108
        1112
        1116
        1120
        1124
        1128
        1132
        1136
        1140
        1144
        1148
        1152
        1156
        1160
        1164
        1168
        1172
        1176
        1180
        1184
        1188
        1192
        1196
        1200
        1204
        1208
        1212
        1216
        1220
        1224
        1228
        1232
        1236
        1240
        1244
        1248
        1252
        1256
        1260
        1264
        1268
        1272
        1276
        1280
        1284
        1288
        1292
        1296
        1300
        1304
        1308
        1312
        1316
        1320
        1324
        1328
        1332
        1336
        1340
        1344
        1348
        1352
        1356
        1360
        1364
        1368
        1372
        1376
        1380
        1384
        1388
        1392
        1396
        1400
        1404
        1408
        1412
        1416
        1420
        1424
        1428
        1432
        1436
        1440
        1444
        1448
        1452
        1456
        1460
        1464
        1468
        1472
        1476
        1480
        1484
        1488
        1492
        1496
        1500
        1504
        1508
        1512
        1516
        1520
        1524
        1528
        1532
        1536
        1540
        1544
        1548
        1552
        1556
        1560
        1564
        1568
        1572
        1576
        1580
        1584
        1588
        1592
        1596
        1600
        1604
        1608
        1612
        1616
        1620
        1624
        1628
        1632
        1636
        1640
        1644
        1648
        1652
        1656
        1660
        1664
        1668
        1672
        1676
        1680
        1684
        1688
        1692
        1696
        1700
        1704
        1708
        1712
        1716
        1720
        1724
        1728
        1732
        1736
        1740
        1744
        1748
        1752
        1756
        1760
        1764
        1768
        1772
        1776
        1780
        1784
        1788
        1792
        1796
        1800
        1804
        1808
        1812
        1816
        1820
        1824
        1828
        1832
        1836
        1840
        1844
        1848
        1852
        1856
        1860
        1864
        1868
        1872
        1876
        1880
        1884
        1888
        1892
        1896
        1900
        1904
        1908
        1912
        1916
        1920
        1924
        1928
        1932
        1936
        1940
        1944
        1948
        1952
        1956
        1960
        1964
        1968
        1972
        1976
        1980
        1984
        1988
        1992
        1996
        2000
        2004
        2008
        2012
        2016
        2020
        2024
        2028
        2032
        2036
        2040
        2044
        2048
        2052
        2056
        2060
        2064
        2068
        2072
        2076
        2080
        2084
        2088
        2092
        2096
        2100
        2104
        2108
        2112
        2116
        2120
        2124
        2128
        2132
        2136
        2140
        2144
        2148
        2152
        2156
        2160
        2164
        2168
        2172
        2176
        2180
        2184
        2188
        2192
        2196
        2200
        2204
        2208
        2212
        2216
        2220
        2224
        2228
        2232
        2236
        2240
        2244
        2248
        2252
        2256
        2260
        2264
        2268
        2272
        2276
        2280
        2284
        2288
        2292
        2296
        2300
        2304
        2308
        2312
        2316
        2320
        2324
        2328
        2332
        2336
        2340
        2344
        2348
        2352
        2356
        2360
        2364
        2368
        2372
        2376
        2380
        2384
        2388
        2392
        2396
        2400
        2404
        2408
        2412
        2416
        2420
        2424
        2428
        2432
        2436
        2440
        2444
        2448
        2452
        2456
        2460
        2464
        2468
        2472
        2476
        2480
        2484
        2488
        2492
        2496
        2500
        2504
        2508
        2512
        2516
        2520
        2524
        2528
        2532
        2536
        2540
        2544
        2548
        2552
        2556
        2560
        2564
        2568
        2572
        2576
        2580
        2584
        2588
        2592
        2596
        2600
        2604
        2608
        2612
        2616
        2620
        2624
        2628
        2632
        2636
        2640
        2644
        2648
        2652
        2656
        2660
        2664
        2668
        2672
        2676
        2680
        2684
        2688
        2692
        2696
        2700
        2704
        2708
        2712
        2716
        2720
        2724
        2728
        2732
        2736
        2740
        2744
        2748
        2752
        2756
        2760
        2764
        2768
        2772
        2776
        2780
        2784
        2788
        2792
        2796
        2800
        2804
        2808
        2812
        2816
        2820
        2824
        2828
        2832
        2836
        2840
        2844
        2848
        2852
        2856
        2860
        2864
        2868
        2872
        2876
        2880
        2884
        2888
        2892
        2896
        2900
        2904
        2908
        2912
        2916
        2920
        2924
        2928
        2932
        2936
        2940
        2944
        2948
        2952
        2956
        2960
        2964
        2968
        2972
        2976
        2980
        2984
        2988
        2992
        2996
        3000
        3004
        3008
        3012
        3016
        3020
        3024
        3028
        3032
        3036
        3040
        3044
        3048
        3052
        3056
        3060
        3064
        3068
        3072
        3076
        3080
        3084
        3088
        3092
        3096
        3100
        3104
        3108
        3112
        3116
        3120
        3124
        3128
        3132
        3136
        3140
        3144
        3148
        3152
        3156
        3160
        3164
        3168
        3172
        3176
        3180
        3184
        3188
        3192
        3196
        3200
        3204
        3208
        3212
        3216
        3220
        3224
        3228
        3232
        3236
        3240
        3244
        3248
        3252
        3256
        3260
        3264
        3268
        3272
        3276
        3280
        3284
        3288
        3292
        3296
        3300
        3304
        3308
        3312
        3316
        3320
        3324
        3328
        3332
        3336
        3340
        3344
        3348
        3352
        3356
        3360
        3364
        3368
        3372
        3376
        3380
        3384
        3388
        3392
        3396
        3400
        3404
        3408
        3412
        3416
        3420
        3424
        3428
        3432
        3436
        3440
        3444
        3448
        3452
        3456
        3460
        3464
        3468
        3472
        3476
        3480
        3484
        3488
        3492
        3496
        3500
        3504
        3508
        3512
        3516
        3520
        3524
        3528
        3532
        3536
        3540
        3544
        3548
        3552
        3556
        3560
        3564
        3568
        3572
        3576
        3580
        3584
        3588
        3592
        3596
        3600
        3604
        3608
        3612
        3616
        3620
        3624
        3628
        3632
        3636
        3640
        3644
        3648
        3652
        3656
        3660
        3664
        3668
        3672
        3676
        3680
        3684
        3688
        3692
        3696
        3700
        3704
        3708
        3712
        3716
        3720
        3724
        3728
        3732
        3736
        3740
        3744
        3748
        3752
        3756
        3760
        3764
        3768
        3772
        3776
        3780
        3784
        3788
        3792
        3796
        3800
        3804
        3808
        3812
        3816
        3820
        3824
        3828
        3832
        3836
        3840
        3844
        3848
        3852
        3856
        3860
        3864
        3868
        3872
        3876
        3880
        3884
        3888
        3892
        3896
        3900
        3904
        3908
        3912
        3916
        3920
        3924
        3928
        3932
        3936
        3940
        3944
        3948
        3952
        3956
        3960
        3964
        3968
        3972
        3976
        3980
        3984
        3988
        3992
        3996
        4000
        4004
        4008
        4012
        4016
        4020
        4024
        4028
        4032
        4036
        4040
        4044
        4048
        4052
        4056
        4060
        4064
        4068
        4072
        4076
        4080
        4084
        4088
        4092
        4096
 </DataArray>
 <DataArray  type="UInt8"  Name="types"  format="ascii">
 9
 9
 9
 9
 9
 9
 9
 9
 9
 9
 9
 9
 9
 9
 9
 9
 9
 9
 9
 9
 9
 9
 9
 9
 9
 9
 9
 9
 9
 9
 9
 9
 9
 9
 9
 9
 9
 9
 9
 9
 9
 9
 9
 9
 9
 9
 9
 9
 9
 9
 9
 9
 9
 9
 9
 9
 9
 9
 9
 9
 9
 9
 9
 9
 9
 9
 9
 9
 9
 9
 9
 9
 9
 9
 9
 9
 9
 9
 9
 9
 9
 9
 9
 9
 9
 9
 9
 9
 9
 9
 9
 9
 9
 9
 9
 9
 9
 9
 9
 9
 9
 9
 9
 9
 9
 9
 9
 9
 9
 9
 9
 9
 9
 9
 9
 9
 9
 9
 9
 9
 9
 9
 9
 9
 9
 9
 9
 9
 9
 9
 9
 9
 9
 9
 9
 9
 9
 9
 9
 9
 9
 9
 9
 9
 9
 9
 9
 9
 9
 9
 9
 9
 9
 9
 9
 9
 9
 9
 9
 9
 9
 9
 9
 9
 9
 9
 9
 9
 9
 9
 9
 9
 9
 9
 9
 9
 9
 9
 9
 9
 9
 9
 9
 9
 9
 9
 9
 9
 9
 9
 9
 9
 9
 9
 9
 9
 9
 9
 9
 9
 9
 9
 9
 9
 9
 9
 9
 9
 9
 9
 9
 9
 9
 9
 9
 9
 9
 9
 9
 9
 9
 9
 9
 9
 9
 9
 9
 9
 9
 9
 9
 9
 9
 9
 9
 9
 9
 9
 9
 9
 9
 9
 9
 9
 9
 9
 9
 9
 9
 9
 9
 9
 9
 9
 9
 9
 9
 9
 9
 9
 9
 9
 9
 9
 9
 9
 9
 9
 9
 9
 9
 9
 9
 9
 9
 9
 9
 9
 9
 9
 9
 9
 9
 9
 9
 9
 9
 9
 9
 9
 9
 9
 9
 9
 9
 9
 9
 9
 9
 9
 9
 9
 9
 9
 9
 9
 9
 9
 9
 9
 9
 9
 9
 9
 9
 9
 9
 9
 9
 9
 9
 9
 9
 9
 9
 9
 9
 9
 9
 9
 9
 9
 9
 9
 9
 9
 9
 9
 9
 9
 9
 9
 9
 9
 9
 9
 9
 9
 9
 9
 9
 9
 9
 9
 9
 9
 9
 9
 9
 9
 9
 9
 9
 9
 9
 9
 9
 9
 9
 9
 9
 9
 9
 9
 9
 9
 9
 9
 9
 9
 9
 9
 9
 9
 9
 9
 9
 9
 9
 9
 9
 9
 9
 9
 9
 9
 9
 9
 9
 9
 9
 9
 9
 9
 9
 9
 9
 9
 9
 9
 9
 9
 9
 9
 9
 9
 9
 9
 9
 9
 9
 9
 9
 9
 9
 9
 9
 9
 9
 9
 9
 9
 9
 9
 9
 9
 9
 9
 9
 9
 9
 9
 9
 9
 9
 9
 9
 9
 9
 9
 9
 9
 9
 9
 9
 9
 9
 9
 9
 9
 9
 9
 9
 9
 9
 9
 9
 9
 9
 9
 9
 9
 9
 9
 9
 9
 9
 9
 9
 9
 9
 9
 9
 9
 9
 9
 9
 9
 9
 9
 9
 9
 9
 9
 9
 9
 9
 9
 9
 9
 9
 9
 9
 9
 9
 9
 9
 9
 9
 9
 9
 9
 9
 9
 9
 9
 9
 9
 9
 9
 9
 9
 9
 9
 9
 9
 9
 9
 9
 9
 9
 9
 9
 9
 9
 9
 9
 9
 9
 9
 9
 9
 9
 9
 9
 9
 9
 9
 9
 9
 9
 9
 9
 9
 9
 9
 9
 9
 9
 9
 9
 9
 9
 9
 9
 9
 9
 9
 9
 9
 9
 9
 9
 9
 9
 9
 9
 9
 9
 9
 9
 9
 9
 9
 9
 9
 9
 9
 9
 9
 9
 9
 9
 9
 9
 9
 9
 9
 9
 9
 9
 9
 9
 9
 9
 9
 9
 9
 9
 9
 9
 9
 9
 9
 9
 9
 9
 9
 9
 9
 9
 9
 9
 9
 9
 9
 9
 9
 9
 9
 9
 9
 9
 9
 9
 9
 9
 9
 9
 9
 9
 9
 9
 9
 9
 9
 9
 9
 9
 9
 9
 9
 9
 9
 9
 9
 9
 9
 9
 9
 9
 9
 9
 9
 9
 9
 9
 9
 9
 9
 9
 9
 9
 9
 9
 9
 9
 9
 9
 9
 9
 9
 9
 9
 9
 9
 9
 9
 9
 9
 9
 9
 9
 9
 9
 9
 9
 9
 9
 9
 9
 9
 9
 9
 9
 9
 9
 9
 9
 9
 9
 9
 9
 9
 9
 9
 9
 9
 9
 9
 9
 9
 9
 9
 9
 9
 9
 9
 9
 9
 9
 9
 9
 9
 9
 9
 9
 9
 9
 9
 9
 9
 9
 9
 9
 9
 9
 9
 9
 9
 9
 9
 9
 9
 9
 9
 9
 9
 9
 9
 9
 9
 9
 9
 9
 9
 9
 9
 9
 9
 9
 9
 9
 9
 9
 9
 9
 9
 9
 9
 9
 9
 9
 9
 9
 9
 9
 9
 9
 9
 9
 9
 9
 9
 9
 9
 9
 9
 9
 9
 9
 9
 9
 9
 9
 9
 9
 9
 9
 9
 9
 9
 9
 9
 9
 9
 9
 9
 9
 9
 9
 9
 9
 9
 9
 9
 9
 9
 9
 9
 9
 9
 9
 9
 9
 9
 9
 9
 9
 9
 9
 9
 9
 9
 9
 9
 9
 9
 9
 9
 9
 9
 9
 9
 9
 9
 9
 9
 9
 9
 9
 9
 9
 9
 9
 9
 9
 9
 9
 9
 9
 9
 9
 9
 9
 9
 9
 9
 9
 9
 9
 9
 9
 9
 9
 9
 9
 9
 9
 9
 9
 9
 9
 9
 9
 9
 9
 9
 9
 9
 9
 9
 9
 9
 9
 9
 9
 9
 9
 9
 9
 9
 9
 9
 9
 9
 9
 9
 9
 9
 9
 9
 9
 9
 9
 9
 9
 9
 9
 9
 9
 9
 9
 9
 9
 9
 9
 9
 9
 9
 9
 9
 9
 9
 9
 9
 9
 9
 9
 9
 9
 9
 9
 9
 9
 9
 9
 9
 9
 9
 9
 9
 9
 9
 9
 9
 9
 9
 9
 9
 9
 9
 9
 9
 9
 9
 9
 9
 9
 9
 9
 9
 9
 9
 9
 9
 9
 9
 9
 9
 9
 9
 9
 9
 9
 9
 9
 9
 9
 9
 9
 9
 9
 9
 9
 9
 9
 9
 9
 9
 9
 9
 9
 9
 9
 9
 9
 9
 9
 9
 9
 9
 9
 9
 </DataArray>
 </Cells> 
 <PointData>
 <DataArray  type="Float64" Name="disp" NumberOfComponents="3" format="ascii">
   6.3749425241757571E-002   6.2944763997232547E-002   0.0000000000000000     
   6.8562080501269440E-002   6.8414732504890108E-002   0.0000000000000000     
   7.2567619072423151E-002   7.4004106358994556E-002   0.0000000000000000     
   7.5766040955218675E-002   7.9712885559545893E-002   0.0000000000000000     
   7.8157346149656026E-002   8.5541070106544104E-002   0.0000000000000000     
   5.8594280401651939E-002   6.1734758290977951E-002   0.0000000000000000     
   6.3171777662426654E-002   6.7408111869804457E-002   0.0000000000000000     
   6.6969082278628453E-002   7.3154306103379585E-002   0.0000000000000000     
   6.9986194250257344E-002   7.8973340991703320E-002   0.0000000000000000     
   7.2223113577313314E-002   8.4865216534775662E-002   0.0000000000000000     
   5.3671811270344330E-002   6.0656344713782548E-002   0.0000000000000000     
   5.7983461038148651E-002   6.6504544798505663E-002   0.0000000000000000     
   6.1553225382891028E-002   7.2380986030439215E-002   0.0000000000000000     
   6.4381104304571432E-002   7.8285668409583190E-002   0.0000000000000000     
   6.6467097803189865E-002   8.4218591935937601E-002   0.0000000000000000     
   4.8982017847834722E-002   5.9709523265646380E-002   0.0000000000000000     
   5.2997130628435446E-002   6.5704031290993725E-002   0.0000000000000000     
   5.6320048385210854E-002   7.1684146140173433E-002   0.0000000000000000     
   5.8950771118160945E-002   7.7649867813185502E-002   0.0000000000000000     
   6.0889298827285721E-002   8.3601196310029921E-002   0.0000000000000000     
   4.4524900134123135E-002   5.8894293946569407E-002   0.0000000000000000     
   4.8212786433287039E-002   6.5006571347268644E-002   0.0000000000000000     
   5.1269551285587960E-002   7.1063786432582252E-002   0.0000000000000000     
   5.3695194691025891E-002   7.7065939202510245E-002   0.0000000000000000     
   5.5489716649600854E-002   8.3013029657052623E-002   0.0000000000000000     
   7.8157346149656026E-002   8.5541070106544104E-002   0.0000000000000000     
   8.0205448960906339E-002   9.1535072058238395E-002   0.0000000000000000     
   8.2374263694140720E-002   9.7741303472877919E-002   0.0000000000000000     
   8.4663790349359211E-002  0.10415976435046269        0.0000000000000000     
   8.7074028926561770E-002  0.11079045469099272        0.0000000000000000     
   7.2223113577313314E-002   8.4865216534775662E-002   0.0000000000000000     
   7.4127485771756041E-002   9.0891770494522225E-002   0.0000000000000000     
   7.6146956345545219E-002   9.7114840632868585E-002   0.0000000000000000     
   7.8281525298680835E-002  0.10353442694981475        0.0000000000000000     
   8.0531192631162901E-002  0.11015052944536070        0.0000000000000000     
   6.6467097803189865E-002   8.4218591935937601E-002   0.0000000000000000     
   6.8236150405015988E-002   9.0261168607309553E-002   0.0000000000000000     
   7.0113206636319397E-002   9.6494810421506150E-002   0.0000000000000000     
   7.2098266497100133E-002  0.10291951737852735        0.0000000000000000     
   7.4191329987358168E-002  0.10953528947837321        0.0000000000000000     
   6.0889298827285721E-002   8.3601196310029921E-002   0.0000000000000000     
   6.2531442860686168E-002   8.9643266396600377E-002   0.0000000000000000     
   6.4273014566463296E-002   9.5881212838790614E-002   0.0000000000000000     
   6.6114013944617078E-002  0.10231503563660053        0.0000000000000000     
   6.8054440995147555E-002  0.10894473479003022        0.0000000000000000     
   5.5489716649600854E-002   8.3013029657052623E-002   0.0000000000000000     
   5.7013363138766593E-002   8.9038063862394726E-002   0.0000000000000000     
   5.8626380135976881E-002   9.5274047884721963E-002   0.0000000000000000     
   6.0328767641231698E-002  0.10172098172403429        0.0000000000000000     
   6.2120525654531078E-002  0.10837886538033176        0.0000000000000000     
   8.7074028926561770E-002  0.11079045469099272        0.0000000000000000     
   8.9490994850264918E-002  0.11758889611384563        0.0000000000000000     
   9.1800703544985124E-002  0.12451061023839909        0.0000000000000000     
   9.4003155010722428E-002  0.13155559706465306        0.0000000000000000     
   9.6098349247476789E-002  0.13872385659260761        0.0000000000000000     
   8.0531192631162901E-002  0.11015052944536070        0.0000000000000000     
   8.2790375525024898E-002  0.11693546683943243        0.0000000000000000     
   8.4953491162300304E-002  0.12386155785195582        0.0000000000000000     
   8.7020539542989120E-002  0.13092880248293090        0.0000000000000000     
   8.8991520667091345E-002  0.13813720073235766        0.0000000000000000     
   7.4191329987358168E-002  0.10953528947837321        0.0000000000000000     
   7.6294945707659351E-002  0.11632256021916146        0.0000000000000000     
   7.8311662258569503E-002  0.12326176309900989        0.0000000000000000     
   8.0241479640088612E-002  0.13035289811791848        0.0000000000000000     
   8.2084397852216676E-002  0.13759596527588719        0.0000000000000000     
   6.8054440995147555E-002  0.10894473479003022        0.0000000000000000     
   7.0004705398168249E-002  0.11575017625303276        0.0000000000000000     
   7.1875216833792693E-002  0.12271122597956126        0.0000000000000000     
   7.3665975302020861E-002  0.12982788396961573        0.0000000000000000     
   7.5376980802852794E-002  0.13710015022319616        0.0000000000000000     
   6.2120525654531078E-002  0.10837886538033176        0.0000000000000000     
   6.3919654596551606E-002  0.11521831494104631        0.0000000000000000     
   6.5644154887969874E-002  0.12220994649360997        0.0000000000000000     
   6.7294026528785883E-002  0.12935376003802274        0.0000000000000000     
   6.8869269518999660E-002  0.13664975557428460        0.0000000000000000     
   9.6098349247476789E-002  0.13872385659260761        0.0000000000000000     
   9.8075124005552877E-002  0.14600320198941197        0.0000000000000000     
   9.9922317035255337E-002  0.15338144642221546        0.0000000000000000     
  0.10163992833658414       0.16085858989101806        0.0000000000000000     
  0.10322795790953933       0.16843463239581979        0.0000000000000000     
   8.8991520667091345E-002  0.13813720073235766        0.0000000000000000     
   9.0852863015827928E-002  0.14546197339786596        0.0000000000000000     
   9.2590995070419790E-002  0.15287834127708563        0.0000000000000000     
   9.4205916830866973E-002  0.16038630437001672        0.0000000000000000     
   9.5697628297169407E-002  0.16798586267665910        0.0000000000000000     
   8.2084397852216676E-002  0.13759596527588719        0.0000000000000000     
   8.3825698823357109E-002  0.14495844868833346        0.0000000000000000     
   8.5450664481913324E-002  0.15240783247067458        0.0000000000000000     
   8.6959294827885295E-002  0.15994411662291061        0.0000000000000000     
   8.8351589861273006E-002  0.16756730114504151        0.0000000000000000     
   7.5376980802852794E-002  0.13710015022319616        0.0000000000000000     
   7.6993631428140460E-002  0.14449262786081440        0.0000000000000000     
   7.8501325269735911E-002  0.15196992000298229        0.0000000000000000     
   7.9900062327639132E-002  0.15953202664969979        0.0000000000000000     
   8.1189842601850123E-002  0.16717894780096693        0.0000000000000000     
   6.8869269518999660E-002  0.13664975557428460        0.0000000000000000     
   7.0356660830177942E-002  0.14406451091530886        0.0000000000000000     
   7.1742977433887550E-002  0.15156460387400872        0.0000000000000000     
   7.3028219330128499E-002  0.15915003445038425        0.0000000000000000     
   7.4212386518900733E-002  0.16682080264443541        0.0000000000000000     
  0.10322795790953933       0.16843463239581979        0.0000000000000000     
  0.10471898245167831       0.17610818887484880        0.0000000000000000     
  0.10614557866055856       0.18387787426633337        0.0000000000000000     
  0.10750774653618005       0.19174368857027346        0.0000000000000000     
  0.10880548607854279       0.19970563178666909        0.0000000000000000     
   9.5697628297169407E-002  0.16798586267665910        0.0000000000000000     
   9.7095212128356950E-002  0.17567997391594808        0.0000000000000000     
   9.8427750983459350E-002  0.18347159580681879        0.0000000000000000     
   9.9695244862476592E-002  0.19136072834927123        0.0000000000000000     
  0.10089769376540869       0.19934737154330534        0.0000000000000000     
   8.8351589861273006E-002  0.16756730114504151        0.0000000000000000     
   8.9653325113059318E-002  0.17528306454987919        0.0000000000000000     
   9.0890276114227064E-002  0.18309708535023561        0.0000000000000000     
   9.2062442864776189E-002  0.19100936354611078        0.0000000000000000     
   9.3169825364706721E-002  0.19901989913750462        0.0000000000000000     
   8.1189842601850123E-002  0.16717894780096693        0.0000000000000000     
   8.2393321405785452E-002  0.17491746077664214        0.0000000000000000     
   8.3533154052861672E-002  0.18275434289658388        0.0000000000000000     
   8.4609340543078823E-002  0.19068959416079209        0.0000000000000000     
   8.5621880876436879E-002  0.19872321456926684        0.0000000000000000     
   7.4212386518900733E-002  0.16682080264443541        0.0000000000000000     
   7.5315201006535312E-002  0.17458316259623693        0.0000000000000000     
   7.6356384799363256E-002  0.18244336844586354        0.0000000000000000     
   7.7335937897384521E-002  0.19040142019331527        0.0000000000000000     
   7.8253860300599151E-002  0.19845731783859208        0.0000000000000000     
  0.10880548607854279       0.19970563178666909        0.0000000000000000     
  0.11002997917627688       0.20775463380041104        0.0000000000000000     
  0.11117240771801234       0.21588162449639020        0.0000000000000000     
  0.11223277170374922       0.22408660387460655        0.0000000000000000     
  0.11321107113348748       0.23236957193506008        0.0000000000000000     
  0.10089769376540869       0.19934737154330534        0.0000000000000000     
  0.10202838286532991       0.20742016801620677        0.0000000000000000     
  0.10308059733531445       0.21556776039526110        0.0000000000000000     
  0.10405433717536233       0.22379014868046829        0.0000000000000000     
  0.10494960238547356       0.23208733287182828        0.0000000000000000     
   9.3169825364706721E-002  0.19901989913750462        0.0000000000000000     
   9.4206640444262732E-002  0.20711607506070354        0.0000000000000000     
   9.5167104933688310E-002  0.21528527425199390        0.0000000000000000     
   9.6051218832983426E-002  0.22352749671137573        0.0000000000000000     
   9.6858982142148067E-002  0.23184274243884895        0.0000000000000000     
   8.5621880876436879E-002  0.19872321456926684        0.0000000000000000     
   8.6564751913075388E-002  0.20684235493390132        0.0000000000000000     
   8.7431930513133901E-002  0.21503416606658865        0.0000000000000000     
   8.8223416676612432E-002  0.22329864796732890        0.0000000000000000     
   8.8939210403510979E-002  0.23163580063612207        0.0000000000000000     
   7.8253860300599151E-002  0.19845731783859208        0.0000000000000000     
   7.9102717271767820E-002  0.20659900763580008        0.0000000000000000     
   7.9875074073651242E-002  0.21481443583904533        0.0000000000000000     
   8.0570930706249405E-002  0.22310360244832783        0.0000000000000000     
   8.1190287169562309E-002  0.23146650746364764        0.0000000000000000     
  0.11321107113348748       0.23236957193506008        0.0000000000000000     
  0.11413997164725974       0.24074972140670706        0.0000000000000000     
  0.11505213888509858       0.24924624501850379        0.0000000000000000     
  0.11594757284700401       0.25785914277045019        0.0000000000000000     
  0.11682627353297603       0.26658841466254635        0.0000000000000000     
  0.10494960238547356       0.23208733287182828        0.0000000000000000     
  0.10577484056402983       0.24048456446141689        0.0000000000000000     
  0.10653849930941289       0.24900709494130960        0.0000000000000000     
  0.10724057862162271       0.25765492431150655        0.0000000000000000     
  0.10788107850065932       0.26642805257200763        0.0000000000000000     
   9.6858982142148067E-002  0.23184274243884895        0.0000000000000000     
   9.7583893033176772E-002  0.24025866010423497        0.0000000000000000     
   9.8219449678064008E-002  0.24880289837735495        0.0000000000000000     
   9.8765652076809832E-002  0.25747545725820897        0.0000000000000000     
   9.9222500229414201E-002  0.26627633674679702        0.0000000000000000     
   8.8939210403510979E-002  0.23163580063612207        0.0000000000000000     
   8.9567129054700489E-002  0.24007200833516129        0.0000000000000000     
   9.0094989991051935E-002  0.24863365532663975        0.0000000000000000     
   9.0522793212565303E-002  0.25732074161055740        0.0000000000000000     
   9.0850538719240634E-002  0.26613326718691438        0.0000000000000000     
   8.1190287169562309E-002  0.23146650746364764        0.0000000000000000     
   8.1724548628601054E-002  0.23992460915419592        0.0000000000000000     
   8.2165120248376675E-002  0.24849936578916407        0.0000000000000000     
   8.2512002028889211E-002  0.25719077736855200        0.0000000000000000     
   8.2765193970138623E-002  0.26599884389235978        0.0000000000000000     
  0.11682627353297603       0.26658841466254635        0.0000000000000000     
  0.11762698620646914       0.27559746352716119        0.0000000000000000     
  0.11828845613093791       0.28504969219666365        0.0000000000000000     
  0.11881068330638229       0.29494510067105373        0.0000000000000000     
  0.11919366773280231       0.30528368895033148        0.0000000000000000     
  0.10788107850065932       0.26642805257200763        0.0000000000000000     
  0.10844000160896528       0.27545807663895711        0.0000000000000000     
  0.10889735060898312       0.28487659342849908        0.0000000000000000     
  0.10925312550071291       0.29468360294063362        0.0000000000000000     
  0.10950732628415460       0.30487910517536065        0.0000000000000000     
   9.9222500229414201E-002  0.26627633674679702        0.0000000000000000     
   9.9600374833251737E-002  0.27530370174039326        0.0000000000000000     
   9.9909656585697115E-002  0.28465571713627202        0.0000000000000000     
  0.10015034548675027       0.29433238293443320        0.0000000000000000     
  0.10032244153641125       0.30433369913487679        0.0000000000000000     
   9.0850538719240634E-002  0.26613326718691438        0.0000000000000000     
   9.1108105879328563E-002  0.27513433883146959        0.0000000000000000     
   9.1325374061079809E-002  0.28438706331998237        0.0000000000000000     
   9.1502343264494398E-002  0.29389144065245243        0.0000000000000000     
   9.1639013489572277E-002  0.30364747082888000        0.0000000000000000     
   8.2765193970138623E-002  0.26599884389235978        0.0000000000000000     
   8.2963194747195726E-002  0.27494998791218622        0.0000000000000000     
   8.3144503035131254E-002  0.28407063197963012        0.0000000000000000     
   8.3309118833945248E-002  0.29336077609469141        0.0000000000000000     
   8.3457042143637694E-002  0.30282042025737022        0.0000000000000000     
   4.4524900134123135E-002   5.8894293946569407E-002   0.0000000000000000     
   4.8212786433287039E-002   6.5006571347268644E-002   0.0000000000000000     
   5.1269551285587960E-002   7.1063786432582252E-002   0.0000000000000000     
   5.3695194691025891E-002   7.7065939202510245E-002   0.0000000000000000     
   5.5489716649600854E-002   8.3013029657052623E-002   0.0000000000000000     
   4.0240209717984005E-002   5.8169747426139042E-002   0.0000000000000000     
   4.3595043933575224E-002   6.4384629018698694E-002   0.0000000000000000     
   4.6381989878462308E-002   7.0505622903370008E-002   0.0000000000000000     
   4.8601047552645257E-002   7.6532729080152975E-002   0.0000000000000000     
   5.0252216956124078E-002   8.2465947549047597E-002   0.0000000000000000     
   3.6067698188191791E-002   5.7494974373942673E-002   0.0000000000000000     
   3.9108518610171804E-002   6.3810668356652181E-002   0.0000000000000000     
   4.1637619958273878E-002   6.9995371548241050E-002   0.0000000000000000     
   4.3655002232498019E-002   7.6049083948709240E-002   0.0000000000000000     
   4.5160665432844201E-002   8.1971805558056748E-002   0.0000000000000000     
   3.2007365544746466E-002   5.6869974789980300E-002   0.0000000000000000     
   3.4753210463076785E-002   6.3284689361129118E-002   0.0000000000000000     
   3.7036441525022688E-002   6.9533032367195352E-002   0.0000000000000000     
   3.8857058730584162E-002   7.5615003808178996E-002   0.0000000000000000     
   4.0215062079761200E-002   8.1530603684080091E-002   0.0000000000000000     
   2.8059211787648045E-002   5.6294748674251910E-002   0.0000000000000000     
   3.0529119492290167E-002   6.2806692032129449E-002   0.0000000000000000     
   3.2578454578708720E-002   6.9118605360232913E-002   0.0000000000000000     
   3.4207217046903694E-002   7.5230488658562300E-002   0.0000000000000000     
   3.5415406896875098E-002   8.1142341927117612E-002   0.0000000000000000     
   5.5489716649600854E-002   8.3013029657052623E-002   0.0000000000000000     
   5.7013363138766593E-002   8.9038063862394726E-002   0.0000000000000000     
   5.8626380135976881E-002   9.5274047884721963E-002   0.0000000000000000     
   6.0328767641231698E-002  0.10172098172403429        0.0000000000000000     
   6.2120525654531078E-002  0.10837886538033176        0.0000000000000000     
   5.0252216956124078E-002   8.2465947549047597E-002   0.0000000000000000     
   5.1659104312407354E-002   8.8467104244352335E-002   0.0000000000000000     
   5.3145315845003691E-002   9.4698025100365735E-002   0.0000000000000000     
   5.4710851553913073E-002  0.10115871011708770        0.0000000000000000     
   5.6355711439135509E-002  0.10784915929451834        0.0000000000000000     
   4.5160665432844201E-002   8.1971805558056748E-002   0.0000000000000000     
   4.6445859454758570E-002   8.7951930782133009E-002   0.0000000000000000     
   4.7801834193687262E-002   9.4177854026787397E-002   0.0000000000000000     
   4.9228589649630290E-002  0.10064957529201993        0.0000000000000000     
   5.0726125822587641E-002  0.10736709457783056        0.0000000000000000     
   4.0215062079761200E-002   8.1530603684080091E-002   0.0000000000000000     
   4.1373628565820213E-002   8.7492543475736692E-002   0.0000000000000000     
   4.2595935182027610E-002   9.3713534663986978E-002   0.0000000000000000     
   4.3881981928383357E-002  0.10019357724883084        0.0000000000000000     
   4.5231768804887475E-002  0.10693267123026839        0.0000000000000000     
   3.5415406896875098E-002   8.1142341927117612E-002   0.0000000000000000     
   3.6442411645592310E-002   8.7088942325163440E-002   0.0000000000000000     
   3.7527618810024699E-002   9.3305067011964449E-002   0.0000000000000000     
   3.8671028390172266E-002   9.9790715987520567E-002   0.0000000000000000     
   3.9872640386035010E-002  0.10654588925183184        0.0000000000000000     
   6.2120525654531078E-002  0.10837886538033176        0.0000000000000000     
   6.3919654596551606E-002  0.11521831494104631        0.0000000000000000     
   6.5644154887969874E-002  0.12220994649360997        0.0000000000000000     
   6.7294026528785883E-002  0.12935376003802274        0.0000000000000000     
   6.8869269518999660E-002  0.13664975557428460        0.0000000000000000     
   5.6355711439135509E-002  0.10784915929451834        0.0000000000000000     
   5.8005084647640030E-002  0.11472763469879345        0.0000000000000000     
   5.9584160326395665E-002  0.12175239839604893        0.0000000000000000     
   6.1092938475402425E-002  0.12892345038628480        0.0000000000000000     
   6.2531419094660284E-002  0.13624079066950104        0.0000000000000000     
   5.0726125822587641E-002  0.10736709457783056        0.0000000000000000     
   5.2226286896264157E-002  0.11427879394186553        0.0000000000000000     
   5.3660917054364661E-002  0.12133305544177110        0.0000000000000000     
   5.5030016296889167E-002  0.12852987907754720        0.0000000000000000     
   5.6333584623837668E-002  0.13586926484919387        0.0000000000000000     
   4.5231768804887475E-002  0.10693267123026839        0.0000000000000000     
   4.6583261342423979E-002  0.11387179267026258        0.0000000000000000     
   4.7874425071876864E-002  0.12095191763077642        0.0000000000000000     
   4.9105259993246136E-002  0.12817304611180999        0.0000000000000000     
   5.0275766106531797E-002  0.13553517811336319        0.0000000000000000     
   3.9872640386035010E-002  0.10654588925183184        0.0000000000000000     
   4.1076007986119489E-002  0.11350663088398455        0.0000000000000000     
   4.2224684378932266E-002  0.12060898496306498        0.0000000000000000     
   4.3318669564473340E-002  0.12785295148907311        0.0000000000000000     
   4.4357963542742684E-002  0.13523853046200895        0.0000000000000000     
   6.8869269518999660E-002  0.13664975557428460        0.0000000000000000     
   7.0356660830177942E-002  0.14406451091530886        0.0000000000000000     
   7.1742977433887550E-002  0.15156460387400872        0.0000000000000000     
   7.3028219330128499E-002  0.15915003445038425        0.0000000000000000     
   7.4212386518900733E-002  0.16682080264443541        0.0000000000000000     
   6.2531419094660284E-002  0.13624079066950104        0.0000000000000000     
   6.3888226835472142E-002  0.14367455593630610        0.0000000000000000     
   6.5151986349140836E-002  0.15119488287730848        0.0000000000000000     
   6.6322697635666367E-002  0.15880177149250818        0.0000000000000000     
   6.7400360695048761E-002  0.16649522178190521        0.0000000000000000     
   5.6333584623837668E-002  0.13586926484919387        0.0000000000000000     
   5.7561769250025582E-002  0.14332322100829539        0.0000000000000000     
   5.8704717390268286E-002  0.15086375580643596        0.0000000000000000     
   5.9762429044565801E-002  0.15849086924361569        0.0000000000000000     
   6.0734904212918120E-002  0.16620456131983452        0.0000000000000000     
   5.0275766106531797E-002  0.13553517811336319        0.0000000000000000     
   5.1377288073838255E-002  0.14301050613127675        0.0000000000000000     
   5.2401170557269908E-002  0.15057122266139131        0.0000000000000000     
   5.3347413556826741E-002  0.15821732770370689        0.0000000000000000     
   5.4216017072508782E-002  0.16594882125822344        0.0000000000000000     
   4.4357963542742684E-002  0.13523853046200895        0.0000000000000000     
   4.5334783306910202E-002  0.14273641130525017        0.0000000000000000     
   4.6241345850145707E-002  0.15031728344217438        0.0000000000000000     
   4.7077651172449241E-002  0.15798114687278164        0.0000000000000000     
   4.7843699273820761E-002  0.16572800159707191        0.0000000000000000     
   7.4212386518900733E-002  0.16682080264443541        0.0000000000000000     
   7.5315201006535312E-002  0.17458316259623693        0.0000000000000000     
   7.6356384799363256E-002  0.18244336844586354        0.0000000000000000     
   7.7335937897384521E-002  0.19040142019331527        0.0000000000000000     
   7.8253860300599151E-002  0.19845731783859208        0.0000000000000000     
   6.7400360695048761E-002  0.16649522178190521        0.0000000000000000     
   6.8402053373987651E-002  0.17428064258045142        0.0000000000000000     
   6.9344853519182695E-002  0.18216344272309884        0.0000000000000000     
   7.0228761130633852E-002  0.19014362220984737        0.0000000000000000     
   7.1053776208341163E-002  0.19822118104069705        0.0000000000000000     
   6.0734904212918120E-002  0.16620456131983452        0.0000000000000000     
   6.1636967966821186E-002  0.17401037330107358        0.0000000000000000     
   6.2483445377770945E-002  0.18191384645331388        0.0000000000000000     
   6.3274336445767423E-002  0.18991498077655553        0.0000000000000000     
   6.4009641170810566E-002  0.19801377627079844        0.0000000000000000     
   5.4216017072508782E-002  0.16594882125822344        0.0000000000000000     
   5.5019944785035912E-002  0.17377235475810329        0.0000000000000000     
   5.5772160375128055E-002  0.18169457963650870        0.0000000000000000     
   5.6472663842785195E-002  0.18971549589343970        0.0000000000000000     
   5.7121455188007354E-002  0.19783510352889633        0.0000000000000000     
   4.7843699273820761E-002  0.16572800159707191        0.0000000000000000     
   4.8550983828631843E-002  0.17356658695154065        0.0000000000000000     
   4.9210998511253996E-002  0.18150564227268334        0.0000000000000000     
   4.9823743321687222E-002  0.18954516756049999        0.0000000000000000     
   5.0389218259931520E-002  0.19768516281499060        0.0000000000000000     
   7.8253860300599151E-002  0.19845731783859208        0.0000000000000000     
   7.9102717271767820E-002  0.20659900763580008        0.0000000000000000     
   7.9875074073651242E-002  0.21481443583904533        0.0000000000000000     
   8.0570930706249405E-002  0.22310360244832783        0.0000000000000000     
   8.1190287169562309E-002  0.23146650746364764        0.0000000000000000     
   7.1053776208341163E-002  0.19822118104069705        0.0000000000000000     
   7.1810925114481491E-002  0.20638481302306902        0.0000000000000000     
   7.2491234211231659E-002  0.21462321196438447        0.0000000000000000     
   7.3094703498591679E-002  0.22293637786464340        0.0000000000000000     
   7.3621332976561552E-002  0.23132431072384577        0.0000000000000000     
   6.4009641170810566E-002  0.19801377627079844        0.0000000000000000     
   6.4679764035357801E-002  0.20619855095237727        0.0000000000000000     
   6.5275109521866465E-002  0.21445762283762657        0.0000000000000000     
   6.5795677630336599E-002  0.22279099192654639        0.0000000000000000     
   6.6241468360768149E-002  0.23119865821913665        0.0000000000000000     
   5.7121455188007354E-002  0.19783510352889633        0.0000000000000000     
   5.7709234034396775E-002  0.20604022142372480        0.0000000000000000     
   5.8226700005555708E-002  0.21431766845877168        0.0000000000000000     
   5.8673853101484166E-002  0.22266744463403682        0.0000000000000000     
   5.9050693322182130E-002  0.23108954994952033        0.0000000000000000     
   5.0389218259931520E-002  0.19768516281499060        0.0000000000000000     
   5.0899335111598401E-002  0.20590982443711167        0.0000000000000000     
   5.1346005662299354E-002  0.21420334882781969        0.0000000000000000     
   5.1729229912034387E-002  0.22256573598711471        0.0000000000000000     
   5.2049007860803478E-002  0.23099698591499665        0.0000000000000000     
   8.1190287169562309E-002  0.23146650746364764        0.0000000000000000     
   8.1724548628601054E-002  0.23992460915419592        0.0000000000000000     
   8.2165120248376675E-002  0.24849936578916407        0.0000000000000000     
   8.2512002028889211E-002  0.25719077736855200        0.0000000000000000     
   8.2765193970138623E-002  0.26599884389235978        0.0000000000000000     
   7.3621332976561552E-002  0.23132431072384577        0.0000000000000000     
   7.4069851214395035E-002  0.23980164333354928        0.0000000000000000     
   7.4438986781345903E-002  0.24838300848531156        0.0000000000000000     
   7.4728739677414127E-002  0.25706840617913268        0.0000000000000000     
   7.4939109902599735E-002  0.26585783641501254        0.0000000000000000     
   6.6241468360768149E-002  0.23119865821913665        0.0000000000000000     
   6.6616736271599072E-002  0.23968829164543176        0.0000000000000000     
   6.6925735921267271E-002  0.24826756213546597        0.0000000000000000     
   6.7168467309772772E-002  0.25693646968923933        0.0000000000000000     
   6.7344930437115522E-002  0.26569501430675180        0.0000000000000000     
   5.9050693322182130E-002  0.23108954994952033        0.0000000000000000     
   5.9365203800213172E-002  0.23958455408984333        0.0000000000000000     
   5.9625367668140833E-002  0.24815302673962727        0.0000000000000000     
   5.9831184925965106E-002  0.25679496789887202        0.0000000000000000     
   5.9982655573685997E-002  0.26551037756757767        0.0000000000000000     
   5.2049007860803478E-002  0.23099698591499665        0.0000000000000000     
   5.2315253800237313E-002  0.23949043066678408        0.0000000000000000     
   5.2537882021966534E-002  0.24803940229779545        0.0000000000000000     
   5.2716892525991148E-002  0.25664390080803073        0.0000000000000000     
   5.2852285312311141E-002  0.26530392619748999        0.0000000000000000     
   8.2765193970138623E-002  0.26599884389235978        0.0000000000000000     
   8.2963194747195726E-002  0.27494998791218622        0.0000000000000000     
   8.3144503035131254E-002  0.28407063197963012        0.0000000000000000     
   8.3309118833945248E-002  0.29336077609469141        0.0000000000000000     
   8.3457042143637694E-002  0.30282042025737022        0.0000000000000000     
   7.4939109902599735E-002  0.26585783641501254        0.0000000000000000     
   7.5110464982476116E-002  0.27474484493439949        0.0000000000000000     
   7.5283172442616703E-002  0.28372297747874198        0.0000000000000000     
   7.5457232283021466E-002  0.29279223404803983        0.0000000000000000     
   7.5632644503690422E-002  0.30195261464229317        0.0000000000000000     
   6.7344930437115522E-002  0.26569501430675180        0.0000000000000000     
   6.7494740130792694E-002  0.27451310584996602        0.0000000000000000     
   6.7657511218301394E-002  0.28336065418084455        0.0000000000000000     
   6.7833243699641624E-002  0.29223765929938750        0.0000000000000000     
   6.8021937574813410E-002  0.30114412120559475        0.0000000000000000     
   5.9982655573685997E-002  0.26551037756757767        0.0000000000000000     
   6.0116020192145438E-002  0.27425477065888576        0.0000000000000000     
   6.0267519362185364E-002  0.28298366208593795        0.0000000000000000     
   6.0437153083805768E-002  0.29169705184873429        0.0000000000000000     
   6.0624921357006652E-002  0.30039493994727479        0.0000000000000000     
   5.2852285312311141E-002  0.26530392619748999        0.0000000000000000     
   5.2974305166534341E-002  0.27396983936115860        0.0000000000000000     
   5.3113196874268583E-002  0.28259200119402206        0.0000000000000000     
   5.3268960435513858E-002  0.29117041169608027        0.0000000000000000     
   5.3441595850270168E-002  0.29970507086733333        0.0000000000000000     
   2.8059211787648045E-002   5.6294748674251910E-002   0.0000000000000000     
   3.0529119492290167E-002   6.2806692032129449E-002   0.0000000000000000     
   3.2578454578708720E-002   6.9118605360232913E-002   0.0000000000000000     
   3.4207217046903694E-002   7.5230488658562300E-002   0.0000000000000000     
   3.5415406896875098E-002   8.1142341927117612E-002   0.0000000000000000     
   2.4242313884688917E-002   5.5779297068878048E-002   0.0000000000000000     
   2.6433490961193969E-002   6.2381772421057288E-002   0.0000000000000000     
   2.8246434578988792E-002   6.8753309897948742E-002   0.0000000000000000     
   2.9681144738073390E-002   7.4893909499552380E-002   0.0000000000000000     
   3.0737621438447757E-002   8.0803571225868218E-002   0.0000000000000000     
   2.0575748803661469E-002   5.5333621015979211E-002   0.0000000000000000     
   2.2463570133170220E-002   6.2015026579316693E-002   0.0000000000000000     
   2.4023156985519739E-002   6.8438365350937808E-002   0.0000000000000000     
   2.5254509360710005E-002   7.4603637330842507E-002   0.0000000000000000     
   2.6157627258741045E-002   8.0510842519030845E-002   0.0000000000000000     
   1.7059516544565702E-002   5.4957720515555399E-002   0.0000000000000000     
   1.8619357008218925E-002   6.1706454506907669E-002   0.0000000000000000     
   1.9908621798301544E-002   6.8173771719200110E-002   0.0000000000000000     
   2.0927310914813556E-002   7.4359672152432707E-002   0.0000000000000000     
   2.1675424357754960E-002   8.0264155806605467E-002   0.0000000000000000     
   1.3693617107401614E-002   5.4651595567606640E-002   0.0000000000000000     
   1.4900851586340080E-002   6.1456056203830212E-002   0.0000000000000000     
   1.5902829017334214E-002   6.7959529002735650E-002   0.0000000000000000     
   1.6699549400384022E-002   7.4162013964322940E-002   0.0000000000000000     
   1.7291012735489501E-002   8.0063511088592082E-002   0.0000000000000000     
   3.5415406896875098E-002   8.1142341927117612E-002   0.0000000000000000     
   3.6442411645592310E-002   8.7088942325163440E-002   0.0000000000000000     
   3.7527618810024699E-002   9.3305067011964449E-002   0.0000000000000000     
   3.8671028390172266E-002   9.9790715987520567E-002   0.0000000000000000     
   3.9872640386035010E-002  0.10654588925183184        0.0000000000000000     
   3.0737621438447757E-002   8.0803571225868218E-002   0.0000000000000000     
   3.1631423304830424E-002   8.6736857579000071E-002   0.0000000000000000     
   3.2578108961939925E-002   9.2948331061051756E-002   0.0000000000000000     
   3.3577678409776261E-002   9.9437991672023274E-002   0.0000000000000000     
   3.4630131648339432E-002  0.10620583941191462        0.0000000000000000     
   2.6157627258741045E-002   8.0510842519030845E-002   0.0000000000000000     
   2.6919878154290155E-002   8.6432019485833400E-002   0.0000000000000000     
   2.7728629522034670E-002   9.2639206801580859E-002   0.0000000000000000     
   2.8583881361974584E-002   9.9132404466273180E-002   0.0000000000000000     
   2.9485633674109904E-002  0.10591161247991042        0.0000000000000000     
   2.1675424357754960E-002   8.0264155806605467E-002   0.0000000000000000     
   2.2307776193971500E-002   8.6174428045663443E-002   0.0000000000000000     
   2.2979180490308927E-002   9.2377694233551730E-002   0.0000000000000000     
   2.3689637246767238E-002   9.8873954370270342E-002   0.0000000000000000     
   2.4439146463346436E-002  0.10566320845581925        0.0000000000000000     
   1.7291012735489501E-002   8.0063511088592082E-002   0.0000000000000000     
   1.7795117423874456E-002   8.5964083258490198E-002   0.0000000000000000     
   1.8329761866762696E-002   9.2163793356964410E-002   0.0000000000000000     
   1.8894946064154219E-002   9.8662641384014704E-002   0.0000000000000000     
   1.9490670016049025E-002  0.10546062733964109        0.0000000000000000     
   3.9872640386035010E-002  0.10654588925183184        0.0000000000000000     
   4.1076007986119489E-002  0.11350663088398455        0.0000000000000000     
   4.2224684378932266E-002  0.12060898496306498        0.0000000000000000     
   4.3318669564473340E-002  0.12785295148907311        0.0000000000000000     
   4.4357963542742684E-002  0.13523853046200895        0.0000000000000000     
   3.4630131648339432E-002  0.10620583941191462        0.0000000000000000     
   3.5684713465722245E-002  0.11318434755998216        0.0000000000000000     
   3.6690668650017529E-002  0.12030598939548229        0.0000000000000000     
   3.7647997201225289E-002  0.12757076491841499        0.0000000000000000     
   3.8556699119345519E-002  0.13497867412878026        0.0000000000000000     
   2.9485633674109904E-002  0.10591161247991042        0.0000000000000000     
   3.0389564419603762E-002  0.11290598167520616        0.0000000000000000     
   3.1251351559619313E-002  0.12004466288487403        0.0000000000000000     
   3.2070995094156549E-002  0.12732765610891403        0.0000000000000000     
   3.2848495023215483E-002  0.13475496134732615        0.0000000000000000     
   2.4439146463346436E-002  0.10566320845581925        0.0000000000000000     
   2.5190560847764047E-002  0.11267153322965649        0.0000000000000000     
   2.5906733107737612E-002  0.11982500543124017        0.0000000000000000     
   2.6587663243267130E-002  0.12712362506057021        0.0000000000000000     
   2.7233351254352590E-002  0.13456739211764671        0.0000000000000000     
   1.9490670016049025E-002  0.10546062733964109        0.0000000000000000     
   2.0087702750203100E-002  0.11248100222333321        0.0000000000000000     
   2.0656813294372425E-002  0.11964701703458069        0.0000000000000000     
   2.1198001648557004E-002  0.12695867177338357        0.0000000000000000     
   2.1711267812756833E-002  0.13441596643974182        0.0000000000000000     
   4.4357963542742684E-002  0.13523853046200895        0.0000000000000000     
   4.5334783306910202E-002  0.14273641130525017        0.0000000000000000     
   4.6241345850145707E-002  0.15031728344217438        0.0000000000000000     
   4.7077651172449241E-002  0.15798114687278164        0.0000000000000000     
   4.7843699273820761E-002  0.16572800159707191        0.0000000000000000     
   3.8556699119345519E-002  0.13497867412878026        0.0000000000000000     
   3.9409738184268926E-002  0.14249826719015010        0.0000000000000000     
   4.0200078175886236E-002  0.15009809426609663        0.0000000000000000     
   4.0927719094197457E-002  0.15777815535661979        0.0000000000000000     
   4.1592660939202573E-002  0.16553845046171958        0.0000000000000000     
   3.2848495023215483E-002  0.13475496134732615        0.0000000000000000     
   3.3577635940942013E-002  0.14229340444591107        0.0000000000000000     
   3.4252202441482062E-002  0.14990981125046937        0.0000000000000000     
   3.4872194524835622E-002  0.15760418176100105        0.0000000000000000     
   3.5437612191002700E-002  0.16537651597750619        0.0000000000000000     
   2.7233351254352590E-002  0.13456739211764671        0.0000000000000000     
   2.7838476576929450E-002  0.14212182307253299        0.0000000000000000     
   2.8397718646933166E-002  0.14975243439529257        0.0000000000000000     
   2.8911077464363732E-002  0.15745922608592547        0.0000000000000000     
   2.9378553029221155E-002  0.16524219814443167        0.0000000000000000     
   2.1711267812756833E-002  0.13441596643974182        0.0000000000000000     
   2.2192260092231242E-002  0.14198352307001588        0.0000000000000000     
   2.2636626792239559E-002  0.14962596370056630        0.0000000000000000     
   2.3044367912781791E-002  0.15734328833139302        0.0000000000000000     
   2.3415483453857931E-002  0.16513549696249602        0.0000000000000000     
   4.7843699273820761E-002  0.16572800159707191        0.0000000000000000     
   4.8550983828631843E-002  0.17356658695154065        0.0000000000000000     
   4.9210998511253996E-002  0.18150564227268334        0.0000000000000000     
   4.9823743321687222E-002  0.18954516756049999        0.0000000000000000     
   5.0389218259931520E-002  0.19768516281499060        0.0000000000000000     
   4.1592660939202573E-002  0.16553845046171958        0.0000000000000000     
   4.2205074776610008E-002  0.17339004871206823        0.0000000000000000     
   4.2775131672128187E-002  0.18134401923833790        0.0000000000000000     
   4.3302831625757106E-002  0.18940036204052857        0.0000000000000000     
   4.3788174637496770E-002  0.19755907711864026        0.0000000000000000     
   3.5437612191002700E-002  0.16537651597750619        0.0000000000000000     
   3.5957207307971459E-002  0.17323971887036865        0.0000000000000000     
   3.6439731743730060E-002  0.18120669540997250        0.0000000000000000     
   3.6885185498278517E-002  0.18927744559631771        0.0000000000000000     
   3.7293568571616816E-002  0.19745196942940424        0.0000000000000000     
   2.9378553029221155E-002  0.16524219814443167        0.0000000000000000     
   2.9807381422716193E-002  0.17311559742644195        0.0000000000000000     
   3.0204798726059620E-002  0.18109367078758720        0.0000000000000000     
   3.0570804939251437E-002  0.18917641822786740        0.0000000000000000     
   3.0905400062291647E-002  0.19736383974728255        0.0000000000000000     
   2.3415483453857931E-002  0.16513549696249602        0.0000000000000000     
   2.3755597120844209E-002  0.17301768438028808        0.0000000000000000     
   2.4070332619116862E-002  0.18100494537118197        0.0000000000000000     
   2.4359689948675881E-002  0.18909727993517764        0.0000000000000000     
   2.4623669109521268E-002  0.19729468807227513        0.0000000000000000     
   5.0389218259931520E-002  0.19768516281499060        0.0000000000000000     
   5.0899335111598401E-002  0.20590982443711167        0.0000000000000000     
   5.1346005662299354E-002  0.21420334882781969        0.0000000000000000     
   5.1729229912034387E-002  0.22256573598711471        0.0000000000000000     
   5.2049007860803478E-002  0.23099698591499665        0.0000000000000000     
   4.3788174637496770E-002  0.19755907711864026        0.0000000000000000     
   4.4224668223850495E-002  0.20580134440876902        0.0000000000000000     
   4.4605819901321599E-002  0.21410834384701086        0.0000000000000000     
   4.4931629669910080E-002  0.22248007543336573        0.0000000000000000     
   4.5202097529615931E-002  0.23091653916783372        0.0000000000000000     
   3.7293568571616816E-002  0.19745196942940424        0.0000000000000000     
   3.7659834328040875E-002  0.20570876575492811        0.0000000000000000     
   3.7978936131846636E-002  0.21402633341858529        0.0000000000000000     
   3.8250873983034075E-002  0.22240467242037570        0.0000000000000000     
   3.8475647881603216E-002  0.23084378276029943        0.0000000000000000     
   3.0905400062291647E-002  0.19736383974728255        0.0000000000000000     
   3.1204833424169555E-002  0.20563208847558895        0.0000000000000000     
   3.1465354353874465E-002  0.21395731754254294        0.0000000000000000     
   3.1686962851406389E-002  0.22233952694814457        0.0000000000000000     
   3.1869658916765325E-002  0.23077871669239380        0.0000000000000000     
   2.4623669109521268E-002  0.19729468807227513        0.0000000000000000     
   2.4859665512236513E-002  0.20557131257075151        0.0000000000000000     
   2.5065074567405091E-002  0.21390129621888393        0.0000000000000000     
   2.5239896275027006E-002  0.22228463901667236        0.0000000000000000     
   2.5384130635102260E-002  0.23072134096411681        0.0000000000000000     
   5.2049007860803478E-002  0.23099698591499665        0.0000000000000000     
   5.2315253800237313E-002  0.23949043066678408        0.0000000000000000     
   5.2537882021966534E-002  0.24803940229779545        0.0000000000000000     
   5.2716892525991148E-002  0.25664390080803073        0.0000000000000000     
   5.2852285312311141E-002  0.26530392619748999        0.0000000000000000     
   4.5202097529615931E-002  0.23091653916783372        0.0000000000000000     
   4.5427741703419011E-002  0.23940444181965162        0.0000000000000000     
   4.5619080414299136E-002  0.24793049015805640        0.0000000000000000     
   4.5776113662256306E-002  0.25649468418304788        0.0000000000000000     
   4.5898841447290541E-002  0.26509702389462625        0.0000000000000000     
   3.8475647881603216E-002  0.23084378276029943        0.0000000000000000     
   3.8663522941505740E-002  0.23932510799184376        0.0000000000000000     
   3.8824764276693340E-002  0.24783009166849590        0.0000000000000000     
   3.8959371887166021E-002  0.25635873379025598        0.0000000000000000     
   3.9067345772923791E-002  0.26491103435712388        0.0000000000000000     
   3.1869658916765325E-002  0.23077871669239380        0.0000000000000000     
   3.2022597514497500E-002  0.23925242918336043        0.0000000000000000     
   3.2154933609149151E-002  0.24773820682911404        0.0000000000000000     
   3.2266667200720280E-002  0.25623604962965485        0.0000000000000000     
   3.2357798289210898E-002  0.26474595758498276        0.0000000000000000     
   2.5384130635102260E-002  0.23072134096411681        0.0000000000000000     
   2.5504965422394301E-002  0.23918640539420152        0.0000000000000000     
   2.5609588411666575E-002  0.24765483563991081        0.0000000000000000     
   2.5697999602919092E-002  0.25612663170124461        0.0000000000000000     
   2.5770198996151843E-002  0.26460179357820296        0.0000000000000000     
   5.2852285312311141E-002  0.26530392619748999        0.0000000000000000     
   5.2974305166534341E-002  0.27396983936115860        0.0000000000000000     
   5.3113196874268583E-002  0.28259200119402206        0.0000000000000000     
   5.3268960435513858E-002  0.29117041169608027        0.0000000000000000     
   5.3441595850270168E-002  0.29970507086733333        0.0000000000000000     
   4.5898841447290541E-002  0.26509702389462625        0.0000000000000000     
   4.6010884618770856E-002  0.27368708770584893        0.0000000000000000     
   4.6135864026066287E-002  0.28221445402977352        0.0000000000000000     
   4.6273779669176840E-002  0.29067912286639991        0.0000000000000000     
   4.6424631548102516E-002  0.29908109421572815        0.0000000000000000     
   3.9067345772923791E-002  0.26491103435712388        0.0000000000000000     
   3.9167048113666426E-002  0.27343529144202111        0.0000000000000000     
   3.9276841089093718E-002  0.28187980311786898        0.0000000000000000     
   3.9396724699205667E-002  0.29024456938466764        0.0000000000000000     
   3.9526698944002264E-002  0.29852959024241693        0.0000000000000000     
   3.2357798289210898E-002  0.26474595758498276        0.0000000000000000     
   3.2442795651221060E-002  0.27321445056967492        0.0000000000000000     
   3.2536128063350878E-002  0.28158804845830843        0.0000000000000000     
   3.2637795525600317E-002  0.28986675125088335        0.0000000000000000     
   3.2747798037969414E-002  0.29805055894739962        0.0000000000000000     
   2.5770198996151843E-002  0.26460179357820296        0.0000000000000000     
   2.5838127231434756E-002  0.27302456508881046        0.0000000000000000     
   2.5913724948837747E-002  0.28133919005109187        0.0000000000000000     
   2.5996992148360817E-002  0.28954566846504720        0.0000000000000000     
   2.6087928830003961E-002  0.29764400033067639        0.0000000000000000     
   1.3693617107401614E-002   5.4651595567606640E-002   0.0000000000000000     
   1.4900851586340080E-002   6.1456056203830212E-002   0.0000000000000000     
   1.5902829017334214E-002   6.7959529002735650E-002   0.0000000000000000     
   1.6699549400384022E-002   7.4162013964322940E-002   0.0000000000000000     
   1.7291012735489501E-002   8.0063511088592082E-002   0.0000000000000000     
   1.0369716266486213E-002   5.4414263039606385E-002   0.0000000000000000     
   1.1227809683052337E-002   6.1262408710847781E-002   0.0000000000000000     
   1.1945336019476957E-002   6.7794095150067735E-002   0.0000000000000000     
   1.2522295275760079E-002   7.4009322357266261E-002   0.0000000000000000     
   1.2958687451901695E-002   7.9908090332443338E-002   0.0000000000000000     
   6.9794797961365085E-003   5.4244739799028129E-002   0.0000000000000000     
   7.5199871138743636E-003   6.1124089068723846E-002   0.0000000000000000     
   7.9757001815889926E-003   6.7675928109719702E-002   0.0000000000000000     
   8.3466189992803946E-003   7.3900256922015684E-002   0.0000000000000000     
   8.6327435669485662E-003   7.9797075505611811E-002   0.0000000000000000     
   3.5229076963524996E-003   5.4143025845871870E-002   0.0000000000000000     
   3.7773838788061559E-003   6.1041097277458392E-002   0.0000000000000000     
   3.9939215036703113E-003   6.7605027881691510E-002   0.0000000000000000     
   4.1725205709449631E-003   7.3834817658571236E-002   0.0000000000000000     
   4.3131810806301138E-003   7.9730466608097517E-002   0.0000000000000000     
  -3.2865812068377798E-011   5.4109121180137616E-002   0.0000000000000000     
  -2.2152284347154438E-011   6.1013433337051434E-002   0.0000000000000000     
  -1.4279083557916517E-011   6.7581394465983199E-002   0.0000000000000000     
  -9.2462103511853355E-012   7.3813004566932877E-002   0.0000000000000000     
  -7.0536636427587229E-012   7.9708263639900495E-002   0.0000000000000000     
   1.7291012735489501E-002   8.0063511088592082E-002   0.0000000000000000     
   1.7795117423874456E-002   8.5964083258490198E-002   0.0000000000000000     
   1.8329761866762696E-002   9.2163793356964410E-002   0.0000000000000000     
   1.8894946064154219E-002   9.8662641384014704E-002   0.0000000000000000     
   1.9490670016049025E-002  0.10546062733964109        0.0000000000000000     
   1.2958687451901695E-002   7.9908090332443338E-002   0.0000000000000000     
   1.3335719703247265E-002   8.5800701980114844E-002   0.0000000000000000     
   1.3734599185142247E-002   9.1997460204796683E-002   0.0000000000000000     
   1.4155325897586640E-002   9.8498365006488869E-002   0.0000000000000000     
   1.4597899840580443E-002  0.10530341638519139        0.0000000000000000     
   8.6327435669485662E-003   7.9797075505611811E-002   0.0000000000000000     
   8.8834008913381661E-003   8.5684001066338555E-002   0.0000000000000000     
   9.1479179791938495E-003   9.1878650810026413E-002   0.0000000000000000     
   9.4262948305156094E-003   9.8381024736675399E-002   0.0000000000000000     
   9.7185314453034528E-003  0.10519112284628550        0.0000000000000000     
   4.3131810806301138E-003   7.9730466608097517E-002   0.0000000000000000     
   4.4381609881471596E-003   8.5613980517161348E-002   0.0000000000000000     
   4.5697182489174964E-003   9.1807365172653602E-002   0.0000000000000000     
   4.7078528629411285E-003   9.8310620574574334E-002   0.0000000000000000     
   4.8525648302180533E-003  0.10512374672292349        0.0000000000000000     
  -7.0536636427587229E-012   7.9708263639900495E-002   0.0000000000000000     
  -6.3257563250040949E-012   8.5590640332583220E-002   0.0000000000000000     
  -5.6868020492303883E-012   9.1783603292678276E-002   0.0000000000000000     
  -5.1368017641145042E-012   9.8287152520185633E-002   0.0000000000000000     
  -4.6757537078279121E-012  0.10510128801510532        0.0000000000000000     
   1.9490670016049025E-002  0.10546062733964109        0.0000000000000000     
   2.0087702750203100E-002  0.11248100222333321        0.0000000000000000     
   2.0656813294372425E-002  0.11964701703458069        0.0000000000000000     
   2.1198001648557004E-002  0.12695867177338357        0.0000000000000000     
   2.1711267812756833E-002  0.13441596643974182        0.0000000000000000     
   1.4597899840580443E-002  0.10530341638519139        0.0000000000000000     
   1.5041132307726208E-002  0.11233350147250050        0.0000000000000000     
   1.5463834592626482E-002  0.11950950740001254        0.0000000000000000     
   1.5866006695281265E-002  0.12683143416772749        0.0000000000000000     
   1.6247648615690558E-002  0.13429928177564537        0.0000000000000000     
   9.7185314453034528E-003  0.10519112284628550        0.0000000000000000     
   1.0010991701138658E-002  0.11222814379342259        0.0000000000000000     
   1.0290039475602499E-002  0.11941128623265257        0.0000000000000000     
   1.0555674768694980E-002  0.12674055016397542        0.0000000000000000     
   1.0807897580416103E-002  0.13421593558739114        0.0000000000000000     
   4.8525648302180533E-003  0.10512374672292349        0.0000000000000000     
   4.9972809304404458E-003  0.11216492918609948        0.0000000000000000     
   5.1354279433004791E-003  0.11935235353250077        0.0000000000000000     
   5.2670058687981540E-003  0.12668601976212732        0.0000000000000000     
   5.3920147069334706E-003  0.13416592787497914        0.0000000000000000     
  -4.6757537078279121E-012  0.10510128801510532        0.0000000000000000     
  -4.3684235916108261E-012  0.11214385765053120        0.0000000000000000     
  -4.2795782109056324E-012  0.11933270929955717        0.0000000000000000     
  -4.4092165357202673E-012  0.12666784296218322        0.0000000000000000     
  -4.7573386202648393E-012  0.13414925863840937        0.0000000000000000     
   2.1711267812756833E-002  0.13441596643974182        0.0000000000000000     
   2.2192260092231242E-002  0.14198352307001588        0.0000000000000000     
   2.2636626792239559E-002  0.14962596370056630        0.0000000000000000     
   2.3044367912781791E-002  0.15734328833139302        0.0000000000000000     
   2.3415483453857931E-002  0.16513549696249602        0.0000000000000000     
   1.6247648615690558E-002  0.13429928177564537        0.0000000000000000     
   1.6605435052361433E-002  0.14187707116776610        0.0000000000000000     
   1.6936040703800961E-002  0.14952882328808970        0.0000000000000000     
   1.7239465570009153E-002  0.15725453813661611        0.0000000000000000     
   1.7515709650985999E-002  0.16505421571334536        0.0000000000000000     
   1.0807897580416103E-002  0.13421593558739114        0.0000000000000000     
   1.1044450022834072E-002  0.14180103409518996        0.0000000000000000     
   1.1263074208017100E-002  0.14945943727966199        0.0000000000000000     
   1.1463770135965182E-002  0.15719114514080729        0.0000000000000000     
   1.1646537806678320E-002  0.16499615767862577        0.0000000000000000     
   5.3920147069334706E-003  0.13416592787497914        0.0000000000000000     
   5.5093050036491634E-003  0.14175541185228735        0.0000000000000000     
   5.6177273048879650E-003  0.14941780567528312        0.0000000000000000     
   5.7172816106498764E-003  0.15715310934396640        0.0000000000000000     
   5.8079679209348967E-003  0.16496132285833726        0.0000000000000000     
  -4.7573386202648393E-012  0.13414925863840937        0.0000000000000000     
  -5.1932945790977847E-012  0.14174020443905841        0.0000000000000000     
  -5.5864360446605810E-012  0.14940392847495315        0.0000000000000000     
  -5.9367619869611643E-012  0.15714043074609363        0.0000000000000000     
  -6.2442715928479053E-012  0.16494971125247979        0.0000000000000000     
   2.3415483453857931E-002  0.16513549696249602        0.0000000000000000     
   2.3755597120844209E-002  0.17301768438028808        0.0000000000000000     
   2.4070332619116862E-002  0.18100494537118197        0.0000000000000000     
   2.4359689948675881E-002  0.18909727993517764        0.0000000000000000     
   2.4623669109521268E-002  0.19729468807227513        0.0000000000000000     
   1.7515709650985999E-002  0.16505421571334536        0.0000000000000000     
   1.7768799667752664E-002  0.17294347663905874        0.0000000000000000     
   1.8002762341330306E-002  0.18093794153453741        0.0000000000000000     
   1.8217597671718936E-002  0.18903761039978145        0.0000000000000000     
   1.8413305658918546E-002  0.19724248323479091        0.0000000000000000     
   1.1646537806678320E-002  0.16499615767862577        0.0000000000000000     
   1.1813934328838697E-002  0.17289047110990544        0.0000000000000000     
   1.1968516811128494E-002  0.18089008165143416        0.0000000000000000     
   1.2110285253547709E-002  0.18899498930321193        0.0000000000000000     
   1.2239239656096345E-002  0.19720519406523876        0.0000000000000000     
   5.8079679209348967E-003  0.16496132285833726        0.0000000000000000     
   5.8910011041023143E-003  0.17285866779282830        0.0000000000000000     
   5.9675960285114149E-003  0.18086136572187220        0.0000000000000000     
   6.0377526941621986E-003  0.18896941664546901        0.0000000000000000     
   6.1014711010546653E-003  0.19718282056361866        0.0000000000000000     
  -6.2442715928479053E-012  0.16494971125247979        0.0000000000000000     
  -6.4564868208771831E-012  0.17284806668782721        0.0000000000000000     
  -6.5209289790840730E-012  0.18085179374585150        0.0000000000000000     
  -6.4375987721999872E-012  0.18896089242655262        0.0000000000000000     
  -6.2064945197115584E-012  0.19717536272993061        0.0000000000000000     
   2.4623669109521268E-002  0.19729468807227513        0.0000000000000000     
   2.4859665512236513E-002  0.20557131257075151        0.0000000000000000     
   2.5065074567405091E-002  0.21390129621888393        0.0000000000000000     
   2.5239896275027006E-002  0.22228463901667236        0.0000000000000000     
   2.5384130635102260E-002  0.23072134096411681        0.0000000000000000     
   1.8413305658918546E-002  0.19724248323479091        0.0000000000000000     
   1.8588247855379651E-002  0.20552509050537565        0.0000000000000000     
   1.8740785813552766E-002  0.21385796267734572        0.0000000000000000     
   1.8870919533437898E-002  0.22224109975070117        0.0000000000000000     
   1.8978649015035036E-002  0.23067450172544185        0.0000000000000000     
   1.2239239656096345E-002  0.19720519406523876        0.0000000000000000     
   1.2354497716736874E-002  0.20549207474442124        0.0000000000000000     
   1.2455177133431774E-002  0.21382701014766595        0.0000000000000000     
   1.2541277906181035E-002  0.22221000027497292        0.0000000000000000     
   1.2612800034984668E-002  0.23064104512634218        0.0000000000000000     
   6.1014711010546653E-003  0.19718282056361866        0.0000000000000000     
   6.1584150963081771E-003  0.20547226528788817        0.0000000000000000     
   6.2082485270420970E-003  0.21380843862984453        0.0000000000000000     
   6.2509713932564215E-003  0.22219134058948781        0.0000000000000000     
   6.2865836949511575E-003  0.23062097116681787        0.0000000000000000     
  -6.2064945197115584E-012  0.19717536272993061        0.0000000000000000     
  -5.9064389663909811E-012  0.20546566213577655        0.0000000000000000     
  -5.6162557243721878E-012  0.21380224812388160        0.0000000000000000     
  -5.3359413242082265E-012  0.22218512069424567        0.0000000000000000     
  -5.0654988016651803E-012  0.23061427984686889        0.0000000000000000     
   2.5384130635102260E-002  0.23072134096411681        0.0000000000000000     
   2.5504965422394301E-002  0.23918640539420152        0.0000000000000000     
   2.5609588411666575E-002  0.24765483563991081        0.0000000000000000     
   2.5697999602919092E-002  0.25612663170124461        0.0000000000000000     
   2.5770198996151843E-002  0.26460179357820296        0.0000000000000000     
   1.8978649015035036E-002  0.23067450172544185        0.0000000000000000     
   1.9068916014705582E-002  0.23913154614961935        0.0000000000000000     
   1.9146662288810925E-002  0.24758561057128523        0.0000000000000000     
   1.9211887837351074E-002  0.25603669499043952        0.0000000000000000     
   1.9264592660326020E-002  0.26448479940708208        0.0000000000000000     
   1.2612800034984668E-002  0.23064104512634218        0.0000000000000000     
   1.2672738640940789E-002  0.23909236097486591        0.0000000000000000     
   1.2724088845147518E-002  0.24753616409363652        0.0000000000000000     
   1.2766850647604850E-002  0.25597245448265382        0.0000000000000000     
   1.2801024048312791E-002  0.26440123214191796        0.0000000000000000     
   6.2865836949511575E-003  0.23062097116681787        0.0000000000000000     
   6.3164333010999217E-003  0.23906884986994129        0.0000000000000000     
   6.3418680806763437E-003  0.24750649620696447        0.0000000000000000     
   6.3628880336804227E-003  0.25593391017788758        0.0000000000000000     
   6.3794931601121579E-003  0.26435109178271038        0.0000000000000000     
  -5.0654988016651803E-012  0.23061427984686889        0.0000000000000000     
  -4.8170183120088694E-012  0.23906101283484532        0.0000000000000000     
  -4.6025858905368588E-012  0.24749660691126923        0.0000000000000000     
  -4.4222061451083816E-012  0.25592106207614074        0.0000000000000000     
  -4.2758765278483324E-012  0.26433437832945955        0.0000000000000000     
   2.5770198996151843E-002  0.26460179357820296        0.0000000000000000     
   2.5838127231434756E-002  0.27302456508881046        0.0000000000000000     
   2.5913724948837747E-002  0.28133919005109187        0.0000000000000000     
   2.5996992148360817E-002  0.28954566846504720        0.0000000000000000     
   2.6087928830003961E-002  0.29764400033067639        0.0000000000000000     
   1.9264592660326020E-002  0.26448479940708208        0.0000000000000000     
   1.9314586980368462E-002  0.27287195827678751        0.0000000000000000     
   1.9371681020111099E-002  0.28114020605513057        0.0000000000000000     
   1.9435874779553934E-002  0.28928954274211088        0.0000000000000000     
   1.9507168258696955E-002  0.29731996833772878        0.0000000000000000     
   1.2801024048312791E-002  0.26440123214191796        0.0000000000000000     
   1.2833719024083135E-002  0.27276295341096612        0.0000000000000000     
   1.2872045551727697E-002  0.28099807462933557        0.0000000000000000     
   1.2916003631246462E-002  0.28910659579702636        0.0000000000000000     
   1.2965593262639439E-002  0.29708851691403859        0.0000000000000000     
   6.3794931601121579E-003  0.26435109178271038        0.0000000000000000     
   6.3955233625787831E-003  0.27269755049134592        0.0000000000000000     
   6.4148185436875334E-003  0.28091279577370709        0.0000000000000000     
   6.4373787034384088E-003  0.28899682762979367        0.0000000000000000     
   6.4632038418314074E-003  0.29694964605960583        0.0000000000000000     
  -4.2758765278483324E-012  0.26433437832945955        0.0000000000000000     
  -4.1446028466868290E-012  0.27267574951792722        0.0000000000000000     
  -4.0093877653676890E-012  0.28088436948824486        0.0000000000000000     
  -3.8702323409880307E-012  0.28896023824041267        0.0000000000000000     
  -3.7271357875012789E-012  0.29690335577443050        0.0000000000000000     
  -3.2865812068377798E-011   5.4109121180137616E-002   0.0000000000000000     
  -2.2152284347154438E-011   6.1013433337051434E-002   0.0000000000000000     
  -1.4279083557916517E-011   6.7581394465983199E-002   0.0000000000000000     
  -9.2462103511853355E-012   7.3813004566932877E-002   0.0000000000000000     
  -7.0536636427587229E-012   7.9708263639900495E-002   0.0000000000000000     
  -3.5229077615322457E-003   5.4143025802957517E-002   0.0000000000000000     
  -3.7773839229999404E-003   6.1041097248546547E-002   0.0000000000000000     
  -3.9939215324190048E-003   6.7605027863504960E-002   0.0000000000000000     
  -4.1725205897894429E-003   7.3834817647832715E-002   0.0000000000000000     
  -4.3131810951112497E-003   7.9730466601529854E-002   0.0000000000000000     
  -6.9794798596606181E-003   5.4244739715463730E-002   0.0000000000000000     
  -7.5199871577357911E-003   6.1124089012987312E-002   0.0000000000000000     
  -7.9757002109092645E-003   6.7675928075167022E-002   0.0000000000000000     
  -8.3466190191810452E-003   7.3900256902002859E-002   0.0000000000000000     
  -8.6327435825511323E-003   7.9797075493494796E-002   0.0000000000000000     
  -1.0369716327250932E-002   5.4414262917656261E-002   0.0000000000000000     
  -1.1227809726359832E-002   6.1262408630373744E-002   0.0000000000000000     
  -1.1945336049749863E-002   6.7794095100969426E-002   0.0000000000000000     
  -1.2522295297421023E-002   7.4009322329443267E-002   0.0000000000000000     
  -1.2958687469373315E-002   7.9908090315795322E-002   0.0000000000000000     
  -1.3693617164303186E-002   5.4651595409535098E-002   0.0000000000000000     
  -1.4900851628872072E-002   6.1456056100705814E-002   0.0000000000000000     
  -1.5902829048940800E-002   6.7959528940912117E-002   0.0000000000000000     
  -1.6699549424509373E-002   7.4162013930153980E-002   0.0000000000000000     
  -1.7291012755577789E-002   8.0063511068431459E-002   0.0000000000000000     
  -7.0536636427587229E-012   7.9708263639900495E-002   0.0000000000000000     
  -6.3257563250040949E-012   8.5590640332583220E-002   0.0000000000000000     
  -5.6868020492303883E-012   9.1783603292678276E-002   0.0000000000000000     
  -5.1368017641145042E-012   9.8287152520185633E-002   0.0000000000000000     
  -4.6757537078279121E-012  0.10510128801510532        0.0000000000000000     
  -4.3131810951112497E-003   7.9730466601529854E-002   0.0000000000000000     
  -4.4381610011266200E-003   8.5613980512895982E-002   0.0000000000000000     
  -4.5697182605777360E-003   9.1807365170230776E-002   0.0000000000000000     
  -4.7078528734646038E-003   9.8310620573534235E-002   0.0000000000000000     
  -4.8525648397872191E-003  0.10512374672280630        0.0000000000000000     
  -8.6327435825511323E-003   7.9797075493494796E-002   0.0000000000000000     
  -8.8834009053014671E-003   8.5684001058391496E-002   0.0000000000000000     
  -9.1479179917139906E-003   9.1878650805441539E-002   0.0000000000000000     
  -9.4262948417886943E-003   9.8381024734644995E-002   0.0000000000000000     
  -9.7185314555255867E-003  0.10519112284600179        0.0000000000000000     
  -1.2958687469373315E-002   7.9908090315795322E-002   0.0000000000000000     
  -1.3335719718850303E-002   8.5800701969069720E-002   0.0000000000000000     
  -1.3734599199095558E-002   9.1997460198310579E-002   0.0000000000000000     
  -1.4155325910109073E-002   9.8498365003517913E-002   0.0000000000000000     
  -1.4597899851890863E-002  0.10530341638469176        0.0000000000000000     
  -1.7291012755577789E-002   8.0063511068431459E-002   0.0000000000000000     
  -1.7795117441773124E-002   8.5964083244930684E-002   0.0000000000000000     
  -1.8329761882722444E-002   9.2163793348837869E-002   0.0000000000000000     
  -1.8894946078425748E-002   9.8662641380153043E-002   0.0000000000000000     
  -1.9490670028883040E-002  0.10546062733887618        0.0000000000000000     
  -4.6757537078279121E-012  0.10510128801510532        0.0000000000000000     
  -4.3684235916108261E-012  0.11214385765053120        0.0000000000000000     
  -4.2795782109056324E-012  0.11933270929955717        0.0000000000000000     
  -4.4092165357202673E-012  0.12666784296218322        0.0000000000000000     
  -4.7573386202648393E-012  0.13414925863840937        0.0000000000000000     
  -4.8525648397872191E-003  0.10512374672280630        0.0000000000000000     
  -4.9972809393626022E-003  0.11216492918666993        0.0000000000000000     
  -5.1354279520077735E-003  0.11935235353374797        0.0000000000000000     
  -5.2670058777227321E-003  0.12668601976404040        0.0000000000000000     
  -5.3920147165074771E-003  0.13416592787754728        0.0000000000000000     
  -9.7185314555255867E-003  0.10519112284600179        0.0000000000000000     
  -1.0010991710616732E-002  0.11222814379446794        0.0000000000000000     
  -1.0290039484754199E-002  0.11941128623499940        0.0000000000000000     
  -1.0555674777937988E-002  0.12674055016759619        0.0000000000000000     
  -1.0807897590168094E-002  0.13421593559225828        0.0000000000000000     
  -1.4597899851890863E-002  0.10530341638469176        0.0000000000000000     
  -1.5041132318130821E-002  0.11233350147392521        0.0000000000000000     
  -1.5463834602518862E-002  0.11950950740331148        0.0000000000000000     
  -1.5866006705054985E-002  0.12683143417285056        0.0000000000000000     
  -1.6247648625739190E-002  0.13429928178254244        0.0000000000000000     
  -1.9490670028883040E-002  0.10546062733887618        0.0000000000000000     
  -2.0087702761904865E-002  0.11248100222504176        0.0000000000000000     
  -2.0656813305301756E-002  0.11964701703868420        0.0000000000000000     
  -2.1198001659073724E-002  0.12695867177980349        0.0000000000000000     
  -2.1711267823220762E-002  0.13441596644839968        0.0000000000000000     
  -4.7573386202648393E-012  0.13414925863840937        0.0000000000000000     
  -5.1932945790977847E-012  0.14174020443905841        0.0000000000000000     
  -5.5864360446605810E-012  0.14940392847495315        0.0000000000000000     
  -5.9367619869611643E-012  0.15714043074609363        0.0000000000000000     
  -6.2442715928479053E-012  0.16494971125247979        0.0000000000000000     
  -5.3920147165074771E-003  0.13416592787754728        0.0000000000000000     
  -5.5093050140472243E-003  0.14175541185534293        0.0000000000000000     
  -5.6177273160271839E-003  0.14941780567850180        0.0000000000000000     
  -5.7172816224473587E-003  0.15715310934702384        0.0000000000000000     
  -5.8079679333077460E-003  0.16496132286090903        0.0000000000000000     
  -1.0807897590168094E-002  0.13421593559225828        0.0000000000000000     
  -1.1044450033266545E-002  0.14180103410098074        0.0000000000000000     
  -1.1263074219055362E-002  0.14945943728575864        0.0000000000000000     
  -1.1463770147534540E-002  0.15719114514659199        0.0000000000000000     
  -1.1646537818704087E-002  0.16499615768348078        0.0000000000000000     
  -1.6247648625739190E-002  0.13429928178254244        0.0000000000000000     
  -1.6605435062851254E-002  0.14187707117597190        0.0000000000000000     
  -1.6936040714670961E-002  0.14952882329672382        0.0000000000000000     
  -1.7239465581198304E-002  0.15725453814479814        0.0000000000000000     
  -1.7515709662433300E-002  0.16505421572019488        0.0000000000000000     
  -2.1711267823220762E-002  0.13441596644839968        0.0000000000000000     
  -2.2192260102801356E-002  0.14198352308031637        0.0000000000000000     
  -2.2636626802873993E-002  0.14962596371139725        0.0000000000000000     
  -2.3044367923438662E-002  0.15734328834164227        0.0000000000000000     
  -2.3415483464495380E-002  0.16513549697105145        0.0000000000000000     
  -6.2442715928479053E-012  0.16494971125247979        0.0000000000000000     
  -6.4564868208771831E-012  0.17284806668782721        0.0000000000000000     
  -6.5209289790840730E-012  0.18085179374585150        0.0000000000000000     
  -6.4375987721999872E-012  0.18896089242655262        0.0000000000000000     
  -6.2064945197115584E-012  0.19717536272993061        0.0000000000000000     
  -5.8079679333077460E-003  0.16496132286090903        0.0000000000000000     
  -5.8910011168669171E-003  0.17285866779478570        0.0000000000000000     
  -5.9675960413834456E-003  0.18086136572328196        0.0000000000000000     
  -6.0377527068573248E-003  0.18896941664639785        0.0000000000000000     
  -6.1014711132885615E-003  0.19718282056413330        0.0000000000000000     
  -1.1646537818704087E-002  0.16499615768348078        0.0000000000000000     
  -1.1813934341158190E-002  0.17289047111358719        0.0000000000000000     
  -1.1968516823491038E-002  0.18089008165407341        0.0000000000000000     
  -1.2110285265702628E-002  0.18899498930493949        0.0000000000000000     
  -1.2239239667792964E-002  0.19720519406618536        0.0000000000000000     
  -1.7515709662433300E-002  0.16505421572019488        0.0000000000000000     
  -1.7768799679330306E-002  0.17294347664423163        0.0000000000000000     
  -1.8002762352843711E-002  0.18093794153822590        0.0000000000000000     
  -1.8217597682973510E-002  0.18903761040217765        0.0000000000000000     
  -1.8413305669719701E-002  0.19724248323608687        0.0000000000000000     
  -2.3415483464495380E-002  0.16513549697105145        0.0000000000000000     
  -2.3755597131383265E-002  0.17301768438671908        0.0000000000000000     
  -2.4070332629441464E-002  0.18100494537573930        0.0000000000000000     
  -2.4359689958669963E-002  0.18909727993811218        0.0000000000000000     
  -2.4623669119068776E-002  0.19729468807383771        0.0000000000000000     
  -6.2064945197115584E-012  0.19717536272993061        0.0000000000000000     
  -5.9064389663909811E-012  0.20546566213577655        0.0000000000000000     
  -5.6162557243721878E-012  0.21380224812388160        0.0000000000000000     
  -5.3359413242082265E-012  0.22218512069424567        0.0000000000000000     
  -5.0654988016651803E-012  0.23061427984686889        0.0000000000000000     
  -6.1014711132885615E-003  0.19718282056413330        0.0000000000000000     
  -6.1584151079491257E-003  0.20547226528806534        0.0000000000000000     
  -6.2082485381109893E-003  0.21380843862977089        0.0000000000000000     
  -6.2509714037741583E-003  0.22219134058925002        0.0000000000000000     
  -6.2865837049386275E-003  0.23062097116650265        0.0000000000000000     
  -1.2239239667792964E-002  0.19720519406618536        0.0000000000000000     
  -1.2354497727862030E-002  0.20549207474473358        0.0000000000000000     
  -1.2455177144009821E-002  0.21382701014750649        0.0000000000000000     
  -1.2541277916236325E-002  0.22221000027450413        0.0000000000000000     
  -1.2612800044541551E-002  0.23064104512572650        0.0000000000000000     
  -1.8413305669719701E-002  0.19724248323608687        0.0000000000000000     
  -1.8588247865645155E-002  0.20552509050578122        0.0000000000000000     
  -1.8740785823312733E-002  0.21385796267708829        0.0000000000000000     
  -1.8870919542722443E-002  0.22224109975000805        0.0000000000000000     
  -1.8978649023874278E-002  0.23067450172454057        0.0000000000000000     
  -2.4623669119068776E-002  0.19729468807383771        0.0000000000000000     
  -2.4859665521298500E-002  0.20557131257120834        0.0000000000000000     
  -2.5065074576019745E-002  0.21390129621851631        0.0000000000000000     
  -2.5239896283232512E-002  0.22228463901576181        0.0000000000000000     
  -2.5384130642936799E-002  0.23072134096294472        0.0000000000000000     
  -5.0654988016651803E-012  0.23061427984686889        0.0000000000000000     
  -4.8170183120088694E-012  0.23906101283484532        0.0000000000000000     
  -4.6025858905368588E-012  0.24749660691126923        0.0000000000000000     
  -4.4222061451083816E-012  0.25592106207614074        0.0000000000000000     
  -4.2758765278483324E-012  0.26433437832945955        0.0000000000000000     
  -6.2865837049386275E-003  0.23062097116650265        0.0000000000000000     
  -6.3164333106006700E-003  0.23906884986958676        0.0000000000000000     
  -6.3418680897565638E-003  0.24750649620656054        0.0000000000000000     
  -6.3628880424063021E-003  0.25593391017742384        0.0000000000000000     
  -6.3794931685498962E-003  0.26435109178217675        0.0000000000000000     
  -1.2612800044541551E-002  0.23064104512572650        0.0000000000000000     
  -1.2672738650041680E-002  0.23909236097417425        0.0000000000000000     
  -1.2724088853852870E-002  0.24753616409284793        0.0000000000000000     
  -1.2766850655975140E-002  0.25597245448174766        0.0000000000000000     
  -1.2801024056408478E-002  0.26440123214087330        0.0000000000000000     
  -1.8978649023874278E-002  0.23067450172454057        0.0000000000000000     
  -1.9068916023140030E-002  0.23913154614860771        0.0000000000000000     
  -1.9146662296891513E-002  0.24758561057013159        0.0000000000000000     
  -1.9211887845128707E-002  0.25603669498911208        0.0000000000000000     
  -1.9264592667851629E-002  0.26448479940554925        0.0000000000000000     
  -2.5384130642936799E-002  0.23072134096294472        0.0000000000000000     
  -2.5504965429895745E-002  0.23918640539288719        0.0000000000000000     
  -2.5609588418872484E-002  0.24765483563841134        0.0000000000000000     
  -2.5697999609867014E-002  0.25612663169951716        0.0000000000000000     
  -2.5770199002879343E-002  0.26460179357620461        0.0000000000000000     
  -4.2758765278483324E-012  0.26433437832945955        0.0000000000000000     
  -4.1446028466868290E-012  0.27267574951792722        0.0000000000000000     
  -4.0093877653676890E-012  0.28088436948824486        0.0000000000000000     
  -3.8702323409880307E-012  0.28896023824041267        0.0000000000000000     
  -3.7271357875012789E-012  0.29690335577443050        0.0000000000000000     
  -6.3794931685498962E-003  0.26435109178217675        0.0000000000000000     
  -6.3955233707574735E-003  0.27269755049072258        0.0000000000000000     
  -6.4148185515991709E-003  0.28091279577296469        0.0000000000000000     
  -6.4373787110749928E-003  0.28899682762890305        0.0000000000000000     
  -6.4632038491849366E-003  0.29694964605853774        0.0000000000000000     
  -1.2801024056408478E-002  0.26440123214087330        0.0000000000000000     
  -1.2833719031930277E-002  0.27276295340974477        0.0000000000000000     
  -1.2872045559317922E-002  0.28099807462788173        0.0000000000000000     
  -1.2916003638571408E-002  0.28910659579528442        0.0000000000000000     
  -1.2965593269690739E-002  0.29708851691195254        0.0000000000000000     
  -1.9264592667851629E-002  0.26448479940554925        0.0000000000000000     
  -1.9314586987663019E-002  0.27287195827499378        0.0000000000000000     
  -1.9371681027165636E-002  0.28114020605299628        0.0000000000000000     
  -1.9435874786359480E-002  0.28928954273955659        0.0000000000000000     
  -1.9507168265244547E-002  0.29731996833467494        0.0000000000000000     
  -2.5770199002879343E-002  0.26460179357620461        0.0000000000000000     
  -2.5838127237955699E-002  0.27302456508646961        0.0000000000000000     
  -2.5913724955142315E-002  0.28133919004830804        0.0000000000000000     
  -2.5996992154439204E-002  0.28954566846171981        0.0000000000000000     
  -2.6087928835846354E-002  0.29764400032670502        0.0000000000000000     
  -1.3693617164303186E-002   5.4651595409535098E-002   0.0000000000000000     
  -1.4900851628872072E-002   6.1456056100705814E-002   0.0000000000000000     
  -1.5902829048940800E-002   6.7959528940912117E-002   0.0000000000000000     
  -1.6699549424509373E-002   7.4162013930153980E-002   0.0000000000000000     
  -1.7291012755577789E-002   8.0063511068431459E-002   0.0000000000000000     
  -1.7059516596659399E-002   5.4957720332250173E-002   0.0000000000000000     
  -1.8619357049381266E-002   6.1706454388152115E-002   0.0000000000000000     
  -1.9908621830890035E-002   6.8173771648766951E-002   0.0000000000000000     
  -2.0927310941185696E-002   7.4359672114094652E-002   0.0000000000000000     
  -2.1675424380268253E-002   8.0264155784135260E-002   0.0000000000000000     
  -2.0575748850161595E-002   5.5333620826951417E-002   0.0000000000000000     
  -2.2463570171996190E-002   6.2015026456881193E-002   0.0000000000000000     
  -2.4023157018005517E-002   6.8438365278305699E-002   0.0000000000000000     
  -2.5254509388189583E-002   7.4603637291224961E-002   0.0000000000000000     
  -2.6157627282548390E-002   8.0510842495638932E-002   0.0000000000000000     
  -2.4242313924809775E-002   5.5779296893638815E-002   0.0000000000000000     
  -2.6433490996716831E-002   6.2381772306893055E-002   0.0000000000000000     
  -2.8246434610287249E-002   6.8753309829528403E-002   0.0000000000000000     
  -2.9681144765521042E-002   7.4893909461544880E-002   0.0000000000000000     
  -3.0737621462418201E-002   8.0803571202942431E-002   0.0000000000000000     
  -2.8059211820603943E-002   5.6294748532312366E-002   0.0000000000000000     
  -3.0529119523543195E-002   6.2806691938187678E-002   0.0000000000000000     
  -3.2578454607735237E-002   6.9118605302435035E-002   0.0000000000000000     
  -3.4207217073180064E-002   7.5230488625054395E-002   0.0000000000000000     
  -3.5415406919877691E-002   8.1142341906045759E-002   0.0000000000000000     
  -1.7291012755577789E-002   8.0063511068431459E-002   0.0000000000000000     
  -1.7795117441773124E-002   8.5964083244930684E-002   0.0000000000000000     
  -1.8329761882722444E-002   9.2163793348837869E-002   0.0000000000000000     
  -1.8894946078425748E-002   9.8662641380153043E-002   0.0000000000000000     
  -1.9490670028883040E-002  0.10546062733887618        0.0000000000000000     
  -2.1675424380268253E-002   8.0264155784135260E-002   0.0000000000000000     
  -2.2307776213950883E-002   8.6174428030348513E-002   0.0000000000000000     
  -2.2979180508046752E-002   9.2377694224194146E-002   0.0000000000000000     
  -2.3689637262555865E-002   9.8873954365672131E-002   0.0000000000000000     
  -2.4439146477478219E-002  0.10566320845478253        0.0000000000000000     
  -2.6157627282548390E-002   8.0510842495638932E-002   0.0000000000000000     
  -2.6919878175264523E-002   8.6432019469697391E-002   0.0000000000000000     
  -2.7728629540520588E-002   9.2639206791550091E-002   0.0000000000000000     
  -2.8583881378316571E-002   9.9132404461197018E-002   0.0000000000000000     
  -2.9485633688652483E-002  0.10591161247863817        0.0000000000000000     
  -3.0737621462418201E-002   8.0803571202942431E-002   0.0000000000000000     
  -3.1631423325714059E-002   8.6736857562977318E-002   0.0000000000000000     
  -3.2578108980143954E-002   9.2948331050905733E-002   0.0000000000000000     
  -3.3577678425707871E-002   9.9437991666727690E-002   0.0000000000000000     
  -3.4630131662405840E-002  0.10620583941044313        0.0000000000000000     
  -3.5415406919877691E-002   8.1142341906045759E-002   0.0000000000000000     
  -3.6442411665299483E-002   8.7088942310188294E-002   0.0000000000000000     
  -3.7527618826916853E-002   9.3305067002261058E-002   0.0000000000000000     
  -3.8671028404729781E-002   9.9790715982264119E-002   0.0000000000000000     
  -3.9872640398738272E-002  0.10654588925019745        0.0000000000000000     
  -1.9490670028883040E-002  0.10546062733887618        0.0000000000000000     
  -2.0087702761904865E-002  0.11248100222504176        0.0000000000000000     
  -2.0656813305301756E-002  0.11964701703868420        0.0000000000000000     
  -2.1198001659073724E-002  0.12695867177980349        0.0000000000000000     
  -2.1711267823220762E-002  0.13441596644839968        0.0000000000000000     
  -2.4439146477478219E-002  0.10566320845478253        0.0000000000000000     
  -2.5190560860543804E-002  0.11267153323152576        0.0000000000000000     
  -2.5906733119482595E-002  0.11982500543590231        0.0000000000000000     
  -2.6587663254294597E-002  0.12712362506791217        0.0000000000000000     
  -2.7233351264979826E-002  0.13456739212755536        0.0000000000000000     
  -2.9485633688652483E-002  0.10591161247863817        0.0000000000000000     
  -3.0389564432652567E-002  0.11290598167708543        0.0000000000000000     
  -3.1251351571441072E-002  0.12004466288975060        0.0000000000000000     
  -3.2070995105018013E-002  0.12732765611663374        0.0000000000000000     
  -3.2848495033383378E-002  0.13475496135773482        0.0000000000000000     
  -3.4630131662405840E-002  0.10620583941044313        0.0000000000000000     
  -3.5684713478231156E-002  0.11318434756172076        0.0000000000000000     
  -3.6690668661177206E-002  0.12030598940022909        0.0000000000000000     
  -3.7647997211243955E-002  0.12757076492596819        0.0000000000000000     
  -3.8556699128431425E-002  0.13497867413893802        0.0000000000000000     
  -3.9872640398738272E-002  0.10654588925019745        0.0000000000000000     
  -4.1076007997279590E-002  0.11350663088543175        0.0000000000000000     
  -4.2224684388690981E-002  0.12060898496733777        0.0000000000000000     
  -4.3318669572972437E-002  0.12785295149591550        0.0000000000000000     
  -4.4357963550123961E-002  0.13523853047116496        0.0000000000000000     
  -2.1711267823220762E-002  0.13441596644839968        0.0000000000000000     
  -2.2192260102801356E-002  0.14198352308031637        0.0000000000000000     
  -2.2636626802873993E-002  0.14962596371139725        0.0000000000000000     
  -2.3044367923438662E-002  0.15734328834164227        0.0000000000000000     
  -2.3415483464495380E-002  0.16513549697105145        0.0000000000000000     
  -2.7233351264979826E-002  0.13456739212755536        0.0000000000000000     
  -2.7838476587305833E-002  0.14212182308431393        0.0000000000000000     
  -2.8397718657040188E-002  0.14975243440766989        0.0000000000000000     
  -2.8911077474182922E-002  0.15745922609762328        0.0000000000000000     
  -2.9378553038734000E-002  0.16524219815417412        0.0000000000000000     
  -3.2848495033383378E-002  0.13475496135773482        0.0000000000000000     
  -3.3577635950553644E-002  0.14229340445826430        0.0000000000000000     
  -3.4252202450545319E-002  0.14990981126343278        0.0000000000000000     
  -3.4872194533358380E-002  0.15760418177324015        0.0000000000000000     
  -3.5437612198992843E-002  0.16537651598768646        0.0000000000000000     
  -3.8556699128431425E-002  0.13497867413893802        0.0000000000000000     
  -3.9409738192544813E-002  0.14249826720216757        0.0000000000000000     
  -4.0200078183389366E-002  0.15009809427868581        0.0000000000000000     
  -4.0927719100965057E-002  0.15777815536849285        0.0000000000000000     
  -4.1592660945271906E-002  0.16553845047158855        0.0000000000000000     
  -4.4357963550123961E-002  0.13523853047116496        0.0000000000000000     
  -4.5334783313279337E-002  0.14273641131602366        0.0000000000000000     
  -4.6241345855572331E-002  0.15031728345342912        0.0000000000000000     
  -4.7077651177002952E-002  0.15798114688338136        0.0000000000000000     
  -4.7843699277571178E-002  0.16572800160588036        0.0000000000000000     
  -2.3415483464495380E-002  0.16513549697105145        0.0000000000000000     
  -2.3755597131383265E-002  0.17301768438671908        0.0000000000000000     
  -2.4070332629441464E-002  0.18100494537573930        0.0000000000000000     
  -2.4359689958669963E-002  0.18909727993811218        0.0000000000000000     
  -2.4623669119068776E-002  0.19729468807383771        0.0000000000000000     
  -2.9378553038734000E-002  0.16524219815417412        0.0000000000000000     
  -2.9807381431898500E-002  0.17311559743373833        0.0000000000000000     
  -3.0204798734881490E-002  0.18109367079273198        0.0000000000000000     
  -3.0570804947682956E-002  0.18917641823115505        0.0000000000000000     
  -3.0905400070302905E-002  0.19736383974900756        0.0000000000000000     
  -3.5437612198992843E-002  0.16537651598768646        0.0000000000000000     
  -3.5957207315457464E-002  0.17323971887797826        0.0000000000000000     
  -3.6439731750760998E-002  0.18120669541532211        0.0000000000000000     
  -3.6885185504903446E-002  0.18927744559971796        0.0000000000000000     
  -3.7293568577884822E-002  0.19745196943116586        0.0000000000000000     
  -4.1592660945271906E-002  0.16553845047158855        0.0000000000000000     
  -4.2205074782060120E-002  0.17339004871943886        0.0000000000000000     
  -4.2775131677079969E-002  0.18134401924350965        0.0000000000000000     
  -4.3302831630331433E-002  0.18940036204380092        0.0000000000000000     
  -4.3788174641814517E-002  0.19755907712031268        0.0000000000000000     
  -4.7843699277571178E-002  0.16572800160588036        0.0000000000000000     
  -4.8550983831706508E-002  0.17356658695812011        0.0000000000000000     
  -4.9210998513838422E-002  0.18150564227729465        0.0000000000000000     
  -4.9823743323966913E-002  0.18954516756340392        0.0000000000000000     
  -5.0389218262091987E-002  0.19768516281644799        0.0000000000000000     
  -2.4623669119068776E-002  0.19729468807383771        0.0000000000000000     
  -2.4859665521298500E-002  0.20557131257120834        0.0000000000000000     
  -2.5065074576019745E-002  0.21390129621851631        0.0000000000000000     
  -2.5239896283232512E-002  0.22228463901576181        0.0000000000000000     
  -2.5384130642936799E-002  0.23072134096294472        0.0000000000000000     
  -3.0905400070302905E-002  0.19736383974900756        0.0000000000000000     
  -3.1204833431767630E-002  0.20563208847605668        0.0000000000000000     
  -3.1465354361103419E-002  0.21395731754206967        0.0000000000000000     
  -3.1686962858310269E-002  0.22233952694704648        0.0000000000000000     
  -3.1869658923388187E-002  0.23077871669098712        0.0000000000000000     
  -3.7293568577884822E-002  0.19745196943116586        0.0000000000000000     
  -3.7659834333998110E-002  0.20570876575536817        0.0000000000000000     
  -3.7978936137536334E-002  0.21402633341802729        0.0000000000000000     
  -3.8250873988499461E-002  0.22240467241914322        0.0000000000000000     
  -3.8475647886887517E-002  0.23084378275871587        0.0000000000000000     
  -4.3788174641814517E-002  0.19755907712031268        0.0000000000000000     
  -4.4224668227989955E-002  0.20580134440914283        0.0000000000000000     
  -4.4605819905318471E-002  0.21410834384638922        0.0000000000000000     
  -4.4931629673800079E-002  0.22248007543205198        0.0000000000000000     
  -4.5202097533434772E-002  0.23091653916613097        0.0000000000000000     
  -5.0389218262091987E-002  0.19768516281644799        0.0000000000000000     
  -5.0899335113743144E-002  0.20590982443738062        0.0000000000000000     
  -5.1346005664449856E-002  0.21420334882715553        0.0000000000000000     
  -5.1729229914212138E-002  0.22256573598577281        0.0000000000000000     
  -5.2049007863029975E-002  0.23099698591323239        0.0000000000000000     
  -2.5384130642936799E-002  0.23072134096294472        0.0000000000000000     
  -2.5504965429895745E-002  0.23918640539288719        0.0000000000000000     
  -2.5609588418872484E-002  0.24765483563841134        0.0000000000000000     
  -2.5697999609867014E-002  0.25612663169951716        0.0000000000000000     
  -2.5770199002879343E-002  0.26460179357620461        0.0000000000000000     
  -3.1869658923388187E-002  0.23077871669098712        0.0000000000000000     
  -3.2022597520872234E-002  0.23925242918177708        0.0000000000000000     
  -3.2154933615297462E-002  0.24773820682730180        0.0000000000000000     
  -3.2266667206663879E-002  0.25623604962756125        0.0000000000000000     
  -3.2357798294971471E-002  0.26474595758255542        0.0000000000000000     
  -3.8475647886887517E-002  0.23084378275871587        0.0000000000000000     
  -3.8663522946632924E-002  0.23932510799004184        0.0000000000000000     
  -3.8824764281668124E-002  0.24783009166641745        0.0000000000000000     
  -3.8959371891993097E-002  0.25635873378784274        0.0000000000000000     
  -3.9067345777607870E-002  0.26491103435431790        0.0000000000000000     
  -4.5202097533434772E-002  0.23091653916613097        0.0000000000000000     
  -4.5427741707177824E-002  0.23940444181768136        0.0000000000000000     
  -4.5619080417984459E-002  0.24793049015575833        0.0000000000000000     
  -4.5776113665854712E-002  0.25649468418036181        0.0000000000000000     
  -4.5898841450788541E-002  0.26509702389149181        0.0000000000000000     
  -5.2049007863029975E-002  0.23099698591323239        0.0000000000000000     
  -5.2315253802506914E-002  0.23949043066469577        0.0000000000000000     
  -5.2537882024246474E-002  0.24803940229532440        0.0000000000000000     
  -5.2716892528248668E-002  0.25664390080511823        0.0000000000000000     
  -5.2852285314513484E-002  0.26530392619407739        0.0000000000000000     
  -2.5770199002879343E-002  0.26460179357620461        0.0000000000000000     
  -2.5838127237955699E-002  0.27302456508646961        0.0000000000000000     
  -2.5913724955142315E-002  0.28133919004830804        0.0000000000000000     
  -2.5996992154439204E-002  0.28954566846171981        0.0000000000000000     
  -2.6087928835846354E-002  0.29764400032670502        0.0000000000000000     
  -3.2357798294971471E-002  0.26474595758255542        0.0000000000000000     
  -3.2442795656804073E-002  0.27321445056682908        0.0000000000000000     
  -3.2536128068745486E-002  0.28158804845492669        0.0000000000000000     
  -3.2637795530795710E-002  0.28986675124684819        0.0000000000000000     
  -3.2747798042954759E-002  0.29805055894259386        0.0000000000000000     
  -3.9067345777607870E-002  0.26491103435431790        0.0000000000000000     
  -3.9167048118203908E-002  0.27343529143872874        0.0000000000000000     
  -3.9276841093472660E-002  0.28187980311396144        0.0000000000000000     
  -3.9396724703414134E-002  0.29024456938001619        0.0000000000000000     
  -3.9526698948028356E-002  0.29852959023689274        0.0000000000000000     
  -4.5898841450788541E-002  0.26509702389149181        0.0000000000000000     
  -4.6010884622155183E-002  0.27368708770216860        0.0000000000000000     
  -4.6135864029323834E-002  0.28221445402541251        0.0000000000000000     
  -4.6273779672294492E-002  0.29067912286122360        0.0000000000000000     
  -4.6424631551067144E-002  0.29908109420960166        0.0000000000000000     
  -5.2852285314513484E-002  0.26530392619407739        0.0000000000000000     
  -5.2974305168657927E-002  0.27396983935714886        0.0000000000000000     
  -5.3113196876299021E-002  0.28259200118927991        0.0000000000000000     
  -5.3268960437436744E-002  0.29117041169047053        0.0000000000000000     
  -5.3441595852071117E-002  0.29970507086072068        0.0000000000000000     
  -2.8059211820603943E-002   5.6294748532312366E-002   0.0000000000000000     
  -3.0529119523543195E-002   6.2806691938187678E-002   0.0000000000000000     
  -3.2578454607735237E-002   6.9118605302435035E-002   0.0000000000000000     
  -3.4207217073180064E-002   7.5230488625054395E-002   0.0000000000000000     
  -3.5415406919877691E-002   8.1142341906045759E-002   0.0000000000000000     
  -3.2007365567963540E-002   5.6869974690627628E-002   0.0000000000000000     
  -3.4753210487609786E-002   6.3284689293271509E-002   0.0000000000000000     
  -3.7036441549492982E-002   6.9533032323338101E-002   0.0000000000000000     
  -3.8857058753613130E-002   7.5615003780827361E-002   0.0000000000000000     
  -4.0215062099970229E-002   8.1530603665739332E-002   0.0000000000000000     
  -3.6067698197308012E-002   5.7494974316240122E-002   0.0000000000000000     
  -3.9108518624051104E-002   6.3810668314650931E-002   0.0000000000000000     
  -4.1637619974703999E-002   6.9995371518550092E-002   0.0000000000000000     
  -4.3655002249266710E-002   7.6049083927937619E-002   0.0000000000000000     
  -4.5160665447739230E-002   8.1971805542813497E-002   0.0000000000000000     
  -4.0240209708637349E-002   5.8169747409149861E-002   0.0000000000000000     
  -4.3595043932867138E-002   6.4384629002325944E-002   0.0000000000000000     
  -4.6381989883368294E-002   7.0505622888071051E-002   0.0000000000000000     
  -4.8601047560140796E-002   7.6532729066385155E-002   0.0000000000000000     
  -5.0252216963184673E-002   8.2465947537268311E-002   0.0000000000000000     
  -4.4524900101951578E-002   5.8894293969356824E-002   0.0000000000000000     
  -4.8212786414057907E-002   6.5006571356296533E-002   0.0000000000000000     
  -5.1269551275485853E-002   7.1063786431900908E-002   0.0000000000000000     
  -5.3695194686235403E-002   7.7065939196169983E-002   0.0000000000000000     
  -5.5489716646306551E-002   8.3013029649103731E-002   0.0000000000000000     
  -3.5415406919877691E-002   8.1142341906045759E-002   0.0000000000000000     
  -3.6442411665299483E-002   8.7088942310188294E-002   0.0000000000000000     
  -3.7527618826916853E-002   9.3305067002261058E-002   0.0000000000000000     
  -3.8671028404729781E-002   9.9790715982264119E-002   0.0000000000000000     
  -3.9872640398738272E-002  0.10654588925019745        0.0000000000000000     
  -4.0215062099970229E-002   8.1530603665739332E-002   0.0000000000000000     
  -4.1373628582778925E-002   8.7492543462379307E-002   0.0000000000000000     
  -4.2595935196253848E-002   9.3713534655052610E-002   0.0000000000000000     
  -4.3881981940395012E-002  0.10019357724375924        0.0000000000000000     
  -4.5231768815202404E-002  0.10693267122849920        0.0000000000000000     
  -4.5160665447739230E-002   8.1971805542813497E-002   0.0000000000000000     
  -4.6445859466910516E-002   8.7951930770599374E-002   0.0000000000000000     
  -4.7801834203569551E-002   9.4177854018716839E-002   0.0000000000000000     
  -4.9228589657716322E-002  0.10064957528716592        0.0000000000000000     
  -5.0726125829350842E-002  0.10736709457594661        0.0000000000000000     
  -5.0252216963184673E-002   8.2465947537268311E-002   0.0000000000000000     
  -5.1659104317694264E-002   8.8467104234848506E-002   0.0000000000000000     
  -5.3145315848863943E-002   9.4698025093253799E-002   0.0000000000000000     
  -5.4710851556693717E-002  0.10115871011248419        0.0000000000000000     
  -5.6355711441183585E-002  0.10784915929253966        0.0000000000000000     
  -5.5489716646306551E-002   8.3013029649103731E-002   0.0000000000000000     
  -5.7013363135130148E-002   8.9038063855126692E-002   0.0000000000000000     
  -5.8626380132137022E-002   9.5274047878663462E-002   0.0000000000000000     
  -6.0328767637327183E-002  0.10172098171971400        0.0000000000000000     
  -6.2120525650700621E-002  0.10837886537827834        0.0000000000000000     
  -3.9872640398738272E-002  0.10654588925019745        0.0000000000000000     
  -4.1076007997279590E-002  0.11350663088543175        0.0000000000000000     
  -4.2224684388690981E-002  0.12060898496733777        0.0000000000000000     
  -4.3318669572972437E-002  0.12785295149591550        0.0000000000000000     
  -4.4357963550123961E-002  0.13523853047116496        0.0000000000000000     
  -4.5231768815202404E-002  0.10693267122849920        0.0000000000000000     
  -4.6583261351333699E-002  0.11387179267135658        0.0000000000000000     
  -4.7874425079446566E-002  0.12095191763441543        0.0000000000000000     
  -4.9105259999540983E-002  0.12817304611767577        0.0000000000000000     
  -5.0275766111616979E-002  0.13553517812113758        0.0000000000000000     
  -5.0726125829350842E-002  0.10736709457594661        0.0000000000000000     
  -5.2226286901929361E-002  0.11427879394263342        0.0000000000000000     
  -5.3660917058908145E-002  0.12133305544480090        0.0000000000000000     
  -5.5030016300287178E-002  0.12852987908244903        0.0000000000000000     
  -5.6333584626066469E-002  0.13586926485557785        0.0000000000000000     
  -5.6355711441183585E-002  0.10784915929253966        0.0000000000000000     
  -5.8005084649066563E-002  0.11472763469926231        0.0000000000000000     
  -5.9584160327075704E-002  0.12175239839849421        0.0000000000000000     
  -6.1092938475210988E-002  0.12892345039023534        0.0000000000000000     
  -6.2531419093472415E-002  0.13624079067448569        0.0000000000000000     
  -6.2120525650700621E-002  0.10837886537827834        0.0000000000000000     
  -6.3919654592745304E-002  0.11521831494124320        0.0000000000000000     
  -6.5644154883949229E-002  0.12220994649549528        0.0000000000000000     
  -6.7294026524312420E-002  0.12935376004103463        0.0000000000000000     
  -6.8869269513834833E-002  0.13664975557786121        0.0000000000000000     
  -4.4357963550123961E-002  0.13523853047116496        0.0000000000000000     
  -4.5334783313279337E-002  0.14273641131602366        0.0000000000000000     
  -4.6241345855572331E-002  0.15031728345342912        0.0000000000000000     
  -4.7077651177002952E-002  0.15798114688338136        0.0000000000000000     
  -4.7843699277571178E-002  0.16572800160588036        0.0000000000000000     
  -5.0275766111616979E-002  0.13553517812113758        0.0000000000000000     
  -5.1377288077797581E-002  0.14301050614033817        0.0000000000000000     
  -5.2401170560205830E-002  0.15057122267081469        0.0000000000000000     
  -5.3347413558841705E-002  0.15821732771256730        0.0000000000000000     
  -5.4216017073705235E-002  0.16594882126559582        0.0000000000000000     
  -5.6333584626066469E-002  0.13586926485557785        0.0000000000000000     
  -5.7561769251139920E-002  0.14332322101561659        0.0000000000000000     
  -5.8704717390401430E-002  0.15086375581399475        0.0000000000000000     
  -5.9762429043850998E-002  0.15849086925071215        0.0000000000000000     
  -6.0734904211488611E-002  0.16620456132576894        0.0000000000000000     
  -6.2531419093472415E-002  0.13624079067448569        0.0000000000000000     
  -6.3888226833306361E-002  0.14367455594185907        0.0000000000000000     
  -6.5151986346159152E-002  0.15119488288296923        0.0000000000000000     
  -6.6322697632030803E-002  0.15880177149781610        0.0000000000000000     
  -6.7400360690921313E-002  0.16649522178639967        0.0000000000000000     
  -6.8869269513834833E-002  0.13664975557786121        0.0000000000000000     
  -7.0356660824296896E-002  0.14406451091906552        0.0000000000000000     
  -7.1742977427478996E-002  0.15156460387773812        0.0000000000000000     
  -7.3028219323381147E-002  0.15915003445387896        0.0000000000000000     
  -7.4212386512003348E-002  0.16682080264748805        0.0000000000000000     
  -4.7843699277571178E-002  0.16572800160588036        0.0000000000000000     
  -4.8550983831706508E-002  0.17356658695812011        0.0000000000000000     
  -4.9210998513838422E-002  0.18150564227729465        0.0000000000000000     
  -4.9823743323966913E-002  0.18954516756340392        0.0000000000000000     
  -5.0389218262091987E-002  0.19768516281644799        0.0000000000000000     
  -5.4216017073705235E-002  0.16594882126559582        0.0000000000000000     
  -5.5019944785580636E-002  0.17377235476362757        0.0000000000000000     
  -5.5772160375252178E-002  0.18169457964038954        0.0000000000000000     
  -5.6472663842719845E-002  0.18971549589588182        0.0000000000000000     
  -5.7121455187983637E-002  0.19783510353010439        0.0000000000000000     
  -6.0734904211488611E-002  0.16620456132576894        0.0000000000000000     
  -6.1636967964866542E-002  0.17401037330556657        0.0000000000000000     
  -6.2483445375537058E-002  0.18191384645650668        0.0000000000000000     
  -6.3274336443500140E-002  0.18991498077858929        0.0000000000000000     
  -6.4009641168755807E-002  0.19801377627181432        0.0000000000000000     
  -6.7400360690921313E-002  0.16649522178639967        0.0000000000000000     
  -6.8402053369564217E-002  0.17428064258393730        0.0000000000000000     
  -6.9344853514693064E-002  0.18216344272564619        0.0000000000000000     
  -7.0228761126307812E-002  0.19014362221152634        0.0000000000000000     
  -7.1053776204408517E-002  0.19822118104157788        0.0000000000000000     
  -7.4212386512003348E-002  0.16682080264748805        0.0000000000000000     
  -7.5315200999673662E-002  0.17458316259873963        0.0000000000000000     
  -7.6356384792720181E-002  0.18244336844780798        0.0000000000000000     
  -7.7335937891142875E-002  0.19040142019469311        0.0000000000000000     
  -7.8253860294941774E-002  0.19845731783939494        0.0000000000000000     
  -5.0389218262091987E-002  0.19768516281644799        0.0000000000000000     
  -5.0899335113743144E-002  0.20590982443738062        0.0000000000000000     
  -5.1346005664449856E-002  0.21420334882715553        0.0000000000000000     
  -5.1729229914212138E-002  0.22256573598577281        0.0000000000000000     
  -5.2049007863029975E-002  0.23099698591323239        0.0000000000000000     
  -5.7121455187983637E-002  0.19783510353010439        0.0000000000000000     
  -5.7709234034530925E-002  0.20604022142389780        0.0000000000000000     
  -5.8226700005849112E-002  0.21431766845810271        0.0000000000000000     
  -5.8673853101938185E-002  0.22266744463271912        0.0000000000000000     
  -5.9050693322798137E-002  0.23108954994774694        0.0000000000000000     
  -6.4009641168755807E-002  0.19801377627181432        0.0000000000000000     
  -6.4679764033626561E-002  0.20619855095251069        0.0000000000000000     
  -6.5275109520434874E-002  0.21445762283700737        0.0000000000000000     
  -6.5795677629180788E-002  0.22279099192530424        0.0000000000000000     
  -6.6241468359864275E-002  0.23119865821740143        0.0000000000000000     
  -7.1053776204408517E-002  0.19822118104157788        0.0000000000000000     
  -7.1810925111030016E-002  0.20638481302321932        0.0000000000000000     
  -7.2491234208207161E-002  0.21462321196386944        0.0000000000000000     
  -7.3094703495939967E-002  0.22293637786352827        0.0000000000000000     
  -7.3621332974228418E-002  0.23132431072219573        0.0000000000000000     
  -7.8253860294941774E-002  0.19845731783939494        0.0000000000000000     
  -7.9102717266741313E-002  0.20659900763602360        0.0000000000000000     
  -7.9875074069165955E-002  0.21481443583868898        0.0000000000000000     
  -8.0570930702215701E-002  0.22310360244739111        0.0000000000000000     
  -8.1190287165890537E-002  0.23146650746212999        0.0000000000000000     
  -5.2049007863029975E-002  0.23099698591323239        0.0000000000000000     
  -5.2315253802506914E-002  0.23949043066469577        0.0000000000000000     
  -5.2537882024246474E-002  0.24803940229532440        0.0000000000000000     
  -5.2716892528248668E-002  0.25664390080511823        0.0000000000000000     
  -5.2852285314513484E-002  0.26530392619407739        0.0000000000000000     
  -5.9050693322798137E-002  0.23108954994774694        0.0000000000000000     
  -5.9365203800967006E-002  0.23958455408768398        0.0000000000000000     
  -5.9625367668982868E-002  0.24815302673702794        0.0000000000000000     
  -5.9831184926845700E-002  0.25679496789577883        0.0000000000000000     
  -5.9982655574555510E-002  0.26551037756393664        0.0000000000000000     
  -6.6241468359864275E-002  0.23119865821740143        0.0000000000000000     
  -6.6616736270904933E-002  0.23968829164324504        0.0000000000000000     
  -6.6925735920722346E-002  0.24826756213278128        0.0000000000000000     
  -6.7168467309316499E-002  0.25693646968601030        0.0000000000000000     
  -6.7344930436687434E-002  0.26569501430293191        0.0000000000000000     
  -7.3621332974228418E-002  0.23132431072219573        0.0000000000000000     
  -7.4069851212320667E-002  0.23980164333137882        0.0000000000000000     
  -7.4438986779464894E-002  0.24838300848258441        0.0000000000000000     
  -7.4728739675661099E-002  0.25706840617581245        0.0000000000000000     
  -7.4939109900909268E-002  0.26585783641106303        0.0000000000000000     
  -8.1190287165890537E-002  0.23146650746212999        0.0000000000000000     
  -8.1724548625214222E-002  0.23992460915208549        0.0000000000000000     
  -8.2165120245210527E-002  0.24849936578643733        0.0000000000000000     
  -8.2512002025879452E-002  0.25719077736518553        0.0000000000000000     
  -8.2765193967221012E-002  0.26599884388833017        0.0000000000000000     
  -5.2852285314513484E-002  0.26530392619407739        0.0000000000000000     
  -5.2974305168657927E-002  0.27396983935714886        0.0000000000000000     
  -5.3113196876299021E-002  0.28259200118927991        0.0000000000000000     
  -5.3268960437436744E-002  0.29117041169047053        0.0000000000000000     
  -5.3441595852071117E-002  0.29970507086072068        0.0000000000000000     
  -5.9982655574555510E-002  0.26551037756393664        0.0000000000000000     
  -6.0116020192971083E-002  0.27425477065460424        0.0000000000000000     
  -6.0267519362951223E-002  0.28298366208088432        0.0000000000000000     
  -6.0437153084495938E-002  0.29169705184277711        0.0000000000000000     
  -6.0624921357605235E-002  0.30039493994028232        0.0000000000000000     
  -6.7344930436687434E-002  0.26569501430293191        0.0000000000000000     
  -6.7494740130353573E-002  0.27451310584546956        0.0000000000000000     
  -6.7657511217833491E-002  0.28336065417554673        0.0000000000000000     
  -6.7833243699127119E-002  0.29223765929316325        0.0000000000000000     
  -6.8021937574234470E-002  0.30114412119831924        0.0000000000000000     
  -7.4939109900909268E-002  0.26585783641106303        0.0000000000000000     
  -7.5110464980805494E-002  0.27474484492974488        0.0000000000000000     
  -7.5283172440945803E-002  0.28372297747326697        0.0000000000000000     
  -7.5457232281330250E-002  0.29279223404162907        0.0000000000000000     
  -7.5632644501958807E-002  0.30195261463483136        0.0000000000000000     
  -8.2765193967221012E-002  0.26599884388833017        0.0000000000000000     
  -8.2963194744326729E-002  0.27494998790743030        0.0000000000000000     
  -8.3144503032288181E-002  0.28407063197404508        0.0000000000000000     
  -8.3309118831105353E-002  0.29336077608817457        0.0000000000000000     
  -8.3457042140778259E-002  0.30282042024981870        0.0000000000000000     
  -4.4524900101951578E-002   5.8894293969356824E-002   0.0000000000000000     
  -4.8212786414057907E-002   6.5006571356296533E-002   0.0000000000000000     
  -5.1269551275485853E-002   7.1063786431900908E-002   0.0000000000000000     
  -5.3695194686235403E-002   7.7065939196169983E-002   0.0000000000000000     
  -5.5489716646306551E-002   8.3013029649103731E-002   0.0000000000000000     
  -4.8982017791641269E-002   5.9709523322948418E-002   0.0000000000000000     
  -5.2997130589200872E-002   6.5704031322508072E-002   0.0000000000000000     
  -5.6320048358567326E-002   7.1684146152873815E-002   0.0000000000000000     
  -5.8950771099740597E-002   7.7649867814045676E-002   0.0000000000000000     
  -6.0889298812720719E-002   8.3601196306023640E-002   0.0000000000000000     
  -5.3671811192097005E-002   6.0656344796012028E-002   0.0000000000000000     
  -5.7983460979873495E-002   6.6504544846905933E-002   0.0000000000000000     
  -6.1553225340123321E-002   7.2380986053823884E-002   0.0000000000000000     
  -6.4381104272846504E-002   7.8285668416765902E-002   0.0000000000000000     
  -6.6467097778042994E-002   8.4218591935731918E-002   0.0000000000000000     
  -5.8594280303318799E-002   6.1734758388547653E-002   0.0000000000000000     
  -6.3171777586075784E-002   6.7408111929490144E-002   0.0000000000000000     
  -6.6969082220153880E-002   7.3154306134751101E-002   0.0000000000000000     
  -6.9986194205553076E-002   7.8973341004330594E-002   0.0000000000000000     
  -7.2223113542273384E-002   8.4865216538228580E-002   0.0000000000000000     
  -6.3749425125306639E-002   6.2944764100555300E-002   0.0000000000000000     
  -6.8562080407807729E-002   6.8414732570260636E-002   0.0000000000000000     
  -7.2567618998658975E-002   7.4004106395655467E-002   0.0000000000000000     
  -7.5766040897860362E-002   7.9712885576739806E-002   0.0000000000000000     
  -7.8157346105411904E-002   8.5541070113513626E-002   0.0000000000000000     
  -5.5489716646306551E-002   8.3013029649103731E-002   0.0000000000000000     
  -5.7013363135130148E-002   8.9038063855126692E-002   0.0000000000000000     
  -5.8626380132137022E-002   9.5274047878663462E-002   0.0000000000000000     
  -6.0328767637327183E-002  0.10172098171971400        0.0000000000000000     
  -6.2120525650700621E-002  0.10837886537827834        0.0000000000000000     
  -6.0889298812720719E-002   8.3601196306023640E-002   0.0000000000000000     
  -6.2531442847689828E-002   8.9643266391683407E-002   0.0000000000000000     
  -6.4273014554830074E-002   9.5881212833900692E-002   0.0000000000000000     
  -6.6114013934141458E-002  0.10231503563267551        0.0000000000000000     
  -6.8054440985623965E-002  0.10894473478800783        0.0000000000000000     
  -6.6467097778042994E-002   8.4218591935731918E-002   0.0000000000000000     
  -6.8236150383844923E-002   9.0261168604768044E-002   0.0000000000000000     
  -7.0113206618384327E-002   9.6494810417920310E-002   0.0000000000000000     
  -7.2098266481661247E-002  0.10291951737518873        0.0000000000000000     
  -7.4191329973675654E-002  0.10953528947657327        0.0000000000000000     
  -7.2223113542273384E-002   8.4865216538228580E-002   0.0000000000000000     
  -7.4127485743595442E-002   9.0891770494380644E-002   0.0000000000000000     
  -7.6146956322799844E-002   9.7114840630722343E-002   0.0000000000000000     
  -7.8281525279886591E-002  0.10353442694725370        0.0000000000000000     
  -8.0531192614855696E-002  0.11015052944397467        0.0000000000000000     
  -7.8157346105411904E-002   8.5541070113513626E-002   0.0000000000000000     
  -8.0205448926941370E-002   9.1535072060521208E-002   0.0000000000000000     
  -8.2374263668076542E-002   9.7741303472306792E-002   0.0000000000000000     
  -8.4663790328817448E-002  0.10415976434887041        0.0000000000000000     
  -8.7074028909164061E-002  0.11079045469021204        0.0000000000000000     
  -6.2120525650700621E-002  0.10837886537827834        0.0000000000000000     
  -6.3919654592745304E-002  0.11521831494124320        0.0000000000000000     
  -6.5644154883949229E-002  0.12220994649549528        0.0000000000000000     
  -6.7294026524312420E-002  0.12935376004103463        0.0000000000000000     
  -6.8869269513834833E-002  0.13664975557786121        0.0000000000000000     
  -6.8054440985623965E-002  0.10894473478800783        0.0000000000000000     
  -7.0004705389320798E-002  0.11575017625306351        0.0000000000000000     
  -7.1875216825275104E-002  0.12271122598100842        0.0000000000000000     
  -7.3665975293486896E-002  0.12982788397184253        0.0000000000000000     
  -7.5376980793956161E-002  0.13710015022556579        0.0000000000000000     
  -7.4191329973675654E-002  0.10953528947657327        0.0000000000000000     
  -7.6294945695148247E-002  0.11632256021921072        0.0000000000000000     
  -7.8311662246799627E-002  0.12326176310023781        0.0000000000000000     
  -8.0241479628629847E-002  0.13035289811965456        0.0000000000000000     
  -8.2084397840638867E-002  0.13759596527746093        0.0000000000000000     
  -8.0531192614855696E-002  0.11015052944397467        0.0000000000000000     
  -8.2790375510227596E-002  0.11693546683968478        0.0000000000000000     
  -8.4953491148522811E-002  0.12386155785318347        0.0000000000000000     
  -8.7020539529741259E-002  0.13092880248447075        0.0000000000000000     
  -8.8991520653882966E-002  0.13813720073354654        0.0000000000000000     
  -8.7074028909164061E-002  0.11079045469021204        0.0000000000000000     
  -8.9490994834558940E-002  0.11758889611448567        0.0000000000000000     
  -9.1800703530444616E-002  0.12451061023984535        0.0000000000000000     
  -9.4003154996821131E-002  0.13155559706629102        0.0000000000000000     
  -9.6098349233688429E-002  0.13872385659382275        0.0000000000000000     
  -6.8869269513834833E-002  0.13664975557786121        0.0000000000000000     
  -7.0356660824296896E-002  0.14406451091906552        0.0000000000000000     
  -7.1742977427478996E-002  0.15156460387773812        0.0000000000000000     
  -7.3028219323381147E-002  0.15915003445387896        0.0000000000000000     
  -7.4212386512003348E-002  0.16682080264748805        0.0000000000000000     
  -7.5376980793956161E-002  0.13710015022556579        0.0000000000000000     
  -7.6993631418815045E-002  0.14449262786301886        0.0000000000000000     
  -7.8501325260195723E-002  0.15196992000504228        0.0000000000000000     
  -7.9900062318098153E-002  0.15953202665163604        0.0000000000000000     
  -8.1189842592522349E-002  0.16717894780280018        0.0000000000000000     
  -8.2084397840638867E-002  0.13759596527746093        0.0000000000000000     
  -8.3825698811564389E-002  0.14495844868950189        0.0000000000000000     
  -8.5450664470144086E-002  0.15240783247162240        0.0000000000000000     
  -8.6959294816377930E-002  0.15994411662382252        0.0000000000000000     
  -8.8351589850265921E-002  0.16756730114610222        0.0000000000000000     
  -8.8991520653882966E-002  0.13813720073354654        0.0000000000000000     
  -9.0852863002544929E-002  0.14546197339851466        0.0000000000000000     
  -9.2590995057324113E-002  0.15287834127747860        0.0000000000000000     
  -9.4205916818220506E-002  0.16038630437043841        0.0000000000000000     
  -9.5697628285234121E-002  0.16798586267739410        0.0000000000000000     
  -9.6098349233688429E-002  0.13872385659382275        0.0000000000000000     
  -9.8075123991756621E-002  0.14600320199005712        0.0000000000000000     
  -9.9922317021735776E-002  0.15338144642261078        0.0000000000000000     
 -0.10163992832362585       0.16085858989148369        0.0000000000000000     
 -0.10322795789742689       0.16843463239667589        0.0000000000000000     
  -7.4212386512003348E-002  0.16682080264748805        0.0000000000000000     
  -7.5315200999673662E-002  0.17458316259873963        0.0000000000000000     
  -7.6356384792720181E-002  0.18244336844780798        0.0000000000000000     
  -7.7335937891142875E-002  0.19040142019469311        0.0000000000000000     
  -7.8253860294941774E-002  0.19845731783939494        0.0000000000000000     
  -8.1189842592522349E-002  0.16717894780280018        0.0000000000000000     
  -8.2393321396836181E-002  0.17491746077834086        0.0000000000000000     
  -8.3533154044407629E-002  0.18275434289806439        0.0000000000000000     
  -8.4609340535236624E-002  0.19068959416197070        0.0000000000000000     
  -8.5621880869323194E-002  0.19872321457005981        0.0000000000000000     
  -8.8351589850265921E-002  0.16756730114610222        0.0000000000000000     
  -8.9653325102693138E-002  0.17528306455110829        0.0000000000000000     
  -9.0890276104544615E-002  0.18309708535148772        0.0000000000000000     
  -9.2062442855820353E-002  0.19100936354724043        0.0000000000000000     
  -9.3169825356520339E-002  0.19901989913836654        0.0000000000000000     
  -9.5697628285234121E-002  0.16798586267739410        0.0000000000000000     
  -9.7095212117244478E-002  0.17567997391704185        0.0000000000000000     
  -9.8427750973131126E-002  0.18347159580807798        0.0000000000000000     
  -9.9695244852894063E-002  0.19136072835050236        0.0000000000000000     
 -0.10089769375653329       0.19934737154431514        0.0000000000000000     
 -0.10322795789742689       0.16843463239667589        0.0000000000000000     
 -0.10471898244049023       0.17610818887614160        0.0000000000000000     
 -0.10614557865016719       0.18387787426783514        0.0000000000000000     
 -0.10750774652645780       0.19174368857175647        0.0000000000000000     
 -0.10880548606936200       0.19970563178790562        0.0000000000000000     
  -7.8253860294941774E-002  0.19845731783939494        0.0000000000000000     
  -7.9102717266741313E-002  0.20659900763602360        0.0000000000000000     
  -7.9875074069165955E-002  0.21481443583868898        0.0000000000000000     
  -8.0570930702215701E-002  0.22310360244739111        0.0000000000000000     
  -8.1190287165890537E-002  0.23146650746212999        0.0000000000000000     
  -8.5621880869323194E-002  0.19872321457005981        0.0000000000000000     
  -8.6564751906690732E-002  0.20684235493423850        0.0000000000000000     
  -8.7431930507362726E-002  0.21503416606641351        0.0000000000000000     
  -8.8223416671339178E-002  0.22329864796658486        0.0000000000000000     
  -8.8939210398620058E-002  0.23163580063475267        0.0000000000000000     
  -9.3169825356520339E-002  0.19901989913836654        0.0000000000000000     
  -9.4206640436808584E-002  0.20711607506117896        0.0000000000000000     
  -9.5167104926849003E-002  0.21528527425199068        0.0000000000000000     
  -9.6051218826641624E-002  0.22352749671080177        0.0000000000000000     
  -9.6858982136186447E-002  0.23184274243761216        0.0000000000000000     
 -0.10089769375653329       0.19934737154431514        0.0000000000000000     
 -0.10202838285709485       0.20742016801684490        0.0000000000000000     
 -0.10308059732762476       0.21556776039542039        0.0000000000000000     
 -0.10405433716812303       0.22379014868004163        0.0000000000000000     
 -0.10494960237858966       0.23208733287070857        0.0000000000000000     
 -0.10880548606936200       0.19970563178790562        0.0000000000000000     
 -0.11002997916754950       0.20775463380123643        0.0000000000000000     
 -0.11117240770968999       0.21588162449670273        0.0000000000000000     
 -0.11223277169578338       0.22408660387430451        0.0000000000000000     
 -0.11321107112582976       0.23236957193404181        0.0000000000000000     
  -8.1190287165890537E-002  0.23146650746212999        0.0000000000000000     
  -8.1724548625214222E-002  0.23992460915208549        0.0000000000000000     
  -8.2165120245210527E-002  0.24849936578643733        0.0000000000000000     
  -8.2512002025879452E-002  0.25719077736518553        0.0000000000000000     
  -8.2765193967221012E-002  0.26599884388833017        0.0000000000000000     
  -8.8939210398620058E-002  0.23163580063475267        0.0000000000000000     
  -8.9567129050103875E-002  0.24007200833313261        0.0000000000000000     
  -9.0094989986689106E-002  0.24863365532394063        0.0000000000000000     
  -9.0522793208375765E-002  0.25732074160717666        0.0000000000000000     
  -9.0850538715163881E-002  0.26613326718284086        0.0000000000000000     
  -9.6858982136186447E-002  0.23184274243761216        0.0000000000000000     
  -9.7583893027507931E-002  0.24025866010228791        0.0000000000000000     
  -9.8219449672630521E-002  0.24880289837469491        0.0000000000000000     
  -9.8765652071554244E-002  0.25747545725483317        0.0000000000000000     
  -9.9222500224279100E-002  0.26627633674270274        0.0000000000000000     
 -0.10494960237858966       0.23208733287070857        0.0000000000000000     
 -0.10577484055742635       0.24048456445955141        0.0000000000000000     
 -0.10653849930303476       0.24900709493870019        0.0000000000000000     
 -0.10724057861541485       0.25765492430815512        0.0000000000000000     
 -0.10788107849456670       0.26642805256791591        0.0000000000000000     
 -0.11321107112582976       0.23236957193404181        0.0000000000000000     
 -0.11413997163985920       0.24074972140492301        0.0000000000000000     
 -0.11505213887790182       0.24924624501595646        0.0000000000000000     
 -0.11594757283995764       0.25785914276714222        0.0000000000000000     
 -0.11682627352602666       0.26658841465848021        0.0000000000000000     
  -8.2765193967221012E-002  0.26599884388833017        0.0000000000000000     
  -8.2963194744326729E-002  0.27494998790743030        0.0000000000000000     
  -8.3144503032288181E-002  0.28407063197404508        0.0000000000000000     
  -8.3309118831105353E-002  0.29336077608817457        0.0000000000000000     
  -8.3457042140778259E-002  0.30282042024981870        0.0000000000000000     
  -9.0850538715163881E-002  0.26613326718284086        0.0000000000000000     
  -9.1108105875321671E-002  0.27513433882665289        0.0000000000000000     
  -9.1325374057117464E-002  0.28438706331433278        0.0000000000000000     
  -9.1502343260551261E-002  0.29389144064588041        0.0000000000000000     
  -9.1639013485623033E-002  0.30364747082129578        0.0000000000000000     
  -9.9222500224279100E-002  0.26627633674270274        0.0000000000000000     
  -9.9600374828194699E-002  0.27530370173554009        0.0000000000000000     
  -9.9909656580690592E-002  0.28465571713058152        0.0000000000000000     
 -0.10015034548176682       0.29433238292782715        0.0000000000000000     
 -0.10032244153142338       0.30433369912727692        0.0000000000000000     
 -0.10788107849456670       0.26642805256791591        0.0000000000000000     
 -0.10844000160294576       0.27545807663409172        0.0000000000000000     
 -0.10889735060300755       0.28487659342279131        0.0000000000000000     
 -0.10925312549475207       0.29468360293401485        0.0000000000000000     
 -0.10950732627817927       0.30487910516776218        0.0000000000000000     
 -0.11682627352602666       0.26658841465848021        0.0000000000000000     
 -0.11762698619957487       0.27559746352230780        0.0000000000000000     
 -0.11828845612406831       0.28504969219096221        0.0000000000000000     
 -0.11881068329950691       0.29494510066444340        0.0000000000000000     
 -0.11919366772589074       0.30528368894275143        0.0000000000000000     
 </DataArray>
 <DataArray  type="Float64" Name="stress" NumberOfComponents="3" format="ascii">
   10198097031.994446        609889709.69265556        102486011.02485275     
   8632937544.2406635        558238222.67235470        28338634.896604922     
   7037682193.3480711        406267191.85604239       -30129389.904318340     
   5412330979.3166780        153976617.24371290       -72918063.377927288     
   3756883902.1464777       -198633501.16463852       -100027385.52421679     
   9756829588.8394032        730166364.53982115        441693242.39674312     
   8230412903.8007927        635343673.01116776        310496621.27292609     
   6675144252.4104567        444347760.31000280        203385390.41233701     
   5091023634.6683483        157178626.43630576        120359549.81495148     
   3478051050.5744853       -226163728.60990405        61419099.480788730     
   9238802058.2728653        827414993.16355181        759100234.49300897     
   7775145430.0520191        696626273.35729957        572305581.29185688     
   6283880732.2664680        473810655.00203252        418002357.28982061     
   4765007964.9162121        158968138.09775066        296190562.48689288     
   3218527128.0012565       -247901277.35553718        206870196.88308164     
   8644014440.2948513        901635595.56383467        1054706987.3136562     
   7267135122.9943113        742086023.71075249        813765514.95339382     
   5863891632.9161301        494655875.93216658        613721510.72813642     
   4434283970.0602837        159345152.22806382        454574974.63789010     
   2978312134.4267859       -263846147.40155125        336325906.68265432     
   7972466734.9053516        952828171.74066854        1328513500.8586848     
   6706381982.6276913        771722924.07154226        1034876422.2575302     
   5415176954.3594208        506883423.10038781        790542850.72728658     
   4098851650.1005478        158309668.82723093        595512786.26795006     
   2757406069.8510728       -273998338.74793172        449786228.87951052     
   3756883902.1464777       -198633501.16463852       -100027385.52421679     
   4037408390.2986684       -36108174.688816071       -52549231.154594637     
   4304739054.9660053        82437740.170830488       -8669554.8319099415     
   4558875896.1485014        157004243.41433787        31611643.443839215     
   4799818913.8461456        187591335.04166985        68294363.672654748     
   3478051050.5744853       -226163728.60990405        61419099.480788730     
   3736269080.9177194       -102066588.61637640        103504815.58248188     
   3987788952.8052096       -296643.47532892227        140898239.06628534     
   4232610666.2369275        79146106.813143730        173599369.93220615     
   4470734221.2129059        136261662.24915099        201608208.18023601     
   3218527128.0012565       -247901277.35553718        206870196.88308164     
   3451313516.0471020       -163169879.19083071        251141750.58411881     
   3683897410.6662941       -79113459.114970446        289627197.09632427     
   3916278811.8588266        4267982.8720180988        322326536.41969168     
   4148457719.6246991        86974446.770151854        349239768.55421656     
   2978312134.4267859       -263846147.40155125        336325906.68265432     
   3182541695.6868134       -219418046.41218317        390361573.85032129     
   3393064428.5492759       -154012706.74803662        437517319.25819796     
   3609880333.0141788       -67630128.409085035        477793142.90629154     
   3832989409.0815148        39729688.604654551        511189044.79458916     
   2757406069.8510728       -273998338.74793172        449786228.87951052     
   2929953619.8368454       -270811090.28045440        521164285.38108224     
   3115290006.4541531       -224994386.37451565        584568605.55191398     
   3313415229.7029901       -136548227.03014898        639999189.39200902     
   3524329289.5833645       -5472612.2473294735        687456036.90135503     
   4799818913.8461456        187591335.04166985        68294363.672654748     
   4559958073.8807173        74501467.314300776        41991651.342238463     
   4333663056.0446815        6631006.6848952770        24698845.470943175     
   4120933860.3380566       -16020046.846472740        16415946.058759930     
   3921770486.7607951        6548306.7200484276        17142953.105705377     
   4470734221.2129059        136261662.24915099        201608208.18023601     
   4264507529.9152427        63669800.077785254        190146189.78075480     
   4067351078.1335859        21312069.626443148        186200993.38442731     
   3879264865.8679471        9188470.8951604366        189772618.99127501     
   3700248893.1183081        27299003.883876324        200861066.60126814     
   4148457719.6246991        86974446.770151854        349239768.55421656     
   3971599221.4063373        53600803.478232384        347373597.70338655     
   3799315380.0906057        35476016.528406382        351531164.39976120     
   3631606195.6775074        32600085.920694590        361712468.64333600     
   3468471668.1670327        44973011.655067444        377917510.43411446     
   3832989409.0815148        39729688.604654551        511189044.79458916     
   3681233148.3540063        44294477.515656233        513673875.11013865     
   3529555961.9157510        49122847.390823126        520689358.51692718     
   3377957849.7667408        54214798.230143905        532235495.01495546     
   3226438811.9069786        59570330.033632159        548312284.60423505     
   3524329289.5833645       -5472612.2473294735        687456036.90135503     
   3393409310.7582512        35750822.190044165        689047022.00100517     
   3258072823.6090164        62252562.213669777        693675575.73593283     
   3118319828.1356401        74032607.823491454        701341698.10614765     
   2974150324.3381310        71090959.019541621        712045389.11164379     
   3921770486.7607951        6548306.7200484276        17142953.105705377     
   3679563395.0736418        28514396.020807028        6635465.6875484865     
   3431907525.9826846        32317893.975564480        647112.22373691457     
   3178802879.4879146        17958800.584267020       -822107.28575111856     
   2920249455.5893507       -14562884.153000474        2227807.1591036026     
   3700248893.1183081        27299003.883876324        200861066.60126814     
   3466600523.6095471        37016988.047466278        181556441.55034652     
   3229154774.0590124        34077038.738463163        167142800.79090884     
   2987911644.4666853        18479155.956837535        157620144.32293072     
   2742871134.8325877       -9776660.2973648310        152988472.14644167     
   3468471668.1670327        44973011.655067444        377917510.43411446     
   3244444450.3713517        42761619.541918516        351742378.00612658     
   3018271249.8958979        33396951.829530954        330830080.20674646     
   2789952066.7407012        16879008.517982244        315180617.03597128     
   2559486900.9057331       -6792210.3927770853        304793988.49380195     
   3226438811.9069786        59570330.033632159        548312284.60423505     
   3013095175.3590431        45748290.504118562        517193275.05487043     
   2799256953.4933624        30277633.248798490        491708950.47124910     
   2584924146.3099518        13158358.267696977        471859310.85336202     
   2370096753.8087931       -5609534.4392114878        457644356.20122141     
   2974150324.3381310        71090959.019541621        712045389.11164379     
   2772552698.5726237        45977000.934102058        677909132.69658411     
   2572111884.8513880        24719082.996224880        649779411.58440304     
   2372827883.1744385        7317205.2059770823        627656225.77510715     
   2174700693.5417752       -6228632.4366555214        611539575.26868939     
   2920249455.5893507       -14562884.153000474        2227807.1591036026     
   2796975927.3802886       -13133311.993881702        5101999.6974031543     
   2674777959.9967141       -8118537.0831704140        7196873.8557381099     
   2553655553.4386048        481440.57910716534        8512429.6341135912     
   2433608707.7059646        12666620.992950082        9048667.0325244758     
   2742871134.8325877       -9776660.2973648310        152988472.14644167     
   2618991179.3923841       -6421998.1531372070        155104907.64579433     
   2495784853.7568069       -821903.32683193684        157089927.50460047     
   2373252157.9258537        7023624.1815536022        158943531.72283378     
   2251393091.8994966        17114584.371947646        160665720.30052692     
   2559486900.9057331       -6792210.3927770853        304793988.49380195     
   2436851668.9184217       -957113.05817699432        305683747.42989254     
   2314488135.7148628        5783646.8889336586        307089993.46482444     
   2192396301.2950654        13430069.448588371        309012726.59860569     
   2070576165.6590221        21982154.620743394        311451946.83124053     
   2370096753.8087931       -5609534.4392114878        457644356.20122141     
   2250557395.9583802        3261343.2909429073        456838519.04970217     
   2130887805.8708639        11698113.564070463        457197071.73642915     
   2011087983.5462499        19700776.380215287        458720014.26140803     
   1891157928.9845266        27269331.739339471        461407346.62464929     
   2174700693.5417752       -6228632.4366555214        611539575.26868939     
   2060108360.5122690        6233370.8942252398        608569222.50521624     
   1944983864.2248094        16921496.698578835        607411162.31940317     
   1829327204.6793947        25835744.976423740        608065394.71125424     
   1713138381.8760185        32976115.727731824        610531919.68076026     
   2433608707.7059646        12666620.992950082        9048667.0325244758     
   2275653964.3112297        11363968.068212867       -2604480.7578874137     
   2115228848.6360862        1826740.8754591942       -11065355.915823156     
   1952333360.6805418       -15945060.585292220       -16333958.441286592     
   1786967500.4446239       -41951436.313976407       -18410288.334286690     
   2251393091.8994966        17114584.371947646        160665720.30052692     
   2100750011.0700643        17208613.201811671        146603121.20921174     
   1948535458.5109894        12064402.932854772        134650294.13075078     
   1794749434.2222679        1681953.5650647879        124807239.06514083     
   1639391938.2038980       -13938734.901519418        117073956.01238637     
   2070576165.6590221        21982154.620743394        311451946.83124053     
   1924151888.4816926        22545007.531241894        296028613.74822050     
   1777055040.1254714        20865956.512097239        281632552.05844682     
   1629285620.5903556        16945001.563317060        268263761.76190484     
   1480843629.8763695        10782142.684936881        255922242.85859123     
   1891157928.9845266        27269331.739339471        461407346.62464929     
   1745859596.5461051        27373151.056524038        445671996.85915518     
   1600787593.4795437        28231401.613236964        429881417.86727595     
   1455941919.7848461        29844083.409510195        414035609.64900702     
   1311322575.4620185        32211196.445326328        398134572.20435548     
   1713138381.8760185        32976115.727731824        610531919.68076026     
   1565873135.2632997        31693043.777630866        595533270.54201043     
   1419733118.5731990        34160738.236256540        579396891.55723488     
   1274718331.8057120        40379199.103597105        562122782.72646308     
   1130828774.9608483        50348426.379676759        543710944.04968095     
   1786967500.4446239       -41951436.313976407       -18410288.334286690     
   1761966918.3344085       -18193744.040829659       -10254511.529691394     
   1744483621.4040387        30621565.498458385       -41519162.571704082     
   1734517609.6535480        104494492.30400968       -112204241.46032859     
   1732068883.0828702        203425036.37561601       -222309748.19554827     
   1639391938.2038980       -13938734.901519418        117073956.01238637     
   1520786144.9118588       -15183006.899662077        134283121.99322578     
   1405961211.6904461       -3824411.9957388639        124678391.28189093     
   1294917138.5396733        20137049.810317576        88259763.878346622     
   1187653925.4595232        56701378.518472135        25027239.782613967     
   1480843629.8763695        10782142.684936881        255922242.85859123     
   1304651285.8436368       -4658495.4522593617        277825635.38829404     
   1128503376.7723336       -19951017.051368713        285521662.38020891     
   952399902.66245675       -35095422.112389505        279010323.83434230     
   776340863.51399577       -50091710.635352433        258291619.75066981     
   1311322575.4620185        32211196.445326328        398134572.20435548     
   1113562341.1297746        13379790.301496089        420373028.65549672     
   912110116.64973712       -17758249.668312073        441010650.72325593     
   706965902.02191389       -61202923.464074910        460047438.40762562     
   498129697.24629670       -116954231.08581519        477483391.70862889     
   1130828774.9608483        50348426.379676759        543710944.04968095     
   947519310.77025104        38931850.361543417        561925301.79484534     
   756781431.32264483        2753890.1533907056        591145356.31102276     
   558615136.61803079       -58185454.244790345        631371107.59823930     
   353020426.65642726       -143886182.83294237        682602555.65646756     
   1732068883.0828702        203425036.37561601       -222309748.19554827     
   1459038454.3093188        184477200.88637745       -96018270.528294057     
   1154290387.2350080        59803904.394641519        59820775.869887315     
   817824681.85993600       -170594853.09962082        245207390.99902147     
   449641338.18413067       -506719071.59638286        460141574.85907769     
   1187653925.4595232        56701378.518472135        25027239.782613967     
   979140471.87000310        11730826.263839424        155789347.67041230     
   733114416.13728690       -158281733.13480249        312637571.60702431     
   449575758.26140541       -453336299.67731780        495571911.59242183     
   128524498.24232489       -873432873.36382985        704592367.62665355     
   776340863.51399577       -50091710.635352433        258291619.75066981     
   622454520.30241632       -124051939.09725991        386763566.70951456     
   425260611.10522747       -342370720.84451795        537860177.03503776     
   184759135.92241806       -705048055.87719762        711581450.72724056     
  -99049905.245997190       -1212083944.1952050        907927387.78610647     
   498129697.24629670       -116954231.08581519        477483391.70862889     
   388980599.60657889       -222871095.19680780        596904386.58901978     
   230728972.13882020       -492463058.73457956        735488592.15395570     
   23374814.843008876       -925730121.69919443        893236008.40342987     
  -233081872.28082648       -1522672284.0905726        1070146635.3374506     
   353020426.65642726       -143886182.83294237        682602555.65646756     
   278718709.78248638       -284726642.03481883        786211807.30890167     
   149519499.23807803       -608558746.80491483        905522816.96375012     
  -34577204.976811826       -1115382497.1432879        1040535584.6210103     
  -273571402.86216837       -1805197893.0498669        1191250110.2806950     
   7972466734.9053516        952828171.74066854        1328513500.8586848     
   6706381982.6276913        771722924.07154226        1034876422.2575302     
   5415176954.3594208        506883423.10038781        790542850.72728658     
   4098851650.1005478        158309668.82723093        595512786.26795006     
   2757406069.8510728       -273998338.74793172        449786228.87951052     
   7234560875.7083521        827021472.99083805        1501458072.7666414     
   6100757025.0127735        682160236.51203942        1193208979.9811969     
   4942923063.3153477        457198630.02704620        929046917.22099662     
   3761058990.6160517        152136653.53583944        708971884.48603952     
   2555164806.9149017       -233025692.96155381        532983881.77632666     
   6544275826.2755442        715501017.17026687        1672443538.4500282     
   5527848657.0316153        602412525.84267282        1350854290.6338222     
   4488481541.7745609        412857547.80468452        1068135595.7972014     
   3426174480.5043926        146836083.05630243        824287453.94016159     
   2340927473.2211003       -195651868.40247190        619309865.06270492     
   5901611586.6069622        618266804.27896118        1841469897.9088461     
   4987656878.6842003        532479792.06342983        1507812354.2154117     
   4051852389.7370672        373860176.43331230        1207808886.4559004     
   3094198119.7655578        142407957.38860786        941459494.63031113     
   2114694068.7696722       -161876865.07067633        708764178.73864400     
   5306568156.7025785        535318834.31691718        2008537151.1430972     
   4480181689.9705362        472362035.17430592        1664083170.7259624     
   3633035607.2028646        340206515.91292906        1348066789.1970968     
   2765129908.3995581        138852276.53276825        1060488006.5564898     
   1876464593.5606186       -131700682.96616507        801346822.80414677     
   2757406069.8510728       -273998338.74793172        449786228.87951052     
   2929953619.8368454       -270811090.28045440        521164285.38108224     
   3115290006.4541531       -224994386.37451565        584568605.55191398     
   3313415229.7029901       -136548227.03014898        639999189.39200902     
   3524329289.5833645       -5472612.2473294735        687456036.90135503     
   2555164806.9149017       -233025692.96155381        532983881.77632666     
   2708317149.6802759       -230192612.14717400        614611889.46834445     
   2872498374.4619050       -190596591.27860808        689375974.31843615     
   3047708481.2597795       -114237630.35588300        757276136.32660031     
   3233947470.0739164       -1115729.3789700270        818312375.49283504     
   2340927473.2211003       -195651868.40247190        619309865.06270492     
   2477855504.4484019       -192221686.53649402        709134543.56067717     
   2624052463.0766726       -157895080.00060594        793205112.70552945     
   2779518349.1059179       -92672048.794812083        871521572.49727058     
   2944253162.5361290        3447407.0808858871        944083922.93590212     
   2114694068.7696722       -161876865.07067633        708764178.73864400     
   2238568684.1412239       -156898313.44840062        804732247.65807271     
   2369952272.2984633       -126889852.54049337        896056020.71319902     
   2508844833.2413964       -71851482.346940160        982735497.90402532     
   2655246366.9700198        8216797.1322410107        1064770679.2305477     
   1876464593.5606186       -131700682.96616507        801346822.80414677     
   1990456688.7587423       -124222492.88290155        901405001.76053822     
   2110197802.1272757       -97580908.898273706        997928698.34143901     
   2235687933.6662221       -51775931.012261391        1090917912.5468576     
   2366927083.3755803        13192440.775110364        1180372644.3767862     
   3524329289.5833645       -5472612.2473294735        687456036.90135503     
   3393409310.7582512        35750822.190044165        689047022.00100517     
   3258072823.6090164        62252562.213669777        693675575.73593283     
   3118319828.1356401        74032607.823491454        701341698.10614765     
   2974150324.3381310        71090959.019541621        712045389.11164379     
   3233947470.0739164       -1115729.3789700270        818312375.49283504     
   3108493279.1271315        30607824.524608254        815952517.38209200     
   2979994562.3321962        52182958.934344292        816951822.97334278     
   2848451319.6891074        63609673.850229025        821310292.26659119     
   2713863551.1978574        64887969.272260904        829027925.26184976     
   2944253162.5361290        3447407.0808858871        944083922.93590212     
   2825183602.5154333        25946733.364982963        939373867.83673775     
   2704441499.1225638        42870915.075165033        938344571.50628662     
   2582026852.3575201        54219952.211433768        940996033.94455218     
   2457939662.2202992        59993844.773776531        947328255.15153766     
   2655246366.9700198        8216797.1322410107        1064770679.2305477     
   2543480280.9231710        21767548.711192846        1059311073.3649462     
   2431413633.9801254        34316430.636153936        1057853821.3347723     
   2319046426.1408801        45863442.907120943        1060398923.1400322     
   2206378657.4054408        56408585.524101138        1066946378.7807211     
   2366927083.3755803        13192440.775110364        1180372644.3767862     
   2263383314.3503370        18070270.563234806        1175764133.9667161     
   2160910966.9048710        26519505.617287397        1175479572.4587972     
   2059510041.0391991        38540145.937313914        1179518959.8530180     
   1959180536.7532992        54132191.523254275        1187882296.1493921     
   2974150324.3381310        71090959.019541621        712045389.11164379     
   2772552698.5726237        45977000.934102058        677909132.69658411     
   2572111884.8513880        24719082.996224880        649779411.58440304     
   2372827883.1744385        7317205.2059770823        627656225.77510715     
   2174700693.5417752       -6228632.4366555214        611539575.26868939     
   2713863551.1978574        64887969.272260904        829027925.26184976     
   2529948429.7598310        47346218.195014358        797243308.67264450     
   2346426071.1269436        31113676.468246460        771306650.79980588     
   2163296475.2992058        16190344.091964602        751217951.64333010     
   1980559642.2766037        2576221.0661454201        736977211.20322096     
   2457939662.2202992        59993844.773776531        947328255.15153766     
   2291253969.1482840        49888377.916318893        917003887.60919428     
   2124196989.6422744        38545289.612200141        892368902.19669855     
   1956768723.7022703        25964579.861431241        873423298.91405761     
   1788969171.3282638        12146248.663996100        860167077.76126850     
   2206378657.4054408        56408585.524101138        1066946378.7807211     
   2056469316.7379782        53603480.097993135        1037190869.5062425     
   1905424640.3973742        47013922.428087950        1012966165.7750965     
   1753244628.3836360        36639912.514393210        994272267.58728385     
   1599929280.6967623        22481450.356911600        981109174.94281530     
   1959180536.7532992        54132191.523254275        1187882296.1493921     
   1825594472.5289125        58491524.740036249        1157804254.3637743     
   1690109023.3922465        56519574.915899336        1133098441.5349841     
   1552724189.3433084        48216342.050846815        1113764857.6630156     
   1413439970.3820868        33581826.144854963        1099803502.7478707     
   2174700693.5417752       -6228632.4366555214        611539575.26868939     
   2060108360.5122690        6233370.8942252398        608569222.50521624     
   1944983864.2248094        16921496.698578835        607411162.31940317     
   1829327204.6793947        25835744.976423740        608065394.71125424     
   1713138381.8760185        32976115.727731824        610531919.68076026     
   1980559642.2766037        2576221.0661454201        736977211.20322096     
   1870054718.8587961        11138692.300810337        734764763.62320542     
   1759491332.4462080        19506286.886178493        734784076.72749233     
   1648869483.0388374        27679004.822296739        737035150.51610398     
   1538189170.6366811        35656846.109112620        741517984.98902380     
   1788969171.3282638        12146248.663996100        860167077.76126850     
   1683750137.8268778        17168731.893850088        859265185.67173576     
   1578946341.5938783        23575339.351665378        861014522.37316871     
   1474557782.6292713        31366071.037446678        865415087.86556828     
   1370584460.9330492        40540926.951191783        872466882.14893079     
   1599929280.6967623        22481450.356911600        981109174.94281530     
   1501194617.4165125        24323489.673368275        982070488.65080929     
   1403348891.6678269        29128654.095032871        986102499.25642014     
   1306392103.4507062        36896943.621917069        993205206.75964677     
   1210324252.7651432        47628358.253991961        1003378611.1604904     
   1413439970.3820868        33581826.144854963        1099803502.7478707     
   1322388157.6276951        32602965.639330745        1103180672.5604212     
   1232698982.6680467        36166231.116275072        1110048007.3772461     
   1144372445.5031304        44271622.575669169        1120405507.1983395     
   1057408546.1329523        56919140.017513394        1134253172.0237060     
   1713138381.8760185        32976115.727731824        610531919.68076026     
   1565873135.2632997        31693043.777630866        595533270.54201043     
   1419733118.5731990        34160738.236256540        579396891.55723488     
   1274718331.8057120        40379199.103597105        562122782.72646308     
   1130828774.9608483        50348426.379676759        543710944.04968095     
   1538189170.6366811        35656846.109112620        741517984.98902380     
   1389701272.4715312        32471965.655550003        730736376.84089541     
   1241390224.5463495        29876586.001893461        720590876.23000669     
   1093256026.8611417        27870707.148140371        711081483.15635729     
   945298679.41589129        26454329.094251871        702208197.61996341     
   1370584460.9330492        40540926.951191783        872466882.14893079     
   1225942018.0247579        36974670.036979437        864795872.02834296     
   1080528045.6737847        30836648.313823223        859534806.82824814     
   934342543.88012850        22126861.781724334        856683686.54864013     
   787385512.64378345        10845310.440664947        856242511.18953264     
   1210324252.7651432        47628358.253991961        1003378611.1604904     
   1074595371.9229918        45201156.921905100        997711756.10434997     
   937146581.95549905        37040925.172026396        996228683.35195720     
   797977882.86267757        23147663.004373550        998929392.90329623     
   657089274.64452219        3521370.4189503491        1005813884.7583832     
   1057408546.1329523        56919140.017513394        1134253172.0237060     
   935661334.16621578        57151426.310327888        1129484029.0689228     
   811245833.39149868        48489416.576523423        1130672505.8011377     
   684162043.80880034        30933110.816123575        1137818602.2203250     
   554409965.41810930        4482509.0290703475        1150922318.3265169     
   1130828774.9608483        50348426.379676759        543710944.04968095     
   947519310.77025104        38931850.361543417        561925301.79484534     
   756781431.32264483        2753890.1533907056        591145356.31102276     
   558615136.61803079       -58185454.244790345        631371107.59823930     
   353020426.65642726       -143886182.83294237        682602555.65646756     
   945298679.41589129        26454329.094251871        702208197.61996341     
   787789241.83394504        9471964.1365741491        720326918.57125509     
   621729090.36624479       -36012780.440290898        748570529.89808512     
   447118225.01277292       -109999904.63638291        786939031.60043454     
   263956645.77356160       -212489408.45162302        835432423.67831635     
   787385512.64378345        10845310.440664947        856242511.18953264     
   653159511.96906948       -12457820.366974205        872956246.94674850     
   509260498.77984613       -68004326.222986311        898914066.68399942     
   355688473.07610500       -155794207.12739205        934115970.40127516     
   192443434.85785538       -275827463.08014917        978561958.09858382     
   657089274.64452219        3521370.4189503491        1005813884.7583832     
   543630121.17562318       -26857503.149069667        1019813286.9213077     
   419375656.56345218       -93220747.194673210        1042175966.6687715     
   284325880.80801702       -195568361.71782368        1072901924.0007607     
   138480793.90931207       -333900346.71852982        1111991158.9172857     
   554409965.41810930        4482509.0290703475        1150922318.3265169     
   459201069.45359492       -33727084.209782958        1160898038.4949422     
   352074563.71705967       -111662043.35537800        1178356229.8524051     
   233030448.20850170       -229322368.40771818        1203296892.3988972     
   102068722.92792702       -386708059.36676967        1235720026.1344202     
   353020426.65642726       -143886182.83294237        682602555.65646756     
   278718709.78248638       -284726642.03481883        786211807.30890167     
   149519499.23807803       -608558746.80491483        905522816.96375012     
  -34577204.976811826       -1115382497.1432879        1040535584.6210103     
  -273571402.86216837       -1805197893.0498669        1191250110.2806950     
   263956645.77356160       -212489408.45162302        835432423.67831635     
   224701103.84270835       -351996448.57858020        884930380.55129385     
   141124178.54208276       -639241433.27147853        945377463.43771231     
   13225869.871674716       -1074224362.5302877        1016773672.3375808     
  -158993822.16849428       -1656945236.3549945        1099119007.2509005     
   192443434.85785538       -275827463.08014917        978561958.09858382     
   174655119.33017942       -418074768.69420016        986287415.54292309     
   123121530.73342434       -672806317.87184119        1000209367.0117353     
   37842669.067601025       -1040022110.6130556        1020327812.5050311     
  -81181465.667311668       -1519722146.9178832        1046642752.0227946     
   138480793.90931207       -333900346.71852982        1111991158.9172857     
   128580756.24490595       -482961602.38162023        1090282912.2838018     
   95511555.812121183       -709253400.60598397        1070018527.6858170     
   39273192.610955775       -1012775741.3916216        1051198005.1233389     
  -40134333.358587205       -1393528624.7384956        1033821344.5963814     
   102068722.92792702       -386708059.36676967        1235720026.1344202     
   86478014.586885512       -546656949.64087772        1196916870.7739146     
   58294253.778150111       -748582681.47394872        1154804945.4599516     
   17517440.501751721       -992485254.86590743        1109384250.1925361     
  -35852425.242352426       -1278364669.8168685        1060654784.9716545     
   5306568156.7025785        535318834.31691718        2008537151.1430972     
   4480181689.9705362        472362035.17430592        1664083170.7259624     
   3633035607.2028646        340206515.91292906        1348066789.1970968     
   2765129908.3995581        138852276.53276825        1060488006.5564898     
   1876464593.5606186       -131700682.96616507        801346822.80414677     
   4717977298.5373402        492710637.61940396        2197818681.4743571     
   3973578259.4701204        432074643.14079499        1812355742.7510443     
   3210811541.8980784        310213053.64611614        1460986886.8822527     
   2429677145.8212142        127125869.13536584        1143712113.8679895     
   1630175071.2395332       -117186910.39144588        860531423.70824337     
   4069349454.2557769        432091345.08699989        2377137444.2836251     
   3423099225.6141133        378624570.10059822        1953456141.0400763     
   2760873255.9984508        271905325.20085156        1569525404.6173146     
   2082671545.4087758        111933610.38774204        1225345235.0153358     
   1388494093.8450947       -101290574.33872575        920915632.23413837     
   3360684623.8578806        353460956.71969271        2546493439.5708966     
   2828744588.4025288        312011816.05373335        2087384365.5930638     
   2283220749.5039811        225283330.57713073        1673682342.4022784     
   1724113107.1622448        93275500.289887071        1305387369.9985323     
   1151421661.3773108       -84011674.808007777        982499448.38183379     
   2591982807.3436518        256819472.51748562        2705886667.3361764     
   2190514347.8353519        232236381.00018764        2214140416.4100075     
   1777854022.4146757        170347069.77496648        1773457700.2371426     
   1354001831.0816157        71151538.841803014        1383838518.8175845     
   918957773.83617342       -65350211.799302459        1045282872.1513323     
   1876464593.5606186       -131700682.96616507        801346822.80414677     
   1990456688.7587423       -124222492.88290155        901405001.76053822     
   2110197802.1272757       -97580908.898273706        997928698.34143901     
   2235687933.6662221       -51775931.012261391        1090917912.5468576     
   2366927083.3755803        13192440.775110364        1180372644.3767862     
   1630175071.2395332       -117186910.39144588        860531423.70824337     
   1733707961.3466277       -110533537.35285711        968206650.04851532     
   1842458417.7555313       -86488276.641570091        1071561158.7814797     
   1956426440.4662397       -45051128.257602334        1170594949.9071469     
   2075612029.4787567        13777907.799061656        1265308023.4255073     
   1388494093.8450947       -101290574.33872575        920915632.23413837     
   1479321392.4845433       -96135934.257798314        1035587878.7782544     
   1574834805.5571945       -75360912.732858121        1145153172.4832475     
   1675034333.0630517       -38965509.763898253        1249611513.3491230     
   1779919975.0021126        13050274.649071813        1348962901.3758793     
   1151421661.3773108       -84011674.808007777        982499448.38183379     
   1227296982.1724916       -81029683.597733915        1103548687.9497566     
   1307326965.5322759       -64198817.172113657        1218704739.4467397     
   1391511611.4566579       -33519075.531162441        1327967602.8727880     
   1479850919.9456451        11009541.325132430        1431337278.2279038     
   918957773.83617342       -65350211.799302459        1045282872.1513323     
   977634730.41047168       -65214785.372656643        1172089077.5630229     
   1039934897.6807678       -53001989.959348559        1292215859.6719599     
   1105858275.6470621       -28711825.559382975        1405663218.4781446     
   1175404864.3093557        7655707.8272498846        1512431153.9815779     
   2366927083.3755803        13192440.775110364        1180372644.3767862     
   2263383314.3503370        18070270.563234806        1175764133.9667161     
   2160910966.9048710        26519505.617287397        1175479572.4587972     
   2059510041.0391991        38540145.937313914        1179518959.8530180     
   1959180536.7532992        54132191.523254275        1187882296.1493921     
   2075612029.4787567        13777907.799061656        1265308023.4255073     
   1983657746.6843984        18474083.578061461        1260445446.2961004     
   1892557832.4878356        26018154.683043599        1260215829.8288727     
   1802312286.8890667        36410121.114006877        1264619174.0238185     
   1712921109.8880906        49649982.870944738        1273655478.8809478     
   1779919975.0021126        13050274.649071813        1348962901.3758793     
   1700438069.1815867        17829663.641837955        1343593029.0481489     
   1621593478.9768627        24733438.020612240        1343165129.1426291     
   1543386204.3879471        33761597.785413921        1347679201.6593142     
   1465816245.4148343        44914142.936224341        1357135246.5982101     
   1479850919.9456451        11009541.325132430        1431337278.2279038     
   1413724281.8418925        16137010.754540443        1425206882.2228632     
   1348017906.3719552        22665355.630005419        1424327470.4000616     
   1282731793.5358317        30594575.951517165        1428699042.7594981     
   1217865943.3335280        39924671.719087243        1438321599.3011749     
   1175404864.3093557        7655707.8272498846        1512431153.9815779     
   1123516384.6653194        13396124.916185975        1505287005.8202426     
   1071831114.6731107        19813907.511214137        1503702853.6011744     
   1020349054.3327285        26909055.612330616        1507678697.3243749     
   969070203.64417386        34681569.219539165        1517214536.9898410     
   1959180536.7532992        54132191.523254275        1187882296.1493921     
   1825594472.5289125        58491524.740036249        1157804254.3637743     
   1690109023.3922465        56519574.915899336        1133098441.5349841     
   1552724189.3433084        48216342.050846815        1113764857.6630156     
   1413439970.3820868        33581826.144854963        1099803502.7478707     
   1712921109.8880906        49649982.870944738        1273655478.8809478     
   1593470240.4279494        52754487.162842989        1241454561.7285674     
   1472428222.3300395        50555162.662178695        1215044218.2668378     
   1349795055.5943639        43052009.368960738        1194424448.4957573     
   1225570740.2209189        30245027.283180892        1179595252.4153244     
   1465816245.4148343        44914142.936224341        1357135246.5982101     
   1361695841.3870125        47122399.503652573        1323171063.0659924     
   1256292524.9959304        45054281.526888311        1295415797.9582543     
   1149606296.2415900        38709789.005926073        1273869451.2749872     
   1041637155.1239938        28088921.940776408        1258532023.0161939     
   1217865943.3335280        39924671.719087243        1438321599.3011749     
   1130271275.4060946        41595261.762460411        1402953758.3760467     
   1041701931.3899195        40016931.510030389        1374213180.6092234     
   952157911.28498876        35189680.961739838        1352099866.0007045     
   861639215.09130931        27113510.117632478        1336613814.5504744     
   969070203.64417386        34681569.219539165        1517214536.9898410     
   899196542.48520565        36173073.939286947        1480802647.6587346     
   828656441.51200342        35443112.611588359        1451436366.2197568     
   757449900.72455919        32491685.236413598        1429115692.6729043     
   685576920.12287700        27318791.813784122        1413840627.0181744     
   1413439970.3820868        33581826.144854963        1099803502.7478707     
   1322388157.6276951        32602965.639330745        1103180672.5604212     
   1232698982.6680467        36166231.116275072        1110048007.3772461     
   1144372445.5031304        44271622.575669169        1120405507.1983395     
   1057408546.1329523        56919140.017513394        1134253172.0237060     
   1225570740.2209189        30245027.283180892        1179595252.4153244     
   1143993292.5616031        29404629.843373656        1185892525.2767625     
   1063461405.1873600        32049433.353808403        1195955653.2688267     
   983975078.09817946        38179437.814452708        1209784636.3915110     
   905534311.29406691        47794643.225326836        1227379474.6448185     
   1041637155.1239938        28088921.940776408        1258532023.0161939     
   970321758.63505554        27623293.389289737        1267379475.1652317     
   899734844.92151630        29585940.755801320        1280268472.5712485     
   829876413.98336697        33976864.040281087        1297199015.2342396     
   760746465.82062030        40796063.242765129        1318171103.1542120     
   861639215.09130931        27113510.117632478        1336613814.5504744     
   801373555.84804630        27258956.277059048        1347641522.2258315     
   741519301.87050641        28775753.322231114        1362986465.2845173     
   682076453.15869164        31663901.253152251        1382648643.7265351     
   623045009.71260226        35923400.069832027        1406628057.5518839     
   685576920.12287700        27318791.813784122        1413840627.0181744     
   637148684.20058513        28311618.506706059        1426678666.4585652     
   588814776.03434289        29618871.053134769        1444109631.4086342     
   540575195.62415159        31240549.453063995        1466133521.8683915     
   492429942.97002029        33176653.706529781        1492750337.8378346     
   1057408546.1329523        56919140.017513394        1134253172.0237060     
   935661334.16621578        57151426.310327888        1129484029.0689228     
   811245833.39149868        48489416.576523423        1130672505.8011377     
   684162043.80880034        30933110.816123575        1137818602.2203250     
   554409965.41810930        4482509.0290703475        1150922318.3265169     
   905534311.29406691        47794643.225326836        1227379474.6448185     
   798939069.01425588        46665385.808075696        1222067425.7771275     
   689783022.37108278        37000113.846281856        1222767320.9147091     
   578066171.36454320        18798827.339937270        1229479160.0575707     
   463788515.99464262       -7938473.7109497190        1242202943.2056952     
   760746465.82062030        40796063.242765129        1318171103.1542120     
   669458405.56568336        38351825.816839695        1312441546.8923345     
   575717025.39200342        27729855.328433752        1312778258.9540155     
   479522325.29958296        8930151.7775598466        1319181239.3392508     
   380874305.28841656       -18047284.835797563        1331650488.0480433     
   623045009.71260226        35923400.069832027        1406628057.5518839     
   547219343.82049012        32210746.336607486        1400606392.4145453     
   469047842.45426631        20678641.023001999        1400705319.9190445     
   388530505.61391103        1327084.1289656162        1406924840.0653853     
   305667333.29943746       -25843924.345471352        1419264952.8535578     
   492429942.97002029        33176653.706529781        1492750337.8378346     
   432221883.77869415        28242147.367417783        1486561962.3437583     
   369775473.55785984        15846470.929947823        1486548503.8098006     
   305090712.30753267       -4010375.6058342457        1492709962.2359734     
   238167600.02769539       -31328392.239980668        1505046337.6222579     
   554409965.41810930        4482509.0290703475        1150922318.3265169     
   459201069.45359492       -33727084.209782958        1160898038.4949422     
   352074563.71705967       -111662043.35537800        1178356229.8524051     
   233030448.20850170       -229322368.40771818        1203296892.3988972     
   102068722.92792702       -386708059.36676967        1235720026.1344202     
   463788515.99464262       -7938473.7109497190        1242202943.2056952     
   387572130.67367589       -42438128.740639061        1241435125.4736261     
   301269911.25884467       -110557230.74988198        1246938320.5377567     
   204881857.75012264       -212295779.73875546        1258712528.3980870     
   98407970.147526532       -347653775.70722044        1276757749.0546048     
   380874305.28841656       -18047284.835797563        1331650488.0480433     
   320189120.91717827       -49875394.564460397        1322276204.0399911     
   251249878.13020492       -109217032.34556749        1317961474.4352911     
   174056576.92750573       -196072198.17909759        1318706299.2339501     
   88609217.309073403       -310440892.06507021        1324510678.4359663     
   305667333.29943746       -25843924.345471352        1419264952.8535578     
   257052040.18409532       -56038881.681264803        1403421274.1940258     
   202014464.33117193       -107641448.14233728        1391425691.5450046     
   140554605.74066263       -180651623.72869089        1383278204.9065063     
   72672464.412570372       -275069408.44032341        1378978814.2785203     
   238167600.02769539       -31328392.239980668        1505046337.6222579     
   198160888.47443372       -60928590.091036156        1484870335.9357431     
   153563669.86172721       -105830478.14024389        1467330971.8668993     
   104375944.18958548       -166034056.38756770        1452428245.4157386     
   50597711.458002374       -241539324.83302939        1440162156.5822518     
   102068722.92792702       -386708059.36676967        1235720026.1344202     
   86478014.586885512       -546656949.64087772        1196916870.7739146     
   58294253.778150111       -748582681.47394872        1154804945.4599516     
   17517440.501751721       -992485254.86590743        1109384250.1925361     
  -35852425.242352426       -1278364669.8168685        1060654784.9716545     
   98407970.147526532       -347653775.70722044        1276757749.0546048     
   80870192.212217301       -488904944.70834339        1222217753.4569817     
   51940881.821615040       -668127888.56044340        1165173923.2157855     
   11620038.975741982       -885322607.26345277        1105626258.3309960     
  -40092336.325405478       -1140489100.8173685        1043574758.8026158     
   88609217.309073403       -310440892.06507021        1324510678.4359663     
   71424184.950542748       -432304395.24195772        1255635615.9490497     
   44049140.149148732       -588134606.56172979        1185061654.1284063     
   6484082.9048725963       -777931526.02442575        1112788792.9740615     
  -41270986.782268167       -1001695153.6300247        1038817032.4859904     
   72672464.412570372       -275069408.44032341        1378978814.2785203     
   58139992.801892698       -376855301.24162132        1297170458.2500916     
   34619028.760752141       -508602835.47779584        1214468138.1978390     
   2109572.2891408205       -670312011.14886594        1130871854.1217277     
  -39388376.612933457       -861982828.25481498        1046381606.0217856     
   50597711.458002374       -241539324.83302939        1440162156.5822518     
   41017615.766239062       -322557662.70741928        1346822280.3601501     
   23650547.656425297       -429532575.30863583        1253393375.4240692     
  -1503492.8714619279       -562464062.63676953        1159875441.7740240     
  -34444505.817404836       -721352124.69174707        1066268479.4099904     
   2591982807.3436518        256819472.51748562        2705886667.3361764     
   2190514347.8353519        232236381.00018764        2214140416.4100075     
   1777854022.4146757        170347069.77496648        1773457700.2371426     
   1354001831.0816157        71151538.841803014        1383838518.8175845     
   918957773.83617342       -65350211.799302459        1045282872.1513323     
   1830010214.7166951        158421526.57964134        2694872589.5036836     
   1557130140.6159134        148450592.48265594        2215003435.5676255     
   1275856166.8250971        110499992.75222009        1779612853.1716611     
   986188293.34424114        44569727.388316512        1388700842.3157995     
   688126520.17334449       -49340203.609053105        1042267403.0000360     
   1144022217.8938928        82818959.383038342        2673009303.8612666     
   980916348.59147346        81815928.523629725        2208281540.8413768     
   812214545.82135642        62159786.105227917        1781447386.1483779     
   637916809.58354127        23850532.127832413        1392506839.7822769     
   458023139.87802690       -33111833.408558607        1041459901.7430627     
   534018816.87524754        30011770.927683294        2640296810.4089122     
   461872971.76202726        32332389.123096213        2193974732.2312589     
   386929159.40344977        25326449.833982840        1778961299.1672914     
   309187379.79951519        8993953.0603488386        1395256511.2170122     
   228647632.95022422       -16665101.197808847        1042860368.3804181     
   11.660760360961644       -38.786421007198626        2596735109.1466312     
   10.127578080195015       -25.718934857268490        2172083009.7372794     
   7.5713798783685560       -16.061504553095336        1772154592.2284045     
   3.9921660986143865       -9.8141258284031831        1396949856.6200137     
 -0.61006419696194358       -6.9768014625621806        1046468802.9121021     
   918957773.83617342       -65350211.799302459        1045282872.1513323     
   977634730.41047168       -65214785.372656643        1172089077.5630229     
   1039934897.6807678       -53001989.959348559        1292215859.6719599     
   1105858275.6470621       -28711825.559382975        1405663218.4781446     
   1175404864.3093557        7655707.8272498846        1512431153.9815779     
   688126520.17334449       -49340203.609053105        1042267403.0000360     
   729902848.97940314       -49908049.771755248        1173287387.0093791     
   774396585.76666152       -41417869.330458701        1298148605.0972936     
   821607730.53510928       -23869662.285198927        1416851057.2637830     
   871536283.28475642        2736571.3640645146        1529394743.5088410     
   458023139.87802690       -33111833.408558607        1041459901.7430627     
   484386433.43391788       -33936674.405173928        1175636894.5161238     
   512561332.25619954       -28722831.180485904        1304175778.7490819     
   542547836.34487319       -17470303.734493285        1427076554.4419351     
   574345945.69993877       -179092.06719124317        1544339221.5946789     
   228647632.95022422       -16665101.197808847        1042860368.3804181     
   241085483.77401197       -17300659.272922948        1179137600.0832601     
   254429137.14938739       -14916875.509413004        1310297380.6273220     
   268678593.07635176       -9513749.9072731733        1436339710.0125995     
   283833851.55490488       -1091282.4665028304        1557264588.2390957     
 -0.61006419696194358       -6.9768014625621806        1046468802.9121021     
  -3.1179271618753113E-004  -4.3749939797317632        1183789503.7107835     
  0.44622336960984421       -2.3172439699670933        1316513410.7320108     
  0.72953989461221280      -0.80355643155932865        1444640523.9757791     
  0.84964855663936489       0.16610559082043713        1568170843.4420879     
   1175404864.3093557        7655707.8272498846        1512431153.9815779     
   1123516384.6653194        13396124.916185975        1505287005.8202426     
   1071831114.6731107        19813907.511214137        1503702853.6011744     
   1020349054.3327285        26909055.612330616        1507678697.3243749     
   969070203.64417386        34681569.219539165        1517214536.9898410     
   871536283.28475642        2736571.3640645146        1529394743.5088410     
   833488059.50542831        7302325.1374424398        1524694141.2024839     
   795592242.96434045        12376103.038289249        1525350969.7687659     
   757848833.66149950        17957905.066623598        1531365229.2076800     
   720257831.59689844        24047731.222426742        1542736919.5192330     
   574345945.69993877       -179092.06719124317        1544339221.5946789     
   549559220.44351006        3038371.1880874038        1542022895.6607876     
   524874100.01173812        6594517.1922213733        1544861435.5299022     
   500290584.40462661        10489345.945223361        1552854841.2020178     
   475808673.62217027        14722857.447076857        1566003112.6771362     
   283833851.55490488       -1091282.4665028304        1557264588.2390957     
   271729867.47956437        604263.06812080741        1557273269.1951571     
   259676685.81530145        2469149.9730048627        1562234250.8845880     
   247674306.56211019        4503378.2481267750        1572147533.3073859     
   235722729.71999210        6706947.8934928179        1587013116.4635589     
  0.84964855663936489       0.16610559082043713        1568170843.4420879     
  0.61359552969733033       0.77755892384131053        1570445261.8055825     
  0.37502743584598047        1.3806280066084089        1577469415.8328152     
  0.13395568994704521        1.9753522764396128        1589243305.5237846     
 -0.10963565220513827        2.5616771982039324        1605766930.8784926     
   969070203.64417386        34681569.219539165        1517214536.9898410     
   899196542.48520565        36173073.939286947        1480802647.6587346     
   828656441.51200342        35443112.611588359        1451436366.2197568     
   757449900.72455919        32491685.236413598        1429115692.6729043     
   685576920.12287700        27318791.813784122        1413840627.0181744     
   720257831.59689844        24047731.222426742        1542736919.5192330     
   668461076.74298072        25348907.189968318        1507100840.5097206     
   616164492.00149953        24983983.532289922        1478368388.1701636     
   563368077.37245655        22952960.249412775        1456539562.5005746     
   510071832.85584730        19255837.341308504        1441614363.5009460     
   475808673.62217027        14722857.447076857        1566003112.6771362     
   441683164.43854493        15712006.471964762        1531337222.2370017     
   407224435.29403538        15590422.293903038        1503432977.2446709     
   372432486.18863809        14358104.912883714        1482290377.7001348     
   337307317.12235492        12015054.328910783        1467909423.6033931     
   235722729.71999210        6706947.8934928179        1587013116.4635589     
   218862805.57190645        7262371.7853078619        1553511792.8405972     
   201836271.38961542        7262428.8964362741        1526630133.4432671     
   184643127.17310804        6707119.2268446088        1506368138.2715728     
   167283372.92239293        5596442.7765604705        1492725807.3255119     
 -0.10963565220513827        2.5616771982039324        1605766930.8784926     
  0.14306271369023038        3.1299860825883608        1573624552.3204892     
  0.28823253307917540        3.3398664786180428        1547959856.7659566     
  0.32586577667017902        3.1912916219879204        1528772844.2148926     
  0.25596951298483350        2.6842850744366347        1516063514.6673036     
   685576920.12287700        27318791.813784122        1413840627.0181744     
   637148684.20058513        28311618.506706059        1426678666.4585652     
   588814776.03434289        29618871.053134769        1444109631.4086342     
   540575195.62415159        31240549.453063995        1466133521.8683915     
   492429942.97002029        33176653.706529781        1492750337.8378346     
   510071832.85584730        19255837.341308504        1441614363.5009460     
   473552924.02234524        19941137.639354989        1455530964.6227267     
   437104761.01127082        20862257.345490560        1474086628.7019339     
   400727343.82261372        22019196.459685549        1497281355.7385774     
   364420672.45639306        23411954.981998935        1525115145.7326550     
   337307317.12235492        12015054.328910783        1467909423.6033931     
   312829556.65692425        12432374.615859538        1482877074.1506596     
   288398960.08029026        13006907.865460455        1502529925.1031120     
   264015527.39245728        13738654.077731475        1526867976.4607456     
   239679258.59342089        14627613.252661303        1555891228.2235589     
   167283372.92239293        5596442.7765604705        1492725807.3255119     
   154978582.10431790        5785329.4362035096        1508716995.0423741     
   142697373.24141034        6052822.6130705550        1529439520.6121643     
   130439746.33367386        6398922.3071776927        1554893384.0348885     
   118205701.38110964        6823628.5185202621        1585078585.3105457     
  0.25596951298483350        2.6842850744366347        1516063514.6673036     
  0.36452690682825345        2.1003954070514195        1533050727.2978594     
  0.49462389312565208        1.5883036872900755        1554815415.2290964     
  0.64626838679117471        1.1480376859785357        1581357578.4610100     
  0.81945878654161264       0.77959067772732327        1612677216.9936035     
   492429942.97002029        33176653.706529781        1492750337.8378346     
   432221883.77869415        28242147.367417783        1486561962.3437583     
   369775473.55785984        15846470.929947823        1486548503.8098006     
   305090712.30753267       -4010375.6058342457        1492709962.2359734     
   238167600.02769539       -31328392.239980668        1505046337.6222579     
   364420672.45639306        23411954.981998935        1525115145.7326550     
   320396103.80849195        20050517.865457505        1517653531.2203801     
   274692771.89576000        11093203.199482933        1516102822.6531014     
   227310676.71817857       -3459989.0159907788        1520463020.0308173     
   178249818.27576029       -23609058.780921936        1530734123.3535259     
   239679258.59342089        14627613.252661303        1555891228.2235589     
   211083863.30287424        12612950.202884272        1547809227.0851910     
   181369292.51215124        6867702.1525195688        1545374120.8766935     
   150535546.22125217       -2608130.8984321132        1548585909.5980649     
   118582624.43018022       -15814548.949960031        1557444593.2493088     
   118205701.38110964        6823628.5185202621        1585078585.3105457     
   104285162.26183617        5929444.3796724379        1577029049.9381888     
   89805035.407051831        3169967.7891185880        1574362398.4805803     
   74765320.816756502       -1454801.2531376630        1577078630.9377153     
   59166018.490951627       -7944862.7470910102        1585177747.3095944     
  0.81945878654161264       0.77959067772732327        1612677216.9936035     
  0.68538572253537766       0.39585354225315850        1605312999.7793796     
  0.58046735916085945       0.10929874221805019        1603067655.4647686     
  0.50469317369983036       -8.0110185884208651E-002   1605941184.0497732     
  0.45807936198817151      -0.17231509259767172        1613933585.5343959     
   238167600.02769539       -31328392.239980668        1505046337.6222579     
   198160888.47443372       -60928590.091036156        1484870335.9357431     
   153563669.86172721       -105830478.14024389        1467330971.8668993     
   104375944.18958548       -166034056.38756770        1452428245.4157386     
   50597711.458002374       -241539324.83302939        1440162156.5822518     
   178249818.27576029       -23609058.780921936        1530734123.3535259     
   147481263.79801840       -46038263.422786132        1506048762.2362804     
   113269829.02490497       -79943735.715887308        1484178193.5880842     
   75615513.956415609       -125325475.66024008        1465122417.4089522     
   34518318.592547819       -182183483.25585857        1448881433.6988795     
   118582624.43018022       -15814548.949960031        1557444593.2493088     
   97561240.889051989       -30920056.224268116        1529588770.5927296     
   74244603.816610575       -53676408.602959022        1504725895.2565973     
   48632713.212856427       -84083606.086022630        1482855967.2409053     
   20725569.077783108       -122141648.67348418        1463978986.5456445     
   59166018.490951627       -7944862.7470910102        1585177747.3095944     
   48400819.747524962       -15573968.495518293        1555490361.0051050     
   36487994.236832544       -27028496.801492494        1528974076.8724325     
   23427541.958900250       -42308447.664934255        1505628894.9115725     
   9219462.9137094095       -61413821.085907459        1485454815.1225467     
  0.45807936198817151      -0.17231509259767172        1613933585.5343959     
  0.37342400234279211      -0.23657394724526451        1583753533.4733951     
  0.28558515442588139      -0.31144512335401864        1556922738.4355879     
  0.19455558958752636      -0.39695202253425393        1533441200.4209800     
  0.10032862818919963      -0.49311621635833769        1513308919.4295747     
   50597711.458002374       -241539324.83302939        1440162156.5822518     
   41017615.766239062       -322557662.70741928        1346822280.3601501     
   23650547.656425297       -429532575.30863583        1253393375.4240692     
  -1503492.8714619279       -562464062.63676953        1159875441.7740240     
  -34444505.817404836       -721352124.69174707        1066268479.4099904     
   34518318.592547819       -182183483.25585857        1448881433.6988795     
   30176551.840103775       -242094245.17858005        1348060962.7188265     
   19994555.771680817       -321472438.15456325        1246488025.1864486     
   3972330.3872988224       -420318062.18374389        1144162621.1017411     
  -17890124.313061446       -538631117.26618266        1041084750.4647278     
   20725569.077783108       -122141648.67348418        1463978986.5456445     
   19726594.583650082       -161513495.64886630        1357949121.0934126     
   14834133.875635341       -213863630.00385347        1250503351.2505000     
   6048186.9537428468       -279192051.73843312        1141641677.0169151     
  -6631246.1820300519       -357498760.85261208        1031364098.3926748     
   9219462.9137094095       -61413821.085907459        1485454815.1225467     
   9667743.9968878366       -80815414.118243381        1376486755.4839036     
   8169281.9682800621       -106706150.85653040        1265439353.6162381     
   4724076.8278776035       -139086031.30080524        1152312609.5195448     
  -667871.42431537062       -177955055.45104304        1037106523.1938430     
  0.10032862818919963      -0.49311621635833769        1513308919.4295747     
   7.9817196807984769E-002 -0.58670637030008088        1403673865.8902946     
   4.9602263688383330E-002 -0.71264569337278849        1291296032.2836521     
   9.7016030740106896E-003 -0.87086765225914331        1176175418.6096261     
  -3.9907820637862523E-002  -1.0614528486932238        1058312024.8682337     
   11.660760360961644       -38.786421007198626        2596735109.1466312     
   10.127578080195015       -25.718934857268490        2172083009.7372794     
   7.5713798783685560       -16.061504553095336        1772154592.2284045     
   3.9921660986143865       -9.8141258284031831        1396949856.6200137     
 -0.61006419696194358       -6.9768014625621806        1046468802.9121021     
  -534018793.19860852       -30011844.046509951        2640296822.7743630     
  -461872950.96896142       -32332436.392242342        2193974741.5251431     
  -386929143.59667832       -25326478.262519971        1778961305.5960553     
  -309187371.08176017       -8993969.6573487967        1395256514.9870987     
  -228647633.42420560        16665089.423278496        1042860369.6982719     
  -1144022196.0183678       -82819028.694719255        2673009328.4944158     
  -980916328.82688868       -81815972.093966097        2208281559.2652559     
  -812214530.32712328       -62159811.132254750        1781447398.7758801     
  -637916800.51906967       -23850545.809583366        1392506847.0262835     
  -458023139.40272915        33111823.874042153        1041459904.0164708     
  -1830010196.7985156       -158421592.73104191        2694872626.3067856     
  -1557130123.4462051       -148450632.82410413        2215003462.9576173     
  -1275856152.6199541       -110500014.67070365        1779612871.7678769     
  -986188284.31976438       -44569738.270838559        1388700852.7375691     
  -688126518.54563618        49340196.375488251        1042267405.8666954     
  -2591982795.5390558       -256819536.15548575        2705886716.2114792     
  -2190514334.8269086       -232236418.58266181        2214140452.6022210     
  -1777854010.4751709       -170347088.87786657        1773457724.5720465     
  -1354001822.4838405       -71151547.041101038        1383838532.1209555     
  -918957770.85292256        65350206.927627206        1045282875.2489455     
 -0.61006419696194358       -6.9768014625621806        1046468802.9121021     
  -3.1179271618753113E-004  -4.3749939797317632        1183789503.7107835     
  0.44622336960984421       -2.3172439699670933        1316513410.7320108     
  0.72953989461221280      -0.80355643155932865        1444640523.9757791     
  0.84964855663936489       0.16610559082043713        1568170843.4420879     
  -228647633.42420560        16665089.423278496        1042860369.6982719     
  -241085483.31323540        17300651.781970292        1179137601.1293106     
  -254429136.00949478        14916871.449898899        1310297381.3948476     
  -268678591.51297802        9513748.4270817339        1436339710.4948828     
  -283833849.82368726        1091282.7135084718        1557264588.4294174     
  -458023139.40272915        33111823.874042153        1041459904.0164708     
  -484386432.32780844        33936668.228436410        1175636896.3285160     
  -512561330.70412618        28722827.745371133        1304175780.0870185     
  -542547834.53167880        17470302.424855024        1427076555.2919748     
  -574345943.81046987        179092.26687732339        1544339221.9433887     
  -688126518.54563618        49340196.375488251        1042267405.8666954     
  -729902847.04403067        49908044.964406103        1173287389.3084054     
  -774396583.63767326        41417866.569166958        1298148606.8085251     
  -821607728.32656312        23869661.189768314        1416851058.3670590     
  -871536281.11070132       -2736571.1737917662        1529394743.9840026     
  -918957770.85292256        65350206.927627206        1045282875.2489455     
  -977634727.46189857        65214781.989888668        1172089080.0689714     
  -1039934894.8101332        53001987.921290636        1292215861.5593662     
  -1105858272.8976259        28711824.721831739        1405663219.7201283     
  -1175404861.7243764       -7655707.6084873676        1512431154.5512607     
  0.84964855663936489       0.16610559082043713        1568170843.4420879     
  0.61359552969733033       0.77755892384131053        1570445261.8055825     
  0.37502743584598047        1.3806280066084089        1577469415.8328152     
  0.13395568994704521        1.9753522764396128        1589243305.5237846     
 -0.10963565220513827        2.5616771982039324        1605766930.8784926     
  -283833849.82368726        1091282.7135084718        1557264588.4294174     
  -271729866.23950702       -604261.69258300960        1557273269.4252369     
  -259676685.07511920       -2469147.4979832172        1562234251.1615462     
  -247674306.33053043       -4503374.7027114481        1572147533.6383481     
  -235722730.00573772       -6706943.3067632318        1587013116.8556387     
  -574345943.81046987        179092.26687732339        1544339221.9433887     
  -549559219.04389894       -3038369.9481025636        1542022896.0847027     
  -524874099.11440921       -6594514.9533545077        1544861436.0432582     
  -500290584.02199829       -10489342.748866469        1552854841.8190608     
  -475808673.76666886       -14722853.334654033        1566003113.4121099     
  -871536281.11070132       -2736571.1737917662        1529394743.9840026     
  -833488057.79958415       -7302323.9890130460        1524694141.7839777     
  -795592241.74283540       -12376100.985461473        1525350970.4779501     
  -757848832.94044852       -17957902.163114458        1531365230.0659218     
  -720257831.39242566       -24047727.521985054        1542736920.5478950     
  -1175404861.7243764       -7655707.6084873676        1512431154.5512607     
  -1123516382.5065622       -13396123.815313101        1505287006.5230637     
  -1071831112.9603993       -19813905.594311416        1503702854.4656212     
  -1020349053.0858812       -26909052.945459247        1507678698.3789313     
  -969070202.88301528       -34681565.868779242        1517214538.2629931     
 -0.10963565220513827        2.5616771982039324        1605766930.8784926     
  0.14306271369023038        3.1299860825883608        1573624552.3204892     
  0.28823253307917540        3.3398664786180428        1547959856.7659566     
  0.32586577667017902        3.1912916219879204        1528772844.2148926     
  0.25596951298483350        2.6842850744366347        1516063514.6673036     
  -235722730.00573772       -6706943.3067632318        1587013116.8556387     
  -218862805.39042076       -7262366.1716732085        1553511793.0638499     
  -201836270.93642503       -7262422.9076532274        1526630133.4936509     
  -184643126.64374301       -6707113.5146803930        1506368138.1450484     
  -167283372.51237816       -5596437.9927626252        1492725807.0180373     
  -475808673.76666886       -14722853.334654033        1566003113.4121099     
  -441683164.16552645       -15712001.445837498        1531337222.6571131     
  -407224434.77948356       -15590416.940686166        1503432977.3418324     
  -372432485.60854429       -14358099.819213390        1482290377.4662738     
  -337307316.65270293       -12015050.081400111        1467909423.0304303     
  -720257831.39242566       -24047727.521985054        1542736920.5478950     
  -668461076.18224454       -25348902.692476362        1507100841.1002736     
  -616164491.24094748       -24983978.759247541        1478368388.3105018     
  -563368076.56853557       -22952955.722301751        1456539562.1785727     
  -510071832.16500723       -19255833.581636518        1441614362.7044840     
  -969070202.88301528       -34681565.868779242        1517214538.2629931     
  -899196541.44057965       -36173069.911603659        1480802648.3933418     
  -828656440.32081556       -35443108.363333553        1451436366.3996584     
  -757449899.52371633       -32491681.223944455        1429115692.2819397     
  -685576919.04928768       -27318788.493459016        1413840626.0401926     
  0.25596951298483350        2.6842850744366347        1516063514.6673036     
  0.36452690682825345        2.1003954070514195        1533050727.2978594     
  0.49462389312565208        1.5883036872900755        1554815415.2290964     
  0.64626838679117471        1.1480376859785357        1581357578.4610100     
  0.81945878654161264       0.77959067772732327        1612677216.9936035     
  -167283372.51237816       -5596437.9927626252        1492725807.0180373     
  -154978581.46571550       -5785325.7101517394        1508716994.8324430     
  -142697372.33283779       -6052819.8068205267        1529439520.4832058     
  -130439745.11373635       -6398920.2827459797        1554893383.9703319     
  -118205699.80841617       -6823627.1379408352        1585078585.2938244     
  -337307316.65270293       -12015050.081400111        1467909423.0304303     
  -312829555.99455261       -12432371.330272317        1482877073.7707987     
  -288398959.18551278       -13006905.409509569        1502529924.8832157     
  -264015526.22557384       -13738652.319083005        1526867976.3676786     
  -239679257.11474103       -14627612.059010647        1555891228.2241898     
  -510071832.16500723       -19255833.581636518        1441614362.7044840     
  -473552923.22199190       -19941134.759992644        1455530964.1129415     
  -437104760.06340301       -20862255.219766065        1474086628.4291308     
  -400727342.68924248       -22019194.960970938        1497281355.6530464     
  -364420671.09951180       -23411953.983605906        1525115145.7846980     
  -685576919.04928768       -27318788.493459016        1413840626.0401926     
  -637148683.14801466       -28311615.999248117        1426678665.8588617     
  -588814774.96650314       -29618869.237575591        1444109631.1209412     
  -540575194.50474083       -31240548.208400279        1466133521.8264384     
  -492429941.76273572       -33176652.911750421        1492750337.9753451     
  0.81945878654161264       0.77959067772732327        1612677216.9936035     
  0.68538572253537766       0.39585354225315850        1605312999.7793796     
  0.58046735916085945       0.10929874221805019        1603067655.4647686     
  0.50469317369983036       -8.0110185884208651E-002   1605941184.0497732     
  0.45807936198817151      -0.17231509259767172        1613933585.5343959     
  -118205699.80841617       -6823627.1379408352        1585078585.2938244     
  -104285160.93396375       -5929443.6814364158        1577029049.9748998     
  -89805034.272593066       -3169967.6018722542        1574362398.5690179     
  -74765319.824279860        1454801.1008347161        1577078631.0761812     
  -59166017.589041278        7944862.4266252294        1585177747.4963698     
  -239679257.11474103       -14627612.059010647        1555891228.2241898     
  -211083862.05055803       -12612949.607928142        1547809227.1846390     
  -181369291.44166842       -6867702.0078210831        1545374121.0715637     
  -150535545.28807074        2608130.7413142771        1548585909.8849459     
  -118582623.58976370        15814548.639478363        1557444593.6247962     
  -364420671.09951180       -23411953.983605906        1525115145.7846980     
  -320396102.66438776       -20050517.383582994        1517653531.4086041     
  -274692770.92677385       -11093203.108592257        1516102822.9724004     
  -227310675.88667068        3459988.8413611203        1520463020.4760876     
  -178249817.54408473        23609058.466258571        1530734123.9196570     
  -492429941.76273572       -33176652.911750421        1492750337.9753451     
  -432221882.77544993       -28242147.008397594        1486561962.6467803     
  -369775472.72790182       -15846470.904166862        1486548504.2715275     
  -305090711.62008977        4010375.4009397328        1492709962.8495882     
  -238167599.45200747        31328391.906951606        1505046338.3809614     
  0.45807936198817151      -0.17231509259767172        1613933585.5343959     
  0.37342400234279211      -0.23657394724526451        1583753533.4733951     
  0.28558515442588139      -0.31144512335401864        1556922738.4355879     
  0.19455558958752636      -0.39695202253425393        1533441200.4209800     
  0.10032862818919963      -0.49311621635833769        1513308919.4295747     
  -59166017.589041278        7944862.4266252294        1585177747.4963698     
  -48400819.009332895        15573968.052953739        1555490361.1691971     
  -36487993.668954447        27028496.214849800        1528974077.0166585     
  -23427541.567904189        42308446.912316859        1505628895.0387528     
  -9219462.7061866522        61413820.145341463        1485454815.2354918     
  -118582623.58976370        15814548.639478363        1557444593.6247962     
  -97561240.198722079        30920055.800478414        1529588770.9226120     
  -74244603.283148661        53676408.043254174        1504725895.5465055     
  -48632712.843045473        84083605.367794394        1482855967.4964819     
  -20725568.878411770        122141647.77410287        1463978986.7725258     
  -178249817.54408473        23609058.466258571        1530734123.9196570     
  -147481263.19474071        46038263.006017581        1506048762.7336409     
  -113269828.55700544        79943735.173743531        1484178194.0251386     
  -75615513.630873561        125325474.96945933        1465122417.7941558     
  -34518318.416347884        182183482.39315593        1448881434.0406945     
  -238167599.45200747        31328391.906951606        1505046338.3809614     
  -198160887.99738431        60928589.669572607        1484870336.6022816     
  -153563669.49051100        105830477.60636491        1467330972.4525566     
  -104375943.93138489        166034055.71732929        1452428245.9317925     
  -50597711.320008457        241539324.00246504        1440162157.0399857     
  0.10032862818919963      -0.49311621635833769        1513308919.4295747     
   7.9817196807984769E-002 -0.58670637030008088        1403673865.8902946     
   4.9602263688383330E-002 -0.71264569337278849        1291296032.2836521     
   9.7016030740106896E-003 -0.87086765225914331        1176175418.6096261     
  -3.9907820637862523E-002  -1.0614528486932238        1058312024.8682337     
  -9219462.7061866522        61413820.145341463        1485454815.2354918     
  -9667743.8284118250        80815412.996309087        1376486755.5700593     
  -8169281.8564863503        106706149.49444447        1265439353.6757975     
  -4724076.7904239967        139086029.63970229        1152312609.5526829     
   667871.36976975948        177955053.43206131        1037106523.2007362     
  -20725568.878411770        122141647.77410287        1463978986.7725258     
  -19726594.420834750        161513494.57409632        1357949121.2687755     
  -14834133.765273184        213863628.70070601        1250503351.3747001     
  -6048186.9117372483        279192050.15389276        1141641677.0903070     
   6631246.1397747546        357498758.93367362        1031364098.4156103     
  -34518318.416347884        182183482.39315593        1448881434.0406945     
  -30176551.697457179        242094244.14663541        1348060962.9864104     
  -19994555.676755995        321472436.90614837        1246488025.3803504     
  -3972330.3542316556        420318060.67174053        1144162621.2224944     
   17890124.270109117        538631115.44338489        1041084750.5128598     
  -50597711.320008457        241539324.00246504        1440162157.0399857     
  -41017615.658298478        322557661.71386218        1346822280.7229931     
  -23650547.590925276        429532574.11080140        1253393375.6927478     
   1503492.8820959926        562464061.19323897        1159875441.9492383     
   34444505.760775208        721352122.96119547        1066268479.4924784     
  -2591982795.5390558       -256819536.15548575        2705886716.2114792     
  -2190514334.8269086       -232236418.58266181        2214140452.6022210     
  -1777854010.4751709       -170347088.87786657        1773457724.5720465     
  -1354001822.4838405       -71151547.041101038        1383838532.1209555     
  -918957770.85292256        65350206.927627206        1045282875.2489455     
  -3360684608.1040297       -353460981.71154559        2546493497.0704885     
  -2828744573.9372544       -312011830.25282347        2087384408.6372876     
  -2283220737.3218660       -225283337.29871970        1673682371.7702761     
  -1724113098.2578626       -93275502.849235177        1305387386.4694564     
  -1151421656.7452512        84011673.095610380        982499452.73483419     
  -4069349434.1041064       -432091331.29814112        2377137504.0791788     
  -3423099209.3766732       -378624560.82170546        1953456186.0992243     
  -2760873243.3916039       -271905319.48648322        1569525435.6725678     
  -2082671536.1489022       -111933607.29248130        1225345252.7992172     
  -1388494087.6485651        101290575.76030451        920915637.47916615     
  -4717977273.5392866       -492710584.91526639        2197818737.2375460     
  -3973578241.1451678       -432074610.28931081        1812355784.9880288     
  -3210811528.6843934       -310213035.44116509        1460986916.2789259     
  -2429677136.1569600       -127125860.37082791        1143712131.1102321     
  -1630175063.5628743        117186914.92169690        860531429.48195374     
  -5306568126.4095640       -535318742.56291890        2008537196.5455892     
  -4480181669.2427368       -472361978.65564048        1664083205.3037057     
  -3633035593.2002263       -340206485.16275823        1348066813.5893428     
  -2765129898.2820358       -138852262.08428192        1060488021.4025027     
  -1876464584.4881668        131700690.57979751        801346828.74318588     
  -918957770.85292256        65350206.927627206        1045282875.2489455     
  -977634727.46189857        65214781.989888668        1172089080.0689714     
  -1039934894.8101332        53001987.921290636        1292215861.5593662     
  -1105858272.8976259        28711824.721831739        1405663219.7201283     
  -1175404861.7243764       -7655707.6084873676        1512431154.5512607     
  -1151421656.7452512        84011673.095610380        982499452.73483419     
  -1227296977.9500458        81029682.391040266        1103548691.6556790     
  -1307326961.7139173        64198816.489552498        1218704742.4709470     
  -1391511608.0368562        33519075.391168654        1327967605.1806386     
  -1479850916.9188771       -11009540.904151678        1431337279.7847545     
  -1388494087.6485651        101290575.76030451        920915637.47916615     
  -1479321387.0947416        96135935.195230663        1035587883.3777142     
  -1574834800.9198060        75360913.367196262        1145153176.3947394     
  -1675034329.1237631        38965510.276186109        1249611516.5302436     
  -1779919971.7066078       -13050274.077781558        1348962903.7842224     
  -1630175063.5628743        117186914.92169690        860531429.48195374     
  -1733707954.8959830        110533540.40246391        968206655.23508358     
  -1842458412.4278042        86488278.554197192        1071561163.3307446     
  -1956426436.1583271        45051129.376921296        1170594953.7689393     
  -2075612026.0875587       -13777907.129379153        1265308026.5496655     
  -1876464584.4881668        131700690.57979751        801346828.74318588     
  -1990456681.3537812        124222498.01271355        901405007.22777963     
  -2110197796.2379093        97580912.050575256        997928703.27896059     
  -2235687929.1405663        51775932.693342924        1090917916.8967297     
  -2366927080.0617409       -13192440.058946133        1180372648.0810821     
  -1175404861.7243764       -7655707.6084873676        1512431154.5512607     
  -1123516382.5065622       -13396123.815313101        1505287006.5230637     
  -1071831112.9603993       -19813905.594311416        1503702854.4656212     
  -1020349053.0858812       -26909052.945459247        1507678698.3789313     
  -969070202.88301528       -34681565.868779242        1517214538.2629931     
  -1479850916.9188771       -11009540.904151678        1431337279.7847545     
  -1413724279.2699192       -16137009.819056988        1425206883.8296952     
  -1348017904.2787254       -22665354.259853721        1424327472.0912409     
  -1282731791.9453063       -30594574.226563156        1428699044.5693927     
  -1217865942.2696540       -39924669.719157875        1438321601.2641566     
  -1779919971.7066078       -13050274.077781558        1348962903.7842224     
  -1700438066.3526294       -17829662.918594480        1343593031.4184875     
  -1621593476.6425431       -24733437.239045978        1343165131.5152178     
  -1543386202.5763516       -33761597.039149463        1347679204.0744054     
  -1465816244.1540504       -44914142.318883777        1357135249.0960562     
  -2075612026.0875587       -13777907.129379153        1265308026.5496655     
  -1983657743.7546971       -18474083.113938928        1260445449.2894483     
  -1892557830.0518491       -26018154.531890273        1260215832.7375498     
  -1802312284.9790168       -36410121.383220196        1264619176.8939641     
  -1712921108.5361979       -49649983.667931676        1273655481.7586992     
  -2366927080.0617409       -13192440.058946133        1180372648.0810821     
  -2263383311.4761262       -18070270.405104995        1175764137.4425755     
  -2160910964.5066457       -26519506.138379693        1175479575.7582400     
  -2059510039.1533043       -38540147.258787155        1179518963.0280721     
  -1959180535.4160955       -54132193.766298056        1187882299.2520742     
  -969070202.88301528       -34681565.868779242        1517214538.2629931     
  -899196541.44057965       -36173069.911603659        1480802648.3933418     
  -828656440.32081556       -35443108.363333553        1451436366.3996584     
  -757449899.52371633       -32491681.223944455        1429115692.2819397     
  -685576919.04928768       -27318788.493459016        1413840626.0401926     
  -1217865942.2696540       -39924669.719157875        1438321601.2641566     
  -1130271274.2076349       -41595259.432261407        1402953759.6414430     
  -1041701930.1272247       -40016929.084062338        1374213181.1586607     
  -952157910.02842569       -35189678.674565494        1352099865.8158071     
  -861639213.91123664       -27113508.203773379        1336613813.6128867     
  -1465816244.1540504       -44914142.318883777        1357135249.0960562     
  -1361695840.1468329       -47122398.904563725        1323171064.7848485     
  -1256292523.7801695       -45054280.958755314        1295415798.8775332     
  -1149606295.0540605       -38709788.481460750        1273869451.3741081     
  -1041637153.9685084       -28088921.472691298        1258532022.2745800     
  -1712921108.5361979       -49649983.667931676        1273655481.7586992     
  -1593470239.2581778       -52754488.328512549        1241454563.8235605     
  -1472428221.2796519       -50555163.987407684        1215044219.5562787     
  -1349795054.6006308       -43052010.644651651        1194424448.9568486     
  -1225570739.2211008       -30245028.300202012        1179595252.0252807     
  -1959180535.4160955       -54132193.766298056        1187882299.2520742     
  -1825594471.5416634       -58491527.704096913        1157804256.7575762     
  -1690109022.6256680       -56519578.170018792        1133098443.1948948     
  -1552724188.6681190       -48216345.164095819        1113764858.5640321     
  -1413439969.6690116       -33581828.686308265        1099803502.8649821     
  -685576919.04928768       -27318788.493459016        1413840626.0401926     
  -637148683.14801466       -28311615.999248117        1426678665.8588617     
  -588814774.96650314       -29618869.237575591        1444109631.1209412     
  -540575194.50474083       -31240548.208400279        1466133521.8264384     
  -492429941.76273572       -33176652.911750421        1492750337.9753451     
  -861639213.91123664       -27113508.203773379        1336613813.6128867     
  -801373554.74608970       -27258954.814998806        1347641521.6555152     
  -741519300.82773054       -28775752.248852551        1362986465.0204992     
  -682076452.15615582       -31663900.505317241        1382648643.7078438     
  -623045008.73136652       -35923399.584400773        1406628057.7175477     
  -1041637153.9685084       -28088921.472691298        1258532022.2745800     
  -970321757.59964359       -27623293.007389784        1267379474.7596335     
  -899734844.00459492       -29585940.454814017        1280268472.4459879     
  -829876413.18336737       -33976863.814973205        1297199015.3336453     
  -760746465.13595641       -40796063.087858886        1318171103.4226089     
  -1225570739.2211008       -30245028.300202012        1179595252.0252807     
  -1143993291.7086761       -29404630.576422811        1185892525.1712220     
  -1063461404.4970968       -32049433.855470002        1195955653.3974028     
  -983975077.58637023       -38179438.137356520        1209784636.7038405     
  -905534310.97649670       -47794643.422085494        1227379475.0905175     
  -1413439969.6690116       -33581828.686308265        1099803502.8649821     
  -1322388157.0731869       -32602967.522102594        1103180672.8902726     
  -1232698982.3052378       -36166232.450821102        1110048007.8747494     
  -1144372445.3651786       -44271623.472505629        1120405507.8184223     
  -1057408546.2530003       -56919140.587120950        1134253172.7212839     
  -492429941.76273572       -33176652.911750421        1492750337.9753451     
  -432221882.77544993       -28242147.008397594        1486561962.6467803     
  -369775472.72790182       -15846470.904166862        1486548504.2715275     
  -305090711.62008977        4010375.4009397328        1492709962.8495882     
  -238167599.45200747        31328391.906951606        1505046338.3809614     
  -623045008.73136652       -35923399.584400773        1406628057.7175477     
  -547219343.00049269       -32210746.106672078        1400606392.7492249     
  -469047841.78217369       -20678641.004125923        1400705320.4208777     
  -388530505.07641232       -1327084.2767732590        1406924840.7325091     
  -305667332.88321966        25843924.075359300        1419264953.6841104     
  -760746465.13595641       -40796063.087858886        1318171103.4226089     
  -669458404.98531342       -38351825.732891589        1312441547.3129032     
  -575717024.92005074       -27729855.329194903        1312778259.5298302     
  -479522324.94017124       -8930151.8767709136        1319181240.0733986     
  -380874305.04567158        18047284.624381781        1331650488.9436045     
  -905534310.97649670       -47794643.422085494        1227379475.0905175     
  -798939068.72991014       -46665385.887041390        1222067426.3378003     
  -689783022.14152813       -37000113.879343092        1222767321.5983787     
  -578066171.21134436       -18798827.398979276        1229479160.8722644     
  -463788515.93936586        7938473.5540448725        1242202944.1594486     
  -1057408546.2530003       -56919140.587120950        1134253172.7212839     
  -935661334.23428094       -57151426.569116801        1129484029.8239264     
  -811245833.44659483       -48489416.654548109        1130672506.6265340     
  -684162043.88992810       -30933110.843385845        1137818603.1291025     
  -554409965.56430006       -4482509.1356773674        1150922319.3316307     
  -238167599.45200747        31328391.906951606        1505046338.3809614     
  -198160887.99738431        60928589.669572607        1484870336.6022816     
  -153563669.49051100        105830477.60636491        1467330972.4525566     
  -104375943.93138489        166034055.71732929        1452428245.9317925     
  -50597711.320008457        241539324.00246504        1440162157.0399857     
  -305667332.88321966        25843924.075359300        1419264953.6841104     
  -257052039.83776432        56038881.317121014        1403421274.9209168     
  -202014464.05956849        107641447.66802499        1391425692.1803777     
  -140554605.54864153        180651623.12802598        1383278205.4624851     
  -72672464.304961100        275069407.69721144        1378978814.7672424     
  -380874305.04567158        18047284.624381781        1331650488.9436045     
  -320189120.71312332        49875394.254184037        1322276204.8231397     
  -251249877.96735278        109217031.92806037        1317961475.1190081     
  -174056576.80835557        196072197.64602539        1318706299.8312137     
  -88609217.236131996        310440891.40807903        1324510678.9597659     
  -463788515.93936586        7938473.5540448725        1242202944.1594486     
  -387572130.62347138        42438128.480736196        1241435126.3089356     
  -301269911.21385700        110557230.38649976        1246938321.2684560     
  -204881857.71054035        212295779.27127025        1258712529.0380027     
  -98407970.113506854        347653775.13509214        1276757749.6175747     
  -554409965.56430006       -4482509.1356773674        1150922319.3316307     
  -459201069.56879401        33727083.996815979        1160898039.3783150     
  -352074563.79909736        111662043.04328333        1178356230.6287124     
  -233030448.25519031        229322368.00377852        1203296893.0828295     
  -102068722.93709770        386708058.87823373        1235720026.7406635     
  -50597711.320008457        241539324.00246504        1440162157.0399857     
  -41017615.658298478        322557661.71386218        1346822280.7229931     
  -23650547.590925276        429532574.11080140        1253393375.6927478     
   1503492.8820959926        562464061.19323897        1159875441.9492383     
   34444505.760775208        721352122.96119547        1066268479.4924784     
  -72672464.304961100        275069407.69721144        1378978814.7672424     
  -58139992.716968939        376855300.35360914        1297170458.6300211     
  -34619028.707466304        508602834.41503900        1214468138.4697409     
  -2109572.2764439881        670312009.88153207        1130871854.2863915     
   39388376.576094896        861982826.75308239        1046381606.0799781     
  -88609217.236131996        310440891.40807903        1324510678.9597659     
  -71424184.892729580        432304394.45821244        1255635616.3541512     
  -44049140.111959726        588134605.63290930        1185061654.4156659     
  -6484082.8938133121        777931524.93219256        1112788793.1443107     
   41270986.761703253        1001695152.3560426        1038817032.5400933     
  -98407970.113506854        347653775.13509214        1276757749.6175747     
  -80870192.185575783        488904944.02768511        1222217753.8954053     
  -51940881.804408014        668127887.76439714        1165173923.5305510     
  -11620038.970013738        885322606.34519565        1105626258.5230353     
   40092336.317611516        1140489099.7700994        1043574758.8728333     
  -102068722.93709770        386708058.87823373        1235720026.7406635     
  -86478014.595501691        546656949.06204700        1196916871.2537615     
  -58294253.784819484        748582680.80948114        1154804945.8143835     
  -17517440.505046725        992485254.12055194        1109384250.4225252     
   35852425.243813455        1278364668.9952445        1060654785.0781847     
  -5306568126.4095640       -535318742.56291890        2008537196.5455892     
  -4480181669.2427368       -472361978.65564048        1664083205.3037057     
  -3633035593.2002263       -340206485.16275823        1348066813.5893428     
  -2765129898.2820358       -138852262.08428192        1060488021.4025027     
  -1876464584.4881668        131700690.57979751        801346828.74318588     
  -5901611564.1781683       -618266716.68280888        1841469932.7363749     
  -4987656863.5679722       -532479737.66568232        1507812381.1209433     
  -4051852379.2550273       -373860146.30604303        1207808906.0629232     
  -3094198111.2393250       -142407942.60388863        941459507.56230986     
  -2114694059.5208700        161876873.44077432        708764185.61910510     
  -6544275812.5922203       -715500933.99632788        1672443563.3204072     
  -5527848648.4532795       -602412473.84373927        1350854310.2963488     
  -4488481535.7845039       -412857518.59172654        1068135610.8595873     
  -3426174474.5859017       -146836068.24028778        824287465.01012158     
  -2340927464.8574743        195651877.21057940        619309872.74795032     
  -7234560871.6517324       -827021394.50348878        1501458088.2976859     
  -6100757023.8986464       -682160187.18982220        1193208992.8299205     
  -4942923062.7886524       -457198602.01981163        929046927.97933865     
  -3761058988.3217602       -152136638.99346316        708971893.74593842     
  -2555164800.4979682        233025701.88921332        532983890.12971890     
  -7972466741.3566990       -952828098.20428348        1328513507.6682084     
  -6706381989.9040794       -771722877.70392227        1034876428.7216581     
  -5415176960.2674780       -506883396.59030294        790542857.42217672     
  -4098851652.4469056       -158309654.86343312        595512793.76976240     
  -2757406066.4423556        273998347.47668898        449786237.76441360     
  -1876464584.4881668        131700690.57979751        801346828.74318588     
  -1990456681.3537812        124222498.01271355        901405007.22777963     
  -2110197796.2379093        97580912.050575256        997928703.27896059     
  -2235687929.1405663        51775932.693342924        1090917916.8967297     
  -2366927080.0617409       -13192440.058946133        1180372648.0810821     
  -2114694059.5208700        161876873.44077432        708764185.61910510     
  -2238568676.7405272        156898318.97249031        804732253.92083001     
  -2369952266.5628352        126889855.82869935        896056026.36082458     
  -2508844828.9877958        71851484.009395838        982735502.93909609     
  -2655246364.0154080       -8216796.4854134321        1064770683.6556385     
  -2340927464.8574743        195651877.21057940        619309872.74795032     
  -2477855497.9406381        192221692.18824303        709134550.51864862     
  -2624052458.2105808        157895083.20997751        793205118.99930954     
  -2779518345.6673155        92672050.275751948        871521578.18992984     
  -2944253160.3108277       -3447406.6144129038        944083928.09051406     
  -2555164800.4979682        233025701.88921332        532983890.12971890     
  -2708317144.9541063        230192617.65999746        614611897.02124238     
  -2872498371.1811595        190596594.19439757        689375981.19441223     
  -3047708479.1791215        114237631.49243033        757276142.64922953     
  -3233947468.9480057        1115729.5540649891        818312381.38569856     
  -2757406066.4423556        273998347.47668898        449786237.76441360     
  -2929953617.7809353        270811095.38773859        521164293.42860705     
  -3115290005.4745522        224994388.78199089        584568612.94613636     
  -3313415229.5232186        136548227.65941167        639999196.31699932     
  -3524329289.9269319        5472612.0200152397        687456043.54119885     
  -2366927080.0617409       -13192440.058946133        1180372648.0810821     
  -2263383311.4761262       -18070270.405104995        1175764137.4425755     
  -2160910964.5066457       -26519506.138379693        1175479575.7582400     
  -2059510039.1533043       -38540147.258787155        1179518963.0280721     
  -1959180535.4160955       -54132193.766298056        1187882299.2520742     
  -2655246364.0154080       -8216796.4854134321        1064770683.6556385     
  -2543480278.2420945       -21767548.559010386        1059311077.3906887     
  -2431413631.6149592       -34316431.119876266        1057853825.0222877     
  -2319046424.1340051       -45863444.168002367        1060398926.5504291     
  -2206378655.7992306       -56408587.703403592        1066946381.9751167     
  -2944253160.3108277       -3447406.6144129038        944083928.09051406     
  -2825183600.3715963       -25946733.321982622        939373872.41406894     
  -2704441497.1085920       -42870915.616969228        938344575.57654655     
  -2582026850.5218039       -54219953.499356985        940996037.57794690     
  -2457939660.6112499       -59993846.969171047        947328258.41827035     
  -3233947468.9480057        1115729.5540649891        818312381.38569856     
  -3108493277.8646364       -30607824.694009662        815952522.51270795     
  -2979994560.9875383       -52182959.629652619        816951827.42101800     
  -2848451318.3167052       -63609675.252844095        821310296.11062562     
  -2713863549.8521399       -64887971.563598275        829027928.58153605     
  -3524329289.9269319        5472612.0200152397        687456043.54119885     
  -3393409310.7212124       -35750822.675105572        689047027.68661225     
  -3258072823.2518072       -62252563.157941937        693675580.55570436     
  -3118319827.5187025       -74032609.428450465        701341702.14846766     
  -2974150323.5219183       -71090961.486695170        712045392.46491015     
  -1959180535.4160955       -54132193.766298056        1187882299.2520742     
  -1825594471.5416634       -58491527.704096913        1157804256.7575762     
  -1690109022.6256680       -56519578.170018792        1133098443.1948948     
  -1552724188.6681190       -48216345.164095819        1113764858.5640321     
  -1413439969.6690116       -33581828.686308265        1099803502.8649821     
  -2206378655.7992306       -56408587.703403592        1066946381.9751167     
  -2056469315.5631948       -53603483.059704781        1037190872.0553371     
  -1905424639.5158854       -47013925.711765289        1012966167.6553934     
  -1753244627.6573091       -36639915.659589648        994272268.77529180     
  -1599929279.9874623       -22481452.903191268        981109175.41502619     
  -2457939660.6112499       -59993846.969171047        947328258.41827035     
  -2291253968.0478315       -49888380.954240680        917003890.30453825     
  -2124196988.9034374       -38545293.002703309        892368904.29866576     
  -1956768723.1780610       -25964583.114558816        873423300.40065229     
  -1788969170.8717031       -12146251.289817929        860167078.61050141     
  -2713863549.8521399       -64887971.563598275        829027928.58153605     
  -2529948428.9955802       -47346221.387711883        797243311.50518036     
  -2346426070.7883210       -31113680.042845130        771306653.12470746     
  -2163296475.2303705       -16190347.528988481        751217953.44011378     
  -1980559642.3217261       -2576223.8461759090        736977212.45139945     
  -2974150323.5219183       -71090961.486695170        712045392.46491015     
  -2772552698.4064307       -45977004.360113740        677909135.65726197     
  -2572111885.1705432       -24719086.832186341        649779414.13351905     
  -2372827883.8142419       -7317208.9028860331        627656227.89367402     
  -2174700694.3375444        6228629.4277275801        611539576.93773115     
  -1413439969.6690116       -33581828.686308265        1099803502.8649821     
  -1322388157.0731869       -32602967.522102594        1103180672.8902726     
  -1232698982.3052378       -36166232.450821102        1110048007.8747494     
  -1144372445.3651786       -44271623.472505629        1120405507.8184223     
  -1057408546.2530003       -56919140.587120950        1134253172.7212839     
  -1599929279.9874623       -22481452.903191268        981109175.41502619     
  -1501194616.9455810       -24323491.535044074        982070489.21858895     
  -1403348891.4731410       -29128655.398359954        986102499.89747083     
  -1306392103.5701356       -36896944.493119001        993205207.45167792     
  -1210324253.2365589       -47628358.819314301        1003378611.8812099     
  -1788969170.8717031       -12146251.289817929        860167078.61050141     
  -1683750137.6234033       -17168733.789655685        859265186.49385858     
  -1578946341.6860843       -23575340.659430683        861014523.16867077     
  -1474557783.0597472       -31366071.899135292        865415088.63494027     
  -1370584461.7443900       -40540927.508779287        872466882.89266849     
  -1980559642.3217261       -2576223.8461759090        736977212.45139945     
  -1870054719.1066306       -11138694.285877943        734764764.71608531     
  -1759491332.9440615       -19506288.234001756        734784077.68835723     
  -1648869483.8340187       -27679005.690549672        737035151.36821651     
  -1538189171.7765095       -35656846.655549288        741517985.75567198     
  -2174700694.3375444        6228629.4277275801        611539576.93773115     
  -2060108361.3952651       -6233373.0237025023        608569223.88527000     
  -1944983865.2470717       -16921498.122087598        607411163.45652568     
  -1829327205.8929441       -25835745.867358088        608065395.65150142     
  -1713138383.3329024       -32976116.259581149        610531920.47020304     
  -1057408546.2530003       -56919140.587120950        1134253172.7212839     
  -935661334.23428094       -57151426.569116801        1129484029.8239264     
  -811245833.44659483       -48489416.654548109        1130672506.6265340     
  -684162043.88992810       -30933110.843385845        1137818603.1291025     
  -554409965.56430006       -4482509.1356773674        1150922319.3316307     
  -1210324253.2365589       -47628358.819314301        1003378611.8812099     
  -1074595372.3004279       -45201157.165224433        997711756.84244192     
  -937146582.27872097       -37040925.225867867        996228684.12415719     
  -797977883.17143238       -23147663.001245856        998929393.72635925     
  -657089274.97855961       -3521370.4913322031        1005813885.6490496     
  -1370584461.7443900       -40540927.508779287        872466882.89266849     
  -1225942018.6893625       -36974670.258181632        864795872.74853420     
  -1080528046.2321463       -30836648.333604038        859534807.54541004     
  -934342544.37272775       -22126861.735023260        856683687.28329790     
  -787385513.11111879       -10845310.462483585        856242511.96218634     
  -1538189171.7765095       -35656846.655549288        741517985.75567198     
  -1389701273.4010885       -32471965.847976387        730736377.54221666     
  -1241390225.3068612       -29876585.977717161        720590876.89029205     
  -1093256027.4938211       -27870707.044753313        711081483.79990160     
  -945298679.96198475       -26454329.049123645        702208198.27104187     
  -1713138383.3329024       -32976116.259581149        610531920.47020304     
  -1565873136.4355903       -31693043.934593797        595533271.22347808     
  -1419733119.5028627       -34160738.158204556        579396892.15880489     
  -1274718332.5347137       -40379198.930415273        562122783.27619123     
  -1130828775.5311511       -50348426.251253903        543710944.57562697     
  -554409965.56430006       -4482509.1356773674        1150922319.3316307     
  -459201069.56879401        33727083.996815979        1160898039.3783150     
  -352074563.79909736        111662043.04328333        1178356230.6287124     
  -233030448.25519031        229322368.00377852        1203296893.0828295     
  -102068722.93709770        386708058.87823373        1235720026.7406635     
  -657089274.97855961       -3521370.4913322031        1005813885.6490496     
  -543630121.44524097        26857502.973694086        1019813287.7106376     
  -419375656.76478589        93220746.929170936        1042175967.3670094     
  -284325880.93717539        195568361.37516779        1072901924.6181641     
  -138480793.96243054        333900346.31162375        1111991159.4641001     
  -787385513.11111879       -10845310.462483585        856242511.96218634     
  -653159512.35123837        12457820.241687059        872956247.64045894     
  -509260499.07126540        68004326.012828708        898914067.30457425     
  -355688473.27119732        155794206.85095283        934115970.95453715     
  -192443434.95104444        275827462.75603271        978561958.59035385     
  -945298679.96198475       -26454329.049123645        702208198.27104187     
  -787789242.28677678       -9471964.1991656423        720326919.16777110     
  -621729090.71853900        36012780.294237882        748570530.44140279     
  -447118225.25725412        109999904.43113065        786939032.09195030     
  -263956645.90293750        212489408.21146297        835432424.11941433     
  -1130828775.5311511       -50348426.251253903        543710944.57562697     
  -947519311.25187397       -38931850.348902583        561925302.29257548     
  -756781431.70660710       -2753890.2265913188        591145356.77750349     
  -558615136.89535522        58185454.115678549        631371108.03041089     
  -353020426.81811184        143886182.67790884        682602556.05129015     
  -102068722.93709770        386708058.87823373        1235720026.7406635     
  -86478014.595501691        546656949.06204700        1196916871.2537615     
  -58294253.784819484        748582680.80948114        1154804945.8143835     
  -17517440.505046725        992485254.12055194        1109384250.4225252     
   35852425.243813455        1278364668.9952445        1060654785.0781847     
  -138480793.96243054        333900346.31162375        1111991159.4641001     
  -128580756.28959247        482961601.90100133        1090282912.7084415     
  -95511555.845089525        709253400.06259513        1070018527.9895477     
  -39273192.628954589        1012775740.7963127        1051198005.3074218     
   40134333.358851254        1393528624.1022439        1033821344.6620559     
  -192443434.95104444        275827462.75603271        978561958.59035385     
  -174655119.40624714        418074768.31322640        986287415.91892242     
  -123121530.78723940        672806317.45113277        1000209367.2735044     
  -37842669.094014049        1040022110.1697482        1020327812.6541015     
   81181465.673422873        1519722146.4690902        1046642752.0607182     
  -263956645.90293750        212489408.21146297        835432424.11941433     
  -224701103.94548258        351996448.29864395        884930380.88520324     
  -141124178.61124000        639241432.97512805        945377463.66626096     
  -13225869.900228381        1074224362.2408340        1016773672.4625823     
   158993822.18755805        1656945236.0958059        1099119007.2741561     
  -353020426.81811184        143886182.67790884        682602556.05129015     
  -278718709.90729058        284726641.85730290        786211807.60729635     
  -149519499.31711513        608558746.63454437        905522817.16781247     
   34577204.952389121        1115382497.0095515        1040535584.7328401     
   273571402.90124786        1805197892.9824009        1191250110.3023801     
  -7972466741.3566990       -952828098.20428348        1328513507.6682084     
  -6706381989.9040794       -771722877.70392227        1034876428.7216581     
  -5415176960.2674780       -506883396.59030294        790542857.42217672     
  -4098851652.4469056       -158309654.86343312        595512793.76976240     
  -2757406066.4423556        273998347.47668898        449786237.76441360     
  -8644014461.8716202       -901635544.97248697        1054706982.7081060     
  -7267135141.7071419       -742085991.52710176        813765512.90208793     
  -5863891647.2574930       -494655857.13118458        613721511.47081721     
  -4434283978.5226860       -159345141.78472853        454574978.41429210     
  -2978312135.5027204        263846154.51225996        336325913.73251241     
  -9238802092.3778896       -827414964.73810005        759100221.81646287     
  -7775145458.5653152       -696626254.86682677        572305573.26902950     
  -6283880754.3663960       -473810643.70773172        418002353.82401878     
  -4765007979.7811317       -158968131.26082039        296190563.48143232     
  -3218527134.8095303        247901282.47389364        206870202.24126637     
  -9756829632.8754749       -730166357.50110006        441693224.99328297     
  -8230412940.4786053       -635343667.72307420        310496609.82247937     
  -6675144281.5941830       -444347756.31994152        203385384.48177683     
  -5091023656.2222519       -157178623.29172277        120359548.97117437     
  -3478051064.3627872        226163731.36159849        61419103.290681034     
  -10198097083.364414       -609889723.26151276        102485992.23856227     
  -8632937587.4469986       -558238230.09585238        28338622.562440462     
  -7037682228.9408751       -406267194.96782398       -30129396.555900190     
  -5412331007.8460350       -153976617.87740993       -72918065.116473138     
  -3756883924.1624842        198633501.17537117       -100027383.11925595     
  -2757406066.4423556        273998347.47668898        449786237.76441360     
  -2929953617.7809353        270811095.38773859        521164293.42860705     
  -3115290005.4745522        224994388.78199089        584568612.94613636     
  -3313415229.5232186        136548227.65941167        639999196.31699932     
  -3524329289.9269319        5472612.0200152397        687456043.54119885     
  -2978312135.5027204        263846154.51225996        336325913.73251241     
  -3182541697.2838082        219418050.47055423        390361579.99837995     
  -3393064430.4259191        154012708.55880570        437517324.82884413     
  -3609880334.9290400        67630128.777007103        477793148.22390342     
  -3832989410.7931714       -39729688.874817848        511189050.18356192     
  -3218527134.8095303        247901282.47389364        206870202.24126637     
  -3451313522.1438246        163169881.94621611        251141754.93518096     
  -3683897415.8450966        79113460.195266724        289627200.90495157     
  -3916278815.9133468       -4267982.7789297104        322326540.15058029     
  -4148457722.3485765       -86974446.976403713        349239772.67206937     
  -3478051064.3627872        226163731.36159849        61419103.290681034     
  -3736269092.3609676        102066589.81473041        103504818.23900872     
  -3987788961.7320838        296643.69139838219        140898241.17445794     
  -4232610672.4761553       -79146107.008433819        173599372.09702951     
  -4470734224.5931673       -136261662.28475213        201608211.00671840     
  -3756883924.1624842        198633501.17537117       -100027383.11925595     
  -4037408407.9352207        36108174.076148033       -52549230.090135857     
  -4304739068.0868845       -82437740.952832222       -8669554.3626295570     
  -4558875904.6174450       -157004243.91146588        31611644.063246142     
  -4799818917.5269232       -187591334.79982662        68294365.187509656     
  -3524329289.9269319        5472612.0200152397        687456043.54119885     
  -3393409310.7212124       -35750822.675105572        689047027.68661225     
  -3258072823.2518072       -62252563.157941937        693675580.55570436     
  -3118319827.5187025       -74032609.428450465        701341702.14846766     
  -2974150323.5219183       -71090961.486695170        712045392.46491015     
  -3832989410.7931714       -39729688.874817848        511189050.18356192     
  -3681233149.4620275       -44294477.989791632        513673879.60529047     
  -3529555962.4545126       -49122848.183529139        520689362.18902230     
  -3377957849.7706442       -54214799.456083298        532235497.93475080     
  -3226438811.4104042       -59570331.807408452        548312286.84248352     
  -4148457722.3485765       -86974446.976403713        349239772.67206937     
  -3971599223.3539386       -53600803.849795580        347373601.01823235     
  -3799315381.2702570       -35476017.093044996        351531166.96472532     
  -3631606196.0975442       -32600086.706197023        361712470.51153797     
  -3468471667.8357897       -44973012.689206362        377917511.65867949     
  -4470734224.5931673       -136261662.28475213        201608211.00671840     
  -4264507532.3969541       -63669800.255123138        190146191.92544195     
  -4067351079.6990371       -21312069.886486769        186200994.88280889     
  -3879264866.4993958       -9188471.1787660122        189772619.87883925     
  -3700248892.7980533       -27299004.132040262        200861066.91350195     
  -4799818917.5269232       -187591334.79982662        68294365.187509656     
  -4559958076.5910769       -74501467.205802441        41991652.326907218     
  -4333663057.7408400       -6631006.5637984276        24698845.943280730     
  -4120933860.9762297        16020047.126116276        16415946.036623470     
  -3921770486.2972159       -6548306.1359705925        17142952.606947929     
  -2974150323.5219183       -71090961.486695170        712045392.46491015     
  -2772552698.4064307       -45977004.360113740        677909135.65726197     
  -2572111885.1705432       -24719086.832186341        649779414.13351905     
  -2372827883.8142419       -7317208.9028860331        627656227.89367402     
  -2174700694.3375444        6228629.4277275801        611539576.93773115     
  -3226438811.4104042       -59570331.807408452        548312286.84248352     
  -3013095175.4992394       -45748293.030879855        517193277.12331039     
  -2799256954.1462455       -30277636.114939928        491708952.35154003     
  -2584924147.3514333       -13158361.059601307        471859312.52718103     
  -2370096755.1148024        5609532.1351414919        457644357.65022159     
  -3468471667.8357897       -44973012.689206362        377917511.65867949     
  -3244444450.6617780       -42761621.122575045        351742379.23629898     
  -3018271250.7245321       -33396953.678488255        330830081.42483032     
  -2789952068.0240479       -16879010.356946588        315180618.22426718     
  -2559486902.5603247        6792208.8420628309        304793989.63462210     
  -3700248892.7980533       -27299004.132040262        200861066.91350195     
  -3466600523.8940506       -37016988.635188818        181556441.99623337     
  -3229154774.9053926       -34077039.522802353        167142801.35338330     
  -2987911645.8320832       -18479156.794919968        157620144.98494554     
  -2742871136.6741061        9776659.5485198498        152988472.89092386     
  -3921770486.2972159       -6548306.1359705925        17142952.606947929     
  -3679563395.1960592       -28514395.568729877        6635465.4031119095     
  -3431907526.6888213       -32317893.647863626        647112.13719652430     
  -3178802880.7755275       -17958800.373488426       -822107.19079166162     
  -2920249457.4561501        14562884.254498005        2227807.4191314992     
  -2174700694.3375444        6228629.4277275801        611539576.93773115     
  -2060108361.3952651       -6233373.0237025023        608569223.88527000     
  -1944983865.2470717       -16921498.122087598        607411163.45652568     
  -1829327205.8929441       -25835745.867358088        608065395.65150142     
  -1713138383.3329024       -32976116.259581149        610531920.47020304     
  -2370096755.1148024        5609532.1351414919        457644357.65022159     
  -2250557397.2831926       -3261344.9110586643        456838520.21344113     
  -2130887807.2578495       -11698114.644823670        457197072.66660309     
  -2011087985.0387807       -19700777.066169620        458720015.00970519     
  -1891157930.6259890       -27269332.175096989        461407347.24275547     
  -2559486902.5603247        6792208.8420628309        304793989.63462210     
  -2436851670.5073028        957112.00075733662        305683748.29928875     
  -2314488137.2727556       -5783647.5687791109        307089994.12012297     
  -2192396302.8566885       -13430069.866582632        309012727.09711736     
  -2070576167.2590837       -21982154.892611742        311451947.23028159     
  -2742871136.6741061        9776659.5485198498        152988472.89092386     
  -2618991181.0676227        6421997.7117034197        155104908.14281151     
  -2495784855.2918010        821903.10601401329        157089927.81708616     
  -2373252159.3466630       -7023624.2686254978        158943531.91375136     
  -2251393093.2321792       -17114584.412101865        160665720.43280524     
  -2920249457.4561501        14562884.254498005        2227807.4191314992     
  -2796975928.9641356        13133312.221785069        5101999.7440120252     
  -2674777961.3149872        8118537.3795417547        7196873.7575064301     
  -2553655554.5087147       -481440.27229392529        8512429.4595942181     
  -2433608708.5452905       -12666620.733636737        9048666.8503086958     
  -1713138383.3329024       -32976116.259581149        610531920.47020304     
  -1565873136.4355903       -31693043.934593797        595533271.22347808     
  -1419733119.5028627       -34160738.158204556        579396892.15880489     
  -1274718332.5347137       -40379198.930415273        562122783.27619123     
  -1130828775.5311511       -50348426.251253903        543710944.57562697     
  -1891157930.6259890       -27269332.175096989        461407347.24275547     
  -1745859597.8826835       -27373151.215667725        445671997.39807957     
  -1600787594.5402358       -28231401.592442453        429881418.33724487     
  -1455941920.5986376       -29844083.305377901        414035610.06025302     
  -1311322576.0578952       -32211196.354484975        398134572.56710440     
  -2070576167.2590837       -21982154.892611742        311451947.23028159     
  -1924151889.8075407       -22545007.640095711        296028614.11201924     
  -1777055041.1931202       -20865956.511326313        281632552.37937349     
  -1629285621.4158332       -16945001.506321847        268263762.03236493     
  -1480843630.4756529       -10782142.625026941        255922243.07097775     
  -2251393093.2321792       -17114584.412101865        160665720.43280524     
  -2100750012.2101536       -17208613.207831383        146603121.36529282     
  -1948535459.4615264       -12064402.914873719        134650294.28519526     
  -1794749434.9862940       -1681953.5332453251        124807239.19251262     
  -1639391938.7844450        13938734.937117577        117073956.08724539     
  -2433608708.5452905       -12666620.733636737        9048666.8503086958     
  -2275653965.0905371       -11363967.918924928       -2604480.8420905713     
  -2115228849.3454437       -1826740.8030778170       -11065355.945295734     
  -1952333361.3100162        15945060.613870144       -16333958.459294943     
  -1786967500.9842496        41951436.331971645       -18410288.384095564     
  -1130828775.5311511       -50348426.251253903        543710944.57562697     
  -947519311.25187397       -38931850.348902583        561925302.29257548     
  -756781431.70660710       -2753890.2265913188        591145356.77750349     
  -558615136.89535522        58185454.115678549        631371108.03041089     
  -353020426.81811184        143886182.67790884        682602556.05129015     
  -1311322576.0578952       -32211196.354484975        398134572.56710440     
  -1113562341.6351533       -13379790.296203613        420373029.00711161     
  -912110117.05807245        17758249.609855294        441010651.06120580     
  -706965902.32664931        61202923.363756865        460047438.72939241     
  -498129697.44089144        116954230.96541303        477483392.01166409     
  -1480843630.4756529       -10782142.625026941        255922243.07097775     
  -1304651286.3491282        4658495.4572749734        277825635.60378063     
  -1128503377.1799157        19951017.015215218        285521662.59679782     
  -952399902.96800518        35095422.048796654        279010324.05000442     
  -776340863.71341538        50091710.558000565        258291619.96340990     
  -1639391938.7844450        13938734.937117577        117073956.08724539     
  -1520786145.3938162        15183006.911545515        134283122.08259436     
  -1405961212.0721295        3824411.9894839525        124678391.38425745     
  -1294917138.8194282       -20137049.829180360        88259763.992238283     
  -1187653925.6356699       -56701378.544334412        25027239.906522222     
  -1786967500.9842496        41951436.331971645       -18410288.384095564     
  -1761966918.7691853        18193744.066638350       -10254511.556462286     
  -1744483621.7347455       -30621565.467431307       -41519162.576389432     
  -1734517609.8808942       -104494492.27013606       -112204241.44391143     
  -1732068883.2076731       -203425036.34160733       -222309748.15899801     
  -353020426.81811184        143886182.67790884        682602556.05129015     
  -278718709.90729058        284726641.85730290        786211807.60729635     
  -149519499.31711513        608558746.63454437        905522817.16781247     
   34577204.952389121        1115382497.0095515        1040535584.7328401     
   273571402.90124786        1805197892.9824009        1191250110.3023801     
  -498129697.44089144        116954230.96541303        477483392.01166409     
  -388980599.75808179        222871095.05792159        596904386.81499863     
  -230728972.23946413        492463058.60309899        735488592.30462754     
  -23374814.885063887        925730121.60091436        893236008.48056161     
   233081872.30514005        1522672284.0513971        1070146635.3428066     
  -776340863.71341538        50091710.558000565        258291619.96340990     
  -622454520.45348155        124051939.00515777        386763566.86326212     
  -425260611.20130813        342370720.75981349        537860177.13120246     
  -184759135.95687428        705048055.82197702        711581450.76725185     
   99049905.279802382        1212083944.1916378        907927387.77138495     
  -1187653925.6356699       -56701378.544334412        25027239.906522222     
  -979140471.99350107       -11730826.300998688        155789347.75208640     
  -733114416.20262575        158281733.10468179        312637571.64753824     
  -449575758.26305693        453336299.67269790        495571911.59288007     
  -128524498.17476630        873432873.40308225        704592367.58812082     
  -1732068883.2076731       -203425036.34160733       -222309748.15899801     
  -1459038454.3781486       -184477200.86057025       -96018270.518522397     
  -1154290387.2434492       -59803904.362305105        59820775.853629805     
  -817824681.80358839        170594853.15315330        245207390.95747554     
  -449641338.05858713        506719071.68579113        460141574.79300743     
 </DataArray>
 <DataArray  type="Float64" Name="VM" NumberOfComponents="1" format="ascii">
   9908831628.4549732     
   8367939655.5877171     
   6843797750.1010609     
   5338502987.2269135     
   3863921758.8493066     
   9444047676.5196819     
   7950059235.0404739     
   6474025577.2877226     
   5018613945.2047071     
   3598043225.6683116     
   8951226463.3957043     
   7516941204.5442877     
   6103970991.1280651     
   4715535375.5814867     
   3368476619.8245783     
   8430622857.8048000     
   7067938037.0257111     
   5732300004.7378759     
   4427369283.5747919     
   3172557247.4768691     
   7884577403.1740789     
   6603677345.4576311     
   5358272372.4002104     
   4152188024.3195457     
   3006794133.4833312     
   3863921758.8493066     
   4056604247.7502360     
   4264144326.3778634     
   4482770883.7328405     
   4710312095.5006380     
   3598043225.6683116     
   3792573297.0269580     
   3995397441.1818404     
   4204363533.9966054     
   4418006298.0583639     
   3368476619.8245783     
   3562380712.6200051     
   3757719611.5201402     
   3953761060.7170062     
   4149983305.8230991     
   3172557247.4768691     
   3366328783.7622242     
   3554355832.0587816     
   3736951349.1132293     
   3914721637.7660813     
   3006794133.4833312     
   3204101657.6169090     
   3388471399.5229030     
   3560702706.6340032     
   3722633689.5469775     
   4710312095.5006380     
   4523752251.5201321     
   4330562665.9574232     
   4129065091.0987735     
   3918612932.8678937     
   4418006298.0583639     
   4245824383.4089813     
   4069536553.1649766     
   3888595730.5943532     
   3703054077.6446095     
   4149983305.8230991     
   3990688883.0616975     
   3830403870.1622291     
   3669297396.2316341     
   3507819208.8497286     
   3914721637.7660813     
   3765894813.2244849     
   3619412760.0723515     
   3475662101.2915349     
   3335145437.7110987     
   3722633689.5469775     
   3580439232.0393395     
   3443783956.2625208     
   3312730378.5801373     
   3187509182.0816622     
   3918612932.8678937     
   3665407400.2121749     
   3415863426.1152253     
   3169861953.7340789     
   2927560606.4364538     
   3703054077.6446095     
   3462550297.3894210     
   3225270828.1069794     
   2991199712.2844005     
   2760519911.6358843     
   3507819208.8497286     
   3280347352.0186634     
   3055915781.0232968     
   2834615013.5433755     
   2616696778.3494596     
   3335145437.7110987     
   3121771634.7841744     
   2911586239.0232716     
   2704800594.1794667     
   2501799412.2121081     
   3187509182.0816622     
   2990045329.0118222     
   2796324406.2979593     
   2606695273.5955191     
   2421745087.7399025     
   2927560606.4364538     
   2803579581.7000012     
   2678875457.1584549     
   2553457434.2172217     
   2427350782.5382833     
   2760519911.6358843     
   2635933950.8872299     
   2510981031.7108183     
   2385685529.1468353     
   2260082416.0336113     
   2616696778.3494596     
   2494174608.0131226     
   2372006616.9994707     
   2250289863.4869618     
   2129145390.3020234     
   2501799412.2121081     
   2384068725.1128922     
   2267813882.7376971     
   2153256872.2661219     
   2040671834.0868015     
   2421745087.7399025     
   2311344497.9521542     
   2203901425.0729880     
   2099779523.9253442     
   1999421307.5222869     
   2427350782.5382833     
   2269997796.4815278     
   2114402934.7289617     
   1960558661.3251514     
   1808589350.8737175     
   2260082416.0336113     
   2107551464.7215257     
   1956481579.5506022     
   1806886885.2722485     
   1658846044.2530737     
   2129145390.3020234     
   1980501847.7568390     
   1832820431.3916039     
   1686163354.1197696     
   1540628451.8352270     
   2040671834.0868015     
   1896537879.4383292     
   1752860392.1330438     
   1609808295.7856038     
   1467616639.9180741     
   1999421307.5222869     
   1862072895.4325287     
   1724938325.3960307     
   1588398963.8693500     
   1453009981.0505130     
   1808589350.8737175     
   1771222931.6965716     
   1730870731.3744376     
   1695875076.6232996     
   1684447404.3586109     
   1658846044.2530737     
   1546029430.2962794     
   1424342877.8165157     
   1294028378.0889103     
   1161152171.9405642     
   1540628451.8352270     
   1392758285.6877744     
   1241370437.7201550     
   1084095209.0415652     
   918828732.80380666     
   1467616639.9180741     
   1324930687.0255375     
   1196632308.4626236     
   1087081368.2570500     
   1002018478.4936552     
   1453009981.0505130     
   1345250901.3656929     
   1272399356.5850298     
   1242508800.7519591     
   1262521351.8458979     
   1684447404.3586109     
   1386118408.9353127     
   1130339466.1601257     
   1008878827.9214544     
   1149771368.0123150     
   1161152171.9405642     
   1010038866.4392880     
   985786603.73622561     
   1161126923.4559984     
   1543052904.5602019     
   918828732.80380666     
   963749642.42985141     
   1145225650.2281766     
   1476664231.3159478     
   1957523434.3830025     
   1002018478.4936552     
   1164712198.0887764     
   1425556602.0773945     
   1809080736.3147013     
   2335292744.0579658     
   1262521351.8458979     
   1446547282.3353100     
   1715694012.3956523     
   2110651510.1726520     
   2664012143.5949712     
   7884577403.1740789     
   6603677345.4576311     
   5358272372.4002104     
   4152188024.3195457     
   3006794133.4833312     
   7335041064.7845783     
   6147692902.3137589     
   4997099745.5994444     
   3886442944.7291217     
   2833867087.3100386     
   6859172978.8300972     
   5750164197.4774389     
   4678306892.0234089     
   3646298916.1246223     
   2669618334.0157533     
   6460304697.1031427     
   5415249177.7729025     
   4406683547.6395874     
   3436966909.4690900     
   2519423575.6537490     
   6140699507.2875061     
   5146494391.6880188     
   4186950921.0125585     
   3264227813.5087981     
   2389992949.8994417     
   3006794133.4833312     
   3204101657.6169090     
   3388471399.5229030     
   3560702706.6340032     
   3722633689.5469775     
   2833867087.3100386     
   3024011961.8108110     
   3203245240.7553144     
   3371964065.3180151     
   3531420553.5316973     
   2669618334.0157533     
   2856856672.0036926     
   3035198545.6172390     
   3204768880.2319398     
   3366358847.6508646     
   2519423575.6537490     
   2707363377.2959490     
   2888294804.6865778     
   3062194707.9776587     
   3229518998.6089778     
   2389992949.8994417     
   2581124073.1534514     
   2766939984.5842762     
   2947378798.8207684     
   3122680107.2032886     
   3722633689.5469775     
   3580439232.0393395     
   3443783956.2625208     
   3312730378.5801373     
   3187509182.0816622     
   3531420553.5316973     
   3400861452.6827974     
   3275639870.6268449     
   3155975893.5028911     
   3042208183.3676648     
   3366358847.6508646     
   3249046187.1103745     
   3137096023.4470024     
   3030878701.7410908     
   2930852753.5502696     
   3229518998.6089778     
   3127430300.6097093     
   3030953078.0821252     
   2940588029.1563163     
   2856913322.9344115     
   3122680107.2032886     
   3038024771.0719261     
   2959423909.5382042     
   2887470876.8067904     
   2822845547.0009956     
   3187509182.0816622     
   2990045329.0118222     
   2796324406.2979593     
   2606695273.5955191     
   2421745087.7399025     
   3042208183.3676648     
   2861798020.6356244     
   2686711609.9793692     
   2517553273.6348114     
   2355191500.3997550     
   2930852753.5502696     
   2767799676.1226921     
   2611663756.0797691     
   2463212556.1809764     
   2323465336.0671096     
   2856913322.9344115     
   2710903939.8386717     
   2573241776.8089008     
   2444729536.4977102     
   2326378307.0716105     
   2822845547.0009956     
   2692761910.4941120     
   2572134320.8246226     
   2461671590.1362534     
   2362239959.7709870     
   2421745087.7399025     
   2311344497.9521542     
   2203901425.0729880     
   2099779523.9253442     
   1999421307.5222869     
   2355191500.3997550     
   2257440260.8884187     
   2163698689.6778855     
   2074502367.3934996     
   1990476607.9964018     
   2323465336.0671096     
   2240850600.8247714     
   2163432729.1712999     
   2091861186.4753878     
   2026863574.1307559     
   2326378307.0716105     
   2260763135.2647877     
   2201488892.2985601     
   2149229998.1205549     
   2104712192.2558303     
   2362239959.7709870     
   2314666802.3864784     
   2274399357.6077633     
   2242054983.1081514     
   2218277848.1470251     
   1999421307.5222869     
   1862072895.4325287     
   1724938325.3960307     
   1588398963.8693500     
   1453009981.0505130     
   1990476607.9964018     
   1867919880.6659336     
   1750030694.2744124     
   1637811443.6912739     
   1532504890.9839270     
   2026863574.1307559     
   1924210969.9858305     
   1830729948.8119473     
   1747722041.7981753     
   1676606047.9024985     
   2104712192.2558303     
   2023489967.5357983     
   1955074867.7200480     
   1900634890.9618492     
   1861303191.9830792     
   2218277848.1470251     
   2156955389.8394108     
   2111017559.0642493     
   2081289219.1840897     
   2068519253.8220580     
   1453009981.0505130     
   1345250901.3656929     
   1272399356.5850298     
   1242508800.7519591     
   1262521351.8458979     
   1532504890.9839270     
   1473041854.4845068     
   1446135432.8288481     
   1455684294.9760325     
   1504910248.0442238     
   1676606047.9024985     
   1649565796.3491840     
   1650073410.1673000     
   1680451804.4195900     
   1743257573.3223121     
   1861303191.9830792     
   1852272388.8132524     
   1866025937.0093510     
   1904743802.4257886     
   1971415270.6751838     
   2068519253.8220580     
   2066529317.2078433     
   2083580689.3031232     
   2122286801.1909218     
   2186422624.7717547     
   1262521351.8458979     
   1446547282.3353100     
   1715694012.3956523     
   2110651510.1726520     
   2664012143.5949712     
   1504910248.0442238     
   1613316897.4793382     
   1788847034.0049822     
   2066355864.4618368     
   2476184619.8972950     
   1743257573.3223121     
   1787903358.6067193     
   1884653954.9784613     
   2060495524.2938573     
   2340759644.6436515     
   1971415270.6751838     
   1969272701.9834404     
   2003677540.9467688     
   2093342724.1372695     
   2256981206.8200574     
   2186422624.7717547     
   2156714181.7803035     
   2146656867.3195851     
   2166776381.3958106     
   2228146061.2635961     
   6140699507.2875061     
   5146494391.6880188     
   4186950921.0125585     
   3264227813.5087981     
   2389992949.8994417     
   5888012977.9760046     
   4910502040.2983580     
   3976550677.9204578     
   3087855145.3838701     
   2254724308.7396817     
   5651577170.9389496     
   4691787301.8366394     
   3786276203.3780513     
   2936212149.8258190     
   2150133437.3484092     
   5448408162.0149260     
   4504227575.5961943     
   3626722452.1484838     
   2816479605.7971244     
   2079778393.0475099     
   5299445954.7273321     
   4364724856.2541914     
   3510325835.2441053     
   2736251327.0285659     
   2046132198.5320923     
   2389992949.8994417     
   2581124073.1534514     
   2766939984.5842762     
   2947378798.8207684     
   3122680107.2032886     
   2254724308.7396817     
   2453949099.5974984     
   2646925432.9348602     
   2833487400.6871886     
   3013763547.2820945     
   2150133437.3484092     
   2357366456.0838671     
   2557067125.7630095     
   2749020497.8200932     
   2933284798.7227702     
   2079778393.0475099     
   2294717912.5649481     
   2500575504.4845867     
   2697139992.4529629     
   2884435245.8567305     
   2046132198.5320923     
   2268293916.2904229     
   2479689074.3241253     
   2680142786.4938154     
   2869665596.4217663     
   3122680107.2032886     
   3038024771.0719261     
   2959423909.5382042     
   2887470876.8067904     
   2822845547.0009956     
   3013763547.2820945     
   2943596653.4170890     
   2880562973.5358524     
   2825211113.1145573     
   2778149056.9054208     
   2933284798.7227702     
   2877015114.3729920     
   2828842036.0005803     
   2789227729.8340511     
   2758667594.6678481     
   2884435245.8567305     
   2840723048.0375366     
   2805929243.1938558     
   2780401969.3721023     
   2764502777.4279704     
   2869665596.4217663     
   2836385845.8632979     
   2812711180.0758066     
   2798868489.8726101     
   2795086912.6465650     
   2822845547.0009956     
   2692761910.4941120     
   2572134320.8246226     
   2461671590.1362534     
   2362239959.7709870     
   2778149056.9054208     
   2661108044.4454522     
   2554439117.1309085     
   2458787926.5465846     
   2374911758.1602650     
   2758667594.6678481     
   2654169304.3117895     
   2560860345.3415270     
   2479278565.1537232     
   2410030506.9856300     
   2764502777.4279704     
   2671528988.5514112     
   2590452499.2956395     
   2521677816.7448030     
   2465644881.8877892     
   2795086912.6465650     
   2712133045.0805049     
   2641696448.1699524     
   2584045322.1823177     
   2539462315.6210833     
   2362239959.7709870     
   2314666802.3864784     
   2274399357.6077633     
   2242054983.1081514     
   2218277848.1470251     
   2374911758.1602650     
   2344135198.9364815     
   2321384019.2498255     
   2307126699.5619783     
   2301820616.7843394     
   2410030506.9856300     
   2394626501.4001255     
   2387685218.5366325     
   2389524753.3896356     
   2400435213.5968428     
   2465644881.8877892     
   2463637765.0277390     
   2470331446.6196299     
   2485917437.3121638     
   2510557937.2982998     
   2539462315.6210833     
   2548520616.9513011     
   2566417341.6759086     
   2593251272.0060244     
   2629098985.3440065     
   2218277848.1470251     
   2156955389.8394108     
   2111017559.0642493     
   2081289219.1840897     
   2068519253.8220580     
   2301820616.7843394     
   2254671788.4813952     
   2221964747.5398583     
   2204201429.8349609     
   2201828566.4877977     
   2400435213.5968428     
   2364630818.7942553     
   2342309706.2356048     
   2333764475.6058311     
   2339261369.5243273     
   2510557937.2982998     
   2483536792.2328157     
   2469141630.7084074     
   2467540196.0365911     
   2478898765.5214705     
   2629098985.3440065     
   2608640624.0089884     
   2600116293.1167135     
   2603626134.5044503     
   2619286184.6362514     
   2068519253.8220580     
   2066529317.2078433     
   2083580689.3031232     
   2122286801.1909218     
   2186422624.7717547     
   2201828566.4877977     
   2189051049.9992700     
   2191086386.5841985     
   2209889887.5089526     
   2248352781.0480404     
   2339261369.5243273     
   2316510579.7705507     
   2305116693.7420588     
   2306474921.9174509     
   2322653370.0054364     
   2478898765.5214705     
   2447936852.7537317     
   2425353174.2651377     
   2412085778.0370131     
   2409498318.9507217     
   2619286184.6362514     
   2582551729.9723492     
   2551512130.1712070     
   2526743958.3886175     
   2509048389.8610191     
   2186422624.7717547     
   2156714181.7803035     
   2146656867.3195851     
   2166776381.3958106     
   2228146061.2635961     
   2248352781.0480404     
   2183244049.6648722     
   2134639711.1466568     
   2112213743.1550477     
   2126909199.6461961     
   2322653370.0054364     
   2225472510.1742563     
   2141696252.5416777     
   2079701990.2690077     
   2049677537.7262473     
   2409498318.9507217     
   2283695280.5943084     
   2168474402.3600492     
   2070591742.8512125     
   1998838946.0903008     
   2509048389.8610191     
   2358123661.1911073     
   2215446032.5110307     
   2086014271.9625645     
   1976733190.1075675     
   5299445954.7273321     
   4364724856.2541914     
   3510325835.2441053     
   2736251327.0285659     
   2046132198.5320923     
   4987097008.7972403     
   4115125225.3127246     
   3316640292.6995506     
   2591538106.1228151     
   1941357484.8907967     
   4759814628.8545504     
   3939309360.5469084     
   3183352571.4028745     
   2491890435.9926100     
   1865466096.4210305     
   4602559254.7988281     
   3826227116.3366551     
   3103975833.2367616     
   2435799479.9487453     
   1821823576.9165609     
   4497677142.8398800     
   3762158131.1220927     
   3069461792.6061025     
   2419588127.2919221     
   1812537135.1795428     
   2046132198.5320923     
   2268293916.2904229     
   2479689074.3241253     
   2680142786.4938154     
   2869665596.4217663     
   1941357484.8907967     
   2168291236.8133507     
   2385172692.1324420     
   2591837432.8109283     
   2788250850.4592047     
   1865466096.4210305     
   2097280787.7546563     
   2319674485.4825292     
   2532545027.9195652     
   2735859472.3204627     
   1821823576.9165609     
   2057592987.1815221     
   2284598359.4073668     
   2502808447.8105764     
   2712211566.6816916     
   1812537135.1795428     
   2050383565.8938229     
   2280268116.2336364     
   2502190786.1989741     
   2716151575.7898359     
   2869665596.4217663     
   2836385845.8632979     
   2812711180.0758066     
   2798868489.8726101     
   2795086912.6465650     
   2788250850.4592047     
   2768166530.5998826     
   2757419191.2619305     
   2756136128.5875564     
   2764442200.3636827     
   2735859472.3204627     
   2726510340.3065705     
   2726144820.4756808     
   2734817626.0480251     
   2752581086.8882885     
   2712211566.6816916     
   2710899001.1692085     
   2718184037.3835297     
   2734079565.5787649     
   2758597669.8085713     
   2716151575.7898359     
   2720090983.9530764     
   2732257175.6084328     
   2752650150.7559032     
   2781269909.3954906     
   2795086912.6465650     
   2712133045.0805049     
   2641696448.1699524     
   2584045322.1823177     
   2539462315.6210833     
   2764442200.3636827     
   2691578876.9450850     
   2630894887.7782640     
   2582537890.3878498     
   2546660189.5140028     
   2752581086.8882885     
   2687633200.5657349     
   2634512887.0919466     
   2593283435.8594322     
   2564008980.0320477     
   2758597669.8085713     
   2699363050.4485936     
   2651626575.2860589     
   2615403324.6120024     
   2590708370.8458614     
   2781269909.3954906     
   2725597676.6569161     
   2681145119.9956789     
   2647912239.4117742     
   2625899034.9052138     
   2539462315.6210833     
   2548520616.9513011     
   2566417341.6759086     
   2593251272.0060244     
   2629098985.3440065     
   2546660189.5140028     
   2563380191.0192161     
   2588662005.8676281     
   2622555610.4144897     
   2665098003.6390786     
   2564008980.0320477     
   2586677585.6960502     
   2617705195.1311183     
   2657111812.4652162     
   2704911592.0412288     
   2590708370.8458614     
   2617601219.0904469     
   2652751627.4116397     
   2696164146.8898239     
   2747841866.4072366     
   2625899034.9052138     
   2655321750.2603121     
   2693019295.5680957     
   2738991670.8285565     
   2793238876.0417004     
   2629098985.3440065     
   2608640624.0089884     
   2600116293.1167135     
   2603626134.5044503     
   2619286184.6362514     
   2665098003.6390786     
   2646969644.9479671     
   2639741514.2250266     
   2643462122.5889411     
   2658191032.4515591     
   2704911592.0412288     
   2688715921.0212936     
   2682580831.1670437     
   2686524767.7342048     
   2700571838.0777097     
   2747841866.4072366     
   2733377777.2851329     
   2728303721.9597239     
   2732623604.3054061     
   2746342891.2247839     
   2793238876.0417004     
   2780483677.6686916     
   2776594627.2352991     
   2781571724.7415290     
   2795414970.1873841     
   2619286184.6362514     
   2582551729.9723492     
   2551512130.1712070     
   2526743958.3886175     
   2509048389.8610191     
   2658191032.4515591     
   2614423196.2028265     
   2576165949.4859524     
   2543747594.6007290     
   2517626507.2800179     
   2700571838.0777097     
   2651870333.5616646     
   2608635402.1393499     
   2571013392.8576570     
   2539209129.9994907     
   2746342891.2247839     
   2694807928.2628312     
   2648836218.4631233     
   2608464135.2675080     
   2573742582.6362200     
   2795414970.1873841     
   2743141586.6426573     
   2696669286.4297080     
   2655998069.5485473     
   2621127935.9991798     
   2509048389.8610191     
   2358123661.1911073     
   2215446032.5110307     
   2086014271.9625645     
   1976733190.1075675     
   2517626507.2800179     
   2349176641.9298053     
   2184346401.1339693     
   2026247024.8211510     
   1879462617.9680166     
   2539209129.9994907     
   2358334010.5875912     
   2177247363.0598493     
   1997425979.6423595     
   1821157430.1811748     
   2573742582.6362200     
   2385697647.0700560     
   2194614983.4252563     
   2000874145.0365295     
   1805081554.4096999     
   2621127935.9991798     
   2431234452.9786124     
   2236590335.5273867     
   2037195583.6454651     
   1833050197.3328781     
   4497677142.8398800     
   3762158131.1220927     
   3069461792.6061025     
   2419588127.2919221     
   1812537135.1795428     
   4602559269.6444635     
   3826227127.4484329     
   3103975840.8443308     
   2435799484.3448291     
   1821823578.3947523     
   4759814658.1638746     
   3939309382.2948275     
   3183352586.0963860     
   2491890444.2394056     
   1865466098.7680066     
   4987097052.1328344     
   4115125257.1771269     
   3316640313.9206905     
   2591538117.6365795     
   1941357487.4444439     
   5299446011.6277685     
   4364724897.7195339     
   3510325862.4592547     
   2736251341.2546277     
   2046132200.6423614     
   1812537135.1795428     
   2050383565.8938229     
   2280268116.2336364     
   2502190786.1989741     
   2716151575.7898359     
   1821823578.3947523     
   2057592988.4221277     
   2284598360.3447537     
   2502808448.3850336     
   2712211566.8410244     
   1865466098.7680066     
   2097280789.7248313     
   2319674486.9645777     
   2532545028.8125329     
   2735859472.5352325     
   1941357487.4444439     
   2168291238.9518785     
   2385172693.7205844     
   2591837433.7262869     
   2788250850.5921659     
   2046132200.6423614     
   2268293918.0356336     
   2479689075.5693288     
   2680142787.1170363     
   2869665596.3113732     
   2716151575.7898359     
   2720090983.9530764     
   2732257175.6084328     
   2752650150.7559032     
   2781269909.3954906     
   2712211566.8410244     
   2710899001.5101881     
   2718184037.9066615     
   2734079566.2836523     
   2758597670.6941452     
   2735859472.5352325     
   2726510340.8680844     
   2726144821.3868442     
   2734817627.3099523     
   2752581088.5007458     
   2788250850.5921659     
   2768166531.2192254     
   2757419192.3760896     
   2756136130.2024770     
   2764442202.4833503     
   2869665596.3113732     
   2836385846.3451009     
   2812711181.1673374     
   2798868491.5887179     
   2795086914.9999328     
   2781269909.3954906     
   2725597676.6569161     
   2681145119.9956789     
   2647912239.4117742     
   2625899034.9052138     
   2758597670.6941452     
   2699363051.0320477     
   2651626575.5507307     
   2615403324.5436754     
   2590708370.4324555     
   2752581088.5007458     
   2687633201.6233792     
   2634512887.5623264     
   2593283435.7142715     
   2564008979.2467756     
   2764442202.4833503     
   2691578878.3165994     
   2630894888.3539348     
   2582537890.1247759     
   2546660188.3737469     
   2795086914.9999328     
   2712133046.5583601     
   2641696448.7101250     
   2584045321.7268224     
   2539462314.1160274     
   2625899034.9052138     
   2655321750.2603121     
   2693019295.5680957     
   2738991670.8285565     
   2793238876.0417004     
   2590708370.4324555     
   2617601218.7924147     
   2652751627.2098241     
   2696164146.7647266     
   2747841866.3388653     
   2564008979.2467756     
   2586677585.1471272     
   2617705194.7791939     
   2657111812.2701287     
   2704911591.9617209     
   2546660188.3737469     
   2563380190.2496433     
   2588662005.4076986     
   2622555610.2014914     
   2665098003.6083355     
   2539462314.1160274     
   2548520615.9724293     
   2566417341.1387448     
   2593251271.8229980     
   2629098985.4241290     
   2793238876.0417004     
   2780483677.6686916     
   2776594627.2352991     
   2781571724.7415290     
   2795414970.1873841     
   2747841866.3388653     
   2733377777.3112578     
   2728303722.0790033     
   2732623604.5155616     
   2746342891.5230880     
   2704911591.9617209     
   2688715921.1182256     
   2682580831.4373407     
   2686524768.1730061     
   2700571838.6793523     
   2665098003.6083355     
   2646969645.1630864     
   2639741514.6807327     
   2643462123.2774892     
   2658191033.3639302     
   2629098985.4241290     
   2608640624.3920894     
   2600116293.7948275     
   2603626135.4664388     
   2619286185.8691950     
   2795414970.1873841     
   2743141586.6426573     
   2696669286.4297080     
   2655998069.5485473     
   2621127935.9991798     
   2746342891.5230880     
   2694807928.5250583     
   2648836218.6921296     
   2608464135.4654670     
   2573742582.8044338     
   2700571838.6793523     
   2651870334.0903316     
   2608635402.6008759     
   2571013393.2565508     
   2539209130.3385596     
   2658191033.3639302     
   2614423197.0039086     
   2576165950.1847634     
   2543747595.2043295     
   2517626507.7930231     
   2619286185.8691950     
   2582551731.0537081     
   2551512131.1133609     
   2526743959.2015009     
   2509048390.5514636     
   2621127935.9991798     
   2431234452.9786124     
   2236590335.5273867     
   2037195583.6454651     
   1833050197.3328781     
   2573742582.8044338     
   2385697647.1753697     
   2194614983.4563880     
   2000874144.9749639     
   1805081554.2255809     
   2539209130.3385596     
   2358334010.8054781     
   2177247363.1352372     
   1997425979.5412598     
   1821157429.8509352     
   2517626507.7930231     
   2349176642.2683020     
   2184346401.2686186     
   2026247024.7070868     
   1879462617.5400312     
   2509048390.5514636     
   2358123661.6590061     
   2215446032.7213678     
   2086014271.8647017     
   1976733189.6339600     
   5299446011.6277685     
   4364724897.7195339     
   3510325862.4592547     
   2736251341.2546277     
   2046132200.6423614     
   5448408227.3452444     
   4504227623.3813257     
   3626722483.8180370     
   2816479622.6970687     
   2079778396.0154834     
   5651577236.5620546     
   4691787349.5631962     
   3786276234.9311142     
   2936212166.6787891     
   2150133440.4663248     
   5888013038.1407604     
   4910502083.4432831     
   3976550706.0972042     
   3087855160.2249341     
   2254724311.4738140     
   6140699558.6278820     
   5146494427.5496349     
   4186950943.8343611     
   3264227825.1280789     
   2389992951.9087396     
   2046132200.6423614     
   2268293918.0356336     
   2479689075.5693288     
   2680142787.1170363     
   2869665596.3113732     
   2079778396.0154834     
   2294717915.2134070     
   2500575506.6650658     
   2697139994.0384021     
   2884435246.7336755     
   2150133440.4663248     
   2357366458.9856691     
   2557067128.3078022     
   2749020499.8933096     
   2933284800.2238297     
   2254724311.4738140     
   2453949102.2485790     
   2646925435.3925514     
   2833487402.8689489     
   3013763549.1168075     
   2389992951.9087396     
   2581124075.2176619     
   2766939986.6444597     
   2947378800.8453374     
   3122680109.1675296     
   2869665596.3113732     
   2836385846.3451009     
   2812711181.1673374     
   2798868491.5887179     
   2795086914.9999328     
   2884435246.7336755     
   2840723049.4107985     
   2805929245.0901365     
   2780401971.8160114     
   2764502780.4425287     
   2933284800.2238297     
   2877015116.2398868     
   2828842038.2694397     
   2789227732.5407453     
   2758667597.8486252     
   3013763549.1168075     
   2943596655.4507055     
   2880562975.8122230     
   2825211115.6801667     
   2778149059.8104663     
   3122680109.1675296     
   3038024773.0327387     
   2959423911.5438423     
   2887470878.9115973     
   2822845549.2672868     
   2795086914.9999328     
   2712133046.5583601     
   2641696448.7101250     
   2584045321.7268224     
   2539462314.1160274     
   2764502780.4425287     
   2671528990.5039153     
   2590452500.1223416     
   2521677816.3815742     
   2465644880.2704673     
   2758667597.8486252     
   2654169306.4002595     
   2560860346.2802176     
   2479278564.8785448     
   2410030505.4268265     
   2778149059.8104663     
   2661108046.3627515     
   2554439118.0201287     
   2458787926.3539009     
   2374911756.8200192     
   2822845549.2672868     
   2692761911.9829197     
   2572134321.5254416     
   2461671590.0190797     
   2362239958.7887554     
   2539462314.1160274     
   2548520615.9724293     
   2566417341.1387448     
   2593251271.8229980     
   2629098985.4241290     
   2465644880.2704673     
   2463637763.9610920     
   2470331446.0242786     
   2485917437.1053572     
   2510557937.3935523     
   2410030505.4268265     
   2394626500.4155087     
   2387685218.0482831     
   2389524753.3152986     
   2400435213.8497519     
   2374911756.8200192     
   2344135198.1957273     
   2321384019.0291104     
   2307126699.7757425     
   2301820617.3410559     
   2362239958.7887554     
   2314666802.0339127     
   2274399357.8020139     
   2242054983.7575397     
   2218277849.1516247     
   2629098985.4241290     
   2608640624.3920894     
   2600116293.7948275     
   2603626135.4664388     
   2619286185.8691950     
   2510557937.3935523     
   2483536792.6460400     
   2469141631.4392295     
   2467540197.0816736     
   2478898766.8750787     
   2400435213.8497519     
   2364630819.3454580     
   2342309707.0904813     
   2333764476.7678080     
   2339261370.9944496     
   2301820617.3410559     
   2254671789.2829041     
   2221964748.5946145     
   2204201431.1514797     
   2201828568.0731978     
   2218277849.1516247     
   2156955391.0048294     
   2111017560.3978496     
   2081289220.6965361     
   2068519255.5247602     
   2619286185.8691950     
   2582551731.0537081     
   2551512131.1133609     
   2526743959.2015009     
   2509048390.5514636     
   2478898766.8750787     
   2447936853.9361420     
   2425353175.2892246     
   2412085778.9126706     
   2409498319.6843944     
   2339261370.9944496     
   2316510581.0531015     
   2305116694.8506708     
   2306474922.8624048     
   2322653370.7935371     
   2201828568.0731978     
   2189051051.3829880     
   2191086387.7810740     
   2209889888.5302539     
   2248352781.9020047     
   2068519255.5247602     
   2066529318.6959808     
   2083580690.5931978     
   2122286802.2960773     
   2186422625.7030926     
   2509048390.5514636     
   2358123661.6590061     
   2215446032.7213678     
   2086014271.8647017     
   1976733189.6339600     
   2409498319.6843944     
   2283695281.0747113     
   2168474402.5520444     
   2070591742.7080226     
   1998838945.5560946     
   2322653370.7935371     
   2225472510.6876526     
   2141696252.7480366     
   2079701990.1299286     
   2049677537.2033396     
   2248352781.9020047     
   2183244050.2321839     
   2134639711.4001389     
   2112213743.0679731     
   2126909199.1998012     
   2186422625.7030926     
   2156714182.4223270     
   2146656867.6521990     
   2166776381.4054327     
   2228146060.9505496     
   6140699558.6278820     
   5146494427.5496349     
   4186950943.8343611     
   3264227825.1280789     
   2389992951.9087396     
   6460304739.0965872     
   5415249206.7703524     
   4406683565.8629465     
   3436966918.6394057     
   2519423577.4509563     
   6859173015.6823902     
   5750164223.0843678     
   4678306908.2934818     
   3646298924.5542192     
   2669618336.2313199     
   7335041100.4063644     
   6147692927.7513351     
   4997099762.3923721     
   3886442954.0887136     
   2833867090.7325306     
   7884577441.0410318     
   6603677373.5867786     
   5358272391.9427967     
   4152188036.1786156     
   3006794138.9871140     
   2389992951.9087396     
   2581124075.2176619     
   2766939986.6444597     
   2947378800.8453374     
   3122680109.1675296     
   2519423577.4509563     
   2707363379.1507902     
   2888294806.6041074     
   3062194710.0104690     
   3229519000.8246222     
   2669618336.2313199     
   2856856674.1529589     
   3035198547.7723713     
   3204768882.5292125     
   3366358850.2460260     
   2833867090.7325306     
   3024011964.8916922     
   3203245243.6359406     
   3371964068.2141356     
   3531420556.6772199     
   3006794138.9871140     
   3204101662.3437591     
   3388471403.6831884     
   3560702710.5142665     
   3722633693.4430838     
   3122680109.1675296     
   3038024773.0327387     
   2959423911.5438423     
   2887470878.9115973     
   2822845549.2672868     
   3229519000.8246222     
   3127430302.5901470     
   3030953079.8706636     
   2940588030.8012033     
   2856913324.4902477     
   3366358850.2460260     
   3249046189.2433648     
   3137096025.1508102     
   3030878703.0522723     
   2930852754.5093627     
   3531420556.6772199     
   3400861455.1515174     
   3275639872.4368410     
   3155975894.6744595     
   3042208183.9223270     
   3722633693.4430838     
   3580439235.0619469     
   3443783958.4107127     
   3312730379.8541918     
   3187509182.4804239     
   2822845549.2672868     
   2692761911.9829197     
   2572134321.5254416     
   2461671590.0190797     
   2362239958.7887554     
   2856913324.4902477     
   2710903940.8201509     
   2573241777.2290401     
   2444729536.3511000     
   2326378306.3336930     
   2930852754.5093627     
   2767799676.6979461     
   2611663756.3101330     
   2463212556.0908442     
   2323465335.6627927     
   3042208183.9223270     
   2861798020.9751730     
   2686711610.1683750     
   2517553273.7297335     
   2355191500.4435310     
   3187509182.4804239     
   2990045329.3370252     
   2796324406.6368356     
   2606695274.0351505     
   2421745088.3611870     
   2362239958.7887554     
   2314666802.0339127     
   2274399357.8020139     
   2242054983.7575397     
   2218277849.1516247     
   2326378306.3336930     
   2260763135.0964723     
   2201488892.6390119     
   2149229998.9017105     
   2104712193.4025984     
   2323465335.6627927     
   2240850600.9206843     
   2163432729.7249126     
   2091861187.4397023     
   2026863575.4543374     
   2355191500.4435310     
   2257440261.3478465     
   2163698690.5235424     
   2074502368.5949781     
   1990476609.5224800     
   2421745088.3611870     
   2311344498.8848095     
   2203901426.2942200     
   2099779525.4148388     
   1999421309.2626581     
   2218277849.1516247     
   2156955391.0048294     
   2111017560.3978496     
   2081289220.6965361     
   2068519255.5247602     
   2104712193.4025984     
   2023489968.7646322     
   1955074869.0404830     
   1900634892.3879657     
   1861303193.5319469     
   2026863575.4543374     
   1924210971.3076835     
   1830729950.1414258     
   1747722043.1506207     
   1676606049.2992623     
   1990476609.5224800     
   1867919882.1042707     
   1750030695.6311896     
   1637811444.9791720     
   1532504892.2241919     
   1999421309.2626581     
   1862072896.9988875     
   1724938326.7887638     
   1588398965.0938435     
   1453009982.1204243     
   2068519255.5247602     
   2066529318.6959808     
   2083580690.5931978     
   2122286802.2960773     
   2186422625.7030926     
   1861303193.5319469     
   1852272390.1698134     
   1866025938.1864278     
   1904743803.4342535     
   1971415271.5255079     
   1676606049.2992623     
   1649565797.5775421     
   1650073411.2363696     
   1680451805.3376713     
   1743257574.0989506     
   1532504892.2241919     
   1473041855.5839932     
   1446135433.7933826     
   1455684295.8104672     
   1504910248.7556882     
   1453009982.1204243     
   1345250902.3257589     
   1272399357.4415405     
   1242508801.5068781     
   1262521352.5013788     
   2186422625.7030926     
   2156714182.4223270     
   2146656867.6521990     
   2166776381.4054327     
   2228146060.9505496     
   1971415271.5255079     
   1969272702.5635779     
   2003677541.2354791     
   2093342724.1256802     
   2256981206.5230441     
   1743257574.0989506     
   1787903359.1376047     
   1884653955.2444232     
   2060495524.2946336     
   2340759644.4091573     
   1504910248.7556882     
   1613316897.9737568     
   1788847034.2675579     
   2066355864.5025637     
   2476184619.7579932     
   1262521352.5013788     
   1446547282.8061380     
   1715694012.6718085     
   2110651510.2745206     
   2664012143.5725818     
   7884577441.0410318     
   6603677373.5867786     
   5358272391.9427967     
   4152188036.1786156     
   3006794138.9871140     
   8430622897.5707121     
   7067938067.7413158     
   5732300027.0221300     
   4427369297.9152966     
   3172557254.7027893     
   8951226505.8368893     
   7516941238.7325354     
   6103971017.2465115     
   4715535393.7630520     
   3368476630.3894382     
   9444047720.9617500     
   7950059272.5191755     
   6474025607.6007471     
   5018613968.1678543     
   3598043241.1281662     
   9908831673.0134220     
   8367939695.2617674     
   6843797784.3183670     
   5338503015.5076685     
   3863921780.6403136     
   3006794138.9871140     
   3204101662.3437591     
   3388471403.6831884     
   3560702710.5142665     
   3722633693.4430838     
   3172557254.7027893     
   3366328789.6458001     
   3554355836.8908124     
   3736951353.2043409     
   3914721641.4148917     
   3368476630.3894382     
   3562380721.0474443     
   3757719618.0846524     
   3953761065.6893740     
   4149983309.4582744     
   3598043241.1281662     
   3792573309.2943358     
   3995397450.4229269     
   4204363540.3925591     
   4418006301.7968712     
   3863921780.6403136     
   4056604265.0301194     
   4264144339.1143551     
   4482770891.9749870     
   4710312099.3575430     
   3722633693.4430838     
   3580439235.0619469     
   3443783958.4107127     
   3312730379.8541918     
   3187509182.4804239     
   3914721641.4148917     
   3765894815.9143558     
   3619412761.8031316     
   3475662102.0600252     
   3335145437.5127792     
   4149983309.4582744     
   3990688885.6726327     
   3830403871.7582350     
   3669297396.8162436     
   3507819208.4221015     
   4418006301.7968712     
   4245824386.0847502     
   4069536554.8025723     
   3888595731.2126937     
   3703054077.2544274     
   4710312099.3575430     
   4523752254.3101826     
   4330562667.7219858     
   4129065091.8772955     
   3918612932.6890802     
   3187509182.4804239     
   2990045329.3370252     
   2796324406.6368356     
   2606695274.0351505     
   2421745088.3611870     
   3335145437.5127792     
   3121771634.7641463     
   2911586239.2522254     
   2704800594.7277608     
   2501799413.1494541     
   3507819208.4221015     
   3280347351.9386683     
   3055915781.3399167     
   2834615014.3050156     
   2616696779.6062431     
   3703054077.2544274     
   3462550297.4549541     
   3225270828.6529999     
   2991199713.3353310     
   2760519913.2179875     
   3918612932.6890802     
   3665407400.5564389     
   3415863426.9828091     
   3169861955.1260948     
   2927560608.3549547     
   2421745088.3611870     
   2311344498.8848095     
   2203901426.2942200     
   2099779525.4148388     
   1999421309.2626581     
   2501799413.1494541     
   2384068726.2691216     
   2267813884.0977631     
   2153256873.8174658     
   2040671835.8202109     
   2616696779.6062431     
   2494174609.3684840     
   2372006618.4421778     
   2250289865.0079923     
   2129145391.8955376     
   2760519913.2179875     
   2635933952.4211049     
   2510981033.1856093     
   2385685530.5532541     
   2260082417.3646388     
   2927560608.3549547     
   2803579583.3988328     
   2678875458.6247745     
   2553457435.4389296     
   2427350783.5041833     
   1999421309.2626581     
   1862072896.9988875     
   1724938326.7887638     
   1588398965.0938435     
   1453009982.1204243     
   2040671835.8202109     
   1896537880.9680486     
   1752860393.4481051     
   1609808296.8765404     
   1467616640.7777627     
   2129145391.8955376     
   1980501849.1489110     
   1832820432.5689976     
   1686163355.0693064     
   1540628452.5433731     
   2260082417.3646388     
   2107551465.8829012     
   1956481580.5350790     
   1806886886.0729539     
   1658846044.8629906     
   2427350783.5041833     
   2269997797.3351984     
   2114402935.4748952     
   1960558661.9694564     
   1808589351.4239790     
   1453009982.1204243     
   1345250902.3257589     
   1272399357.4415405     
   1242508801.5068781     
   1262521352.5013788     
   1467616640.7777627     
   1324930687.7845912     
   1196632309.1274002     
   1087081368.8340504     
   1002018478.9909775     
   1540628452.5433731     
   1392758286.2934544     
   1241370438.2263901     
   1084095209.4514620     
   918828733.12025166     
   1658846044.8629906     
   1546029430.8019824     
   1424342878.2175636     
   1294028378.3808405     
   1161152172.1124792     
   1808589351.4239790     
   1771222932.1448765     
   1730870731.7202439     
   1695875076.8607986     
   1684447404.4783125     
   1262521352.5013788     
   1446547282.8061380     
   1715694012.6718085     
   2110651510.2745206     
   2664012143.5725818     
   1002018478.9909775     
   1164712198.4515374     
   1425556602.2882159     
   1809080736.3893304     
   2335292744.0362406     
   918828733.12025166     
   963749642.68064570     
   1145225650.3726592     
   1476664231.3565071     
   1957523434.3516445     
   1161152172.1124792     
   1010038866.5785036     
   985786603.81257260     
   1161126923.4548488     
   1543052904.5065229     
   1684447404.4783125     
   1386118409.0113003     
   1130339466.1807413     
   1008878827.8714697     
   1149771367.9131157     
 </DataArray>
 <DataArray  type="Float64" Name="strain" NumberOfComponents="3" format="ascii">
  0.16691883531811080       -4.0825656665094634E-002   4.4410604777436191E-003
  0.14109110129064928       -3.3860717343330737E-002   1.2280075121862133E-003
  0.11526336726318764       -2.8417291102472986E-002  -1.3056068958537947E-003
   8.9435633235726064E-002  -2.4495377942521504E-002  -3.1597827463768491E-003
   6.3607899208264485E-002  -2.2094977863476362E-002  -4.3345200393827277E-003
  0.15896299465795760       -3.6614708535199991E-002   1.9140040503858868E-002
  0.13399683003162405       -3.0563003302151170E-002   1.3454853588493465E-002
  0.10903066540529094       -2.5969925256885573E-002   8.8133669178679375E-003
   8.4064500778957607E-002  -2.2835474399403310E-002   5.2155804919812310E-003
   5.9098336152624276E-002  -2.1159650729704160E-002   2.6614943108341782E-003
  0.14984295933872999       -3.2403760405305126E-002   3.2894343494697054E-002
  0.12610262580074716       -2.7265289260971770E-002   2.4799908522647129E-002
  0.10236229226276430       -2.3522559411298466E-002   1.8113435482558893E-002
   7.8621958724781463E-002  -2.1175570856285221E-002   1.2834924374432025E-002
   5.4881625186798622E-002  -2.0224323595931903E-002   8.9643751982668718E-003
  0.13955872936042835       -2.8192812275410345E-002   4.5703969450258439E-002
  0.11740848859801808       -2.3967575219792342E-002   3.5263172314647068E-002
   9.5258247835607990E-002  -2.1075193565711206E-002   2.6594598798219245E-002
   7.3108007073197742E-002  -1.9515667313167024E-002   1.9698248900975237E-002
   5.0957766310787522E-002  -1.9288996462159785E-002   1.4574122622915020E-002
  0.12811030472305251       -2.3981864145515619E-002   5.7568918370543010E-002
  0.10791441842343713       -2.0669861178612747E-002   4.4844644964492975E-002
   8.7718532123821746E-002  -1.8627827720123974E-002   3.4256856864849083E-002
   6.7522645824206307E-002  -1.7855763770048889E-002   2.5805554071611170E-002
   4.7326759524590867E-002  -1.8353669328387556E-002   1.9490736584778789E-002
   6.3607899208264485E-002  -2.2094977863476362E-002  -4.3345200393827277E-003
   6.7470680711755215E-002  -2.0788844862973610E-002  -2.2771333500324342E-003
   7.1333462215245946E-002  -2.0149732938649523E-002  -3.7568070938276410E-004
   7.5196243718736677E-002  -2.0177642090503545E-002   1.3698378825663660E-003
   7.9059025222227408E-002  -2.0872572318536231E-002   2.9594224258150392E-003
   5.9098336152624276E-002  -2.1159650729704160E-002   2.6614943108341782E-003
   6.2781484291710543E-002  -2.0382455214861539E-002   4.4852086752408815E-003
   6.6464632430796811E-002  -1.9943888821948197E-002   6.1055903595390315E-003
   7.0147780569883078E-002  -1.9843951550965577E-002   7.5226393637289335E-003
   7.3830928708969346E-002  -2.0082643401912015E-002   8.7363556878102266E-003
   5.4881625186798622E-002  -2.0224323595931903E-002   8.9643751982668718E-003
   5.8337741330072523E-002  -1.9976065566749357E-002   1.0882809191978482E-002
   6.1793857473346425E-002  -1.9738044705247648E-002   1.2550511874174053E-002
   6.5249973616620355E-002  -1.9510261011427166E-002   1.3967483244853307E-002
   6.8706089759894229E-002  -1.9292714485287632E-002   1.5133723304016050E-002
   5.0957766310787522E-002  -1.9288996462159785E-002   1.4574122622915020E-002
   5.4139451826841135E-002  -1.9569675918637119E-002   1.6915668200180589E-002
   5.7321137342894776E-002  -1.9532200588546988E-002   1.8959083834521911E-002
   6.0502822858948403E-002  -1.9176570471888976E-002   2.0704369525939299E-002
   6.3684508375001975E-002  -1.8502785568663332E-002   2.2151525274432197E-002
   4.7326759524590867E-002  -1.8353669328387556E-002   1.9490736584778789E-002
   5.0186615782016358E-002  -1.9163286270525132E-002   2.2583785699846898E-002
   5.3046472039441794E-002  -1.9326356471846023E-002   2.5331306240582940E-002
   5.5906328296867244E-002  -1.8842879932350766E-002   2.7733298206987056E-002
   5.8766184554292722E-002  -1.7712856652038977E-002   2.9789761599058717E-002
   7.9059025222227408E-002  -2.0872572318536231E-002   2.9594224258150392E-003
   7.5626793894773781E-002  -2.1558099247498574E-002   1.8196382248303333E-003
   7.2194562567320208E-002  -2.1557798502141817E-002   1.0702833037408710E-003
   6.8762331239866636E-002  -2.0871670082464829E-002   7.1135766254626365E-004
   6.5330099912413009E-002  -1.9499713988469836E-002   7.4286130124723293E-004
   7.3830928708969346E-002  -2.0082643401912015E-002   8.7363556878102266E-003
   7.0756776498198448E-002  -2.0261374314946456E-002   8.2396682238327079E-003
   6.7682624287427551E-002  -1.9981554230227211E-002   8.0687097133251839E-003
   6.4608472076656653E-002  -1.9243183147753730E-002   8.2234801562885845E-003
   6.1534319865885756E-002  -1.8046261067526936E-002   8.7039795527216191E-003
   6.8706089759894229E-002  -1.9292714485287632E-002   1.5133723304016050E-002
   6.5925316339381118E-002  -1.8964649382394477E-002   1.5052855900480083E-002
   6.3144542918868063E-002  -1.8405309958312924E-002   1.5233017123989653E-002
   6.0363769498354980E-002  -1.7614696213042628E-002   1.5674206974544559E-002
   5.7582996077841869E-002  -1.6592808146584037E-002   1.6376425452144960E-002
   6.3684508375001975E-002  -1.8502785568663332E-002   2.2151525274432197E-002
   6.1132413418321825E-002  -1.7667924449842429E-002   2.2259201254772674E-002
   5.8580318461641731E-002  -1.6829065686398366E-002   2.2563205535733512E-002
   5.6028223504961623E-002  -1.5986209278331304E-002   2.3063538117314736E-002
   5.3476128548281487E-002  -1.5139355225641027E-002   2.3760198999516854E-002
   5.8766184554292722E-002  -1.7712856652038977E-002   2.9789761599058717E-002
   5.6378067735020632E-002  -1.6371199517290519E-002   2.9858704286710225E-002
   5.3989950915748597E-002  -1.5252821414483919E-002   3.0059274948557091E-002
   5.1601834096476548E-002  -1.4357722343620011E-002   3.0391473584599732E-002
   4.9213717277204472E-002  -1.3685902304698294E-002   3.0855300194837898E-002
   6.5330099912413009E-002  -1.9499713988469836E-002   7.4286130124723293E-004
   6.1183484604456662E-002  -1.7922577041688093E-002   2.8753684646043443E-004
   5.7036869296500259E-002  -1.6620906063654017E-002   2.8041529695266298E-005
   5.2890253988543912E-002  -1.5594701054368457E-002  -3.5624649049215140E-005
   4.8743638680587509E-002  -1.4843962013830092E-002   9.6538310227822777E-005
   6.1534319865885756E-002  -1.8046261067526936E-002   8.7039795527216191E-003
   5.7591590453255126E-002  -1.6716052817256633E-002   7.8674458005150161E-003
   5.3648861040624551E-002  -1.5577823224654008E-002   7.2428547009393829E-003
   4.9706131627993894E-002  -1.4631572289719466E-002   6.8302062539936648E-003
   4.5763402215363291E-002  -1.3877300012452354E-002   6.6295004596791385E-003
   5.7582996077841869E-002  -1.6592808146584037E-002   1.6376425452144960E-002
   5.3860266075146268E-002  -1.5509528592824784E-002   1.5242169713598819E-002
   5.0137536072450639E-002  -1.4534740385653971E-002   1.4335970142292348E-002
   4.6414806069755107E-002  -1.3668443525070469E-002   1.3657826738225423E-002
   4.2692076067059437E-002  -1.2910638011074949E-002   1.3207739501398086E-002
   5.3476128548281487E-002  -1.5139355225641027E-002   2.3760198999516854E-002
   4.9989511470130130E-002  -1.4303004368393241E-002   2.2411708585711052E-002
   4.6502894391978716E-002  -1.3491657546653504E-002   2.1307387853754127E-002
   4.3016277313827372E-002  -1.2705314760421475E-002   2.0447236803645689E-002
   3.9529660235675938E-002  -1.1943976009697488E-002   1.9831255435386261E-002
   4.9213717277204472E-002  -1.3685902304698294E-002   3.0855300194837898E-002
   4.5979326638206558E-002  -1.3096480143961420E-002   2.9376062416851978E-002
   4.2744935999208672E-002  -1.2448574707653190E-002   2.8157107835324130E-002
   3.9510545360210758E-002  -1.1742185995772574E-002   2.7198436450254646E-002
   3.6276154721212872E-002  -1.0977314008319805E-002   2.6500048261643205E-002
   4.8743638680587509E-002  -1.4843962013830092E-002   9.6538310227822777E-005
   4.6681932016307548E-002  -1.4203768170132802E-002   2.2108665355413670E-004
   4.4620225352027754E-002  -1.3509198751369744E-002   3.1186453374865142E-004
   4.2558518687747876E-002  -1.2760253757541237E-002   3.6887195081158897E-004
   4.0496812023467998E-002  -1.1956933188647323E-002   3.9210890474272730E-004
   4.5763402215363291E-002  -1.3877300012452354E-002   6.6295004596791385E-003
   4.3681962980638755E-002  -1.3201989199514208E-002   6.7212126646510884E-003
   4.1600523745914275E-002  -1.2492622657564567E-002   6.8072301918660205E-003
   3.9519084511189795E-002  -1.1749200386603376E-002   6.8875530413227970E-003
   3.7437645276465203E-002  -1.0971722386631688E-002   6.9621812130228333E-003
   4.2692076067059437E-002  -1.2910638011074949E-002   1.3207739501398086E-002
   4.0618980047264580E-002  -1.2200210228895059E-002   1.3246295721962009E-002
   3.8545884027469710E-002  -1.1476046563758752E-002   1.3307233050142392E-002
   3.6472788007674818E-002  -1.0738147015665521E-002   1.3390551485939581E-002
   3.4399691987879982E-002  -9.9865115846160535E-003   1.3496251029353756E-002
   3.9529660235675938E-002  -1.1943976009697488E-002   1.9831255435386261E-002
   3.7492983216184959E-002  -1.1198431258276187E-002   1.9796335825487094E-002
   3.5456306196694043E-002  -1.0459470469953144E-002   1.9811873108578598E-002
   3.3419629177203092E-002  -9.7270936447276628E-003   1.9877867284661014E-002
   3.1382952157712078E-002  -9.0013007826003077E-003   1.9994318353734802E-002
   3.6276154721212872E-002  -1.0977314008319805E-002   2.6500048261643205E-002
   3.4303972487400025E-002  -1.0196652287657593E-002   2.6371332975226036E-002
   3.2331790253587261E-002  -9.4428943761477313E-003   2.6321150367174140E-002
   3.0359608019774456E-002  -8.7160402737899087E-003   2.6349500437487683E-002
   2.8387425785961651E-002  -8.0160899805845620E-003   2.6456383186166277E-002
   4.0496812023467998E-002  -1.1956933188647323E-002   3.9210890474272730E-004
   3.7870746231512764E-002  -1.1188870353752600E-002  -1.1286083284178794E-004
   3.5244680439557474E-002  -1.0545698561922778E-002  -4.7949875635233674E-004
   3.2618614647602157E-002  -1.0027417813157580E-002  -7.0780486578908564E-004
   2.9992548855646950E-002  -9.6340281074560608E-003  -7.9777916115242320E-004
   3.7437645276465203E-002  -1.0971722386631688E-002   6.9621812130228333E-003
   3.4926457118492016E-002  -1.0216939835320127E-002   6.3528019190658425E-003
   3.2415268960518884E-002  -9.5416039103407013E-003   5.8348460789992007E-003
   2.9904080802545807E-002  -8.9457146116935921E-003   5.4083136928227693E-003
   2.7392892644572564E-002  -8.4292719393781468E-003   5.0732047605367425E-003
   3.4399691987879982E-002  -9.9865115846160535E-003   1.3496251029353756E-002
   3.1956473103705335E-002  -9.2450093168877645E-003   1.2827906595756222E-002
   2.9513254219530702E-002  -8.5375092587590684E-003   1.2204077255866030E-002
   2.7070035335356006E-002  -7.8640114102298264E-003   1.1624763009682543E-002
   2.4626816451181477E-002  -7.2245157712995667E-003   1.1089963857205620E-002
   3.1382952157712078E-002  -9.0013007826003077E-003   1.9994318353734802E-002
   2.8960794187152465E-002  -8.2730787984551246E-003   1.9312453197230059E-002
   2.6538636216592876E-002  -7.5334146071771024E-003   1.8628194774248624E-002
   2.4116478246033218E-002  -6.7823082087657277E-003   1.7941543084790304E-002
   2.1694320275473675E-002  -6.0197596032213196E-003   1.7252498128855404E-002
   2.8387425785961651E-002  -8.0160899805845620E-003   2.6456383186166277E-002
   2.5939420368833510E-002  -7.3011482800226513E-003   2.5806441723487117E-002
   2.3491414951705369E-002  -6.5293199555950532E-003   2.5107198634146843E-002
   2.1043409534577215E-002  -5.7006050073019413E-003   2.4358653918146733E-002
   1.8595404117449088E-002  -4.8150034351429616E-003   2.3560807575486176E-002
   2.9992548855646950E-002  -9.6340281074560608E-003  -7.9777916115242320E-004
   2.9457084025777625E-002  -9.1130636590192049E-003  -4.4436216628662706E-004
   2.8921619195908355E-002  -8.2120586820458863E-003  -1.7991637114405101E-003
   2.8386154366039085E-002  -6.9310131765342453E-003  -4.8621837966142389E-003
   2.7850689536169759E-002  -5.2699271424874183E-003  -9.6334224218070919E-003
   2.7392892644572564E-002  -8.4292719393781468E-003   5.0732047605367425E-003
   2.5422350783029291E-002  -7.8569808395536622E-003   5.8189352863731170E-003
   2.3451808921486128E-002  -7.0935462583812114E-003   5.4027302888819406E-003
   2.1481267059942966E-002  -6.1389681958597397E-003   3.8245897680616869E-003
   1.9510725198399692E-002  -4.9932466519897467E-003   1.0845137239132718E-003
   2.4626816451181477E-002  -7.2245157712995667E-003   1.1089963857205620E-002
   2.1767480574655246E-002  -6.6008980200891743E-003   1.2039110866826075E-002
   1.8908144698129070E-002  -5.9750338347178134E-003   1.2372605369809053E-002
   1.6048808821602895E-002  -5.3469232151854423E-003   1.2090447366154833E-002
   1.3189472945076691E-002  -4.7165661614925192E-003   1.1192636855862359E-002
   2.1694320275473675E-002  -6.0197596032213196E-003   1.7252498128855404E-002
   1.8492473400655428E-002  -5.3448152006239369E-003   1.8216164575071525E-002
   1.5290626525837181E-002  -4.8565214110538879E-003   1.9110461531341091E-002
   1.2088779651018941E-002  -4.5548782345108188E-003   1.9935388997663776E-002
   8.8869327762006872E-003  -4.4398856709950696E-003   2.0690946974040586E-002
   1.8595404117449088E-002  -4.8150034351429616E-003   2.3560807575486176E-002
   1.5597329261029802E-002  -4.0887323811588661E-003   2.4350096411109967E-002
   1.2599254404610460E-002  -3.7380089873900457E-003   2.5616298773477653E-002
   9.6011795481911327E-003  -3.7628332538366602E-003   2.7359414662590370E-002
   6.6031046917718328E-003  -4.1632051804978421E-003   2.9579444078446926E-002
   2.7850689536169759E-002  -5.2699271424874183E-003  -9.6334224218070919E-003
   2.3394921567390092E-002  -4.2205722567736359E-003  -4.1607917228927427E-003
   1.8939153598610259E-002  -4.7747201962643482E-003   2.5922336210284502E-003
   1.4483385629830370E-002  -6.9323709609600270E-003   1.0625653609957597E-002
   1.0027617661050758E-002  -1.0693524550860367E-002   1.9939468243893366E-002
   1.9510725198399692E-002  -4.9932466519897467E-003   1.0845137239132718E-003
   1.6260353733180855E-002  -4.7001885882860250E-003   6.7508717323845335E-003
   1.3009982267962128E-002  -6.3036009662664760E-003   1.3547628102971054E-002
   9.7596108027433459E-003  -9.8034837859289903E-003   2.1474782835671613E-002
   6.5092393375245639E-003  -1.5199837047275455E-002   3.0532335930488319E-002
   1.3189472945076691E-002  -4.7165661614925192E-003   1.1192636855862359E-002
   1.0994501700526571E-002  -5.1798049197997464E-003   1.6759754557412299E-002
   8.7995304559763815E-003  -7.8324817362681043E-003   2.3307274338184969E-002
   6.6045592114262891E-003  -1.2674596610898717E-002   3.0835196198180426E-002
   4.4095879668760718E-003  -1.9706149543690099E-002   3.9343520137397947E-002
   8.8869327762006872E-003  -4.4398856709950696E-003   2.0690946974040586E-002
   7.5973654694270198E-003  -5.6594212513130238E-003   2.5865856752190858E-002
   6.3077981626532345E-003  -9.3613625062704264E-003   3.1871172326671415E-002
   5.0182308558794526E-003  -1.5545709435868284E-002   3.8706893697481960E-002
   3.7286635491057540E-003  -2.4212462040105409E-002   4.6373020864622860E-002
   6.6031046917718328E-003  -4.1632051804978421E-003   2.9579444078446926E-002
   6.0689450398822009E-003  -6.1390375828260790E-003   3.4069178316719073E-002
   5.5347853879925413E-003  -1.0890243276272304E-002   3.9239322068429172E-002
   5.0006257361029094E-003  -1.8416822260837407E-002   4.5089875333577112E-002
   4.4664660842131942E-003  -2.8718774536520275E-002   5.1620838112163447E-002
  0.12811030472305251       -2.3981864145515619E-002   5.7568918370543010E-002
  0.10791441842343713       -2.0669861178612747E-002   4.4844644964492975E-002
   8.7718532123821746E-002  -1.8627827720123974E-002   3.4256856864849083E-002
   6.7522645824206307E-002  -1.7855763770048889E-002   2.5805554071611170E-002
   4.7326759524590867E-002  -1.8353669328387556E-002   1.9490736584778789E-002
  0.11644090723018502       -2.2389113162027796E-002   6.5063183153221127E-002
   9.8268482567652693E-002  -1.9134447849863206E-002   5.1705722465851867E-002
   8.0096057905120560E-002  -1.7094638149459301E-002   4.0258699746243187E-002
   6.1923633242588330E-002  -1.6269684060816268E-002   3.0722114994395047E-002
   4.3751208580056128E-002  -1.6659585583933739E-002   2.3095968210307488E-002
  0.10549375868540775       -2.0796362178539946E-002   7.2472553332834561E-002
   8.9118748321313557E-002  -1.7599034521113527E-002   5.8537019260798961E-002
   7.2743737957219251E-002  -1.5561448578794726E-002   4.6285875817878727E-002
   5.6368727593125029E-002  -1.4683604351583588E-002   3.5719123004073670E-002
   3.9993717229030695E-002  -1.4965501839480033E-002   2.6836760819383881E-002
   9.5268859088721236E-002  -1.9203611195052123E-002   7.9797028909383338E-002
   8.0465215684419514E-002  -1.6063621192363833E-002   6.5338535349334509E-002
   6.5661572280117889E-002  -1.4028259008130130E-002   5.2338385079755689E-002
   5.0857928875816263E-002  -1.3097524642350993E-002   4.0796578100646817E-002
   3.6054285471514583E-002  -1.3271418095026299E-002   3.0713114412007907E-002
   8.5766208440125058E-002  -1.7610860211564272E-002   8.7036609882867544E-002
   7.2307884656970745E-002  -1.4528207863614251E-002   7.2110270731458370E-002
   5.8849560873816431E-002  -1.2495069437465506E-002   5.8416227531874199E-002
   4.5391237090662132E-002  -1.1511444933118321E-002   4.5954480284114557E-002
   3.1932913307507804E-002  -1.1577334350572510E-002   3.4725028988179696E-002
   4.7326759524590867E-002  -1.8353669328387556E-002   1.9490736584778789E-002
   5.0186615782016358E-002  -1.9163286270525132E-002   2.2583785699846898E-002
   5.3046472039441794E-002  -1.9326356471846023E-002   2.5331306240582940E-002
   5.5906328296867244E-002  -1.8842879932350766E-002   2.7733298206987056E-002
   5.8766184554292722E-002  -1.7712856652038977E-002   2.9789761599058717E-002
   4.3751208580056128E-002  -1.6659585583933739E-002   2.3095968210307488E-002
   4.6289582222073800E-002  -1.7378129284187610E-002   2.6633181876961592E-002
   4.8827955864091457E-002  -1.7539101726952992E-002   2.9872958887132234E-002
   5.1366329506109074E-002  -1.7142502912230281E-002   3.2815299240819350E-002
   5.3904703148126787E-002  -1.6188332840019082E-002   3.5460202938022850E-002
   3.9993717229030695E-002  -1.4965501839480033E-002   2.6836760819383881E-002
   4.2258700173489164E-002  -1.5592972297850241E-002   3.0729163554296009E-002
   4.4523683117947570E-002  -1.5751846982060128E-002   3.4372221550572943E-002
   4.6788666062406031E-002  -1.5442125892109793E-002   3.7765934808215058E-002
   4.9053649006864389E-002  -1.4663809027999214E-002   4.0910303327222425E-002
   3.6054285471514583E-002  -1.3271418095026299E-002   3.0713114412007907E-002
   3.8093969636262395E-002  -1.3807815311512796E-002   3.4871730731849820E-002
   4.0133653801010194E-002  -1.3964592237167207E-002   3.8829094230905289E-002
   4.2173337965757979E-002  -1.3741748871989321E-002   4.2585204909174432E-002
   4.4213022130505791E-002  -1.3139285215979415E-002   4.6140062766657067E-002
   3.1932913307507804E-002  -1.1577334350572510E-002   3.4725028988179696E-002
   3.3795390610393550E-002  -1.2022658325175406E-002   3.9060883409623326E-002
   3.5657867913279295E-002  -1.2177337492274273E-002   4.3243576928129024E-002
   3.7520345216165013E-002  -1.2041371851868803E-002   4.7273109543697164E-002
   3.9382822519050786E-002  -1.1614761403959395E-002   5.1149481256327400E-002
   5.8766184554292722E-002  -1.7712856652038977E-002   2.9789761599058717E-002
   5.6378067735020632E-002  -1.6371199517290519E-002   2.9858704286710225E-002
   5.3989950915748597E-002  -1.5252821414483919E-002   3.0059274948557091E-002
   5.1601834096476548E-002  -1.4357722343620011E-002   3.0391473584599732E-002
   4.9213717277204472E-002  -1.3685902304698294E-002   3.0855300194837898E-002
   5.3904703148126787E-002  -1.6188332840019082E-002   3.5460202938022850E-002
   5.1655182196162483E-002  -1.5032335986892187E-002   3.5357942419890653E-002
   4.9405661244198221E-002  -1.4030256829421911E-002   3.5401245662178185E-002
   4.7156140292233979E-002  -1.3182095367608386E-002   3.5590112664885619E-002
   4.4906619340269655E-002  -1.2487851601451605E-002   3.5924543428013489E-002
   4.9053649006864389E-002  -1.4663809027999214E-002   4.0910303327222425E-002
   4.6956659708432311E-002  -1.3693472456494118E-002   4.0706200939591972E-002
   4.4859670410000239E-002  -1.2807692244360069E-002   4.0661598098605756E-002
   4.2762681111568168E-002  -1.2006468391597039E-002   4.0776494804263930E-002
   4.0665691813136104E-002  -1.1289800898205221E-002   4.1050891056566632E-002
   4.4213022130505791E-002  -1.3139285215979415E-002   4.6140062766657067E-002
   4.2282500271830219E-002  -1.2354608926095974E-002   4.5903479845814339E-002
   4.0351978413154653E-002  -1.1585127659298061E-002   4.5840332257840136E-002
   3.8421456554479066E-002  -1.0830841415585719E-002   4.5950620002734727E-002
   3.6490934695803508E-002  -1.0091750194958851E-002   4.6234343080497911E-002
   3.9382822519050786E-002  -1.1614761403959395E-002   5.1149481256327400E-002
   3.7632703886356117E-002  -1.1015745395697774E-002   5.0949779138557694E-002
   3.5882585253661420E-002  -1.0362563074236233E-002   5.0937448139881214E-002
   3.4132466620966750E-002  -9.6552144395740981E-003   5.1112488260297448E-002
   3.2382347988272053E-002  -8.8936994917122592E-003   5.1474899499806992E-002
   4.9213717277204472E-002  -1.3685902304698294E-002   3.0855300194837898E-002
   4.5979326638206558E-002  -1.3096480143961420E-002   2.9376062416851978E-002
   4.2744935999208672E-002  -1.2448574707653190E-002   2.8157107835324130E-002
   3.9510545360210758E-002  -1.1742185995772574E-002   2.7198436450254646E-002
   3.6276154721212872E-002  -1.0977314008319805E-002   2.6500048261643205E-002
   4.4906619340269655E-002  -1.2487851601451605E-002   3.5924543428013489E-002
   4.1929076071688776E-002  -1.1860638512215582E-002   3.4547210042481263E-002
   3.8951532803107827E-002  -1.1213569081163943E-002   3.3423288201324924E-002
   3.5973989534526941E-002  -1.0546643308296619E-002   3.2552777904544306E-002
   3.2996446265946000E-002  -9.8598611936139280E-003   3.1935679152139573E-002
   4.0665691813136104E-002  -1.1289800898205221E-002   4.1050891056566632E-002
   3.7938124262889804E-002  -1.0624796880469439E-002   3.9736835129731751E-002
   3.5210556712643573E-002  -9.9785634546747035E-003   3.8669319095190273E-002
   3.2482989162397349E-002  -9.3511006208208316E-003   3.7848342952942496E-002
   2.9755421612151084E-002  -8.7424083789080509E-003   3.7273906702988302E-002
   3.6490934695803508E-002  -1.0091750194958851E-002   4.6234343080497911E-002
   3.4006471211809670E-002  -9.3889552487233380E-003   4.4944937678603844E-002
   3.1522007727815798E-002  -8.7435578281854047E-003   4.3895200516920849E-002
   2.9037544243821968E-002  -8.1555579333449611E-003   4.3085131595448967E-002
   2.6553080759828148E-002  -7.6249555642019518E-003   4.2514730914188663E-002
   3.2382347988272053E-002  -8.8936994917122592E-003   5.1474899499806992E-002
   3.0134116918448361E-002  -8.1531136169772922E-003   5.0171517689096889E-002
   2.7885885848624614E-002  -7.5085522016962447E-003   4.9100932466515979E-002
   2.5637654778800908E-002  -6.9600152458690959E-003   4.8263143832064009E-002
   2.3389423708977175E-002  -6.5075027494961857E-003   4.7658151785741065E-002
   3.6276154721212872E-002  -1.0977314008319805E-002   2.6500048261643205E-002
   3.4303972487400025E-002  -1.0196652287657593E-002   2.6371332975226036E-002
   3.2331790253587261E-002  -9.4428943761477313E-003   2.6321150367174140E-002
   3.0359608019774456E-002  -8.7160402737899087E-003   2.6349500437487683E-002
   2.8387425785961651E-002  -8.0160899805845620E-003   2.6456383186166277E-002
   3.2996446265946000E-002  -9.8598611936139280E-003   3.1935679152139573E-002
   3.1111885186142552E-002  -9.1646287226138101E-003   3.1839806423672234E-002
   2.9227324106339242E-002  -8.4723518807947318E-003   3.1840643324858003E-002
   2.7342763026535807E-002  -7.7830306681559089E-003   3.1938189855697838E-002
   2.5458201946732456E-002  -7.0966650846981949E-003   3.2132446016191030E-002
   2.9755421612151084E-002  -8.7424083789080509E-003   3.7273906702988302E-002
   2.7976658637645382E-002  -8.1326051575702218E-003   3.7234824712441883E-002
   2.6197895663139646E-002  -7.5018093854416351E-003   3.7310629302837309E-002
   2.4419132688633955E-002  -6.8500210625222456E-003   3.7501320474174628E-002
   2.2640369714128195E-002  -6.1772401888120498E-003   3.7806898226453667E-002
   2.6553080759828148E-002  -7.6249555642019518E-003   4.2514730914188663E-002
   2.4898292841908368E-002  -7.1005815925264254E-003   4.2556387841535072E-002
   2.3243504923988620E-002  -6.5312668900885870E-003   4.2731108301111542E-002
   2.1588717006068854E-002  -5.9170114568882475E-003   4.3038892292918025E-002
   1.9933929088149092E-002  -5.2578152929258493E-003   4.3479739816954584E-002
   2.3389423708977175E-002  -6.5075027494961857E-003   4.7658151785741065E-002
   2.1876787798931596E-002  -6.0685580274829620E-003   4.7804495810951586E-002
   2.0364151888886073E-002  -5.5607243947356499E-003   4.8102080319680662E-002
   1.8851515978840494E-002  -4.9840018512544992E-003   4.8550905311928044E-002
   1.7338880068794971E-002  -4.3383903970395377E-003   4.9150970787693926E-002
   2.8387425785961651E-002  -8.0160899805845620E-003   2.6456383186166277E-002
   2.5939420368833510E-002  -7.3011482800226513E-003   2.5806441723487117E-002
   2.3491414951705369E-002  -6.5293199555950532E-003   2.5107198634146843E-002
   2.1043409534577215E-002  -5.7006050073019413E-003   2.4358653918146733E-002
   1.8595404117449088E-002  -4.8150034351429616E-003   2.3560807575486176E-002
   2.5458201946732456E-002  -7.0966650846981949E-003   3.2132446016191030E-002
   2.2999328046247769E-002  -6.4073069347651557E-003   3.1665242996438803E-002
   2.0540454145763026E-002  -5.7090080227001905E-003   3.1225604636633625E-002
   1.8081580245278325E-002  -5.0017683485033687E-003   3.0813530936775482E-002
   1.5622706344793597E-002  -4.2855879121752594E-003   3.0429021896865083E-002
   2.2640369714128195E-002  -6.1772401888120498E-003   3.7806898226453667E-002
   2.0247493616894402E-002  -5.5134655895074658E-003   3.7474487787894861E-002
   1.7854617519660630E-002  -4.8886960898052029E-003   3.7246508295890754E-002
   1.5461741422426855E-002  -4.3029316897052368E-003   3.7122959750441074E-002
   1.3068865325193066E-002  -3.7561723892078347E-003   3.7103842151546412E-002
   1.9933929088149092E-002  -5.2578152929258493E-003   4.3479739816954584E-002
   1.7683917080773669E-002  -4.6196242442498731E-003   4.3234176097855168E-002
   1.5433905073398186E-002  -4.0683841569103887E-003   4.3169909611918147E-002
   1.3183893066022759E-002  -3.6040950309071621E-003   4.3286940359142836E-002
   1.0933881058647284E-002  -3.2267568662401047E-003   4.3585268339529935E-002
   1.7338880068794971E-002  -4.3383903970395377E-003   4.9150970787693926E-002
   1.5308598437885290E-002  -3.7257828989922803E-003   4.8944307926319985E-002
   1.3278316806975693E-002  -3.2480722240154358E-003   4.8995808584715972E-002
   1.1248035176066054E-002  -2.9052583721086087E-003   4.9305472762880748E-002
   9.2177535451564707E-003  -2.6973413432727078E-003   4.9873300460815728E-002
   1.8595404117449088E-002  -4.8150034351429616E-003   2.3560807575486176E-002
   1.5597329261029802E-002  -4.0887323811588661E-003   2.4350096411109967E-002
   1.2599254404610460E-002  -3.7380089873900457E-003   2.5616298773477653E-002
   9.6011795481911327E-003  -3.7628332538366602E-003   2.7359414662590370E-002
   6.6031046917718328E-003  -4.1632051804978421E-003   2.9579444078446926E-002
   1.5622706344793597E-002  -4.2855879121752594E-003   3.0429021896865083E-002
   1.3082460876549545E-002  -3.7810801402268224E-003   3.1214166471421056E-002
   1.0542215408305536E-002  -3.7088584591694063E-003   3.2438056295583689E-002
   8.0019699400614638E-003  -4.0689228690035800E-003   3.4100691369352162E-002
   5.4617244718174751E-003  -4.8612733697281918E-003   3.6202071692727045E-002
   1.3068865325193066E-002  -3.7561723892078347E-003   3.7103842151546412E-002
   1.0948280967986029E-002  -3.4734278992949175E-003   3.7828104034359100E-002
   8.8276966107790344E-003  -3.6797079309490027E-003   3.8952942889639977E-002
   6.7071122535720430E-003  -4.3750124841703923E-003   4.0478358717388592E-002
   4.5865278963650030E-003  -5.5593415589584305E-003   4.2404351517605299E-002
   1.0933881058647284E-002  -3.2267568662401047E-003   4.3585268339529935E-002
   9.1947895353390666E-003  -3.1657756583626101E-003   4.4191909099923335E-002
   7.4556980120309025E-003  -3.6505574027284812E-003   4.5160958555646766E-002
   5.7166064887227358E-003  -4.6811020993371474E-003   4.6492416706699631E-002
   3.9775149654145171E-003  -6.2574097481887248E-003   4.8186283553082382E-002
   9.2177535451564707E-003  -2.6973413432727078E-003   4.9873300460815728E-002
   7.8219865786088305E-003  -2.8581234174310244E-003   5.0305581668114163E-002
   6.4262196120612181E-003  -3.6214068745082650E-003   5.1062103293604222E-002
   5.0304526455136195E-003  -4.9871917145044783E-003   5.2142865337285543E-002
   3.6346856789659654E-003  -6.9554779374191300E-003   5.3547867799158211E-002
   6.6031046917718328E-003  -4.1632051804978421E-003   2.9579444078446926E-002
   6.0689450398822009E-003  -6.1390375828260790E-003   3.4069178316719073E-002
   5.5347853879925413E-003  -1.0890243276272304E-002   3.9239322068429172E-002
   5.0006257361029094E-003  -1.8416822260837407E-002   4.5089875333577112E-002
   4.4664660842131942E-003  -2.8718774536520275E-002   5.1620838112163447E-002
   5.4617244718174751E-003  -4.8612733697281918E-003   3.6202071692727045E-002
   5.5050006402713736E-003  -6.9901129955232122E-003   3.8346983157222736E-002
   5.5482768087254386E-003  -1.1359644780568390E-002   4.0966356748967536E-002
   5.5915529771793510E-003  -1.7969868724863169E-002   4.4060192467961834E-002
   5.6348291456334021E-003  -2.6820784828407440E-002   4.7628490314205685E-002
   4.5865278963650030E-003  -5.5593415589584305E-003   4.2404351517605299E-002
   5.0012924989739915E-003  -7.8411884082209005E-003   4.2739121340193337E-002
   5.4160571015829453E-003  -1.1829046284864475E-002   4.3342405903841863E-002
   5.8308217041919616E-003  -1.7522915188888932E-002   4.4214205208551349E-002
   6.2455863068008877E-003  -2.4922795120294827E-002   4.5354519254321102E-002
   3.9775149654145171E-003  -6.2574097481887248E-003   4.8186283553082382E-002
   4.5578206159898674E-003  -8.6922638209182002E-003   4.7245592865631417E-002
   5.1381262665652731E-003  -1.2298447789160338E-002   4.6367469533052069E-002
   5.7184319171407049E-003  -1.7075961652915139E-002   4.5551913555344686E-002
   6.2987375677160257E-003  -2.3024805412181992E-002   4.4798924932509865E-002
   3.6346856789659654E-003  -6.9554779374191300E-003   5.3547867799158211E-002
   4.1745849913191468E-003  -9.5433392336157219E-003   5.1866397733536296E-002
   4.7144843036722450E-003  -1.2767849293456562E-002   5.0041547636597905E-002
   5.2543836160253987E-003  -1.6629008116940548E-002   4.8073317508343233E-002
   5.7942829283784691E-003  -2.1126815704069379E-002   4.5961707348771697E-002
   8.5766208440125058E-002  -1.7610860211564272E-002   8.7036609882867544E-002
   7.2307884656970745E-002  -1.4528207863614251E-002   7.2110270731458370E-002
   5.8849560873816431E-002  -1.2495069437465506E-002   5.8416227531874199E-002
   4.5391237090662132E-002  -1.1511444933118321E-002   4.5954480284114557E-002
   3.1932913307507804E-002  -1.1577334350572510E-002   3.4725028988179696E-002
   7.6169401787525320E-002  -1.5378042532363301E-002   9.5238809530555468E-002
   6.4065931108798033E-002  -1.2666647245004020E-002   7.8535415519211921E-002
   5.1962460430070731E-002  -1.0883840148721791E-002   6.3309431764897617E-002
   3.9858989751343409E-002  -1.0029621243516640E-002   4.9560858267612876E-002
   2.7755519072616114E-002  -1.0103990529388429E-002   3.7289695027357211E-002
   6.5662034178827947E-002  -1.3145224853162218E-002  0.10300928925229041     
   5.5158530909732231E-002  -1.0805086626393928E-002   8.4649766111736635E-002
   4.4655027640636592E-002  -9.2726108599780616E-003   6.8012767533416965E-002
   3.4151524371540884E-002  -8.5477975539148439E-003   5.3098293517331217E-002
   2.3648021102445210E-002  -8.6306467082042371E-003   3.9906344063479329E-002
   5.4244105614032881E-002  -1.0912407173961192E-002  0.11034804904807219     
   4.5585684059773479E-002  -8.9435260077837531E-003   9.0453322509032763E-002
   3.6927262505514036E-002  -7.6613815712343949E-003   7.2526234837432063E-002
   2.8268840951254641E-002  -7.0659738643131052E-003   5.6566786033269735E-002
   1.9610419396995218E-002  -7.1573028870200173E-003   4.2574976096546133E-002
   4.1915616093140096E-002  -8.6795894947601648E-003  0.11725508891790098     
   3.5347390558921596E-002  -7.0819653891736334E-003   9.5946084711100332E-002
   2.8779165024703096E-002  -6.0501522824906034E-003   7.6849833676942841E-002
   2.2210939490484582E-002  -5.5841501747113630E-003   5.9966335815428665E-002
   1.5642713956266069E-002  -5.6839590658359085E-003   4.5295591126557733E-002
   3.1932913307507804E-002  -1.1577334350572510E-002   3.4725028988179696E-002
   3.3795390610393550E-002  -1.2022658325175406E-002   3.9060883409623326E-002
   3.5657867913279295E-002  -1.2177337492274273E-002   4.3243576928129024E-002
   3.7520345216165013E-002  -1.2041371851868803E-002   4.7273109543697164E-002
   3.9382822519050786E-002  -1.1614761403959395E-002   5.1149481256327400E-002
   2.7755519072616114E-002  -1.0103990529388429E-002   3.7289695027357211E-002
   2.9447800375874744E-002  -1.0510765429280755E-002   4.1955621502102330E-002
   3.1140081679133375E-002  -1.0653763366137159E-002   4.6434316880530790E-002
   3.2832362982392005E-002  -1.0532984339957904E-002   5.0725781162643035E-002
   3.4524644285650635E-002  -1.0148428350742755E-002   5.4830014348438649E-002
   2.3648021102445210E-002  -8.6306467082042371E-003   3.9906344063479329E-002
   2.5136036212698047E-002  -8.9988725333860209E-003   4.4875474747057692E-002
   2.6624051322950863E-002  -9.1301892400002735E-003   4.9623304140940731E-002
   2.8112066433203686E-002  -9.0245968280468960E-003   5.4149832245128662E-002
   2.9600081543456516E-002  -8.6820952975260324E-003   5.8455059059621436E-002
   1.9610419396995218E-002  -7.1573028870200173E-003   4.2574976096546133E-002
   2.0860098120863528E-002  -7.4869796374913561E-003   4.7820443144489452E-002
   2.2109776844731834E-002  -7.6066151138632736E-003   5.2810538709358715E-002
   2.3359455568600113E-002  -7.5162093161359978E-003   5.7545262791154149E-002
   2.4609134292468422E-002  -7.2157622443093511E-003   6.2024615389875831E-002
   1.5642713956266069E-002  -5.6839590658359085E-003   4.5295591126557733E-002
   1.6619986100371145E-002  -5.9750867415966358E-003   5.0790526694397653E-002
   1.7597258244476208E-002  -6.0830409877263153E-003   5.5996020585784928E-002
   1.8574530388581284E-002  -6.0078218042250268E-003   6.0912072800719599E-002
   1.9551802532686346E-002  -5.7494291910926143E-003   6.5538683339201709E-002
   3.9382822519050786E-002  -1.1614761403959395E-002   5.1149481256327400E-002
   3.7632703886356117E-002  -1.1015745395697774E-002   5.0949779138557694E-002
   3.5882585253661420E-002  -1.0362563074236233E-002   5.0937448139881214E-002
   3.4132466620966750E-002  -9.6552144395740981E-003   5.1112488260297448E-002
   3.2382347988272053E-002  -8.8936994917122592E-003   5.1474899499806992E-002
   3.4524644285650635E-002  -1.0148428350742755E-002   5.4830014348438649E-002
   3.2968592026849666E-002  -9.6103873404543017E-003   5.4619302672831022E-002
   3.1412539768048711E-002  -9.0291532510551192E-003   5.4609352625917817E-002
   2.9856487509247742E-002  -8.4047260825452184E-003   5.4800164207698801E-002
   2.8300435250446787E-002  -7.7371058349247068E-003   5.5191737418174402E-002
   2.9600081543456516E-002  -8.6820952975260324E-003   5.8455059059621436E-002
   2.8251486168150590E-002  -8.2050292852106355E-003   5.8222364592086448E-002
   2.6902890792844650E-002  -7.6957434278741091E-003   5.8203822262847267E-002
   2.5554295417538717E-002  -7.1542377255161705E-003   5.8399432071903609E-002
   2.4205700042232783E-002  -6.5805121781370990E-003   5.8809194019255773E-002
   2.4609134292468422E-002  -7.2157622443093511E-003   6.2024615389875831E-002
   2.3481386310258839E-002  -6.7996712299671219E-003   6.1758964896324070E-002
   2.2353638328049225E-002  -6.3623336046930191E-003   6.1720857050669334E-002
   2.1225890345839611E-002  -5.9037493684872067E-003   6.1910291852911588E-002
   2.0098142363630032E-002  -5.4239185213495189E-003   6.2327269303050915E-002
   1.9551802532686346E-002  -5.7494291910926143E-003   6.5538683339201709E-002
   1.8658292453174394E-002  -5.3943131747234974E-003   6.5229103585543846E-002
   1.7764782373662441E-002  -5.0289237815119847E-003   6.5160456989384219E-002
   1.6871272294150488E-002  -4.6532610114581319E-003   6.5332743550722910E-002
   1.5977762214638536E-002  -4.2673248645618833E-003   6.5745963269559782E-002
   3.2382347988272053E-002  -8.8936994917122592E-003   5.1474899499806992E-002
   3.0134116918448361E-002  -8.1531136169772922E-003   5.0171517689096889E-002
   2.7885885848624614E-002  -7.5085522016962447E-003   4.9100932466515979E-002
   2.5637654778800908E-002  -6.9600152458690959E-003   4.8263143832064009E-002
   2.3389423708977175E-002  -6.5075027494961857E-003   4.7658151785741065E-002
   2.8300435250446787E-002  -7.7371058349247068E-003   5.5191737418174402E-002
   2.6294064904651610E-002  -7.0881097494256973E-003   5.3796364341571257E-002
   2.4287694558856432E-002  -6.5195550672805525E-003   5.2651916124896309E-002
   2.2281324213061261E-002  -6.0314417884891405E-003   5.1758392768149489E-002
   2.0274953867266077E-002  -5.6237699130515795E-003   5.1115794271330728E-002
   2.4205700042232783E-002  -6.5805121781370990E-003   5.8809194019255773E-002
   2.2459318692265279E-002  -6.0231058818741856E-003   5.7337412732859666E-002
   2.0712937342297733E-002  -5.5305579328648463E-003   5.6134684578191027E-002
   1.8966555992330204E-002  -5.1028683311091817E-003   5.5201009555249446E-002
   1.7220174642362682E-002  -4.7400370766070288E-003   5.4536387664035069E-002
   2.0098142363630032E-002  -5.4239185213495189E-003   6.2327269303050915E-002
   1.8629878281289272E-002  -4.9581020143227988E-003   6.0794662862962028E-002
   1.7161614198948509E-002  -4.5415607984490916E-003   5.9549237826399676E-002
   1.5693350116607781E-002  -4.1742948737292802E-003   5.8590994193363860E-002
   1.4225086034266993E-002  -3.8563042401626724E-003   5.7919931963853893E-002
   1.5977762214638536E-002  -4.2673248645618833E-003   6.5745963269559782E-002
   1.4805743671723659E-002  -3.8930981467712455E-003   6.4168114731878501E-002
   1.3633725128808782E-002  -3.5525636640335451E-003   6.2895575869522796E-002
   1.2461706585893920E-002  -3.2457214163492364E-003   6.1928346682492516E-002
   1.1289688042979029E-002  -2.9725714037179829E-003   6.1266427170787563E-002
   2.3389423708977175E-002  -6.5075027494961857E-003   4.7658151785741065E-002
   2.1876787798931596E-002  -6.0685580274829620E-003   4.7804495810951586E-002
   2.0364151888886073E-002  -5.5607243947356499E-003   4.8102080319680662E-002
   1.8851515978840494E-002  -4.9840018512544992E-003   4.8550905311928044E-002
   1.7338880068794971E-002  -4.3383903970395377E-003   4.9150970787693926E-002
   2.0274953867266077E-002  -5.6237699130515795E-003   5.1115794271330728E-002
   1.8919531726809852E-002  -5.2298892987517887E-003   5.1388676095326380E-002
   1.7564109586353627E-002  -4.7831498033733266E-003   5.1824744974982490E-002
   1.6208687445897395E-002  -4.2835514269166861E-003   5.2424000910298807E-002
   1.4853265305441149E-002  -3.7310941693815547E-003   5.3186443901275471E-002
   1.7220174642362682E-002  -4.7400370766070288E-003   5.4536387664035069E-002
   1.6033912843637810E-002  -4.3912205700204487E-003   5.4919777257160046E-002
   1.4847651044912931E-002  -4.0055752120108923E-003   5.5478300478087439E-002
   1.3661389246188045E-002  -3.5831010025788174E-003   5.6211957326817052E-002
   1.2475127447463180E-002  -3.1237979417236827E-003   5.7120747803349192E-002
   1.4225086034266993E-002  -3.8563042401626724E-003   5.7919931963853893E-002
   1.3219931149415477E-002  -3.5525518412892476E-003   5.8397799296452703E-002
   1.2214776264563951E-002  -3.2280006206486800E-003   5.9062746828995746E-002
   1.1209621379712433E-002  -2.8826505782409209E-003   5.9914774561483190E-002
   1.0204466494860877E-002  -2.5165017140658108E-003   6.0953882493914972E-002
   1.1289688042979029E-002  -2.9725714037179829E-003   6.1266427170787563E-002
   1.0477586644142889E-002  -2.7138831125578244E-003   6.1822742213204496E-002
   9.6654852453067069E-003  -2.4504260292861346E-003   6.2578084027707481E-002
   8.8533838464705389E-003  -2.1822001539030245E-003   6.3532452614296964E-002
   8.0412824476343570E-003  -1.9092054864079389E-003   6.4685847972972832E-002
   1.7338880068794971E-002  -4.3383903970395377E-003   4.9150970787693926E-002
   1.5308598437885290E-002  -3.7257828989922803E-003   4.8944307926319985E-002
   1.3278316806975693E-002  -3.2480722240154358E-003   4.8995808584715972E-002
   1.1248035176066054E-002  -2.9052583721086087E-003   4.9305472762880748E-002
   9.2177535451564707E-003  -2.6973413432727078E-003   4.9873300460815728E-002
   1.4853265305441149E-002  -3.7310941693815547E-003   5.3186443901275471E-002
   1.3082324221197220E-002  -3.2169389149366845E-003   5.2956255117008855E-002
   1.1311383136953304E-002  -2.8322465477507164E-003   5.2986583906304063E-002
   9.5404420527093678E-003  -2.5770170678237614E-003   5.3277430269161402E-002
   7.7695009684654592E-003  -2.4512504751557085E-003   5.3828794205580122E-002
   1.2475127447463180E-002  -3.1237979417236827E-003   5.7120747803349192E-002
   1.0965880963677191E-002  -2.7080949308810887E-003   5.6872467032001162E-002
   9.4566344798912225E-003  -2.4164208714861218E-003   5.6887057888007339E-002
   7.9473879961052506E-003  -2.2487757635385845E-003   5.7164520371367537E-002
   6.4381415123192648E-003  -2.2051596070387092E-003   5.7704854482081874E-002
   1.0204466494860877E-002  -2.5165017140658108E-003   6.0953882493914972E-002
   8.9592686653251312E-003  -2.1992509468256594E-003   6.0692943671296962E-002
   7.7140708357894289E-003  -2.0005951952212983E-003   6.0697230529825258E-002
   6.4688730062536894E-003  -1.9205344592534614E-003   6.0966743069500028E-002
   5.2236751767179811E-003  -1.9590687389217099E-003   6.1501481290320840E-002
   8.0412824476343570E-003  -1.9092054864079389E-003   6.4685847972972832E-002
   7.0624873261411480E-003  -1.6904069627698415E-003   6.4417685034896199E-002
   6.0836922046479253E-003  -1.5847695189568356E-003   6.4417101831758028E-002
   5.1048970831547164E-003  -1.5922931549682343E-003   6.4684098363558845E-002
   4.1261019616614936E-003  -1.7129778708048216E-003   6.5218674630297846E-002
   9.2177535451564707E-003  -2.6973413432727078E-003   4.9873300460815728E-002
   7.8219865786088305E-003  -2.8581234174310244E-003   5.0305581668114163E-002
   6.4262196120612181E-003  -3.6214068745082650E-003   5.1062103293604222E-002
   5.0304526455136195E-003  -4.9871917145044783E-003   5.2142865337285543E-002
   3.6346856789659654E-003  -6.9554779374191300E-003   5.3547867799158211E-002
   7.7695009684654592E-003  -2.4512504751557085E-003   5.3828794205580122E-002
   6.6717261549311263E-003  -2.6451627990456972E-003   5.3795522103857130E-002
   5.5739513413968211E-003  -3.3489700687922563E-003   5.4033993889969462E-002
   4.4761765278624882E-003  -4.5626722843965378E-003   5.4544209563917104E-002
   3.3784017143282108E-003  -6.2862694458579726E-003   5.5326169125699542E-002
   6.4381415123192648E-003  -2.2051596070387092E-003   5.7704854482081874E-002
   5.5858623214419395E-003  -2.4322021806602312E-003   5.7298635508399615E-002
   4.7335831305645865E-003  -3.0765332630771497E-003   5.7111663892195949E-002
   3.8813039396872508E-003  -4.1381528542891559E-003   5.7143939633471176E-002
   3.0290247488099081E-003  -5.6170609542965377E-003   5.7395462732225205E-002
   5.2236751767179811E-003  -1.9590687389217099E-003   6.1501481290320840E-002
   4.5643950781412458E-003  -2.2192415622748901E-003   6.0814921881741119E-002
   3.9051149795645522E-003  -2.8040964573614810E-003   6.0295113300283532E-002
   3.2458348809878317E-003  -3.7136334241814947E-003   5.9942055545948607E-002
   2.5865547824111233E-003  -4.9478524627349085E-003   5.9755748618735886E-002
   4.1261019616614936E-003  -1.7129778708048216E-003   6.5218674630297846E-002
   3.6073244250290765E-003  -2.0062809438894380E-003   6.4344381223882197E-002
   3.0885468883966732E-003  -2.5316596516460343E-003   6.3584342114232306E-002
   2.5697693517642631E-003  -3.2891139940740555E-003   6.2938557301348674E-002
   2.0509918151318529E-003  -4.2786439711738344E-003   6.2407026785230912E-002
   3.6346856789659654E-003  -6.9554779374191300E-003   5.3547867799158211E-002
   4.1745849913191468E-003  -9.5433392336157219E-003   5.1866397733536296E-002
   4.7144843036722450E-003  -1.2767849293456562E-002   5.0041547636597905E-002
   5.2543836160253987E-003  -1.6629008116940548E-002   4.8073317508343233E-002
   5.7942829283784691E-003  -2.1126815704069379E-002   4.5961707348771697E-002
   3.3784017143282108E-003  -6.2862694458579726E-003   5.5326169125699542E-002
   3.7923612604120055E-003  -8.5527667062001433E-003   5.2962769316469205E-002
   4.2063208064958002E-003  -1.1395169218448797E-002   5.0490870006017374E-002
   4.6202803525796296E-003  -1.4813476982602922E-002   4.7910471194343163E-002
   5.0342398986634174E-003  -1.8807689998662447E-002   4.5221572881446681E-002
   3.0290247488099081E-003  -5.6170609542965377E-003   5.7395462732225205E-002
   3.3519250587188340E-003  -7.5621941787853419E-003   5.4410876691125487E-002
   3.6748253686277946E-003  -1.0022489143441241E-002   5.1352671678897607E-002
   3.9977256785366719E-003  -1.2997945848264792E-002   4.8220847695542669E-002
   4.3206259884456533E-003  -1.6488564293255736E-002   4.5015404741059584E-002
   2.5865547824111233E-003  -4.9478524627349085E-003   5.9755748618735886E-002
   2.8532763862396514E-003  -6.5716216513698189E-003   5.6210719857503963E-002
   3.1199979900681813E-003  -8.6498090684336906E-003   5.2626952655239687E-002
   3.3867195938966765E-003  -1.1182414713926803E-002   4.9004447011941531E-002
   3.6534411977251838E-003  -1.4169438587848915E-002   4.5343202927610710E-002
   2.0509918151318529E-003  -4.2786439711738344E-003   6.2407026785230912E-002
   2.2964152429744145E-003  -5.5810491239548510E-003   5.8362298815606506E-002
   2.5418386708169344E-003  -7.2771289934260575E-003   5.4313712935043001E-002
   2.7872620986594820E-003  -9.3668835795888486E-003   5.0261269143541037E-002
   3.0326855265019881E-003  -1.1850312882442093E-002   4.6204967441099587E-002
   4.1915616093140096E-002  -8.6795894947601648E-003  0.11725508891790098     
   3.5347390558921596E-002  -7.0819653891736334E-003   9.5946084711100332E-002
   2.8779165024703096E-002  -6.0501522824906034E-003   7.6849833676942841E-002
   2.2210939490484582E-002  -5.5841501747113630E-003   5.9966335815428665E-002
   1.5642713956266069E-002  -5.6839590658359085E-003   4.5295591126557733E-002
   2.9708062612380043E-002  -6.5096922972561200E-003  0.11677781221182629     
   2.5209916047851944E-002  -5.3114741617019678E-003   9.5983482207930432E-002
   2.0711769483323851E-002  -4.5376142882551512E-003   7.7116556970771979E-002
   1.6213622918795769E-002  -4.1881126769159303E-003   6.0177036500351312E-002
   1.1715476354267673E-002  -4.2629693276842739E-003   4.5164920796668229E-002
   1.8652942167983022E-002  -4.3397950997521584E-003  0.11583040316732156     
   1.5939526167239742E-002  -3.5409829342302052E-003   9.5692200103126332E-002
   1.3226110166496469E-002  -3.0250762940196504E-003   7.7196053399763043E-002
   1.0512694165753192E-002  -2.7920751791204994E-003   6.0341963057231995E-002
   7.7992781650099083E-003  -2.8419795895327782E-003   4.5129929075532718E-002
   8.7502547599490436E-003  -2.1698979022481829E-003  0.11441286178438620     
   7.5362209170849728E-003  -1.7704917067585327E-003   9.5072238396687894E-002
   6.3221870742209158E-003  -1.5125382997842017E-003   7.7088322963915962E-002
   5.1081532313568424E-003  -1.3960376813250954E-003   6.0461115486070527E-002
   3.8941193884927811E-003  -1.4209898513812685E-003   4.5190615963151451E-002
   3.8827811105202059E-010  -7.0474415192478546E-010  0.11252518806302070     
   2.9738764228959269E-010  -4.7928680468878326E-010   9.4123597088615452E-002
   2.0649718740495260E-010  -3.0554864194343168E-010   7.6793365663230861E-002
   1.1560673078558903E-010  -1.8352959429979165E-010   6.0534493786867261E-002
   2.4716270696778508E-011  -1.1322970339122662E-010   4.5346981459524427E-002
   1.5642713956266069E-002  -5.6839590658359085E-003   4.5295591126557733E-002
   1.6619986100371145E-002  -5.9750867415966358E-003   5.0790526694397653E-002
   1.7597258244476208E-002  -6.0830409877263153E-003   5.5996020585784928E-002
   1.8574530388581284E-002  -6.0078218042250268E-003   6.0912072800719599E-002
   1.9551802532686346E-002  -5.7494291910926143E-003   6.5538683339201709E-002
   1.1715476354267673E-002  -4.2629693276842739E-003   4.5164920796668229E-002
   1.2414587731848829E-002  -4.4813150744262703E-003   5.0842453437073096E-002
   1.3113699109429985E-002  -4.5622807510076191E-003   5.6253106220882726E-002
   1.3812810487011148E-002  -4.5058663574288615E-003   6.1396879148097258E-002
   1.4511921864592284E-002  -4.3120718936893732E-003   6.6273772218716442E-002
   7.7992781650099083E-003  -2.8419795895327782E-003   4.5129929075532718E-002
   8.2427905959245006E-003  -2.9875434072558216E-003   5.0944265429032035E-002
   8.6863030268390894E-003  -3.0415205142890964E-003   5.6514283745793543E-002
   9.1298154577536851E-003  -3.0039109106325870E-003   6.1839984025817182E-002
   9.5733278886682704E-003  -2.8747145962862153E-003   6.6921366269102750E-002
   3.8941193884927811E-003  -1.4209898513812685E-003   4.5190615963151451E-002
   4.1045946925981477E-003  -1.4937717400854422E-003   5.1095962670274608E-002
   4.3150699967035213E-003  -1.5207602775704869E-003   5.6779553160517283E-002
   4.5255453008088949E-003  -1.5019554638363115E-003   6.2241387433879310E-002
   4.7360206049142616E-003  -1.4373572988829048E-003   6.7481465490360812E-002
   2.4716270696778508E-011  -1.1322970339122662E-010   4.5346981459524427E-002
   2.1869773353389022E-011  -7.2915007365281781E-011   5.1297545160800623E-002
   1.9023276009999535E-011  -4.0851849680834107E-011   5.7048914465053807E-002
   1.6176780401333524E-011  -1.7040306665716543E-011   6.2601089372283758E-002
   1.3330281323220561E-011  -1.4798162695228712E-012   6.7954069882490475E-002
   1.9551802532686346E-002  -5.7494291910926143E-003   6.5538683339201709E-002
   1.8658292453174394E-002  -5.3943131747234974E-003   6.5229103585543846E-002
   1.7764782373662441E-002  -5.0289237815119847E-003   6.5160456989384219E-002
   1.6871272294150488E-002  -4.6532610114581319E-003   6.5332743550722910E-002
   1.5977762214638536E-002  -4.2673248645618833E-003   6.5745963269559782E-002
   1.4511921864592284E-002  -4.3120718936893732E-003   6.6273772218716442E-002
   1.3854956032736593E-002  -4.0457348785697678E-003   6.6070079452107633E-002
   1.3197990200880895E-002  -3.7716928308502151E-003   6.6098542023313195E-002
   1.2541024369025208E-002  -3.4899457505304377E-003   6.6359159932332795E-002
   1.1884058537169506E-002  -3.2004936376107129E-003   6.6851933179166767E-002
   9.5733278886682704E-003  -2.8747145962862153E-003   6.6921366269102750E-002
   9.1441284847847311E-003  -2.6971565824160937E-003   6.6820992145300795E-002
   8.7149290809011952E-003  -2.5144618801883345E-003   6.6943995539629098E-002
   8.2857296770176593E-003  -2.3266304896027434E-003   6.7290376452087436E-002
   7.8565302731341199E-003  -2.1336624106595703E-003   6.7860134882675907E-002
   4.7360206049142616E-003  -1.4373572988829048E-003   6.7481465490360812E-002
   4.5258098093188025E-003  -1.3485782862624751E-003   6.7481841665123471E-002
   4.3155990137233331E-003  -1.2572309295264261E-003   6.7696817538332149E-002
   4.1053882181278688E-003  -1.1633152286751047E-003   6.8126393109986721E-002
   3.8951774225324046E-003  -1.0668311837084138E-003   6.8770568380087549E-002
   1.3330281323220561E-011  -1.4798162695228712E-012   6.7954069882490475E-002
   6.3387975424156195E-012   9.8913377488685228E-012   6.8052628011575245E-002
  -6.5268276894236976E-013   2.1135329597576913E-011   6.8357008019421989E-002
  -7.6441665497473110E-012   3.2252759490924987E-011   6.8867209906030666E-002
  -1.4635646861105300E-011   4.3242798231091228E-011   6.9583233671401346E-002
   1.5977762214638536E-002  -4.2673248645618833E-003   6.5745963269559782E-002
   1.4805743671723659E-002  -3.8930981467712455E-003   6.4168114731878501E-002
   1.3633725128808782E-002  -3.5525636640335451E-003   6.2895575869522796E-002
   1.2461706585893920E-002  -3.2457214163492364E-003   6.1928346682492516E-002
   1.1289688042979029E-002  -2.9725714037179829E-003   6.1266427170787563E-002
   1.1884058537169506E-002  -3.2004936376107129E-003   6.6851933179166767E-002
   1.1014273409766503E-002  -2.9198235972154318E-003   6.5307703088754554E-002
   1.0144488282363542E-002  -2.6644227344693322E-003   6.4062630154040429E-002
   9.2747031549605466E-003  -2.4342910493720706E-003   6.3116714375024904E-002
   8.4049180275575786E-003  -2.2294285419240945E-003   6.2469955751707662E-002
   7.8565302731341199E-003  -2.1336624106595703E-003   6.7860134882675907E-002
   7.2828260416159252E-003  -1.9465490476599789E-003   6.6357946296936740E-002
   6.7091218100977408E-003  -1.7762818049051263E-003   6.5148762347269074E-002
   6.1354175785795495E-003  -1.6228606823951285E-003   6.4232583033672505E-002
   5.5617133470613617E-003  -1.4862856801299285E-003   6.3609408356147035E-002
   3.8951774225324046E-003  -1.0668311837084138E-003   6.8770568380087549E-002
   3.6114015672719015E-003  -9.7327449810440114E-004   6.7318844356425878E-002
   3.3276257120114089E-003  -8.8814087534080585E-004   6.6153972449208245E-002
   3.0438498567509110E-003  -8.1143031541813012E-004   6.5275952658434819E-002
   2.7600740014904132E-003  -7.4314281833595675E-004   6.4684784984105514E-002
  -1.4635646861105300E-011   4.3242798231091228E-011   6.9583233671401346E-002
  -1.3265551851437962E-011   5.1451121141354861E-011   6.8190397267221203E-002
  -1.1895456841770624E-011   5.4223278644904838E-011   6.7078260459858124E-002
  -1.0525361832103286E-011   5.1558864816447780E-011   6.6246823249312012E-002
  -9.1552668224359479E-012   4.3458237009019740E-011   6.5696085635583157E-002
   1.1289688042979029E-002  -2.9725714037179829E-003   6.1266427170787563E-002
   1.0477586644142889E-002  -2.7138831125578244E-003   6.1822742213204496E-002
   9.6654852453067069E-003  -2.4504260292861346E-003   6.2578084027707481E-002
   8.8533838464705389E-003  -2.1822001539030245E-003   6.3532452614296964E-002
   8.0412824476343570E-003  -1.9092054864079389E-003   6.4685847972972832E-002
   8.4049180275575786E-003  -2.2294285419240945E-003   6.2469955751707662E-002
   7.7928430455089792E-003  -2.0354123261224766E-003   6.3073008466984826E-002
   7.1807680634603938E-003  -1.8378195159648447E-003   6.3877087243750463E-002
   6.5686930814118014E-003  -1.6366501114516430E-003   6.4882192082005019E-002
   5.9566180993632228E-003  -1.4319041125819831E-003   6.6088322981748382E-002
   5.5617133470613617E-003  -1.4862856801299285E-003   6.3609408356147035E-002
   5.1516640712027731E-003  -1.3569415396869622E-003   6.4258006546528579E-002
   4.7416147953442019E-003  -1.2252130026437769E-003   6.5109630087801518E-002
   4.3315655194856306E-003  -1.0911000690000949E-003   6.6164278979965643E-002
   3.9215162436270420E-003  -9.5460273875608292E-004   6.7421953223020886E-002
   2.7600740014904132E-003  -7.4314281833595675E-004   6.4684784984105514E-002
   2.5540497212242809E-003  -6.7847075325153106E-004   6.5377736451836213E-002
   2.3480254409581529E-003  -6.1260648932254247E-004   6.6275712559860450E-002
   2.1420011606920093E-003  -5.4555002654874118E-004   6.7378713308178503E-002
   1.9359768804258926E-003  -4.7730136493021047E-004   6.8686738696790317E-002
  -9.1552668224359479E-012   4.3458237009019740E-011   6.5696085635583157E-002
  -4.4265285881195382E-012   3.3183955583382385E-011   6.6432198182907243E-002
   3.0221311564382347E-013   2.3998608655872999E-011   6.7375334659927510E-002
   5.0309513499602332E-012   1.5902619499019721E-011   6.8525495066643766E-002
   9.7596930537235949E-012   8.8958840294139918E-012   6.9882679403056147E-002
   8.0412824476343570E-003  -1.9092054864079389E-003   6.4685847972972832E-002
   7.0624873261411480E-003  -1.6904069627698415E-003   6.4417685034896199E-002
   6.0836922046479253E-003  -1.5847695189568356E-003   6.4417101831758028E-002
   5.1048970831547164E-003  -1.5922931549682343E-003   6.4684098363558845E-002
   4.1261019616614936E-003  -1.7129778708048216E-003   6.5218674630297846E-002
   5.9566180993632228E-003  -1.4319041125819831E-003   6.6088322981748382E-002
   5.2396824741475778E-003  -1.2678052212848345E-003   6.5764986352883137E-002
   4.5227468489319189E-003  -1.1885771394874178E-003   6.5697788981634392E-002
   3.8058112237162635E-003  -1.1942198671907392E-003   6.5886730868002077E-002
   3.0888755985006150E-003  -1.2847334043941672E-003   6.6331812011986124E-002
   3.9215162436270420E-003  -9.5460273875608292E-004   6.7421953223020886E-002
   3.4549996373668158E-003  -8.4520347979963328E-004   6.7071733173691611E-002
   2.9884830311065896E-003  -7.9238476001876335E-004   6.6966211904656722E-002
   2.5219664248463634E-003  -7.9614657941346270E-004   6.7105389415916150E-002
   2.0554498185861372E-003  -8.5648893798356829E-004   6.7489265707470047E-002
   1.9359768804258926E-003  -4.7730136493021047E-004   6.8686738696790317E-002
   1.7084388157989072E-003  -4.2260173831464021E-004   6.8337925497321511E-002
   1.4809007511719374E-003  -3.9619238054994926E-004   6.8222370600825144E-002
   1.2533626865449633E-003  -3.9807329163607692E-004   6.8340074007300994E-002
   1.0258246219179822E-003  -4.2824447157294165E-004   6.8691035716749088E-002
   9.7596930537235949E-012   8.8958840294139918E-012   6.9882679403056147E-002
   9.4438276643238339E-012   3.1706304248757533E-012   6.9563563323773114E-002
   9.1279622749240730E-012  -1.0806910921701274E-012   6.9466265070139976E-002
   8.8121038244182159E-012  -3.8586356332359628E-012   6.9590784642156844E-002
   8.4962314961245511E-012  -5.1623150199020529E-012   6.9937122039823829E-002
   4.1261019616614936E-003  -1.7129778708048216E-003   6.5218674630297846E-002
   3.6073244250290765E-003  -2.0062809438894380E-003   6.4344381223882197E-002
   3.0885468883966732E-003  -2.5316596516460343E-003   6.3584342114232306E-002
   2.5697693517642631E-003  -3.2891139940740555E-003   6.2938557301348674E-002
   2.0509918151318529E-003  -4.2786439711738344E-003   6.2407026785230912E-002
   3.0888755985006150E-003  -1.2847334043941672E-003   6.6331812011986124E-002
   2.6882123804142372E-003  -1.5047107093698608E-003   6.5262113030238822E-002
   2.2875491623278524E-003  -1.8987447403893132E-003   6.4314388388816979E-002
   1.8868859442414607E-003  -2.4668354974527462E-003   6.3488638087721261E-002
   1.4862227261550898E-003  -3.2089829805603820E-003   6.2784862126951446E-002
   2.0554498185861372E-003  -8.5648893798356829E-004   6.7489265707470047E-002
   1.7806209626055405E-003  -1.0031404748497286E-003   6.6282180059018286E-002
   1.5057921066249716E-003  -1.2658298291323700E-003   6.5204788794452545E-002
   1.2309632506443870E-003  -1.6445570008313259E-003   6.4257091913772560E-002
   9.5613439466380595E-004  -2.1393219899469851E-003   6.3439089416977928E-002
   1.0258246219179822E-003  -4.2824447157294165E-004   6.8691035716749088E-002
   8.8455017160300742E-004  -5.0157024032959630E-004   6.7404582310221214E-002
   7.4327572128800486E-004  -6.3291491787570431E-004   6.6255543331138742E-002
   6.0200127097300880E-004  -8.2227850421007220E-004   6.5243918779501475E-002
   4.6072682065802749E-004  -1.0696609993336714E-003   6.4369708655310359E-002
   8.4962314961245511E-012  -5.1623150199020529E-012   6.9937122039823829E-002
   7.4066031086061912E-012  -5.8100191324683692E-012   6.8629319783847120E-002
   6.3169781905347833E-012  -6.6186778280297176E-012   6.7466651998875471E-002
   5.2273532724633753E-012  -7.5886449901751973E-012   6.6449118684909131E-002
   4.1377248849450154E-012  -8.7202467469182920E-012   6.5576719841948239E-002
   2.0509918151318529E-003  -4.2786439711738344E-003   6.2407026785230912E-002
   2.2964152429744145E-003  -5.5810491239548510E-003   5.8362298815606506E-002
   2.5418386708169344E-003  -7.2771289934260575E-003   5.4313712935043001E-002
   2.7872620986594820E-003  -9.3668835795888486E-003   5.0261269143541037E-002
   3.0326855265019881E-003  -1.1850312882442093E-002   4.6204967441099587E-002
   1.4862227261550898E-003  -3.2089829805603820E-003   6.2784862126951446E-002
   1.7134137565612967E-003  -4.1857868455101865E-003   5.8415975051149149E-002
   1.9406047869674967E-003  -5.4578467481011250E-003   5.4014481091412769E-002
   2.1677958173737001E-003  -7.0251626883322260E-003   4.9580380247742112E-002
   2.3949868477798897E-003  -8.8877346662044054E-003   4.5113672520138204E-002
   9.5613439466380595E-004  -2.1393219899469851E-003   6.3439089416977928E-002
   1.1363440546384995E-003  -2.7905245670660217E-003   5.8844461914047880E-002
   1.3165537146131896E-003  -3.6385645027757346E-003   5.4188478554188332E-002
   1.4967633745878797E-003  -4.6834417970759330E-003   4.9471139337399654E-002
   1.6769730345625594E-003  -5.9251564499667175E-003   4.4692444263682574E-002
   4.6072682065802749E-004  -1.0696609993336714E-003   6.4369708655310359E-002
   5.6520613720601430E-004  -1.3952622886218291E-003   5.9647759404302489E-002
   6.6968545375398637E-004  -1.8192822574502401E-003   5.4835705323370315E-002
   7.7416477030198619E-004  -2.3417209058194752E-003   4.9933546412513609E-002
   8.7864408684995912E-004  -2.9625782337291406E-003   4.4941282671733196E-002
   4.1377248849450154E-012  -8.7202467469182920E-012   6.5576719841948239E-002
   4.2638184649668176E-012  -1.0177525489041273E-011   6.0825867521912769E-002
   4.3899328616703315E-012  -1.2125439541321725E-011   5.5956161398958260E-002
   4.5160316458625616E-012  -1.4562968886355776E-011   5.0967601473083796E-002
   4.6421338995017436E-012  -1.7491341708364416E-011   4.5860187744290126E-002
   3.8827811105202059E-010  -7.0474415192478546E-010  0.11252518806302070     
   2.9738764228959269E-010  -4.7928680468878326E-010   9.4123597088615452E-002
   2.0649718740495260E-010  -3.0554864194343168E-010   7.6793365663230861E-002
   1.1560673078558903E-010  -1.8352959429979165E-010   6.0534493786867261E-002
   2.4716270696778508E-011  -1.1322970339122662E-010   4.5346981459524427E-002
  -8.7502539997442591E-003   2.1698965652178770E-003  0.11441286232022241     
  -7.5362203341881456E-003   1.7704908149741017E-003   9.5072238799422865E-002
  -6.3221866686320391E-003   1.5125377469413920E-003   7.7088323242495732E-002
  -5.1081530030759256E-003   1.3960373611196543E-003   6.0461115649440941E-002
  -3.8941193375198191E-003   1.4209896575090031E-003   4.5190616020258451E-002
  -1.8652941456832533E-002   4.3397938351798504E-003  0.11583040423475802     
  -1.5939525619978315E-002   3.5409821092350080E-003   9.5692200901494426E-002
  -1.3226109783124114E-002   3.0250757994313704E-003   7.7196053946954807E-002
  -1.0512693946269910E-002   2.7920749057689584E-003   6.0341963371138951E-002
  -7.7992781094156968E-003   2.8419794282476818E-003   4.5129929174047068E-002
  -2.9708061982986717E-002   6.5096911051418793E-003  0.11677781380662737     
  -2.5209915559982896E-002   5.3114734034959560E-003   9.5983483394830080E-002
  -2.0711769136979051E-002   4.5376138519213766E-003   7.7116557776608002E-002
  -1.6213622713975213E-002   4.1881124504181792E-003   6.0177036951961332E-002
  -1.1715476290971378E-002   4.2629691989863189E-003   4.5164920920890132E-002
  -4.1915615578206840E-002   8.6795883751038527E-003  0.11725509103583076     
  -3.5347390154201838E-002   7.0819646977568484E-003   9.5946086279429577E-002
  -2.8779164730196847E-002   6.0501519044114105E-003   7.6849834731455346E-002
  -2.2210939306191835E-002   5.5841499950675180E-003   5.9966336391908071E-002
  -1.5642713882186847E-002   5.6839589697250670E-003   4.5295591260787638E-002
   2.4716270696778508E-011  -1.1322970339122662E-010   4.5346981459524427E-002
   2.1869773353389022E-011  -7.2915007365281781E-011   5.1297545160800623E-002
   1.9023276009999535E-011  -4.0851849680834107E-011   5.7048914465053807E-002
   1.6176780401333524E-011  -1.7040306665716543E-011   6.2601089372283758E-002
   1.3330281323220561E-011  -1.4798162695228712E-012   6.7954069882490475E-002
  -3.8941193375198191E-003   1.4209896575090031E-003   4.5190616020258451E-002
  -4.1045946474637749E-003   1.4937716129323486E-003   5.1095962715603460E-002
  -4.3150699574077411E-003   1.5207602042124554E-003   5.6779553193776727E-002
  -4.5255452673517091E-003   1.5019554313495855E-003   6.2241387454778252E-002
  -4.7360205772956632E-003   1.4373572943435775E-003   6.7481465498608090E-002
  -7.7992781094156968E-003   2.8419794282476818E-003   4.5129929174047068E-002
  -8.2427905466056564E-003   2.9875432987796491E-003   5.0944265507569024E-002
  -8.6863029837956247E-003   3.0415204492768161E-003   5.6514283803770798E-002
  -9.1298154209855879E-003   3.0039108797393112E-003   6.1839984062652238E-002
  -9.5733278581755510E-003   2.8747145901669713E-003   6.6921366284213510E-002
  -1.1715476290971378E-002   4.2629691989863189E-003   4.5164920920890132E-002
  -1.2414587675555875E-002   4.4813149846269218E-003   5.0842453536697564E-002
  -1.3113699060140390E-002   4.5622806943411490E-003   5.6253106295036090E-002
  -1.3812810444724894E-002   4.5058663281289536E-003   6.1396879195905890E-002
  -1.4511921829309396E-002   4.3120718859903095E-003   6.6273772239306777E-002
  -1.5642713882186847E-002   5.6839589697250670E-003   4.5295591260787638E-002
  -1.6619986034314423E-002   5.9750866704743055E-003   5.0790526802988761E-002
  -1.7597258186442005E-002   6.0830409394055096E-003   5.5996020667572532E-002
  -1.8574530338569591E-002   6.0078217765186584E-003   6.0912072854538896E-002
  -1.9551802490697170E-002   5.7494291818137588E-003   6.5538683363887962E-002
   1.3330281323220561E-011  -1.4798162695228712E-012   6.7954069882490475E-002
   6.3387975424156195E-012   9.8913377488685228E-012   6.8052628011575245E-002
  -6.5268276894236976E-013   2.1135329597576913E-011   6.8357008019421989E-002
  -7.6441665497473110E-012   3.2252759490924987E-011   6.8867209906030666E-002
  -1.4635646861105300E-011   4.3242798231091228E-011   6.9583233671401346E-002
  -4.7360205772956632E-003   1.4373572943435775E-003   6.7481465498608090E-002
  -4.5258097955288689E-003   1.3485783029878184E-003   6.7481841675093607E-002
  -4.3155990137620712E-003   1.2572309670758758E-003   6.7696817550333674E-002
  -4.1053882319952838E-003   1.1633152866074616E-003   6.8126393124328416E-002
  -3.8951774502284792E-003   1.0668312615826347E-003   6.8770568397077680E-002
  -9.5733278581755510E-003   2.8747145901669713E-003   6.6921366284213510E-002
  -9.1441284676578027E-003   2.6971565960844518E-003   6.6820992163670448E-002
  -8.7149290771400476E-003   2.5144619130161375E-003   6.6943995561874525E-002
  -8.2857296866223062E-003   2.3266305409622174E-003   6.7290376478825964E-002
  -7.8565302961045441E-003   2.1336624799224435E-003   6.7860134914524764E-002
  -1.4511921829309396E-002   4.3120718859903095E-003   6.6273772239306777E-002
  -1.3854956010048004E-002   4.0457348891810366E-003   6.6070079477305699E-002
  -1.3197990190786615E-002   3.7716928589564859E-003   6.6098542054044501E-002
  -1.2541024371525237E-002   3.4899457953170019E-003   6.6359159969523282E-002
  -1.1884058552263835E-002   3.2004936982623772E-003   6.6851933223742110E-002
  -1.9551802490697170E-002   5.7494291818137588E-003   6.5538683363887962E-002
  -1.8658292422699473E-002   5.3943131822775936E-003   6.5229103615999429E-002
  -1.7764782354701764E-002   5.0289238048968066E-003   6.5160457026843588E-002
  -1.6871272286704056E-002   4.6532610496717516E-003   6.5332743596420356E-002
  -1.5977762218706358E-002   4.2673249166020888E-003   6.5745963324729706E-002
  -1.4635646861105300E-011   4.3242798231091228E-011   6.9583233671401346E-002
  -1.3265551851437962E-011   5.1451121141354861E-011   6.8190397267221203E-002
  -1.1895456841770624E-011   5.4223278644904838E-011   6.7078260459858124E-002
  -1.0525361832103286E-011   5.1558864816447780E-011   6.6246823249312012E-002
  -9.1552668224359479E-012   4.3458237009019740E-011   6.5696085635583157E-002
  -3.8951774502284792E-003   1.0668312615826347E-003   6.8770568397077680E-002
  -3.6114015923153133E-003   9.7327459075755018E-004   6.7318844366100167E-002
  -3.3276257344021509E-003   8.8814097288790472E-004   6.6153972451391541E-002
  -3.0438498764889816E-003   8.1143040797404184E-004   6.5275952652952093E-002
  -2.7600740185758227E-003   7.4314289601584704E-004   6.4684784970781617E-002
  -7.8565302961045441E-003   2.1336624799224435E-003   6.7860134914524764E-002
  -7.2828260621962534E-003   1.9465491300636739E-003   6.6357946315141567E-002
  -6.7091218282879627E-003   1.7762818915526488E-003   6.5148762351479400E-002
  -6.1354175943796720E-003   1.6228607643891651E-003   6.4232583023538528E-002
  -5.5617133604713813E-003   1.4862857485735126E-003   6.3609408331318645E-002
  -1.1884058552263835E-002   3.2004936982623772E-003   6.6851933223742110E-002
  -1.1014273422908361E-002   2.9198236693699503E-003   6.5307703114345195E-002
  -1.0144488293552887E-002   2.6644228102172783E-003   6.4062630160121745E-002
  -9.2747031641974165E-003   2.4342911208043152E-003   6.3116714361071483E-002
  -8.4049180348419392E-003   2.2294286011310949E-003   6.2469955717194305E-002
  -1.5977762218706358E-002   4.2673249166020888E-003   6.5745963324729706E-002
  -1.4805743674451644E-002   3.8930982086761712E-003   6.4168114763711481E-002
  -1.3633725130196925E-002   3.5525637288818523E-003   6.2895575877318532E-002
  -1.2461706585942216E-002   3.2457214772195070E-003   6.1928346665550721E-002
  -1.1289688041687500E-002   2.9725714536887882E-003   6.1266427128408352E-002
  -9.1552668224359479E-012   4.3458237009019740E-011   6.5696085635583157E-002
  -4.4265285881195382E-012   3.3183955583382385E-011   6.6432198182907243E-002
   3.0221311564382347E-013   2.3998608655872999E-011   6.7375334659927510E-002
   5.0309513499602332E-012   1.5902619499019721E-011   6.8525495066643766E-002
   9.7596930537235949E-012   8.8958840294139918E-012   6.9882679403056147E-002
  -2.7600740185758227E-003   7.4314289601584704E-004   6.4684784970781617E-002
  -2.5540497292111664E-003   6.7847081215938188E-004   6.5377736442739198E-002
  -2.3480254398465274E-003   6.1260653155051359E-004   6.6275712554272254E-002
  -2.1420011504818762E-003   5.4555005418958219E-004   6.7378713305381047E-002
  -1.9359768611172321E-003   4.7730138007640033E-004   6.8686738696065730E-002
  -5.5617133604713813E-003   1.4862857485735126E-003   6.3609408331318645E-002
  -5.1516640765911824E-003   1.3569415911348914E-003   6.4258006530067940E-002
  -4.7416147927109992E-003   1.2252130391024046E-003   6.5109630078272682E-002
  -4.3315655088308159E-003   1.0911000924764859E-003   6.6164278975932744E-002
  -3.9215162249506309E-003   9.5460275125686112E-004   6.7421953223048225E-002
  -8.4049180348419392E-003   2.2294286011310949E-003   6.2469955717194305E-002
  -7.7928430465665681E-003   2.0354123701100818E-003   6.3073008444894135E-002
  -7.1807680582912196E-003   1.8378195466542471E-003   6.3877087231929003E-002
  -6.5686930700158538E-003   1.6366501307633636E-003   6.4882192078298678E-002
  -5.9566180817405010E-003   1.4319041224374607E-003   6.6088322984003578E-002
  -1.1289688041687500E-002   2.9725714536887882E-003   6.1266427128408352E-002
  -1.0477586639137337E-002   2.7138831490859383E-003   6.1822742187217339E-002
  -9.6654852365871749E-003   2.4504260542062561E-003   6.2578084015240787E-002
  -8.8533838340370125E-003   2.1822001690503662E-003   6.3532452612479001E-002
  -8.0412824314868431E-003   1.9092054936178382E-003   6.4685847978931621E-002
   9.7596930537235949E-012   8.8958840294139918E-012   6.9882679403056147E-002
   9.4438276643238339E-012   3.1706304248757533E-012   6.9563563323773114E-002
   9.1279622749240730E-012  -1.0806910921701274E-012   6.9466265070139976E-002
   8.8121038244182159E-012  -3.8586356332359628E-012   6.9590784642156844E-002
   8.4962314961245511E-012  -5.1623150199020529E-012   6.9937122039823829E-002
  -1.9359768611172321E-003   4.7730138007640033E-004   6.8686738696065730E-002
  -1.7084387971588802E-003   4.2260174331254508E-004   6.8337925498912322E-002
  -1.4809007332005231E-003   3.9619237799842777E-004   6.8222370604657440E-002
  -1.2533626692421713E-003   3.9807328413531129E-004   6.8340074013301180E-002
  -1.0258246052838142E-003   4.2824446172229358E-004   6.8691035724842697E-002
  -3.9215162249506309E-003   9.5460275125686112E-004   6.7421953223048225E-002
  -3.4549996194696599E-003   8.4520348345398788E-004   6.7071733178001025E-002
  -2.9884830139887018E-003   7.9238475707799072E-004   6.6966211913101092E-002
  -2.5219664085077507E-003   7.9614657212892515E-004   6.7105389428347650E-002
  -2.0554498030267866E-003   8.5648892860679116E-004   6.7489265723741171E-002
  -5.9566180817405010E-003   1.4319041224374607E-003   6.6088322984003578E-002
  -5.2396824574885478E-003   1.2678052235955556E-003   6.5764986361039515E-002
  -4.5227468332366032E-003   1.1885771361573316E-003   6.5697788995470685E-002
  -3.8058112089846504E-003   1.1942198601227055E-003   6.5886730887297129E-002
  -3.0888755847327050E-003   1.2847333954913998E-003   6.6331812036518473E-002
  -8.0412824314868431E-003   1.9092054936178382E-003   6.4685847978931621E-002
  -7.0624873112155109E-003   1.6904069637372898E-003   6.4417685048027140E-002
  -6.0836921909441961E-003   1.5847695152367280E-003   6.4417101851766190E-002
  -5.1048970706728623E-003   1.5922931481161112E-003   6.4684098390148825E-002
  -4.1261019504015492E-003   1.7129778623758973E-003   6.5218674663174991E-002
   8.4962314961245511E-012  -5.1623150199020529E-012   6.9937122039823829E-002
   7.4066031086061912E-012  -5.8100191324683692E-012   6.8629319783847120E-002
   6.3169781905347833E-012  -6.6186778280297176E-012   6.7466651998875471E-002
   5.2273532724633753E-012  -7.5886449901751973E-012   6.6449118684909131E-002
   4.1377248849450154E-012  -8.7202467469182920E-012   6.5576719841948239E-002
  -1.0258246052838142E-003   4.2824446172229358E-004   6.8691035724842697E-002
  -8.8455015708698362E-004   5.0157022926256012E-004   6.7404582317331874E-002
  -7.4327570889015648E-004   6.3291490525893557E-004   6.6255543337388534E-002
  -6.0200126069332068E-004   8.2227848971146850E-004   6.5243918785012622E-002
  -4.6072681249648487E-004   1.0696609826199577E-003   6.4369708660204639E-002
  -2.0554498030267866E-003   8.5648892860679116E-004   6.7489265723741171E-002
  -1.7806209489810935E-003   1.0031404643349173E-003   6.6282180073313185E-002
  -1.5057920949354152E-003   1.2658298171366461E-003   6.5204788807015232E-002
  -1.2309632408897299E-003   1.6445569870118006E-003   6.4257091924847548E-002
  -9.5613438684404375E-004   2.1393219739604397E-003   6.3439089426809453E-002
  -3.0888755847327050E-003   1.2847333954913998E-003   6.6331812036518473E-002
  -2.6882123682757664E-003   1.5047106994073300E-003   6.5262113051791110E-002
  -2.2875491518188082E-003   1.8987447290140860E-003   6.4314388407756010E-002
  -1.8868859353618561E-003   2.4668354843120233E-003   6.3488638104413422E-002
  -1.4862227189049110E-003   3.2089829653010049E-003   6.2784862141763431E-002
  -4.1261019504015492E-003   1.7129778623758973E-003   6.5218674663174991E-002
  -3.6073244149709346E-003   2.0062809344797983E-003   6.4344381252765537E-002
  -3.0885468795403409E-003   2.5316596408919700E-003   6.3584342139610783E-002
  -2.5697693441097281E-003   3.2891139816124126E-003   6.2938557323711009E-002
  -2.0509918086791326E-003   4.2786439566411261E-003   6.2407026805066046E-002
   4.1377248849450154E-012  -8.7202467469182920E-012   6.5576719841948239E-002
   4.2638184649668176E-012  -1.0177525489041273E-011   6.0825867521912769E-002
   4.3899328616703315E-012  -1.2125439541321725E-011   5.5956161398958260E-002
   4.5160316458625616E-012  -1.4562968886355776E-011   5.0967601473083796E-002
   4.6421338995017436E-012  -1.7491341708364416E-011   4.5860187744290126E-002
  -4.6072681249648487E-004   1.0696609826199577E-003   6.4369708660204639E-002
  -5.6520612878840915E-004   1.3952622690805438E-003   5.9647759408035905E-002
  -6.6968544508032822E-004   1.8192822341898396E-003   5.4835705325951223E-002
  -7.7416476137224469E-004   2.3417208779471579E-003   4.9933546413949592E-002
  -8.7864407766414382E-004   2.9625782003521728E-003   4.4941282672031901E-002
  -9.5613438684404375E-004   2.1393219739604397E-003   6.3439089426809453E-002
  -1.1363440465510608E-003   2.7905245483391128E-003   5.8844461921646940E-002
  -1.3165537062580831E-003   3.6385644805047995E-003   5.4188478559570333E-002
  -1.4967633659650850E-003   4.6834417704568997E-003   4.9471139340579971E-002
  -1.6769730256721224E-003   5.9251564181956873E-003   4.4692444264676445E-002
  -1.4862227189049110E-003   3.2089829653010049E-003   6.2784862141763431E-002
  -1.7134137490241300E-003   4.1857868275978760E-003   5.8415975062744450E-002
  -1.9406047791433417E-003   5.4578467268195860E-003   5.4014481099815187E-002
  -2.1677958092625638E-003   7.0251626629668339E-003   4.9580380252974759E-002
  -2.3949868393817724E-003   8.8877346360392018E-003   4.5113672522223924E-002
  -2.0509918086791326E-003   4.2786439566411261E-003   6.2407026805066046E-002
  -2.2964152362076190E-003   5.5810491068558621E-003   5.8362298831329706E-002
  -2.5418386637360950E-003   7.2771289731346500E-003   5.4313712946685744E-002
  -2.7872620912645953E-003   9.3668835554768376E-003   5.0261269151133658E-002
  -3.0326855187930574E-003   1.1850312853882716E-002   4.6204967444674061E-002
  -4.1915615578206840E-002   8.6795883751038527E-003  0.11725509103583076     
  -3.5347390154201838E-002   7.0819646977568484E-003   9.5946086279429577E-002
  -2.8779164730196847E-002   6.0501519044114105E-003   7.6849834731455346E-002
  -2.2210939306191835E-002   5.5841499950675180E-003   5.9966336391908071E-002
  -1.5642713882186847E-002   5.6839589697250670E-003   4.5295591260787638E-002
  -5.4244105226509437E-002   1.0912406678661057E-002  0.11034805153972116     
  -4.5585683747690127E-002   8.9435256988058820E-003   9.0453324374282468E-002
  -3.6927262268870838E-002   7.6613813982973344E-003   7.2526236110045300E-002
  -2.8268840790051535E-002   7.0659737771353939E-003   5.6566786747009781E-002
  -1.9610419311232238E-002   7.1573028353197621E-003   4.2574976285176147E-002
  -6.5662033911911069E-002   1.3145224982218179E-002  0.10300929184343108     
  -5.5158530685502694E-002   1.0805086699854943E-002   8.4649768064299719E-002
  -4.4655027459094318E-002   9.2726108921833000E-003   6.8012768879144606E-002
  -3.4151524232685963E-002   8.5477975592031553E-003   5.3098294287966079E-002
  -2.3648021006277609E-002   8.6306467009145682E-003   3.9906344290763868E-002
  -7.6169401634411785E-002   1.5378043285775328E-002   9.5238811946960322E-002
  -6.4065930967639573E-002   1.2666647700903991E-002   7.8535417349481246E-002
  -5.1962460300867402E-002   1.0883840386069217E-002   6.3309433038753457E-002
  -3.9858989634095197E-002   1.0029621341271002E-002   4.9560859014776727E-002
  -2.7755518967323055E-002   1.0103990566509319E-002   3.7289695277551327E-002
  -8.5766208394011473E-002   1.7610861589332505E-002   8.7036611850308865E-002
  -7.2307884594100744E-002   1.4528208701953010E-002   7.2110272229827244E-002
  -5.8849560794189987E-002   1.2495069879955162E-002   5.8416228588871522E-002
  -4.5391236994279188E-002   1.1511445123338813E-002   4.5954480927441782E-002
  -3.1932913194368431E-002   1.1577334432104125E-002   3.4725029245538053E-002
  -1.5642713882186847E-002   5.6839589697250670E-003   4.5295591260787638E-002
  -1.6619986034314423E-002   5.9750866704743055E-003   5.0790526802988761E-002
  -1.7597258186442005E-002   6.0830409394055096E-003   5.5996020667572532E-002
  -1.8574530338569591E-002   6.0078217765186584E-003   6.0912072854538896E-002
  -1.9551802490697170E-002   5.7494291818137588E-003   6.5538683363887962E-002
  -1.9610419311232238E-002   7.1573028353197621E-003   4.2574976285176147E-002
  -2.0860098044455967E-002   7.4869795962675678E-003   4.7820443305079424E-002
  -2.2109776777679717E-002   7.6066150833954613E-003   5.2810538840407706E-002
  -2.3359455510903449E-002   7.5162092967037599E-003   5.7545262891161006E-002
  -2.4609134244127195E-002   7.2157622361918583E-003   6.2024615457339366E-002
  -2.3648021006277609E-002   8.6306467009145682E-003   3.9906344290763868E-002
  -2.5136036127555182E-002   8.9988725220608856E-003   4.4875474946367615E-002
  -2.6624051248832749E-002   9.1301892273856350E-003   4.9623304310438709E-002
  -2.8112066370110315E-002   9.0245968168885839E-003   5.4149832382977221E-002
  -2.9600081491387889E-002   8.6820952905700133E-003   5.8455059163982970E-002
  -2.7755518967323055E-002   1.0103990566509319E-002   3.7289695277551327E-002
  -2.9447800283612036E-002   1.0510765447854314E-002   4.1955621726853624E-002
  -3.1140081599901059E-002   1.0653763371375642E-002   4.6434317077665599E-002
  -3.2832362916190058E-002   1.0532984337073658E-002   5.0725781329987368E-002
  -3.4524644232479085E-002   1.0148428344948141E-002   5.4830014483818836E-002
  -3.1932913194368431E-002   1.1577334432104125E-002   3.4725029245538053E-002
  -3.3795390512626589E-002   1.2022658373647466E-002   3.9060883646537120E-002
  -3.5657867830884697E-002   1.2177337515365802E-002   4.3243577142088291E-002
  -3.7520345149142820E-002   1.2041371857258548E-002   4.7273109732191620E-002
  -3.9382822467400949E-002   1.1614761399326268E-002   5.1149481416846887E-002
  -1.9551802490697170E-002   5.7494291818137588E-003   6.5538683363887962E-002
  -1.8658292422699473E-002   5.3943131822775936E-003   6.5229103615999429E-002
  -1.7764782354701764E-002   5.0289238048968066E-003   6.5160457026843588E-002
  -1.6871272286704056E-002   4.6532610496717516E-003   6.5332743596420356E-002
  -1.5977762218706358E-002   4.2673249166020888E-003   6.5745963324729706E-002
  -2.4609134244127195E-002   7.2157622361918583E-003   6.2024615457339366E-002
  -2.3481386272070033E-002   6.7996712326986453E-003   6.1758964965953456E-002
  -2.2353638300012822E-002   6.3623336170627320E-003   6.1720857123953768E-002
  -2.1225890327955625E-002   5.9037493892838133E-003   6.1910291931340351E-002
  -2.0098142355898446E-002   5.4239185493623054E-003   6.2327269388113449E-002
  -2.9600081491387889E-002   8.6820952905700133E-003   5.8455059163982970E-002
  -2.8251486124617517E-002   8.2050292831199051E-003   5.8222364694801132E-002
  -2.6902890757847155E-002   7.6957434292286159E-003   5.8203822365659436E-002
  -2.5554295391076780E-002   7.1542377288959340E-003   5.8399432176557568E-002
  -2.4205700024306422E-002   6.5805121821221890E-003   5.8809194127495773E-002
  -3.4524644232479085E-002   1.0148428344948141E-002   5.4830014483818836E-002
  -3.2968591980341924E-002   9.6103873335411719E-003   5.4619302802542763E-002
  -3.1412539728204701E-002   9.0291532413944095E-003   5.4609352751960494E-002
  -2.9856487476067513E-002   8.4047260685080807E-003   5.4800164332071771E-002
  -2.8300435223930307E-002   7.7371058148821281E-003   5.5191737542876970E-002
  -3.9382822467400949E-002   1.1614761399326268E-002   5.1149481416846887E-002
  -3.7632703839243248E-002   1.1015745383962217E-002   5.0949779289178265E-002
  -3.5882585211085526E-002   1.0362563053560231E-002   5.0937448282857067E-002
  -3.4132466582927803E-002   9.6552144081200678E-003   5.1112488397883127E-002
  -3.2382347954770102E-002   8.8936994476421782E-003   5.1474899634256555E-002
  -1.5977762218706358E-002   4.2673249166020888E-003   6.5745963324729706E-002
  -1.4805743674451644E-002   3.8930982086761712E-003   6.4168114763711481E-002
  -1.3633725130196925E-002   3.5525637288818523E-003   6.2895575877318532E-002
  -1.2461706585942216E-002   3.2457214772195070E-003   6.1928346665550721E-002
  -1.1289688041687500E-002   2.9725714536887882E-003   6.1266427128408352E-002
  -2.0098142355898446E-002   5.4239185493623054E-003   6.2327269388113449E-002
  -1.8629878272965941E-002   4.9581020471671511E-003   6.0794662917795866E-002
  -1.7161614190033432E-002   4.5415608325684170E-003   5.9549237850208631E-002
  -1.5693350107100934E-002   4.1742949055660374E-003   5.8590994185351644E-002
  -1.4225086024168412E-002   3.8563042661599600E-003   5.7919931923225088E-002
  -2.4205700024306422E-002   6.5805121821221890E-003   5.8809194127495773E-002
  -2.2459318674591066E-002   6.0231058856581032E-003   5.7337412807343432E-002
  -2.0712937324875717E-002   5.5305579362549262E-003   5.6134684618026440E-002
  -1.8966555975160372E-002   5.1028683339126232E-003   5.5201009559544684E-002
  -1.7220174625445017E-002   4.7400370786310209E-003   5.4536387631898470E-002
  -2.8300435223930307E-002   7.7371058148821281E-003   5.5191737542876970E-002
  -2.6294064879327068E-002   7.0881097241490137E-003   5.3796364432354291E-002
  -2.4287694534723823E-002   6.5195550399414631E-003   5.2651916180772078E-002
  -2.2281324190120588E-002   6.0314417622589593E-003   5.1758392788130103E-002
  -2.0274953845517339E-002   5.6237698911021372E-003   5.1115794254428831E-002
  -3.2382347954770102E-002   8.8936994476421782E-003   5.1474899634256555E-002
  -3.0134116887173906E-002   8.1531135626400353E-003   5.0171517792828302E-002
  -2.7885885819577710E-002   7.5085521436280278E-003   4.9100932538445441E-002
  -2.5637654751981501E-002   6.9600151906056631E-003   4.8263143871108055E-002
  -2.3389423684385319E-002   6.5075027035732536E-003   4.7658151790815895E-002
  -1.1289688041687500E-002   2.9725714536887882E-003   6.1266427128408352E-002
  -1.0477586639137337E-002   2.7138831490859383E-003   6.1822742187217339E-002
  -9.6654852365871749E-003   2.4504260542062561E-003   6.2578084015240787E-002
  -8.8533838340370125E-003   2.1822001690503662E-003   6.3532452612479001E-002
  -8.0412824314868431E-003   1.9092054936178382E-003   6.4685847978931621E-002
  -1.4225086024168412E-002   3.8563042661599600E-003   5.7919931923225088E-002
  -1.3219931138359835E-002   3.5525518601471351E-003   5.8397799271738993E-002
  -1.2214776252551246E-002   3.2280006333244432E-003   5.9062746817554967E-002
  -1.1209621366742677E-002   2.8826505856921585E-003   5.9914774560673234E-002
  -1.0204466480934104E-002   2.5165017172501525E-003   6.0953882501093737E-002
  -1.7220174625445017E-002   4.7400370786310209E-003   5.4536387631898470E-002
  -1.6033912828290444E-002   4.3912205712083874E-003   5.4919777239584119E-002
  -1.4847651031135846E-002   4.0055752124427413E-003   5.5478300472659475E-002
  -1.3661389233981257E-002   3.5831010023339507E-003   5.6211957331124635E-002
  -1.2475127436826645E-002   3.1237979408821337E-003   5.7120747814979722E-002
  -2.0274953845517339E-002   5.6237698911021372E-003   5.1115794254428831E-002
  -1.8919531708929155E-002   5.2298892822696674E-003   5.1388676090752955E-002
  -1.7564109572340929E-002   4.7831497915609839E-003   5.1824744980554123E-002
  -1.6208687435752722E-002   4.2835514189759095E-003   5.2424000923833092E-002
  -1.4853265299164519E-002   3.7310941645143925E-003   5.3186443920589091E-002
  -2.3389423684385319E-002   6.5075027035732536E-003   4.7658151790815895E-002
  -2.1876787780275936E-002   6.0685579933308920E-003   4.7804495825245152E-002
  -2.0364151876166525E-002   5.5607243706791709E-003   4.8102080341239140E-002
  -1.8851515972057115E-002   4.9840018356174659E-003   4.8550905338798300E-002
  -1.7338880067947732E-002   4.3383903881463182E-003   4.9150970817922301E-002
  -8.0412824314868431E-003   1.9092054936178382E-003   6.4685847978931621E-002
  -7.0624873112155109E-003   1.6904069637372898E-003   6.4417685048027140E-002
  -6.0836921909441961E-003   1.5847695152367280E-003   6.4417101851766190E-002
  -5.1048970706728623E-003   1.5922931481161112E-003   6.4684098390148825E-002
  -4.1261019504015492E-003   1.7129778623758973E-003   6.5218674663174991E-002
  -1.0204466480934104E-002   2.5165017172501525E-003   6.0953882501093737E-002
  -8.9592686528081854E-003   2.1992509465579291E-003   6.0692943685799750E-002
  -7.7140708246822651E-003   2.0005951921754361E-003   6.0697230551571363E-002
  -6.4688729965563388E-003   1.9205344541025071E-003   6.0966743098408729E-002
  -5.2236751684304576E-003   1.9590687323387534E-003   6.1501481326311447E-002
  -1.2475127436826645E-002   3.1237979408821337E-003   5.7120747814979722E-002
  -1.0965880954424100E-002   2.7080949293783740E-003   5.6872467050225806E-002
  -9.4566344720215384E-003   2.4164208691136724E-003   5.6887057912959310E-002
  -7.9473879896189998E-003   2.2487757600880079E-003   5.7164520403180610E-002
  -6.4381415072164352E-003   2.2051596023013875E-003   5.7704854520889526E-002
  -1.4853265299164519E-002   3.7310941645143925E-003   5.3186443920589091E-002
  -1.3082324216063295E-002   3.2169389121988606E-003   5.2956255141304684E-002
  -1.1311383132962087E-002   2.8322465460519225E-003   5.2986583935929747E-002
  -9.5404420498608443E-003   2.5770170660737342E-003   5.3277430304464787E-002
  -7.7695009667596553E-003   2.4512504722642436E-003   5.3828794246909437E-002
  -1.7338880067947732E-002   4.3383903881463182E-003   4.9150970817922301E-002
  -1.5308598437725765E-002   3.7257828950194583E-003   4.8944307959036815E-002
  -1.3278316807503840E-002   3.2480722229905057E-003   4.8995808620483139E-002
  -1.1248035177281873E-002   2.9052583720598768E-003   4.9305472802261108E-002
  -9.2177535470599481E-003   2.6973413422268777E-003   4.9873300504370666E-002
  -4.1261019504015492E-003   1.7129778623758973E-003   6.5218674663174991E-002
  -3.6073244149709346E-003   2.0062809344797983E-003   6.4344381252765537E-002
  -3.0885468795403409E-003   2.5316596408919700E-003   6.3584342139610783E-002
  -2.5697693441097281E-003   3.2891139816124126E-003   6.2938557323711009E-002
  -2.0509918086791326E-003   4.2786439566411261E-003   6.2407026805066046E-002
  -5.2236751684304576E-003   1.9590687323387534E-003   6.1501481326311447E-002
  -4.5643950705483438E-003   2.2192415544741717E-003   6.0814921913239728E-002
  -3.9051149726662664E-003   2.8040964480982589E-003   6.0295113327816369E-002
  -3.2458348747841552E-003   3.7136334132103072E-003   5.9942055570041022E-002
  -2.5865547769020752E-003   4.9478524498116627E-003   5.9755748639913842E-002
  -6.4381415072164352E-003   2.2051596023013875E-003   5.7704854520889526E-002
  -5.5858623164896423E-003   2.4322021744686839E-003   5.7298635542336052E-002
  -4.7335831257628485E-003   3.0765332553044367E-003   5.7111663921823680E-002
  -3.8813039350360534E-003   4.1381528448088678E-003   5.7143939659352591E-002
  -3.0290247443092617E-003   5.6170609429819773E-003   5.7395462754923188E-002
  -7.7695009667596553E-003   2.4512504722642436E-003   5.3828794246909437E-002
  -6.6717261527948707E-003   2.6451627944629602E-003   5.3795522140053884E-002
  -5.5739513388301147E-003   3.3489700625109475E-003   5.4033993921633092E-002
  -4.4761765248653579E-003   4.5626722764072064E-003   5.4544209591646783E-002
  -3.3784017109005750E-003   6.2862694361524030E-003   5.5326169150094903E-002
  -9.2177535470599481E-003   2.6973413422268777E-003   4.9873300504370666E-002
  -7.8219865794639798E-003   2.8581234144575696E-003   5.0305581706393654E-002
  -6.4262196118680392E-003   3.6214068697168755E-003   5.1062103327244202E-002
  -5.0304526442720640E-003   4.9871917080055936E-003   5.2142865366922614E-002
  -3.6346856766761304E-003   6.9554779293227176E-003   5.3547867825428752E-002
  -2.0509918086791326E-003   4.2786439566411261E-003   6.2407026805066046E-002
  -2.2964152362076190E-003   5.5810491068558621E-003   5.8362298831329706E-002
  -2.5418386637360950E-003   7.2771289731346500E-003   5.4313712946685744E-002
  -2.7872620912645953E-003   9.3668835554768376E-003   5.0261269151133658E-002
  -3.0326855187930574E-003   1.1850312853882716E-002   4.6204967444674061E-002
  -2.5865547769020752E-003   4.9478524498116627E-003   5.9755748639913842E-002
  -2.8532763803841947E-003   6.5716216361449975E-003   5.6210719873967585E-002
  -3.1199979838663003E-003   8.6498090504546488E-003   5.2626952667022109E-002
  -3.3867195873483937E-003   1.1182414692741088E-002   4.9004447019076969E-002
  -3.6534411908304976E-003   1.4169438563004233E-002   4.5343202930132387E-002
  -3.0290247443092617E-003   5.6170609429819773E-003   5.7395462754923188E-002
  -3.3519250538365554E-003   7.5621941654338554E-003   5.4410876708679889E-002
  -3.6748253633638751E-003   1.0022489127774953E-002   5.1352671691345525E-002
  -3.9977256728911852E-003   1.2997945830005610E-002   4.8220847702920136E-002
  -4.3206259824184919E-003   1.6488564272125528E-002   4.5015404743404042E-002
  -3.3784017109005750E-003   6.2862694361524030E-003   5.5326169150094903E-002
  -3.7923612565646881E-003   8.5527666947226300E-003   5.2962769335467563E-002
  -4.2063208022287864E-003   1.1395169205095326E-002   5.0490870019657207E-002
  -4.6202803478928734E-003   1.4813476967269996E-002   4.7910471202664867E-002
  -5.0342398935569717E-003   1.8807689981246933E-002   4.5221572884489442E-002
  -3.6346856766761304E-003   6.9554779293227176E-003   5.3547867825428752E-002
  -4.1745849885685971E-003   9.5433392240116266E-003   5.1866397754329663E-002
  -4.7144843004610637E-003   1.2767849282415450E-002   5.0041547651956619E-002
  -5.2543836123535373E-003   1.6629008104534430E-002   4.8073317518309427E-002
  -5.7942829242459970E-003   2.1126815690368339E-002   4.5961707353388004E-002
  -8.5766208394011473E-002   1.7610861589332505E-002   8.7036611850308865E-002
  -7.2307884594100744E-002   1.4528208701953010E-002   7.2110272229827244E-002
  -5.8849560794189987E-002   1.2495069879955162E-002   5.8416228588871522E-002
  -4.5391236994279188E-002   1.1511445123338813E-002   4.5954480927441782E-002
  -3.1932913194368431E-002   1.1577334432104125E-002   3.4725029245538053E-002
  -9.5268859152888768E-002   1.9203612542844029E-002   7.9797030418576248E-002
  -8.0465215704471141E-002   1.6063622023411828E-002   6.5338536515240880E-002
  -6.5661572256053569E-002   1.4028259457841086E-002   5.2338385929393341E-002
  -5.0857928807635976E-002   1.3097524846131817E-002   4.0796578661033429E-002
  -3.6054285359218376E-002   1.3271418188283923E-002   3.0713114710161221E-002
 -0.10549375887322203        2.0796363496355635E-002   7.2472554410550977E-002
  -8.9118748438335962E-002   1.7599035344870742E-002   5.8537020112841787E-002
  -7.2743738003449770E-002   1.5561449035727079E-002   4.6285876470582119E-002
  -5.6368727568563592E-002   1.4683604568924712E-002   3.5719123483771938E-002
  -3.9993717133677470E-002   1.4965501944463694E-002   2.6836761152411182E-002
 -0.11644090755501144        2.2389114449867187E-002   6.5063183826233051E-002
  -9.8268482795694986E-002   1.9134448666329525E-002   5.1705723022629893E-002
  -8.0096058036378481E-002   1.7094638613613065E-002   4.0258700212438006E-002
  -6.1923633277062018E-002   1.6269684291717747E-002   3.0722115395657335E-002
  -4.3751208517745534E-002   1.6659585700643395E-002   2.3095968572287819E-002
 -0.12811030519825689        2.3981865403378766E-002   5.7568918665622359E-002
 -0.10791441877654839        2.0669861987788363E-002   4.4844645244605186E-002
  -8.7718532354839784E-002   1.8627828191499010E-002   3.4256857154960990E-002
  -6.7522645933131259E-002   1.7855764014510642E-002   2.5805554396689703E-002
  -4.7326759511422706E-002   1.8353669456823263E-002   1.9490736969791256E-002
  -3.1932913194368431E-002   1.1577334432104125E-002   3.4725029245538053E-002
  -3.3795390512626589E-002   1.2022658373647466E-002   3.9060883646537120E-002
  -3.5657867830884697E-002   1.2177337515365802E-002   4.3243577142088291E-002
  -3.7520345149142820E-002   1.2041371857258548E-002   4.7273109732191620E-002
  -3.9382822467400949E-002   1.1614761399326268E-002   5.1149481416846887E-002
  -3.6054285359218376E-002   1.3271418188283923E-002   3.0713114710161221E-002
  -3.8093969540537911E-002   1.3807815366577478E-002   3.4871731003235970E-002
  -4.0133653721857412E-002   1.3964592263292497E-002   3.8829094475635734E-002
  -4.2173337903176913E-002   1.3741748878428911E-002   4.2585205127360831E-002
  -4.4213022084496401E-002   1.3139285211986818E-002   4.6140062958410999E-002
  -3.9993717133677470E-002   1.4965501944463694E-002   2.6836761152411182E-002
  -4.2258700093285181E-002   1.5592972359507240E-002   3.0729163855808109E-002
  -4.4523683052892907E-002   1.5751847011219199E-002   3.4372221823303413E-002
  -4.6788666012500681E-002   1.5442125899599110E-002   3.7765935054896962E-002
  -4.9053648972108399E-002   1.4663809024647256E-002   4.0910303550588945E-002
  -4.3751208517745534E-002   1.6659585700643395E-002   2.3095968572287819E-002
  -4.6289582170868426E-002   1.7378129352437155E-002   2.6633182204253834E-002
  -4.8827955823991312E-002   1.7539101759145758E-002   2.9872959185091197E-002
  -5.1366329477114177E-002   1.7142502920769447E-002   3.2815299514799945E-002
  -5.3904703130237090E-002   1.6188332837307778E-002   3.5460203193380273E-002
  -4.7326759511422706E-002   1.8353669456823263E-002   1.9490736969791256E-002
  -5.0186615773287618E-002   1.9163286345366987E-002   2.2583786048572974E-002
  -5.3046472035152489E-002   1.9326356507072609E-002   2.5331306560999245E-002
  -5.5906328297017367E-002   1.8842879941939620E-002   2.7733298507069973E-002
  -5.8766184558882273E-002   1.7712856649968245E-002   2.9789761886785282E-002
  -3.9382822467400949E-002   1.1614761399326268E-002   5.1149481416846887E-002
  -3.7632703839243248E-002   1.1015745383962217E-002   5.0949779289178265E-002
  -3.5882585211085526E-002   1.0362563053560231E-002   5.0937448282857067E-002
  -3.4132466582927803E-002   9.6552144081200678E-003   5.1112488397883127E-002
  -3.2382347954770102E-002   8.8936994476421782E-003   5.1474899634256555E-002
  -4.4213022084496401E-002   1.3139285211986818E-002   4.6140062958410999E-002
  -4.2282500227906521E-002   1.2354608915226967E-002   4.5903480020263177E-002
  -4.0351978371316606E-002   1.1585127639410192E-002   4.5840332417632468E-002
  -3.8421456514726740E-002   1.0830841384536653E-002   4.5950620150518595E-002
  -3.6490934658136825E-002   1.0091750150606094E-002   4.6234343218921725E-002
  -4.9053648972108399E-002   1.4663809024647256E-002   4.0910303550588945E-002
  -4.6956659672916692E-002   1.3693472446491606E-002   4.0706201137942988E-002
  -4.4859670373725020E-002   1.2807692225260139E-002   4.0661598274983682E-002
  -4.2762681074533279E-002   1.2006468360953069E-002   4.0776494961711034E-002
  -4.0665691775341642E-002   1.1289800853570064E-002   4.1050891198125050E-002
  -5.3904703130237090E-002   1.6188332837307778E-002   3.5460203193380273E-002
  -5.1655182174273895E-002   1.5032335977756356E-002   3.5357942642217345E-002
  -4.9405661218310713E-002   1.4030256811110149E-002   3.5401245854910779E-002
  -4.7156140262347532E-002   1.3182095337369458E-002   3.5590112831460442E-002
  -4.4906619306384343E-002   1.2487851556534063E-002   3.5924543571866564E-002
  -5.8766184558882273E-002   1.7712856649968245E-002   2.9789761886785282E-002
  -5.6378067731978010E-002   1.6371199509020967E-002   2.9858704533086533E-002
  -5.3989950905073747E-002   1.5252821396960006E-002   3.0059275157413856E-002
  -5.1601834078169456E-002   1.4357722313786004E-002   3.0391473759766932E-002
  -4.9213717251265165E-002   1.3685902259498006E-002   3.0855300340146108E-002
  -3.2382347954770102E-002   8.8936994476421782E-003   5.1474899634256555E-002
  -3.0134116887173906E-002   8.1531135626400353E-003   5.0171517792828302E-002
  -2.7885885819577710E-002   7.5085521436280278E-003   4.9100932538445441E-002
  -2.5637654751981501E-002   6.9600151906056631E-003   4.8263143871108055E-002
  -2.3389423684385319E-002   6.5075027035732536E-003   4.7658151790815895E-002
  -3.6490934658136825E-002   1.0091750150606094E-002   4.6234343218921725E-002
  -3.4006471177421393E-002   9.3889551934875637E-003   4.4944937789064610E-002
  -3.1522007696705927E-002   8.7435577690500033E-003   4.3895200598400380E-002
  -2.9037544215990540E-002   8.1555578772933845E-003   4.3085131646929314E-002
  -2.6553080735275084E-002   7.6249555182174578E-003   4.2514730934651135E-002
  -4.0665691775341642E-002   1.1289800853570064E-002   4.1050891198125050E-002
  -3.7938124229359327E-002   1.0624796824335148E-002   3.9736835246529989E-002
  -3.5210556683377109E-002   9.9785633944721314E-003   3.8669319186275516E-002
  -3.2482989137394891E-002   9.3511005639809915E-003   3.7848343017361598E-002
  -2.9755421591412631E-002   8.7424083328615509E-003   3.7273906739788393E-002
  -4.4906619306384343E-002   1.2487851556534063E-002   3.5924543571866564E-002
  -4.1929076042987776E-002   1.1860638455182704E-002   3.4547210165224482E-002
  -3.8951532779591118E-002   1.1213569019894183E-002   3.3423288302070656E-002
  -3.5973989516194564E-002   1.0546643250668711E-002   3.2552777982404933E-002
  -3.2996446252797892E-002   9.8598611475056996E-003   3.1935679206227308E-002
  -4.9213717251265165E-002   1.3685902259498006E-002   3.0855300340146108E-002
  -4.5979326618306615E-002   1.3096480086030260E-002   2.9376062545148018E-002
  -4.2744935985348120E-002   1.2448574645316277E-002   2.8157107945785825E-002
  -3.9510545352389598E-002   1.1742185937356441E-002   2.7198436542059209E-002
  -3.6276154719431047E-002   1.0977313962149848E-002   2.6500048333968351E-002
  -2.3389423684385319E-002   6.5075027035732536E-003   4.7658151790815895E-002
  -2.1876787780275936E-002   6.0685579933308920E-003   4.7804495825245152E-002
  -2.0364151876166525E-002   5.5607243706791709E-003   4.8102080341239140E-002
  -1.8851515972057115E-002   4.9840018356174659E-003   4.8550905338798300E-002
  -1.7338880067947732E-002   4.3383903881463182E-003   4.9150970817922301E-002
  -2.6553080735275084E-002   7.6249555182174578E-003   4.2514730934651135E-002
  -2.4898292824751131E-002   7.1005815591438370E-003   4.2556387866138856E-002
  -2.3243504914227220E-002   6.5312668673930402E-003   4.2731108328890405E-002
  -2.1588717003703333E-002   5.9170114429653621E-003   4.3038892322906044E-002
  -1.9933929093179412E-002   5.2578152858608895E-003   4.3479739848185761E-002
  -2.9755421591412631E-002   8.7424083328615509E-003   3.7273906739788393E-002
  -2.7976658624775108E-002   8.1326051249560882E-003   3.7234824748067205E-002
  -2.6197895658137585E-002   7.5018093641065764E-003   3.7310629337309067E-002
  -2.4419132691500110E-002   6.8500210503131473E-003   3.7501320507514077E-002
  -2.2640369724862601E-002   6.1772401835756274E-003   3.7806898258682303E-002
  -3.2996446252797892E-002   9.8598611475056996E-003   3.1935679206227308E-002
  -3.1111885180347788E-002   9.1646286907685198E-003   3.1839806471030366E-002
  -2.9227324107897683E-002   8.4723518608202791E-003   3.1840643366495482E-002
  -2.7342763035447564E-002   7.7830306576609325E-003   3.1938189892622718E-002
  -2.5458201962997414E-002   7.0966650812900600E-003   3.2132446049412455E-002
  -3.6276154719431047E-002   1.0977313962149848E-002   2.6500048333968351E-002
  -3.4303972491469242E-002   1.0196652256581284E-002   2.6371333035028366E-002
  -3.2331790263507423E-002   9.4428943575338986E-003   2.6321150416449446E-002
  -3.0359608035545611E-002   8.7160402650087523E-003   2.6349500478231730E-002
  -2.8387425807583799E-002   8.0160899790048257E-003   2.6456383220375468E-002
  -1.7338880067947732E-002   4.3383903881463182E-003   4.9150970817922301E-002
  -1.5308598437725765E-002   3.7257828950194583E-003   4.8944307959036815E-002
  -1.3278316807503840E-002   3.2480722229905057E-003   4.8995808620483139E-002
  -1.1248035177281873E-002   2.9052583720598768E-003   4.9305472802261108E-002
  -9.2177535470599481E-003   2.6973413422268777E-003   4.9873300504370666E-002
  -1.9933929093179412E-002   5.2578152858608895E-003   4.3479739848185761E-002
  -1.7683917085847677E-002   4.6196242420817324E-003   4.3234176129839152E-002
  -1.5433905078516011E-002   4.0683841576291402E-003   4.3169909645380145E-002
  -1.3183893071184311E-002   3.6040950325030643E-003   4.3286940394808904E-002
  -1.0933881063852666E-002   3.2267568667039281E-003   4.3585268378125486E-002
  -2.2640369724862601E-002   6.1772401835756274E-003   3.7806898258682303E-002
  -2.0247493626865131E-002   5.5134655891437845E-003   3.7474487819103147E-002
  -1.7854617528867751E-002   4.8886960922673306E-003   3.7246508326967770E-002
  -1.5461741430870347E-002   4.3029316929465850E-003   3.7122959782276241E-002
  -1.3068865332872895E-002   3.7561723911808675E-003   3.7103842185028074E-002
  -2.5458201962997414E-002   7.0966650812900600E-003   3.2132446049412455E-002
  -2.2999328060778260E-002   6.4073069362058366E-003   3.1665243026829389E-002
  -2.0540454158559103E-002   5.7090080269056875E-003   3.1225604665245987E-002
  -1.8081580256339918E-002   5.0017683533898835E-003   3.0813530964662404E-002
  -1.5622706354120794E-002   4.2855879156578625E-003   3.0429021925078480E-002
  -2.8387425807583799E-002   8.0160899790048257E-003   2.6456383220375468E-002
  -2.5939420387586870E-002   7.3011482832680552E-003   2.5806441753017384E-002
  -2.3491414967590024E-002   6.5293199615442388E-003   2.5107198660214880E-002
  -2.1043409547593150E-002   5.7006050138333139E-003   2.4358653941968289E-002
  -1.8595404127596249E-002   4.8150034401348574E-003   2.3560807598277167E-002
  -9.2177535470599481E-003   2.6973413422268777E-003   4.9873300504370666E-002
  -7.8219865794639798E-003   2.8581234144575696E-003   5.0305581706393654E-002
  -6.4262196118680392E-003   3.6214068697168755E-003   5.1062103327244202E-002
  -5.0304526442720640E-003   4.9871917080055936E-003   5.2142865366922614E-002
  -3.6346856766761304E-003   6.9554779293227176E-003   5.3547867825428752E-002
  -1.0933881063852666E-002   3.2267568667039281E-003   4.3585268378125486E-002
  -9.1947895389558193E-003   3.1657756567877726E-003   4.4191909134127627E-002
  -7.4556980140589521E-003   3.6505573993101115E-003   4.5160958585903743E-002
  -5.7166064891620953E-003   4.6811020942720064E-003   4.6492416733453779E-002
  -3.9775149642652941E-003   6.2574097416725483E-003   4.8186283576777678E-002
  -1.3068865332872895E-002   3.7561723911808675E-003   3.7103842185028074E-002
  -1.0948280973729074E-002   3.4734278991176426E-003   3.7828104064419887E-002
  -8.8276966145852329E-003   3.6797079289034723E-003   3.8952942916531549E-002
  -6.7071122554413862E-003   4.3750124805385336E-003   4.0478358741363275E-002
  -4.5865278962975708E-003   5.5593415540224345E-003   4.2404351538915336E-002
  -1.5622706354120794E-002   4.2855879156578625E-003   3.0429021925078480E-002
  -1.3082460883783786E-002   3.7810801414477901E-003   3.1214166497270081E-002
  -1.0542215413446840E-002   3.7088584584966597E-003   3.2438056319127453E-002
  -8.0019699431098882E-003   4.0689228668051147E-003   3.4100691390651180E-002
  -5.4617244727729400E-003   4.8612733663724039E-003   3.6202071711841290E-002
  -1.8595404127596249E-002   4.8150034401348574E-003   2.3560807598277167E-002
  -1.5597329269120053E-002   4.0887323837776601E-003   2.4350096432678270E-002
  -1.2599254410643829E-002   3.7380089880898471E-003   2.5616298793691816E-002
  -9.6011795521676463E-003   3.7628332530714181E-003   2.7359414681317806E-002
  -6.6031046936914084E-003   4.1632051787223734E-003   2.9579444095555907E-002
  -3.6346856766761304E-003   6.9554779293227176E-003   5.3547867825428752E-002
  -4.1745849885685971E-003   9.5433392240116266E-003   5.1866397754329663E-002
  -4.7144843004610637E-003   1.2767849282415450E-002   5.0041547651956619E-002
  -5.2543836123535373E-003   1.6629008104534430E-002   4.8073317518309427E-002
  -5.7942829242459970E-003   2.1126815690368339E-002   4.5961707353388004E-002
  -3.9775149642652941E-003   6.2574097416725483E-003   4.8186283576777678E-002
  -4.5578206143315481E-003   8.6922638131313179E-003   4.7245592884032461E-002
  -5.1381262643978021E-003   1.2298447780268701E-002   4.6367469546213735E-002
  -5.7184319144641393E-003   1.7075961643083316E-002   4.5551913563321611E-002
  -6.2987375645303656E-003   2.3024805401576476E-002   4.4798924935355755E-002
  -4.5865278962975708E-003   5.5593415540224345E-003   4.2404351538915336E-002
  -5.0012924983369178E-003   7.8411884022516753E-003   4.2739121356486637E-002
  -5.4160571003763203E-003   1.1829046278121744E-002   4.3342405915185192E-002
  -5.8308217024156412E-003   1.7522915181632539E-002   4.4214205215011064E-002
  -6.2455863044550697E-003   2.4922795112784391E-002   4.5354519255964454E-002
  -5.4617244727729400E-003   4.8612733663724039E-003   3.6202071711841290E-002
  -5.5050006405845953E-003   6.9901129913714777E-003   3.8346983171692141E-002
  -5.5482768083963069E-003   1.1359644775975002E-002   4.0966356758871308E-002
  -5.5915529762079752E-003   1.7969868720181706E-002   4.4060192473378570E-002
  -5.6348291440197276E-003   2.6820784823992305E-002   4.7628490315213434E-002
  -6.6031046936914084E-003   4.1632051787223734E-003   2.9579444095555907E-002
  -6.0689450410746915E-003   6.1390375804915021E-003   3.4069178329649508E-002
  -5.5347853884579745E-003   1.0890243273827982E-002   3.9239322077271876E-002
  -5.0006257358412715E-003   1.8416822258730578E-002   4.5089875338423069E-002
  -4.4664660832245406E-003   2.8718774535200442E-002   5.1620838113103140E-002
 -0.12811030519825689        2.3981865403378766E-002   5.7568918665622359E-002
 -0.10791441877654839        2.0669861987788363E-002   4.4844645244605186E-002
  -8.7718532354839784E-002   1.8627828191499010E-002   3.4256857154960990E-002
  -6.7522645933131259E-002   1.7855764014510642E-002   2.5805554396689703E-002
  -4.7326759511422706E-002   1.8353669456823263E-002   1.9490736969791256E-002
 -0.13955872997299790        2.8192813226483315E-002   4.5703969250684595E-002
 -0.11740848907081686        2.3967575849750677E-002   3.5263172225757144E-002
  -9.5258248168635623E-002   2.1075193950767721E-002   2.6594598830402078E-002
  -7.3108007266454458E-002   1.9515667529534621E-002   1.9698249064619325E-002
  -5.0957766364273308E-002   1.9288996586051266E-002   1.4574122928408872E-002
 -0.14984296004927433        3.2403761049587781E-002   3.2894342945380059E-002
 -0.12610262636842112        2.7265289711712798E-002   2.4799908174991281E-002
 -0.10236229268756794        2.3522559710036452E-002   1.8113435332374146E-002
  -7.8621959006714759E-002   2.1175571044558653E-002   1.2834924417528735E-002
  -5.4881625325861640E-002   2.0224323715279213E-002   8.9643754304548767E-003
 -0.15896299542708575        3.6614708872692373E-002   1.9140039749708928E-002
 -0.13399683066936138        3.0563003573675127E-002   1.3454853092307439E-002
 -0.10903066591163668        2.5969925469305228E-002   8.8133666608769968E-003
  -8.4064501153912258E-002   2.2835474559582548E-002   5.2155804554175561E-003
  -5.9098336396187778E-002   2.1159650844507244E-002   2.6614944759295114E-003
 -0.16691883610643266        4.0825656695796853E-002   4.4410596636710320E-003
 -0.14109110197363739        3.3860717435637455E-002   1.2280069777057534E-003
 -0.11526336784084212        2.8417291228573976E-002  -1.3056071840890082E-003
  -8.9435633708046858E-002   2.4495378074606673E-002  -3.1597828217138357E-003
  -6.3607899575251592E-002   2.2094977973735275E-002  -4.3345199351677577E-003
  -4.7326759511422706E-002   1.8353669456823263E-002   1.9490736969791256E-002
  -5.0186615773287618E-002   1.9163286345366987E-002   2.2583786048572974E-002
  -5.3046472035152489E-002   1.9326356507072609E-002   2.5331306560999245E-002
  -5.5906328297017367E-002   1.8842879941939620E-002   2.7733298507069973E-002
  -5.8766184558882273E-002   1.7712856649968245E-002   2.9789761886785282E-002
  -5.0957766364273308E-002   1.9288996586051266E-002   1.4574122928408872E-002
  -5.4139451873749578E-002   1.9569675994261612E-002   1.6915668466596465E-002
  -5.7321137383226008E-002   1.9532200628109689E-002   1.8959084075916580E-002
  -6.0502822892702368E-002   1.9176570487595319E-002   2.0704369756369148E-002
  -6.3684508402178763E-002   1.8502785572718894E-002   2.2151525507954350E-002
  -5.4881625325861640E-002   2.0224323715279213E-002   8.9643754304548767E-003
  -5.8337741445461493E-002   1.9976065643156057E-002   1.0882809380524508E-002
  -6.1793857565061283E-002   1.9738044749146595E-002   1.2550512039214569E-002
  -6.5249973684661122E-002   1.9510261033251236E-002   1.3967483406525146E-002
  -6.8706089804260920E-002   1.9292714495469487E-002   1.5133723482456340E-002
  -5.9098336396187778E-002   2.1159650844507244E-002   2.6614944759295114E-003
  -6.2781484488423106E-002   2.0382455292050343E-002   4.4852087903570446E-003
  -6.6464632580658392E-002   1.9943888870183727E-002   6.1055904508931780E-003
  -7.0147780672893748E-002   1.9843951578906879E-002   7.5226394575379453E-003
  -7.3830928765129034E-002   2.0082643418219970E-002   8.7363558102911305E-003
  -6.3607899575251592E-002   2.2094977973735275E-002  -4.3345199351677577E-003
  -6.7470681002634425E-002   2.0788844940945239E-002  -2.2771333039058872E-003
  -7.1333462430017258E-002   2.0149732991220554E-002  -3.7568068904728080E-004
  -7.5196243857400091E-002   2.0177642124562793E-002   1.3698379094073329E-003
  -7.9059025284782924E-002   2.0872572340970841E-002   2.9594224914587519E-003
  -5.8766184558882273E-002   1.7712856649968245E-002   2.9789761886785282E-002
  -5.6378067731978010E-002   1.6371199509020967E-002   2.9858704533086533E-002
  -5.3989950905073747E-002   1.5252821396960006E-002   3.0059275157413856E-002
  -5.1601834078169456E-002   1.4357722313786004E-002   3.0391473759766932E-002
  -4.9213717251265165E-002   1.3685902259498006E-002   3.0855300340146108E-002
  -6.3684508402178763E-002   1.8502785572718894E-002   2.2151525507954350E-002
  -6.1132413434418165E-002   1.7667924447480277E-002   2.2259201449562588E-002
  -5.8580318466657566E-002   1.6829065675880411E-002   2.2563205694857633E-002
  -5.6028223498896988E-002   1.5986209257918500E-002   2.3063538243839200E-002
  -5.3476128531136369E-002   1.5139355193595216E-002   2.3760199096507617E-002
  -6.8706089804260920E-002   1.9292714495469487E-002   1.5133723482456340E-002
  -6.5925316369983333E-002   1.8964649385939766E-002   1.5052856044123403E-002
  -6.3144542935705719E-002   1.8405309954800532E-002   1.5233017235138098E-002
  -6.0363769501428084E-002   1.7614696202051104E-002   1.5674207055499979E-002
  -5.7582996067150463E-002   1.6592808127692177E-002   1.6376425505209444E-002
  -7.3830928765129034E-002   2.0082643418219970E-002   8.7363558102911305E-003
  -7.0756776538673627E-002   2.0261374324399388E-002   8.2396683167691512E-003
  -6.7682624312218193E-002   1.9981554233720406E-002   8.0687097782550527E-003
  -6.4608472085762772E-002   1.9243183146184211E-002   8.2234801947497008E-003
  -6.1534319859307351E-002   1.8046261061789595E-002   8.7039795662517509E-003
  -7.9059025284782924E-002   2.0872572340970841E-002   2.9594224914587519E-003
  -7.5626793940488934E-002   2.1558099262858677E-002   1.8196382674993128E-003
  -7.2194562596195000E-002   2.1557798512640891E-002   1.0702833242088317E-003
  -6.8762331251901065E-002   2.0871670090316416E-002   7.1135766158701708E-004
  -6.5330099907607075E-002   1.9499713995886570E-002   7.4286127963441029E-004
  -4.9213717251265165E-002   1.3685902259498006E-002   3.0855300340146108E-002
  -4.5979326618306615E-002   1.3096480086030260E-002   2.9376062545148018E-002
  -4.2744935985348120E-002   1.2448574645316277E-002   2.8157107945785825E-002
  -3.9510545352389598E-002   1.1742185937356441E-002   2.7198436542059209E-002
  -3.6276154719431047E-002   1.0977313962149848E-002   2.6500048333968351E-002
  -5.3476128531136369E-002   1.5139355193595216E-002   2.3760199096507617E-002
  -4.9989511459832922E-002   1.4303004326981533E-002   2.2411708675343450E-002
  -4.6502894388529392E-002   1.3491657502148896E-002   2.1307387935233402E-002
  -4.3016277317225883E-002   1.2705314719097145E-002   2.0447236876177846E-002
  -3.9529660245922416E-002   1.1943975977826371E-002   1.9831255498176270E-002
  -5.7582996067150463E-002   1.6592808127692177E-002   1.6376425505209444E-002
  -5.3860266072083426E-002   1.5509528567932640E-002   1.5242169766906288E-002
  -5.0137536077016424E-002   1.4534740358981189E-002   1.4335970195075980E-002
  -4.6414806081949395E-002   1.3668443500837795E-002   1.3657826789718244E-002
  -4.2692076086882393E-002   1.2910637993502672E-002   1.3207739550833625E-002
  -6.1534319859307351E-002   1.8046261061789595E-002   8.7039795662517509E-003
  -5.7591590455058239E-002   1.6716052808883775E-002   7.8674458198367790E-003
  -5.3648861050809196E-002   1.5577823215813590E-002   7.2428547253132764E-003
  -4.9706131646560126E-002   1.4631572282578418E-002   6.8302062826809734E-003
  -4.5763402242311034E-002   1.3877300009179194E-002   6.6295004919400338E-003
  -6.5330099907607075E-002   1.9499713995886570E-002   7.4286127963441029E-004
  -6.1183484608757333E-002   1.7922577049834798E-002   2.8753683413484943E-004
  -5.7036869309907701E-002   1.6620906072646380E-002   2.8041525945182721E-005
  -5.2890254011058013E-002   1.5594701064319497E-002  -3.5624644934305338E-005
  -4.8743638712208326E-002   1.4843962024855717E-002   9.6538321495698298E-005
  -3.6276154719431047E-002   1.0977313962149848E-002   2.6500048333968351E-002
  -3.4303972491469242E-002   1.0196652256581284E-002   2.6371333035028366E-002
  -3.2331790263507423E-002   9.4428943575338986E-003   2.6321150416449446E-002
  -3.0359608035545611E-002   8.7160402650087523E-003   2.6349500478231730E-002
  -2.8387425807583799E-002   8.0160899790048257E-003   2.6456383220375468E-002
  -3.9529660245922416E-002   1.1943975977826371E-002   1.9831255498176270E-002
  -3.7492983230164589E-002   1.1198431237898321E-002   1.9796335875915783E-002
  -3.5456306214406708E-002   1.0459470458875519E-002   1.9811873148886133E-002
  -3.3419629198648833E-002   9.7270936407577446E-003   1.9877867317087225E-002
  -3.1382952182891000E-002   9.0013007835449965E-003   1.9994318380519405E-002
  -4.2692076086882393E-002   1.2910637993502672E-002   1.3207739550833625E-002
  -4.0618980068458828E-002   1.2200210219215801E-002   1.3246295759635845E-002
  -3.8545884050035367E-002   1.1476046560217459E-002   1.3307233078538663E-002
  -3.6472788031611900E-002   1.0738147016507067E-002   1.3390551507541752E-002
  -3.4399692013188335E-002   9.9865115880852229E-003   1.3496251046645535E-002
  -4.5763402242311034E-002   1.3877300009179194E-002   6.6295004919400338E-003
  -4.3681963006352229E-002   1.3201989200533171E-002   6.7212126861884991E-003
  -4.1600523770393423E-002   1.2492622661559240E-002   6.8072302054070673E-003
  -3.9519084534434590E-002   1.1749200392256224E-002   6.8875530495958927E-003
  -3.7437645298475812E-002   1.0971722392625866E-002   6.9621812187548940E-003
  -4.8743638712208326E-002   1.4843962024855717E-002   9.6538321495698298E-005
  -4.6681932043844521E-002   1.4203768181850429E-002   2.2108665557385443E-004
  -4.4620225375480826E-002   1.3509198762900632E-002   3.1186452949194532E-004
  -4.2558518707117104E-002   1.2760253768005339E-002   3.6887194324908279E-004
  -4.0496812038753327E-002   1.1956933197165842E-002   3.9210889684671013E-004
  -2.8387425807583799E-002   8.0160899790048257E-003   2.6456383220375468E-002
  -2.5939420387586870E-002   7.3011482832680552E-003   2.5806441753017384E-002
  -2.3491414967590024E-002   6.5293199615442388E-003   2.5107198660214880E-002
  -2.1043409547593150E-002   5.7006050138333139E-003   2.4358653941968289E-002
  -1.8595404127596249E-002   4.8150034401348574E-003   2.3560807598277167E-002
  -3.1382952182891000E-002   9.0013007835449965E-003   1.9994318380519405E-002
  -2.8960794208633053E-002   8.2730788024856228E-003   1.9312453220583448E-002
  -2.6538636234375051E-002   7.5334146128271384E-003   1.8628194794613945E-002
  -2.4116478260117070E-002   6.7823082145702235E-003   1.7941543102610966E-002
  -2.1694320285859159E-002   6.0197596077147253E-003   1.7252498144574524E-002
  -3.4399692013188335E-002   9.9865115880852229E-003   1.3496251046645535E-002
  -3.1956473125258532E-002   9.2450093217027740E-003   1.2827906611520834E-002
  -2.9513254237328708E-002   8.5375092641101630E-003   1.2204077269772851E-002
  -2.7070035349398947E-002   7.8640114153071365E-003   1.1624763021402480E-002
  -2.4626816461469081E-002   7.2245157752944822E-003   1.1089963866409036E-002
  -3.7437645298475812E-002   1.0971722392625866E-002   6.9621812187548940E-003
  -3.4926457137463403E-002   1.0216939840920244E-002   6.3528019258293558E-003
  -3.2415268976451070E-002   9.5416039153930696E-003   5.8348460856917951E-003
  -2.9904080815438674E-002   8.9457146160440478E-003   5.4083136983422136E-003
  -2.7392892654426338E-002   8.4292719428741836E-003   5.0732047637806338E-003
  -4.0496812038753327E-002   1.1956933197165842E-002   3.9210889684671013E-004
  -3.7870746245247666E-002   1.1188870360137271E-002  -1.1286083649059142E-004
  -3.5244680451742005E-002   1.0545698566675921E-002  -4.7949875762948180E-004
  -3.2618614658236289E-002   1.0027417816781251E-002  -7.0780486656944752E-004
  -2.9992548864730684E-002   9.6340281104541070E-003  -7.9777916331080778E-004
  -1.8595404127596249E-002   4.8150034401348574E-003   2.3560807598277167E-002
  -1.5597329269120053E-002   4.0887323837776601E-003   2.4350096432678270E-002
  -1.2599254410643829E-002   3.7380089880898471E-003   2.5616298793691816E-002
  -9.6011795521676463E-003   3.7628332530714181E-003   2.7359414681317806E-002
  -6.6031046936914084E-003   4.1632051787223734E-003   2.9579444095555907E-002
  -2.1694320285859159E-002   6.0197596077147253E-003   1.7252498144574524E-002
  -1.8492473409104870E-002   5.3448152032390395E-003   1.8216164590308170E-002
  -1.5290626532350485E-002   4.8565214121212841E-003   1.9110461545985585E-002
  -1.2088779655596273E-002   4.5548782343625277E-003   1.9935389011607005E-002
  -8.8869327788419217E-003   4.4398856699613409E-003   2.0690946987172110E-002
  -2.4626816461469081E-002   7.2245157752944822E-003   1.1089963866409036E-002
  -2.1767480583105181E-002   6.6008980227002245E-003   1.2039110876163828E-002
  -1.8908144704741336E-002   5.9750338361531652E-003   1.2372605379194573E-002
  -1.6048808826377405E-002   5.3469232156533042E-003   1.2090447375500191E-002
  -1.3189472948013592E-002   4.7165661612004195E-003   1.1192636865081096E-002
  -2.7392892654426338E-002   8.4292719428741836E-003   5.0732047637806338E-003
  -2.5422350791121331E-002   7.8569808421615067E-003   5.8189352902457553E-003
  -2.3451808927816245E-002   7.0935462601853794E-003   5.4027302933178228E-003
  -2.1481267064511238E-002   6.1389681969441362E-003   3.8245897729969926E-003
  -1.9510725201206159E-002   4.9932466524394425E-003   1.0845137292826296E-003
  -2.9992548864730684E-002   9.6340281104541070E-003  -7.9777916331080778E-004
  -2.9457084033152947E-002   9.1130636616232330E-003  -4.4436216744669910E-004
  -2.8921619201575266E-002   8.2120586842165388E-003  -1.7991637116435422E-003
  -2.8386154369997557E-002   6.9310131782355372E-003  -4.8621837959028288E-003
  -2.7850689538419848E-002   5.2699271436782436E-003  -9.6334224202232477E-003
  -6.6031046936914084E-003   4.1632051787223734E-003   2.9579444095555907E-002
  -6.0689450410746915E-003   6.1390375804915021E-003   3.4069178329649508E-002
  -5.5347853884579745E-003   1.0890243273827982E-002   3.9239322077271876E-002
  -5.0006257358412715E-003   1.8416822258730578E-002   4.5089875338423069E-002
  -4.4664660832245406E-003   2.8718774535200442E-002   5.1620838113103140E-002
  -8.8869327788419217E-003   4.4398856699613409E-003   2.0690946987172110E-002
  -7.5973654712576388E-003   5.6594212497557694E-003   2.5865856761983275E-002
  -6.3077981636732311E-003   9.3613625045823046E-003   3.1871172333200526E-002
  -5.0182308560889691E-003   1.5545709434440558E-002   3.8706893700824335E-002
  -3.7286635485046515E-003   2.4212462039330918E-002   4.6373020864854952E-002
  -1.3189472948013592E-002   4.7165661612004195E-003   1.1192636865081096E-002
  -1.0994501702583814E-002   5.1798049190200368E-003   1.6759754564074691E-002
  -8.7995304571542032E-003   7.8324817353367659E-003   2.3307274342352108E-002
  -6.6045592117244568E-003   1.2674596610150655E-002   3.0835196199914247E-002
  -4.4095879662948145E-003   1.9706149543461615E-002   3.9343520136760013E-002
  -1.9510725201206159E-002   4.9932466524394425E-003   1.0845137292826296E-003
  -1.6260353735053357E-002   4.7001885882841932E-003   6.7508717359237441E-003
  -1.3009982268900504E-002   6.3036009660911579E-003   1.3547628104726657E-002
  -9.7596108027477729E-003   9.8034837858602501E-003   2.1474782835691469E-002
  -6.5092393365948492E-003   1.5199837047591869E-002   3.0532335928818571E-002
  -2.7850689538419848E-002   5.2699271436782436E-003  -9.6334224202232477E-003
  -2.3394921568666294E-002   4.2205722575479054E-003  -4.1607917224693036E-003
  -1.8939153598912628E-002   4.7747201968454944E-003   2.5922336203239582E-003
  -1.4483385629158907E-002   6.9323709615704970E-003   1.0625653608157273E-002
  -1.0027617659405408E-002   1.0693524551722788E-002   1.9939468241030323E-002
 </DataArray>
 </PointData>
 </Piece>
 </UnstructuredGrid>
 </VTKFile>
