 <VTKFile type="UnstructuredGrid"  version="0.1"   >
 <UnstructuredGrid>
 <Piece  NumberOfPoints="          1600 "  NumberOfCells="         1024 ">
 <Points>
 <DataArray  type="Float64" NumberOfComponents="3"  format="ascii" >
   0.0000000000000000        0.0000000000000000        0.0000000000000000     
   3.1250000000000000E-002   0.0000000000000000        0.0000000000000000     
   6.2500000000000000E-002   0.0000000000000000        0.0000000000000000     
   9.3750000000000000E-002   0.0000000000000000        0.0000000000000000     
  0.12500000000000000        0.0000000000000000        0.0000000000000000     
   0.0000000000000000        3.1250000000000000E-002   0.0000000000000000     
   3.1250000000000000E-002   3.1250000000000000E-002   0.0000000000000000     
   6.2500000000000000E-002   3.1250000000000000E-002   0.0000000000000000     
   9.3750000000000000E-002   3.1250000000000000E-002   0.0000000000000000     
  0.12500000000000000        3.1250000000000000E-002   0.0000000000000000     
   0.0000000000000000        6.2500000000000000E-002   0.0000000000000000     
   3.1250000000000000E-002   6.2500000000000000E-002   0.0000000000000000     
   6.2500000000000000E-002   6.2500000000000000E-002   0.0000000000000000     
   9.3750000000000000E-002   6.2500000000000000E-002   0.0000000000000000     
  0.12500000000000000        6.2500000000000000E-002   0.0000000000000000     
   0.0000000000000000        9.3750000000000000E-002   0.0000000000000000     
   3.1250000000000000E-002   9.3750000000000000E-002   0.0000000000000000     
   6.2500000000000000E-002   9.3750000000000000E-002   0.0000000000000000     
   9.3750000000000000E-002   9.3750000000000000E-002   0.0000000000000000     
  0.12500000000000000        9.3750000000000000E-002   0.0000000000000000     
   0.0000000000000000       0.12500000000000000        0.0000000000000000     
   3.1250000000000000E-002  0.12500000000000000        0.0000000000000000     
   6.2500000000000000E-002  0.12500000000000000        0.0000000000000000     
   9.3750000000000000E-002  0.12500000000000000        0.0000000000000000     
  0.12500000000000000       0.12500000000000000        0.0000000000000000     
  0.12500000000000000        0.0000000000000000        0.0000000000000000     
  0.15625000000000000        0.0000000000000000        0.0000000000000000     
  0.18750000000000000        0.0000000000000000        0.0000000000000000     
  0.21875000000000000        0.0000000000000000        0.0000000000000000     
  0.25000000000000000        0.0000000000000000        0.0000000000000000     
  0.12500000000000000        3.1250000000000000E-002   0.0000000000000000     
  0.15625000000000000        3.1250000000000000E-002   0.0000000000000000     
  0.18750000000000000        3.1250000000000000E-002   0.0000000000000000     
  0.21875000000000000        3.1250000000000000E-002   0.0000000000000000     
  0.25000000000000000        3.1250000000000000E-002   0.0000000000000000     
  0.12500000000000000        6.2500000000000000E-002   0.0000000000000000     
  0.15625000000000000        6.2500000000000000E-002   0.0000000000000000     
  0.18750000000000000        6.2500000000000000E-002   0.0000000000000000     
  0.21875000000000000        6.2500000000000000E-002   0.0000000000000000     
  0.25000000000000000        6.2500000000000000E-002   0.0000000000000000     
  0.12500000000000000        9.3750000000000000E-002   0.0000000000000000     
  0.15625000000000000        9.3750000000000000E-002   0.0000000000000000     
  0.18750000000000000        9.3750000000000000E-002   0.0000000000000000     
  0.21875000000000000        9.3750000000000000E-002   0.0000000000000000     
  0.25000000000000000        9.3750000000000000E-002   0.0000000000000000     
  0.12500000000000000       0.12500000000000000        0.0000000000000000     
  0.15625000000000000       0.12500000000000000        0.0000000000000000     
  0.18750000000000000       0.12500000000000000        0.0000000000000000     
  0.21875000000000000       0.12500000000000000        0.0000000000000000     
  0.25000000000000000       0.12500000000000000        0.0000000000000000     
  0.25000000000000000        0.0000000000000000        0.0000000000000000     
  0.28125000000000000        0.0000000000000000        0.0000000000000000     
  0.31250000000000000        0.0000000000000000        0.0000000000000000     
  0.34375000000000000        0.0000000000000000        0.0000000000000000     
  0.37500000000000000        0.0000000000000000        0.0000000000000000     
  0.25000000000000000        3.1250000000000000E-002   0.0000000000000000     
  0.28125000000000000        3.1250000000000000E-002   0.0000000000000000     
  0.31250000000000000        3.1250000000000000E-002   0.0000000000000000     
  0.34375000000000000        3.1250000000000000E-002   0.0000000000000000     
  0.37500000000000000        3.1250000000000000E-002   0.0000000000000000     
  0.25000000000000000        6.2500000000000000E-002   0.0000000000000000     
  0.28125000000000000        6.2500000000000000E-002   0.0000000000000000     
  0.31250000000000000        6.2500000000000000E-002   0.0000000000000000     
  0.34375000000000000        6.2500000000000000E-002   0.0000000000000000     
  0.37500000000000000        6.2500000000000000E-002   0.0000000000000000     
  0.25000000000000000        9.3750000000000000E-002   0.0000000000000000     
  0.28125000000000000        9.3750000000000000E-002   0.0000000000000000     
  0.31250000000000000        9.3750000000000000E-002   0.0000000000000000     
  0.34375000000000000        9.3750000000000000E-002   0.0000000000000000     
  0.37500000000000000        9.3750000000000000E-002   0.0000000000000000     
  0.25000000000000000       0.12500000000000000        0.0000000000000000     
  0.28125000000000000       0.12500000000000000        0.0000000000000000     
  0.31250000000000000       0.12500000000000000        0.0000000000000000     
  0.34375000000000000       0.12500000000000000        0.0000000000000000     
  0.37500000000000000       0.12500000000000000        0.0000000000000000     
  0.37500000000000000        0.0000000000000000        0.0000000000000000     
  0.40625000000000000        0.0000000000000000        0.0000000000000000     
  0.43750000000000000        0.0000000000000000        0.0000000000000000     
  0.46875000000000000        0.0000000000000000        0.0000000000000000     
  0.50000000000000000        0.0000000000000000        0.0000000000000000     
  0.37500000000000000        3.1250000000000000E-002   0.0000000000000000     
  0.40625000000000000        3.1250000000000000E-002   0.0000000000000000     
  0.43750000000000000        3.1250000000000000E-002   0.0000000000000000     
  0.46875000000000000        3.1250000000000000E-002   0.0000000000000000     
  0.50000000000000000        3.1250000000000000E-002   0.0000000000000000     
  0.37500000000000000        6.2500000000000000E-002   0.0000000000000000     
  0.40625000000000000        6.2500000000000000E-002   0.0000000000000000     
  0.43750000000000000        6.2500000000000000E-002   0.0000000000000000     
  0.46875000000000000        6.2500000000000000E-002   0.0000000000000000     
  0.50000000000000000        6.2500000000000000E-002   0.0000000000000000     
  0.37500000000000000        9.3750000000000000E-002   0.0000000000000000     
  0.40625000000000000        9.3750000000000000E-002   0.0000000000000000     
  0.43750000000000000        9.3750000000000000E-002   0.0000000000000000     
  0.46875000000000000        9.3750000000000000E-002   0.0000000000000000     
  0.50000000000000000        9.3750000000000000E-002   0.0000000000000000     
  0.37500000000000000       0.12500000000000000        0.0000000000000000     
  0.40625000000000000       0.12500000000000000        0.0000000000000000     
  0.43750000000000000       0.12500000000000000        0.0000000000000000     
  0.46875000000000000       0.12500000000000000        0.0000000000000000     
  0.50000000000000000       0.12500000000000000        0.0000000000000000     
  0.50000000000000000        0.0000000000000000        0.0000000000000000     
  0.53125000000000000        0.0000000000000000        0.0000000000000000     
  0.56250000000000000        0.0000000000000000        0.0000000000000000     
  0.59375000000000000        0.0000000000000000        0.0000000000000000     
  0.62500000000000000        0.0000000000000000        0.0000000000000000     
  0.50000000000000000        3.1250000000000000E-002   0.0000000000000000     
  0.53125000000000000        3.1250000000000000E-002   0.0000000000000000     
  0.56250000000000000        3.1250000000000000E-002   0.0000000000000000     
  0.59375000000000000        3.1250000000000000E-002   0.0000000000000000     
  0.62500000000000000        3.1250000000000000E-002   0.0000000000000000     
  0.50000000000000000        6.2500000000000000E-002   0.0000000000000000     
  0.53125000000000000        6.2500000000000000E-002   0.0000000000000000     
  0.56250000000000000        6.2500000000000000E-002   0.0000000000000000     
  0.59375000000000000        6.2500000000000000E-002   0.0000000000000000     
  0.62500000000000000        6.2500000000000000E-002   0.0000000000000000     
  0.50000000000000000        9.3750000000000000E-002   0.0000000000000000     
  0.53125000000000000        9.3750000000000000E-002   0.0000000000000000     
  0.56250000000000000        9.3750000000000000E-002   0.0000000000000000     
  0.59375000000000000        9.3750000000000000E-002   0.0000000000000000     
  0.62500000000000000        9.3750000000000000E-002   0.0000000000000000     
  0.50000000000000000       0.12500000000000000        0.0000000000000000     
  0.53125000000000000       0.12500000000000000        0.0000000000000000     
  0.56250000000000000       0.12500000000000000        0.0000000000000000     
  0.59375000000000000       0.12500000000000000        0.0000000000000000     
  0.62500000000000000       0.12500000000000000        0.0000000000000000     
  0.62500000000000000        0.0000000000000000        0.0000000000000000     
  0.65625000000000000        0.0000000000000000        0.0000000000000000     
  0.68750000000000000        0.0000000000000000        0.0000000000000000     
  0.71875000000000000        0.0000000000000000        0.0000000000000000     
  0.75000000000000000        0.0000000000000000        0.0000000000000000     
  0.62500000000000000        3.1250000000000000E-002   0.0000000000000000     
  0.65625000000000000        3.1250000000000000E-002   0.0000000000000000     
  0.68750000000000000        3.1250000000000000E-002   0.0000000000000000     
  0.71875000000000000        3.1250000000000000E-002   0.0000000000000000     
  0.75000000000000000        3.1250000000000000E-002   0.0000000000000000     
  0.62500000000000000        6.2500000000000000E-002   0.0000000000000000     
  0.65625000000000000        6.2500000000000000E-002   0.0000000000000000     
  0.68750000000000000        6.2500000000000000E-002   0.0000000000000000     
  0.71875000000000000        6.2500000000000000E-002   0.0000000000000000     
  0.75000000000000000        6.2500000000000000E-002   0.0000000000000000     
  0.62500000000000000        9.3750000000000000E-002   0.0000000000000000     
  0.65625000000000000        9.3750000000000000E-002   0.0000000000000000     
  0.68750000000000000        9.3750000000000000E-002   0.0000000000000000     
  0.71875000000000000        9.3750000000000000E-002   0.0000000000000000     
  0.75000000000000000        9.3750000000000000E-002   0.0000000000000000     
  0.62500000000000000       0.12500000000000000        0.0000000000000000     
  0.65625000000000000       0.12500000000000000        0.0000000000000000     
  0.68750000000000000       0.12500000000000000        0.0000000000000000     
  0.71875000000000000       0.12500000000000000        0.0000000000000000     
  0.75000000000000000       0.12500000000000000        0.0000000000000000     
  0.75000000000000000        0.0000000000000000        0.0000000000000000     
  0.78125000000000000        0.0000000000000000        0.0000000000000000     
  0.81250000000000000        0.0000000000000000        0.0000000000000000     
  0.84375000000000000        0.0000000000000000        0.0000000000000000     
  0.87500000000000000        0.0000000000000000        0.0000000000000000     
  0.75000000000000000        3.1250000000000000E-002   0.0000000000000000     
  0.78125000000000000        3.1250000000000000E-002   0.0000000000000000     
  0.81250000000000000        3.1250000000000000E-002   0.0000000000000000     
  0.84375000000000000        3.1250000000000000E-002   0.0000000000000000     
  0.87500000000000000        3.1250000000000000E-002   0.0000000000000000     
  0.75000000000000000        6.2500000000000000E-002   0.0000000000000000     
  0.78125000000000000        6.2500000000000000E-002   0.0000000000000000     
  0.81250000000000000        6.2500000000000000E-002   0.0000000000000000     
  0.84375000000000000        6.2500000000000000E-002   0.0000000000000000     
  0.87500000000000000        6.2500000000000000E-002   0.0000000000000000     
  0.75000000000000000        9.3750000000000000E-002   0.0000000000000000     
  0.78125000000000000        9.3750000000000000E-002   0.0000000000000000     
  0.81250000000000000        9.3750000000000000E-002   0.0000000000000000     
  0.84375000000000000        9.3750000000000000E-002   0.0000000000000000     
  0.87500000000000000        9.3750000000000000E-002   0.0000000000000000     
  0.75000000000000000       0.12500000000000000        0.0000000000000000     
  0.78125000000000000       0.12500000000000000        0.0000000000000000     
  0.81250000000000000       0.12500000000000000        0.0000000000000000     
  0.84375000000000000       0.12500000000000000        0.0000000000000000     
  0.87500000000000000       0.12500000000000000        0.0000000000000000     
  0.87500000000000000        0.0000000000000000        0.0000000000000000     
  0.90625000000000000        0.0000000000000000        0.0000000000000000     
  0.93750000000000000        0.0000000000000000        0.0000000000000000     
  0.96875000000000000        0.0000000000000000        0.0000000000000000     
   1.0000000000000000        0.0000000000000000        0.0000000000000000     
  0.87500000000000000        3.1250000000000000E-002   0.0000000000000000     
  0.90625000000000000        3.1250000000000000E-002   0.0000000000000000     
  0.93750000000000000        3.1250000000000000E-002   0.0000000000000000     
  0.96875000000000000        3.1250000000000000E-002   0.0000000000000000     
   1.0000000000000000        3.1250000000000000E-002   0.0000000000000000     
  0.87500000000000000        6.2500000000000000E-002   0.0000000000000000     
  0.90625000000000000        6.2500000000000000E-002   0.0000000000000000     
  0.93750000000000000        6.2500000000000000E-002   0.0000000000000000     
  0.96875000000000000        6.2500000000000000E-002   0.0000000000000000     
   1.0000000000000000        6.2500000000000000E-002   0.0000000000000000     
  0.87500000000000000        9.3750000000000000E-002   0.0000000000000000     
  0.90625000000000000        9.3750000000000000E-002   0.0000000000000000     
  0.93750000000000000        9.3750000000000000E-002   0.0000000000000000     
  0.96875000000000000        9.3750000000000000E-002   0.0000000000000000     
   1.0000000000000000        9.3750000000000000E-002   0.0000000000000000     
  0.87500000000000000       0.12500000000000000        0.0000000000000000     
  0.90625000000000000       0.12500000000000000        0.0000000000000000     
  0.93750000000000000       0.12500000000000000        0.0000000000000000     
  0.96875000000000000       0.12500000000000000        0.0000000000000000     
   1.0000000000000000       0.12500000000000000        0.0000000000000000     
   0.0000000000000000       0.12500000000000000        0.0000000000000000     
   3.1250000000000000E-002  0.12500000000000000        0.0000000000000000     
   6.2500000000000000E-002  0.12500000000000000        0.0000000000000000     
   9.3750000000000000E-002  0.12500000000000000        0.0000000000000000     
  0.12500000000000000       0.12500000000000000        0.0000000000000000     
   0.0000000000000000       0.15625000000000000        0.0000000000000000     
   3.1250000000000000E-002  0.15625000000000000        0.0000000000000000     
   6.2500000000000000E-002  0.15625000000000000        0.0000000000000000     
   9.3750000000000000E-002  0.15625000000000000        0.0000000000000000     
  0.12500000000000000       0.15625000000000000        0.0000000000000000     
   0.0000000000000000       0.18750000000000000        0.0000000000000000     
   3.1250000000000000E-002  0.18750000000000000        0.0000000000000000     
   6.2500000000000000E-002  0.18750000000000000        0.0000000000000000     
   9.3750000000000000E-002  0.18750000000000000        0.0000000000000000     
  0.12500000000000000       0.18750000000000000        0.0000000000000000     
   0.0000000000000000       0.21875000000000000        0.0000000000000000     
   3.1250000000000000E-002  0.21875000000000000        0.0000000000000000     
   6.2500000000000000E-002  0.21875000000000000        0.0000000000000000     
   9.3750000000000000E-002  0.21875000000000000        0.0000000000000000     
  0.12500000000000000       0.21875000000000000        0.0000000000000000     
   0.0000000000000000       0.25000000000000000        0.0000000000000000     
   3.1250000000000000E-002  0.25000000000000000        0.0000000000000000     
   6.2500000000000000E-002  0.25000000000000000        0.0000000000000000     
   9.3750000000000000E-002  0.25000000000000000        0.0000000000000000     
  0.12500000000000000       0.25000000000000000        0.0000000000000000     
  0.12500000000000000       0.12500000000000000        0.0000000000000000     
  0.15625000000000000       0.12500000000000000        0.0000000000000000     
  0.18750000000000000       0.12500000000000000        0.0000000000000000     
  0.21875000000000000       0.12500000000000000        0.0000000000000000     
  0.25000000000000000       0.12500000000000000        0.0000000000000000     
  0.12500000000000000       0.15625000000000000        0.0000000000000000     
  0.15625000000000000       0.15625000000000000        0.0000000000000000     
  0.18750000000000000       0.15625000000000000        0.0000000000000000     
  0.21875000000000000       0.15625000000000000        0.0000000000000000     
  0.25000000000000000       0.15625000000000000        0.0000000000000000     
  0.12500000000000000       0.18750000000000000        0.0000000000000000     
  0.15625000000000000       0.18750000000000000        0.0000000000000000     
  0.18750000000000000       0.18750000000000000        0.0000000000000000     
  0.21875000000000000       0.18750000000000000        0.0000000000000000     
  0.25000000000000000       0.18750000000000000        0.0000000000000000     
  0.12500000000000000       0.21875000000000000        0.0000000000000000     
  0.15625000000000000       0.21875000000000000        0.0000000000000000     
  0.18750000000000000       0.21875000000000000        0.0000000000000000     
  0.21875000000000000       0.21875000000000000        0.0000000000000000     
  0.25000000000000000       0.21875000000000000        0.0000000000000000     
  0.12500000000000000       0.25000000000000000        0.0000000000000000     
  0.15625000000000000       0.25000000000000000        0.0000000000000000     
  0.18750000000000000       0.25000000000000000        0.0000000000000000     
  0.21875000000000000       0.25000000000000000        0.0000000000000000     
  0.25000000000000000       0.25000000000000000        0.0000000000000000     
  0.25000000000000000       0.12500000000000000        0.0000000000000000     
  0.28125000000000000       0.12500000000000000        0.0000000000000000     
  0.31250000000000000       0.12500000000000000        0.0000000000000000     
  0.34375000000000000       0.12500000000000000        0.0000000000000000     
  0.37500000000000000       0.12500000000000000        0.0000000000000000     
  0.25000000000000000       0.15625000000000000        0.0000000000000000     
  0.28125000000000000       0.15625000000000000        0.0000000000000000     
  0.31250000000000000       0.15625000000000000        0.0000000000000000     
  0.34375000000000000       0.15625000000000000        0.0000000000000000     
  0.37500000000000000       0.15625000000000000        0.0000000000000000     
  0.25000000000000000       0.18750000000000000        0.0000000000000000     
  0.28125000000000000       0.18750000000000000        0.0000000000000000     
  0.31250000000000000       0.18750000000000000        0.0000000000000000     
  0.34375000000000000       0.18750000000000000        0.0000000000000000     
  0.37500000000000000       0.18750000000000000        0.0000000000000000     
  0.25000000000000000       0.21875000000000000        0.0000000000000000     
  0.28125000000000000       0.21875000000000000        0.0000000000000000     
  0.31250000000000000       0.21875000000000000        0.0000000000000000     
  0.34375000000000000       0.21875000000000000        0.0000000000000000     
  0.37500000000000000       0.21875000000000000        0.0000000000000000     
  0.25000000000000000       0.25000000000000000        0.0000000000000000     
  0.28125000000000000       0.25000000000000000        0.0000000000000000     
  0.31250000000000000       0.25000000000000000        0.0000000000000000     
  0.34375000000000000       0.25000000000000000        0.0000000000000000     
  0.37500000000000000       0.25000000000000000        0.0000000000000000     
  0.37500000000000000       0.12500000000000000        0.0000000000000000     
  0.40625000000000000       0.12500000000000000        0.0000000000000000     
  0.43750000000000000       0.12500000000000000        0.0000000000000000     
  0.46875000000000000       0.12500000000000000        0.0000000000000000     
  0.50000000000000000       0.12500000000000000        0.0000000000000000     
  0.37500000000000000       0.15625000000000000        0.0000000000000000     
  0.40625000000000000       0.15625000000000000        0.0000000000000000     
  0.43750000000000000       0.15625000000000000        0.0000000000000000     
  0.46875000000000000       0.15625000000000000        0.0000000000000000     
  0.50000000000000000       0.15625000000000000        0.0000000000000000     
  0.37500000000000000       0.18750000000000000        0.0000000000000000     
  0.40625000000000000       0.18750000000000000        0.0000000000000000     
  0.43750000000000000       0.18750000000000000        0.0000000000000000     
  0.46875000000000000       0.18750000000000000        0.0000000000000000     
  0.50000000000000000       0.18750000000000000        0.0000000000000000     
  0.37500000000000000       0.21875000000000000        0.0000000000000000     
  0.40625000000000000       0.21875000000000000        0.0000000000000000     
  0.43750000000000000       0.21875000000000000        0.0000000000000000     
  0.46875000000000000       0.21875000000000000        0.0000000000000000     
  0.50000000000000000       0.21875000000000000        0.0000000000000000     
  0.37500000000000000       0.25000000000000000        0.0000000000000000     
  0.40625000000000000       0.25000000000000000        0.0000000000000000     
  0.43750000000000000       0.25000000000000000        0.0000000000000000     
  0.46875000000000000       0.25000000000000000        0.0000000000000000     
  0.50000000000000000       0.25000000000000000        0.0000000000000000     
  0.50000000000000000       0.12500000000000000        0.0000000000000000     
  0.53125000000000000       0.12500000000000000        0.0000000000000000     
  0.56250000000000000       0.12500000000000000        0.0000000000000000     
  0.59375000000000000       0.12500000000000000        0.0000000000000000     
  0.62500000000000000       0.12500000000000000        0.0000000000000000     
  0.50000000000000000       0.15625000000000000        0.0000000000000000     
  0.53125000000000000       0.15625000000000000        0.0000000000000000     
  0.56250000000000000       0.15625000000000000        0.0000000000000000     
  0.59375000000000000       0.15625000000000000        0.0000000000000000     
  0.62500000000000000       0.15625000000000000        0.0000000000000000     
  0.50000000000000000       0.18750000000000000        0.0000000000000000     
  0.53125000000000000       0.18750000000000000        0.0000000000000000     
  0.56250000000000000       0.18750000000000000        0.0000000000000000     
  0.59375000000000000       0.18750000000000000        0.0000000000000000     
  0.62500000000000000       0.18750000000000000        0.0000000000000000     
  0.50000000000000000       0.21875000000000000        0.0000000000000000     
  0.53125000000000000       0.21875000000000000        0.0000000000000000     
  0.56250000000000000       0.21875000000000000        0.0000000000000000     
  0.59375000000000000       0.21875000000000000        0.0000000000000000     
  0.62500000000000000       0.21875000000000000        0.0000000000000000     
  0.50000000000000000       0.25000000000000000        0.0000000000000000     
  0.53125000000000000       0.25000000000000000        0.0000000000000000     
  0.56250000000000000       0.25000000000000000        0.0000000000000000     
  0.59375000000000000       0.25000000000000000        0.0000000000000000     
  0.62500000000000000       0.25000000000000000        0.0000000000000000     
  0.62500000000000000       0.12500000000000000        0.0000000000000000     
  0.65625000000000000       0.12500000000000000        0.0000000000000000     
  0.68750000000000000       0.12500000000000000        0.0000000000000000     
  0.71875000000000000       0.12500000000000000        0.0000000000000000     
  0.75000000000000000       0.12500000000000000        0.0000000000000000     
  0.62500000000000000       0.15625000000000000        0.0000000000000000     
  0.65625000000000000       0.15625000000000000        0.0000000000000000     
  0.68750000000000000       0.15625000000000000        0.0000000000000000     
  0.71875000000000000       0.15625000000000000        0.0000000000000000     
  0.75000000000000000       0.15625000000000000        0.0000000000000000     
  0.62500000000000000       0.18750000000000000        0.0000000000000000     
  0.65625000000000000       0.18750000000000000        0.0000000000000000     
  0.68750000000000000       0.18750000000000000        0.0000000000000000     
  0.71875000000000000       0.18750000000000000        0.0000000000000000     
  0.75000000000000000       0.18750000000000000        0.0000000000000000     
  0.62500000000000000       0.21875000000000000        0.0000000000000000     
  0.65625000000000000       0.21875000000000000        0.0000000000000000     
  0.68750000000000000       0.21875000000000000        0.0000000000000000     
  0.71875000000000000       0.21875000000000000        0.0000000000000000     
  0.75000000000000000       0.21875000000000000        0.0000000000000000     
  0.62500000000000000       0.25000000000000000        0.0000000000000000     
  0.65625000000000000       0.25000000000000000        0.0000000000000000     
  0.68750000000000000       0.25000000000000000        0.0000000000000000     
  0.71875000000000000       0.25000000000000000        0.0000000000000000     
  0.75000000000000000       0.25000000000000000        0.0000000000000000     
  0.75000000000000000       0.12500000000000000        0.0000000000000000     
  0.78125000000000000       0.12500000000000000        0.0000000000000000     
  0.81250000000000000       0.12500000000000000        0.0000000000000000     
  0.84375000000000000       0.12500000000000000        0.0000000000000000     
  0.87500000000000000       0.12500000000000000        0.0000000000000000     
  0.75000000000000000       0.15625000000000000        0.0000000000000000     
  0.78125000000000000       0.15625000000000000        0.0000000000000000     
  0.81250000000000000       0.15625000000000000        0.0000000000000000     
  0.84375000000000000       0.15625000000000000        0.0000000000000000     
  0.87500000000000000       0.15625000000000000        0.0000000000000000     
  0.75000000000000000       0.18750000000000000        0.0000000000000000     
  0.78125000000000000       0.18750000000000000        0.0000000000000000     
  0.81250000000000000       0.18750000000000000        0.0000000000000000     
  0.84375000000000000       0.18750000000000000        0.0000000000000000     
  0.87500000000000000       0.18750000000000000        0.0000000000000000     
  0.75000000000000000       0.21875000000000000        0.0000000000000000     
  0.78125000000000000       0.21875000000000000        0.0000000000000000     
  0.81250000000000000       0.21875000000000000        0.0000000000000000     
  0.84375000000000000       0.21875000000000000        0.0000000000000000     
  0.87500000000000000       0.21875000000000000        0.0000000000000000     
  0.75000000000000000       0.25000000000000000        0.0000000000000000     
  0.78125000000000000       0.25000000000000000        0.0000000000000000     
  0.81250000000000000       0.25000000000000000        0.0000000000000000     
  0.84375000000000000       0.25000000000000000        0.0000000000000000     
  0.87500000000000000       0.25000000000000000        0.0000000000000000     
  0.87500000000000000       0.12500000000000000        0.0000000000000000     
  0.90625000000000000       0.12500000000000000        0.0000000000000000     
  0.93750000000000000       0.12500000000000000        0.0000000000000000     
  0.96875000000000000       0.12500000000000000        0.0000000000000000     
   1.0000000000000000       0.12500000000000000        0.0000000000000000     
  0.87500000000000000       0.15625000000000000        0.0000000000000000     
  0.90625000000000000       0.15625000000000000        0.0000000000000000     
  0.93750000000000000       0.15625000000000000        0.0000000000000000     
  0.96875000000000000       0.15625000000000000        0.0000000000000000     
   1.0000000000000000       0.15625000000000000        0.0000000000000000     
  0.87500000000000000       0.18750000000000000        0.0000000000000000     
  0.90625000000000000       0.18750000000000000        0.0000000000000000     
  0.93750000000000000       0.18750000000000000        0.0000000000000000     
  0.96875000000000000       0.18750000000000000        0.0000000000000000     
   1.0000000000000000       0.18750000000000000        0.0000000000000000     
  0.87500000000000000       0.21875000000000000        0.0000000000000000     
  0.90625000000000000       0.21875000000000000        0.0000000000000000     
  0.93750000000000000       0.21875000000000000        0.0000000000000000     
  0.96875000000000000       0.21875000000000000        0.0000000000000000     
   1.0000000000000000       0.21875000000000000        0.0000000000000000     
  0.87500000000000000       0.25000000000000000        0.0000000000000000     
  0.90625000000000000       0.25000000000000000        0.0000000000000000     
  0.93750000000000000       0.25000000000000000        0.0000000000000000     
  0.96875000000000000       0.25000000000000000        0.0000000000000000     
   1.0000000000000000       0.25000000000000000        0.0000000000000000     
   0.0000000000000000       0.25000000000000000        0.0000000000000000     
   3.1250000000000000E-002  0.25000000000000000        0.0000000000000000     
   6.2500000000000000E-002  0.25000000000000000        0.0000000000000000     
   9.3750000000000000E-002  0.25000000000000000        0.0000000000000000     
  0.12500000000000000       0.25000000000000000        0.0000000000000000     
   0.0000000000000000       0.28125000000000000        0.0000000000000000     
   3.1250000000000000E-002  0.28125000000000000        0.0000000000000000     
   6.2500000000000000E-002  0.28125000000000000        0.0000000000000000     
   9.3750000000000000E-002  0.28125000000000000        0.0000000000000000     
  0.12500000000000000       0.28125000000000000        0.0000000000000000     
   0.0000000000000000       0.31250000000000000        0.0000000000000000     
   3.1250000000000000E-002  0.31250000000000000        0.0000000000000000     
   6.2500000000000000E-002  0.31250000000000000        0.0000000000000000     
   9.3750000000000000E-002  0.31250000000000000        0.0000000000000000     
  0.12500000000000000       0.31250000000000000        0.0000000000000000     
   0.0000000000000000       0.34375000000000000        0.0000000000000000     
   3.1250000000000000E-002  0.34375000000000000        0.0000000000000000     
   6.2500000000000000E-002  0.34375000000000000        0.0000000000000000     
   9.3750000000000000E-002  0.34375000000000000        0.0000000000000000     
  0.12500000000000000       0.34375000000000000        0.0000000000000000     
   0.0000000000000000       0.37500000000000000        0.0000000000000000     
   3.1250000000000000E-002  0.37500000000000000        0.0000000000000000     
   6.2500000000000000E-002  0.37500000000000000        0.0000000000000000     
   9.3750000000000000E-002  0.37500000000000000        0.0000000000000000     
  0.12500000000000000       0.37500000000000000        0.0000000000000000     
  0.12500000000000000       0.25000000000000000        0.0000000000000000     
  0.15625000000000000       0.25000000000000000        0.0000000000000000     
  0.18750000000000000       0.25000000000000000        0.0000000000000000     
  0.21875000000000000       0.25000000000000000        0.0000000000000000     
  0.25000000000000000       0.25000000000000000        0.0000000000000000     
  0.12500000000000000       0.28125000000000000        0.0000000000000000     
  0.15625000000000000       0.28125000000000000        0.0000000000000000     
  0.18750000000000000       0.28125000000000000        0.0000000000000000     
  0.21875000000000000       0.28125000000000000        0.0000000000000000     
  0.25000000000000000       0.28125000000000000        0.0000000000000000     
  0.12500000000000000       0.31250000000000000        0.0000000000000000     
  0.15625000000000000       0.31250000000000000        0.0000000000000000     
  0.18750000000000000       0.31250000000000000        0.0000000000000000     
  0.21875000000000000       0.31250000000000000        0.0000000000000000     
  0.25000000000000000       0.31250000000000000        0.0000000000000000     
  0.12500000000000000       0.34375000000000000        0.0000000000000000     
  0.15625000000000000       0.34375000000000000        0.0000000000000000     
  0.18750000000000000       0.34375000000000000        0.0000000000000000     
  0.21875000000000000       0.34375000000000000        0.0000000000000000     
  0.25000000000000000       0.34375000000000000        0.0000000000000000     
  0.12500000000000000       0.37500000000000000        0.0000000000000000     
  0.15625000000000000       0.37500000000000000        0.0000000000000000     
  0.18750000000000000       0.37500000000000000        0.0000000000000000     
  0.21875000000000000       0.37500000000000000        0.0000000000000000     
  0.25000000000000000       0.37500000000000000        0.0000000000000000     
  0.25000000000000000       0.25000000000000000        0.0000000000000000     
  0.28125000000000000       0.25000000000000000        0.0000000000000000     
  0.31250000000000000       0.25000000000000000        0.0000000000000000     
  0.34375000000000000       0.25000000000000000        0.0000000000000000     
  0.37500000000000000       0.25000000000000000        0.0000000000000000     
  0.25000000000000000       0.28125000000000000        0.0000000000000000     
  0.28125000000000000       0.28125000000000000        0.0000000000000000     
  0.31250000000000000       0.28125000000000000        0.0000000000000000     
  0.34375000000000000       0.28125000000000000        0.0000000000000000     
  0.37500000000000000       0.28125000000000000        0.0000000000000000     
  0.25000000000000000       0.31250000000000000        0.0000000000000000     
  0.28125000000000000       0.31250000000000000        0.0000000000000000     
  0.31250000000000000       0.31250000000000000        0.0000000000000000     
  0.34375000000000000       0.31250000000000000        0.0000000000000000     
  0.37500000000000000       0.31250000000000000        0.0000000000000000     
  0.25000000000000000       0.34375000000000000        0.0000000000000000     
  0.28125000000000000       0.34375000000000000        0.0000000000000000     
  0.31250000000000000       0.34375000000000000        0.0000000000000000     
  0.34375000000000000       0.34375000000000000        0.0000000000000000     
  0.37500000000000000       0.34375000000000000        0.0000000000000000     
  0.25000000000000000       0.37500000000000000        0.0000000000000000     
  0.28125000000000000       0.37500000000000000        0.0000000000000000     
  0.31250000000000000       0.37500000000000000        0.0000000000000000     
  0.34375000000000000       0.37500000000000000        0.0000000000000000     
  0.37500000000000000       0.37500000000000000        0.0000000000000000     
  0.37500000000000000       0.25000000000000000        0.0000000000000000     
  0.40625000000000000       0.25000000000000000        0.0000000000000000     
  0.43750000000000000       0.25000000000000000        0.0000000000000000     
  0.46875000000000000       0.25000000000000000        0.0000000000000000     
  0.50000000000000000       0.25000000000000000        0.0000000000000000     
  0.37500000000000000       0.28125000000000000        0.0000000000000000     
  0.40625000000000000       0.28125000000000000        0.0000000000000000     
  0.43750000000000000       0.28125000000000000        0.0000000000000000     
  0.46875000000000000       0.28125000000000000        0.0000000000000000     
  0.50000000000000000       0.28125000000000000        0.0000000000000000     
  0.37500000000000000       0.31250000000000000        0.0000000000000000     
  0.40625000000000000       0.31250000000000000        0.0000000000000000     
  0.43750000000000000       0.31250000000000000        0.0000000000000000     
  0.46875000000000000       0.31250000000000000        0.0000000000000000     
  0.50000000000000000       0.31250000000000000        0.0000000000000000     
  0.37500000000000000       0.34375000000000000        0.0000000000000000     
  0.40625000000000000       0.34375000000000000        0.0000000000000000     
  0.43750000000000000       0.34375000000000000        0.0000000000000000     
  0.46875000000000000       0.34375000000000000        0.0000000000000000     
  0.50000000000000000       0.34375000000000000        0.0000000000000000     
  0.37500000000000000       0.37500000000000000        0.0000000000000000     
  0.40625000000000000       0.37500000000000000        0.0000000000000000     
  0.43750000000000000       0.37500000000000000        0.0000000000000000     
  0.46875000000000000       0.37500000000000000        0.0000000000000000     
  0.50000000000000000       0.37500000000000000        0.0000000000000000     
  0.50000000000000000       0.25000000000000000        0.0000000000000000     
  0.53125000000000000       0.25000000000000000        0.0000000000000000     
  0.56250000000000000       0.25000000000000000        0.0000000000000000     
  0.59375000000000000       0.25000000000000000        0.0000000000000000     
  0.62500000000000000       0.25000000000000000        0.0000000000000000     
  0.50000000000000000       0.28125000000000000        0.0000000000000000     
  0.53125000000000000       0.28125000000000000        0.0000000000000000     
  0.56250000000000000       0.28125000000000000        0.0000000000000000     
  0.59375000000000000       0.28125000000000000        0.0000000000000000     
  0.62500000000000000       0.28125000000000000        0.0000000000000000     
  0.50000000000000000       0.31250000000000000        0.0000000000000000     
  0.53125000000000000       0.31250000000000000        0.0000000000000000     
  0.56250000000000000       0.31250000000000000        0.0000000000000000     
  0.59375000000000000       0.31250000000000000        0.0000000000000000     
  0.62500000000000000       0.31250000000000000        0.0000000000000000     
  0.50000000000000000       0.34375000000000000        0.0000000000000000     
  0.53125000000000000       0.34375000000000000        0.0000000000000000     
  0.56250000000000000       0.34375000000000000        0.0000000000000000     
  0.59375000000000000       0.34375000000000000        0.0000000000000000     
  0.62500000000000000       0.34375000000000000        0.0000000000000000     
  0.50000000000000000       0.37500000000000000        0.0000000000000000     
  0.53125000000000000       0.37500000000000000        0.0000000000000000     
  0.56250000000000000       0.37500000000000000        0.0000000000000000     
  0.59375000000000000       0.37500000000000000        0.0000000000000000     
  0.62500000000000000       0.37500000000000000        0.0000000000000000     
  0.62500000000000000       0.25000000000000000        0.0000000000000000     
  0.65625000000000000       0.25000000000000000        0.0000000000000000     
  0.68750000000000000       0.25000000000000000        0.0000000000000000     
  0.71875000000000000       0.25000000000000000        0.0000000000000000     
  0.75000000000000000       0.25000000000000000        0.0000000000000000     
  0.62500000000000000       0.28125000000000000        0.0000000000000000     
  0.65625000000000000       0.28125000000000000        0.0000000000000000     
  0.68750000000000000       0.28125000000000000        0.0000000000000000     
  0.71875000000000000       0.28125000000000000        0.0000000000000000     
  0.75000000000000000       0.28125000000000000        0.0000000000000000     
  0.62500000000000000       0.31250000000000000        0.0000000000000000     
  0.65625000000000000       0.31250000000000000        0.0000000000000000     
  0.68750000000000000       0.31250000000000000        0.0000000000000000     
  0.71875000000000000       0.31250000000000000        0.0000000000000000     
  0.75000000000000000       0.31250000000000000        0.0000000000000000     
  0.62500000000000000       0.34375000000000000        0.0000000000000000     
  0.65625000000000000       0.34375000000000000        0.0000000000000000     
  0.68750000000000000       0.34375000000000000        0.0000000000000000     
  0.71875000000000000       0.34375000000000000        0.0000000000000000     
  0.75000000000000000       0.34375000000000000        0.0000000000000000     
  0.62500000000000000       0.37500000000000000        0.0000000000000000     
  0.65625000000000000       0.37500000000000000        0.0000000000000000     
  0.68750000000000000       0.37500000000000000        0.0000000000000000     
  0.71875000000000000       0.37500000000000000        0.0000000000000000     
  0.75000000000000000       0.37500000000000000        0.0000000000000000     
  0.75000000000000000       0.25000000000000000        0.0000000000000000     
  0.78125000000000000       0.25000000000000000        0.0000000000000000     
  0.81250000000000000       0.25000000000000000        0.0000000000000000     
  0.84375000000000000       0.25000000000000000        0.0000000000000000     
  0.87500000000000000       0.25000000000000000        0.0000000000000000     
  0.75000000000000000       0.28125000000000000        0.0000000000000000     
  0.78125000000000000       0.28125000000000000        0.0000000000000000     
  0.81250000000000000       0.28125000000000000        0.0000000000000000     
  0.84375000000000000       0.28125000000000000        0.0000000000000000     
  0.87500000000000000       0.28125000000000000        0.0000000000000000     
  0.75000000000000000       0.31250000000000000        0.0000000000000000     
  0.78125000000000000       0.31250000000000000        0.0000000000000000     
  0.81250000000000000       0.31250000000000000        0.0000000000000000     
  0.84375000000000000       0.31250000000000000        0.0000000000000000     
  0.87500000000000000       0.31250000000000000        0.0000000000000000     
  0.75000000000000000       0.34375000000000000        0.0000000000000000     
  0.78125000000000000       0.34375000000000000        0.0000000000000000     
  0.81250000000000000       0.34375000000000000        0.0000000000000000     
  0.84375000000000000       0.34375000000000000        0.0000000000000000     
  0.87500000000000000       0.34375000000000000        0.0000000000000000     
  0.75000000000000000       0.37500000000000000        0.0000000000000000     
  0.78125000000000000       0.37500000000000000        0.0000000000000000     
  0.81250000000000000       0.37500000000000000        0.0000000000000000     
  0.84375000000000000       0.37500000000000000        0.0000000000000000     
  0.87500000000000000       0.37500000000000000        0.0000000000000000     
  0.87500000000000000       0.25000000000000000        0.0000000000000000     
  0.90625000000000000       0.25000000000000000        0.0000000000000000     
  0.93750000000000000       0.25000000000000000        0.0000000000000000     
  0.96875000000000000       0.25000000000000000        0.0000000000000000     
   1.0000000000000000       0.25000000000000000        0.0000000000000000     
  0.87500000000000000       0.28125000000000000        0.0000000000000000     
  0.90625000000000000       0.28125000000000000        0.0000000000000000     
  0.93750000000000000       0.28125000000000000        0.0000000000000000     
  0.96875000000000000       0.28125000000000000        0.0000000000000000     
   1.0000000000000000       0.28125000000000000        0.0000000000000000     
  0.87500000000000000       0.31250000000000000        0.0000000000000000     
  0.90625000000000000       0.31250000000000000        0.0000000000000000     
  0.93750000000000000       0.31250000000000000        0.0000000000000000     
  0.96875000000000000       0.31250000000000000        0.0000000000000000     
   1.0000000000000000       0.31250000000000000        0.0000000000000000     
  0.87500000000000000       0.34375000000000000        0.0000000000000000     
  0.90625000000000000       0.34375000000000000        0.0000000000000000     
  0.93750000000000000       0.34375000000000000        0.0000000000000000     
  0.96875000000000000       0.34375000000000000        0.0000000000000000     
   1.0000000000000000       0.34375000000000000        0.0000000000000000     
  0.87500000000000000       0.37500000000000000        0.0000000000000000     
  0.90625000000000000       0.37500000000000000        0.0000000000000000     
  0.93750000000000000       0.37500000000000000        0.0000000000000000     
  0.96875000000000000       0.37500000000000000        0.0000000000000000     
   1.0000000000000000       0.37500000000000000        0.0000000000000000     
   0.0000000000000000       0.37500000000000000        0.0000000000000000     
   3.1250000000000000E-002  0.37500000000000000        0.0000000000000000     
   6.2500000000000000E-002  0.37500000000000000        0.0000000000000000     
   9.3750000000000000E-002  0.37500000000000000        0.0000000000000000     
  0.12500000000000000       0.37500000000000000        0.0000000000000000     
   0.0000000000000000       0.40625000000000000        0.0000000000000000     
   3.1250000000000000E-002  0.40625000000000000        0.0000000000000000     
   6.2500000000000000E-002  0.40625000000000000        0.0000000000000000     
   9.3750000000000000E-002  0.40625000000000000        0.0000000000000000     
  0.12500000000000000       0.40625000000000000        0.0000000000000000     
   0.0000000000000000       0.43750000000000000        0.0000000000000000     
   3.1250000000000000E-002  0.43750000000000000        0.0000000000000000     
   6.2500000000000000E-002  0.43750000000000000        0.0000000000000000     
   9.3750000000000000E-002  0.43750000000000000        0.0000000000000000     
  0.12500000000000000       0.43750000000000000        0.0000000000000000     
   0.0000000000000000       0.46875000000000000        0.0000000000000000     
   3.1250000000000000E-002  0.46875000000000000        0.0000000000000000     
   6.2500000000000000E-002  0.46875000000000000        0.0000000000000000     
   9.3750000000000000E-002  0.46875000000000000        0.0000000000000000     
  0.12500000000000000       0.46875000000000000        0.0000000000000000     
   0.0000000000000000       0.50000000000000000        0.0000000000000000     
   3.1250000000000000E-002  0.50000000000000000        0.0000000000000000     
   6.2500000000000000E-002  0.50000000000000000        0.0000000000000000     
   9.3750000000000000E-002  0.50000000000000000        0.0000000000000000     
  0.12500000000000000       0.50000000000000000        0.0000000000000000     
  0.12500000000000000       0.37500000000000000        0.0000000000000000     
  0.15625000000000000       0.37500000000000000        0.0000000000000000     
  0.18750000000000000       0.37500000000000000        0.0000000000000000     
  0.21875000000000000       0.37500000000000000        0.0000000000000000     
  0.25000000000000000       0.37500000000000000        0.0000000000000000     
  0.12500000000000000       0.40625000000000000        0.0000000000000000     
  0.15625000000000000       0.40625000000000000        0.0000000000000000     
  0.18750000000000000       0.40625000000000000        0.0000000000000000     
  0.21875000000000000       0.40625000000000000        0.0000000000000000     
  0.25000000000000000       0.40625000000000000        0.0000000000000000     
  0.12500000000000000       0.43750000000000000        0.0000000000000000     
  0.15625000000000000       0.43750000000000000        0.0000000000000000     
  0.18750000000000000       0.43750000000000000        0.0000000000000000     
  0.21875000000000000       0.43750000000000000        0.0000000000000000     
  0.25000000000000000       0.43750000000000000        0.0000000000000000     
  0.12500000000000000       0.46875000000000000        0.0000000000000000     
  0.15625000000000000       0.46875000000000000        0.0000000000000000     
  0.18750000000000000       0.46875000000000000        0.0000000000000000     
  0.21875000000000000       0.46875000000000000        0.0000000000000000     
  0.25000000000000000       0.46875000000000000        0.0000000000000000     
  0.12500000000000000       0.50000000000000000        0.0000000000000000     
  0.15625000000000000       0.50000000000000000        0.0000000000000000     
  0.18750000000000000       0.50000000000000000        0.0000000000000000     
  0.21875000000000000       0.50000000000000000        0.0000000000000000     
  0.25000000000000000       0.50000000000000000        0.0000000000000000     
  0.25000000000000000       0.37500000000000000        0.0000000000000000     
  0.28125000000000000       0.37500000000000000        0.0000000000000000     
  0.31250000000000000       0.37500000000000000        0.0000000000000000     
  0.34375000000000000       0.37500000000000000        0.0000000000000000     
  0.37500000000000000       0.37500000000000000        0.0000000000000000     
  0.25000000000000000       0.40625000000000000        0.0000000000000000     
  0.28125000000000000       0.40625000000000000        0.0000000000000000     
  0.31250000000000000       0.40625000000000000        0.0000000000000000     
  0.34375000000000000       0.40625000000000000        0.0000000000000000     
  0.37500000000000000       0.40625000000000000        0.0000000000000000     
  0.25000000000000000       0.43750000000000000        0.0000000000000000     
  0.28125000000000000       0.43750000000000000        0.0000000000000000     
  0.31250000000000000       0.43750000000000000        0.0000000000000000     
  0.34375000000000000       0.43750000000000000        0.0000000000000000     
  0.37500000000000000       0.43750000000000000        0.0000000000000000     
  0.25000000000000000       0.46875000000000000        0.0000000000000000     
  0.28125000000000000       0.46875000000000000        0.0000000000000000     
  0.31250000000000000       0.46875000000000000        0.0000000000000000     
  0.34375000000000000       0.46875000000000000        0.0000000000000000     
  0.37500000000000000       0.46875000000000000        0.0000000000000000     
  0.25000000000000000       0.50000000000000000        0.0000000000000000     
  0.28125000000000000       0.50000000000000000        0.0000000000000000     
  0.31250000000000000       0.50000000000000000        0.0000000000000000     
  0.34375000000000000       0.50000000000000000        0.0000000000000000     
  0.37500000000000000       0.50000000000000000        0.0000000000000000     
  0.37500000000000000       0.37500000000000000        0.0000000000000000     
  0.40625000000000000       0.37500000000000000        0.0000000000000000     
  0.43750000000000000       0.37500000000000000        0.0000000000000000     
  0.46875000000000000       0.37500000000000000        0.0000000000000000     
  0.50000000000000000       0.37500000000000000        0.0000000000000000     
  0.37500000000000000       0.40625000000000000        0.0000000000000000     
  0.40625000000000000       0.40625000000000000        0.0000000000000000     
  0.43750000000000000       0.40625000000000000        0.0000000000000000     
  0.46875000000000000       0.40625000000000000        0.0000000000000000     
  0.50000000000000000       0.40625000000000000        0.0000000000000000     
  0.37500000000000000       0.43750000000000000        0.0000000000000000     
  0.40625000000000000       0.43750000000000000        0.0000000000000000     
  0.43750000000000000       0.43750000000000000        0.0000000000000000     
  0.46875000000000000       0.43750000000000000        0.0000000000000000     
  0.50000000000000000       0.43750000000000000        0.0000000000000000     
  0.37500000000000000       0.46875000000000000        0.0000000000000000     
  0.40625000000000000       0.46875000000000000        0.0000000000000000     
  0.43750000000000000       0.46875000000000000        0.0000000000000000     
  0.46875000000000000       0.46875000000000000        0.0000000000000000     
  0.50000000000000000       0.46875000000000000        0.0000000000000000     
  0.37500000000000000       0.50000000000000000        0.0000000000000000     
  0.40625000000000000       0.50000000000000000        0.0000000000000000     
  0.43750000000000000       0.50000000000000000        0.0000000000000000     
  0.46875000000000000       0.50000000000000000        0.0000000000000000     
  0.50000000000000000       0.50000000000000000        0.0000000000000000     
  0.50000000000000000       0.37500000000000000        0.0000000000000000     
  0.53125000000000000       0.37500000000000000        0.0000000000000000     
  0.56250000000000000       0.37500000000000000        0.0000000000000000     
  0.59375000000000000       0.37500000000000000        0.0000000000000000     
  0.62500000000000000       0.37500000000000000        0.0000000000000000     
  0.50000000000000000       0.40625000000000000        0.0000000000000000     
  0.53125000000000000       0.40625000000000000        0.0000000000000000     
  0.56250000000000000       0.40625000000000000        0.0000000000000000     
  0.59375000000000000       0.40625000000000000        0.0000000000000000     
  0.62500000000000000       0.40625000000000000        0.0000000000000000     
  0.50000000000000000       0.43750000000000000        0.0000000000000000     
  0.53125000000000000       0.43750000000000000        0.0000000000000000     
  0.56250000000000000       0.43750000000000000        0.0000000000000000     
  0.59375000000000000       0.43750000000000000        0.0000000000000000     
  0.62500000000000000       0.43750000000000000        0.0000000000000000     
  0.50000000000000000       0.46875000000000000        0.0000000000000000     
  0.53125000000000000       0.46875000000000000        0.0000000000000000     
  0.56250000000000000       0.46875000000000000        0.0000000000000000     
  0.59375000000000000       0.46875000000000000        0.0000000000000000     
  0.62500000000000000       0.46875000000000000        0.0000000000000000     
  0.50000000000000000       0.50000000000000000        0.0000000000000000     
  0.53125000000000000       0.50000000000000000        0.0000000000000000     
  0.56250000000000000       0.50000000000000000        0.0000000000000000     
  0.59375000000000000       0.50000000000000000        0.0000000000000000     
  0.62500000000000000       0.50000000000000000        0.0000000000000000     
  0.62500000000000000       0.37500000000000000        0.0000000000000000     
  0.65625000000000000       0.37500000000000000        0.0000000000000000     
  0.68750000000000000       0.37500000000000000        0.0000000000000000     
  0.71875000000000000       0.37500000000000000        0.0000000000000000     
  0.75000000000000000       0.37500000000000000        0.0000000000000000     
  0.62500000000000000       0.40625000000000000        0.0000000000000000     
  0.65625000000000000       0.40625000000000000        0.0000000000000000     
  0.68750000000000000       0.40625000000000000        0.0000000000000000     
  0.71875000000000000       0.40625000000000000        0.0000000000000000     
  0.75000000000000000       0.40625000000000000        0.0000000000000000     
  0.62500000000000000       0.43750000000000000        0.0000000000000000     
  0.65625000000000000       0.43750000000000000        0.0000000000000000     
  0.68750000000000000       0.43750000000000000        0.0000000000000000     
  0.71875000000000000       0.43750000000000000        0.0000000000000000     
  0.75000000000000000       0.43750000000000000        0.0000000000000000     
  0.62500000000000000       0.46875000000000000        0.0000000000000000     
  0.65625000000000000       0.46875000000000000        0.0000000000000000     
  0.68750000000000000       0.46875000000000000        0.0000000000000000     
  0.71875000000000000       0.46875000000000000        0.0000000000000000     
  0.75000000000000000       0.46875000000000000        0.0000000000000000     
  0.62500000000000000       0.50000000000000000        0.0000000000000000     
  0.65625000000000000       0.50000000000000000        0.0000000000000000     
  0.68750000000000000       0.50000000000000000        0.0000000000000000     
  0.71875000000000000       0.50000000000000000        0.0000000000000000     
  0.75000000000000000       0.50000000000000000        0.0000000000000000     
  0.75000000000000000       0.37500000000000000        0.0000000000000000     
  0.78125000000000000       0.37500000000000000        0.0000000000000000     
  0.81250000000000000       0.37500000000000000        0.0000000000000000     
  0.84375000000000000       0.37500000000000000        0.0000000000000000     
  0.87500000000000000       0.37500000000000000        0.0000000000000000     
  0.75000000000000000       0.40625000000000000        0.0000000000000000     
  0.78125000000000000       0.40625000000000000        0.0000000000000000     
  0.81250000000000000       0.40625000000000000        0.0000000000000000     
  0.84375000000000000       0.40625000000000000        0.0000000000000000     
  0.87500000000000000       0.40625000000000000        0.0000000000000000     
  0.75000000000000000       0.43750000000000000        0.0000000000000000     
  0.78125000000000000       0.43750000000000000        0.0000000000000000     
  0.81250000000000000       0.43750000000000000        0.0000000000000000     
  0.84375000000000000       0.43750000000000000        0.0000000000000000     
  0.87500000000000000       0.43750000000000000        0.0000000000000000     
  0.75000000000000000       0.46875000000000000        0.0000000000000000     
  0.78125000000000000       0.46875000000000000        0.0000000000000000     
  0.81250000000000000       0.46875000000000000        0.0000000000000000     
  0.84375000000000000       0.46875000000000000        0.0000000000000000     
  0.87500000000000000       0.46875000000000000        0.0000000000000000     
  0.75000000000000000       0.50000000000000000        0.0000000000000000     
  0.78125000000000000       0.50000000000000000        0.0000000000000000     
  0.81250000000000000       0.50000000000000000        0.0000000000000000     
  0.84375000000000000       0.50000000000000000        0.0000000000000000     
  0.87500000000000000       0.50000000000000000        0.0000000000000000     
  0.87500000000000000       0.37500000000000000        0.0000000000000000     
  0.90625000000000000       0.37500000000000000        0.0000000000000000     
  0.93750000000000000       0.37500000000000000        0.0000000000000000     
  0.96875000000000000       0.37500000000000000        0.0000000000000000     
   1.0000000000000000       0.37500000000000000        0.0000000000000000     
  0.87500000000000000       0.40625000000000000        0.0000000000000000     
  0.90625000000000000       0.40625000000000000        0.0000000000000000     
  0.93750000000000000       0.40625000000000000        0.0000000000000000     
  0.96875000000000000       0.40625000000000000        0.0000000000000000     
   1.0000000000000000       0.40625000000000000        0.0000000000000000     
  0.87500000000000000       0.43750000000000000        0.0000000000000000     
  0.90625000000000000       0.43750000000000000        0.0000000000000000     
  0.93750000000000000       0.43750000000000000        0.0000000000000000     
  0.96875000000000000       0.43750000000000000        0.0000000000000000     
   1.0000000000000000       0.43750000000000000        0.0000000000000000     
  0.87500000000000000       0.46875000000000000        0.0000000000000000     
  0.90625000000000000       0.46875000000000000        0.0000000000000000     
  0.93750000000000000       0.46875000000000000        0.0000000000000000     
  0.96875000000000000       0.46875000000000000        0.0000000000000000     
   1.0000000000000000       0.46875000000000000        0.0000000000000000     
  0.87500000000000000       0.50000000000000000        0.0000000000000000     
  0.90625000000000000       0.50000000000000000        0.0000000000000000     
  0.93750000000000000       0.50000000000000000        0.0000000000000000     
  0.96875000000000000       0.50000000000000000        0.0000000000000000     
   1.0000000000000000       0.50000000000000000        0.0000000000000000     
   0.0000000000000000       0.50000000000000000        0.0000000000000000     
   3.1250000000000000E-002  0.50000000000000000        0.0000000000000000     
   6.2500000000000000E-002  0.50000000000000000        0.0000000000000000     
   9.3750000000000000E-002  0.50000000000000000        0.0000000000000000     
  0.12500000000000000       0.50000000000000000        0.0000000000000000     
   0.0000000000000000       0.53125000000000000        0.0000000000000000     
   3.1250000000000000E-002  0.53125000000000000        0.0000000000000000     
   6.2500000000000000E-002  0.53125000000000000        0.0000000000000000     
   9.3750000000000000E-002  0.53125000000000000        0.0000000000000000     
  0.12500000000000000       0.53125000000000000        0.0000000000000000     
   0.0000000000000000       0.56250000000000000        0.0000000000000000     
   3.1250000000000000E-002  0.56250000000000000        0.0000000000000000     
   6.2500000000000000E-002  0.56250000000000000        0.0000000000000000     
   9.3750000000000000E-002  0.56250000000000000        0.0000000000000000     
  0.12500000000000000       0.56250000000000000        0.0000000000000000     
   0.0000000000000000       0.59375000000000000        0.0000000000000000     
   3.1250000000000000E-002  0.59375000000000000        0.0000000000000000     
   6.2500000000000000E-002  0.59375000000000000        0.0000000000000000     
   9.3750000000000000E-002  0.59375000000000000        0.0000000000000000     
  0.12500000000000000       0.59375000000000000        0.0000000000000000     
   0.0000000000000000       0.62500000000000000        0.0000000000000000     
   3.1250000000000000E-002  0.62500000000000000        0.0000000000000000     
   6.2500000000000000E-002  0.62500000000000000        0.0000000000000000     
   9.3750000000000000E-002  0.62500000000000000        0.0000000000000000     
  0.12500000000000000       0.62500000000000000        0.0000000000000000     
  0.12500000000000000       0.50000000000000000        0.0000000000000000     
  0.15625000000000000       0.50000000000000000        0.0000000000000000     
  0.18750000000000000       0.50000000000000000        0.0000000000000000     
  0.21875000000000000       0.50000000000000000        0.0000000000000000     
  0.25000000000000000       0.50000000000000000        0.0000000000000000     
  0.12500000000000000       0.53125000000000000        0.0000000000000000     
  0.15625000000000000       0.53125000000000000        0.0000000000000000     
  0.18750000000000000       0.53125000000000000        0.0000000000000000     
  0.21875000000000000       0.53125000000000000        0.0000000000000000     
  0.25000000000000000       0.53125000000000000        0.0000000000000000     
  0.12500000000000000       0.56250000000000000        0.0000000000000000     
  0.15625000000000000       0.56250000000000000        0.0000000000000000     
  0.18750000000000000       0.56250000000000000        0.0000000000000000     
  0.21875000000000000       0.56250000000000000        0.0000000000000000     
  0.25000000000000000       0.56250000000000000        0.0000000000000000     
  0.12500000000000000       0.59375000000000000        0.0000000000000000     
  0.15625000000000000       0.59375000000000000        0.0000000000000000     
  0.18750000000000000       0.59375000000000000        0.0000000000000000     
  0.21875000000000000       0.59375000000000000        0.0000000000000000     
  0.25000000000000000       0.59375000000000000        0.0000000000000000     
  0.12500000000000000       0.62500000000000000        0.0000000000000000     
  0.15625000000000000       0.62500000000000000        0.0000000000000000     
  0.18750000000000000       0.62500000000000000        0.0000000000000000     
  0.21875000000000000       0.62500000000000000        0.0000000000000000     
  0.25000000000000000       0.62500000000000000        0.0000000000000000     
  0.25000000000000000       0.50000000000000000        0.0000000000000000     
  0.28125000000000000       0.50000000000000000        0.0000000000000000     
  0.31250000000000000       0.50000000000000000        0.0000000000000000     
  0.34375000000000000       0.50000000000000000        0.0000000000000000     
  0.37500000000000000       0.50000000000000000        0.0000000000000000     
  0.25000000000000000       0.53125000000000000        0.0000000000000000     
  0.28125000000000000       0.53125000000000000        0.0000000000000000     
  0.31250000000000000       0.53125000000000000        0.0000000000000000     
  0.34375000000000000       0.53125000000000000        0.0000000000000000     
  0.37500000000000000       0.53125000000000000        0.0000000000000000     
  0.25000000000000000       0.56250000000000000        0.0000000000000000     
  0.28125000000000000       0.56250000000000000        0.0000000000000000     
  0.31250000000000000       0.56250000000000000        0.0000000000000000     
  0.34375000000000000       0.56250000000000000        0.0000000000000000     
  0.37500000000000000       0.56250000000000000        0.0000000000000000     
  0.25000000000000000       0.59375000000000000        0.0000000000000000     
  0.28125000000000000       0.59375000000000000        0.0000000000000000     
  0.31250000000000000       0.59375000000000000        0.0000000000000000     
  0.34375000000000000       0.59375000000000000        0.0000000000000000     
  0.37500000000000000       0.59375000000000000        0.0000000000000000     
  0.25000000000000000       0.62500000000000000        0.0000000000000000     
  0.28125000000000000       0.62500000000000000        0.0000000000000000     
  0.31250000000000000       0.62500000000000000        0.0000000000000000     
  0.34375000000000000       0.62500000000000000        0.0000000000000000     
  0.37500000000000000       0.62500000000000000        0.0000000000000000     
  0.37500000000000000       0.50000000000000000        0.0000000000000000     
  0.40625000000000000       0.50000000000000000        0.0000000000000000     
  0.43750000000000000       0.50000000000000000        0.0000000000000000     
  0.46875000000000000       0.50000000000000000        0.0000000000000000     
  0.50000000000000000       0.50000000000000000        0.0000000000000000     
  0.37500000000000000       0.53125000000000000        0.0000000000000000     
  0.40625000000000000       0.53125000000000000        0.0000000000000000     
  0.43750000000000000       0.53125000000000000        0.0000000000000000     
  0.46875000000000000       0.53125000000000000        0.0000000000000000     
  0.50000000000000000       0.53125000000000000        0.0000000000000000     
  0.37500000000000000       0.56250000000000000        0.0000000000000000     
  0.40625000000000000       0.56250000000000000        0.0000000000000000     
  0.43750000000000000       0.56250000000000000        0.0000000000000000     
  0.46875000000000000       0.56250000000000000        0.0000000000000000     
  0.50000000000000000       0.56250000000000000        0.0000000000000000     
  0.37500000000000000       0.59375000000000000        0.0000000000000000     
  0.40625000000000000       0.59375000000000000        0.0000000000000000     
  0.43750000000000000       0.59375000000000000        0.0000000000000000     
  0.46875000000000000       0.59375000000000000        0.0000000000000000     
  0.50000000000000000       0.59375000000000000        0.0000000000000000     
  0.37500000000000000       0.62500000000000000        0.0000000000000000     
  0.40625000000000000       0.62500000000000000        0.0000000000000000     
  0.43750000000000000       0.62500000000000000        0.0000000000000000     
  0.46875000000000000       0.62500000000000000        0.0000000000000000     
  0.50000000000000000       0.62500000000000000        0.0000000000000000     
  0.50000000000000000       0.50000000000000000        0.0000000000000000     
  0.53125000000000000       0.50000000000000000        0.0000000000000000     
  0.56250000000000000       0.50000000000000000        0.0000000000000000     
  0.59375000000000000       0.50000000000000000        0.0000000000000000     
  0.62500000000000000       0.50000000000000000        0.0000000000000000     
  0.50000000000000000       0.53125000000000000        0.0000000000000000     
  0.53125000000000000       0.53125000000000000        0.0000000000000000     
  0.56250000000000000       0.53125000000000000        0.0000000000000000     
  0.59375000000000000       0.53125000000000000        0.0000000000000000     
  0.62500000000000000       0.53125000000000000        0.0000000000000000     
  0.50000000000000000       0.56250000000000000        0.0000000000000000     
  0.53125000000000000       0.56250000000000000        0.0000000000000000     
  0.56250000000000000       0.56250000000000000        0.0000000000000000     
  0.59375000000000000       0.56250000000000000        0.0000000000000000     
  0.62500000000000000       0.56250000000000000        0.0000000000000000     
  0.50000000000000000       0.59375000000000000        0.0000000000000000     
  0.53125000000000000       0.59375000000000000        0.0000000000000000     
  0.56250000000000000       0.59375000000000000        0.0000000000000000     
  0.59375000000000000       0.59375000000000000        0.0000000000000000     
  0.62500000000000000       0.59375000000000000        0.0000000000000000     
  0.50000000000000000       0.62500000000000000        0.0000000000000000     
  0.53125000000000000       0.62500000000000000        0.0000000000000000     
  0.56250000000000000       0.62500000000000000        0.0000000000000000     
  0.59375000000000000       0.62500000000000000        0.0000000000000000     
  0.62500000000000000       0.62500000000000000        0.0000000000000000     
  0.62500000000000000       0.50000000000000000        0.0000000000000000     
  0.65625000000000000       0.50000000000000000        0.0000000000000000     
  0.68750000000000000       0.50000000000000000        0.0000000000000000     
  0.71875000000000000       0.50000000000000000        0.0000000000000000     
  0.75000000000000000       0.50000000000000000        0.0000000000000000     
  0.62500000000000000       0.53125000000000000        0.0000000000000000     
  0.65625000000000000       0.53125000000000000        0.0000000000000000     
  0.68750000000000000       0.53125000000000000        0.0000000000000000     
  0.71875000000000000       0.53125000000000000        0.0000000000000000     
  0.75000000000000000       0.53125000000000000        0.0000000000000000     
  0.62500000000000000       0.56250000000000000        0.0000000000000000     
  0.65625000000000000       0.56250000000000000        0.0000000000000000     
  0.68750000000000000       0.56250000000000000        0.0000000000000000     
  0.71875000000000000       0.56250000000000000        0.0000000000000000     
  0.75000000000000000       0.56250000000000000        0.0000000000000000     
  0.62500000000000000       0.59375000000000000        0.0000000000000000     
  0.65625000000000000       0.59375000000000000        0.0000000000000000     
  0.68750000000000000       0.59375000000000000        0.0000000000000000     
  0.71875000000000000       0.59375000000000000        0.0000000000000000     
  0.75000000000000000       0.59375000000000000        0.0000000000000000     
  0.62500000000000000       0.62500000000000000        0.0000000000000000     
  0.65625000000000000       0.62500000000000000        0.0000000000000000     
  0.68750000000000000       0.62500000000000000        0.0000000000000000     
  0.71875000000000000       0.62500000000000000        0.0000000000000000     
  0.75000000000000000       0.62500000000000000        0.0000000000000000     
  0.75000000000000000       0.50000000000000000        0.0000000000000000     
  0.78125000000000000       0.50000000000000000        0.0000000000000000     
  0.81250000000000000       0.50000000000000000        0.0000000000000000     
  0.84375000000000000       0.50000000000000000        0.0000000000000000     
  0.87500000000000000       0.50000000000000000        0.0000000000000000     
  0.75000000000000000       0.53125000000000000        0.0000000000000000     
  0.78125000000000000       0.53125000000000000        0.0000000000000000     
  0.81250000000000000       0.53125000000000000        0.0000000000000000     
  0.84375000000000000       0.53125000000000000        0.0000000000000000     
  0.87500000000000000       0.53125000000000000        0.0000000000000000     
  0.75000000000000000       0.56250000000000000        0.0000000000000000     
  0.78125000000000000       0.56250000000000000        0.0000000000000000     
  0.81250000000000000       0.56250000000000000        0.0000000000000000     
  0.84375000000000000       0.56250000000000000        0.0000000000000000     
  0.87500000000000000       0.56250000000000000        0.0000000000000000     
  0.75000000000000000       0.59375000000000000        0.0000000000000000     
  0.78125000000000000       0.59375000000000000        0.0000000000000000     
  0.81250000000000000       0.59375000000000000        0.0000000000000000     
  0.84375000000000000       0.59375000000000000        0.0000000000000000     
  0.87500000000000000       0.59375000000000000        0.0000000000000000     
  0.75000000000000000       0.62500000000000000        0.0000000000000000     
  0.78125000000000000       0.62500000000000000        0.0000000000000000     
  0.81250000000000000       0.62500000000000000        0.0000000000000000     
  0.84375000000000000       0.62500000000000000        0.0000000000000000     
  0.87500000000000000       0.62500000000000000        0.0000000000000000     
  0.87500000000000000       0.50000000000000000        0.0000000000000000     
  0.90625000000000000       0.50000000000000000        0.0000000000000000     
  0.93750000000000000       0.50000000000000000        0.0000000000000000     
  0.96875000000000000       0.50000000000000000        0.0000000000000000     
   1.0000000000000000       0.50000000000000000        0.0000000000000000     
  0.87500000000000000       0.53125000000000000        0.0000000000000000     
  0.90625000000000000       0.53125000000000000        0.0000000000000000     
  0.93750000000000000       0.53125000000000000        0.0000000000000000     
  0.96875000000000000       0.53125000000000000        0.0000000000000000     
   1.0000000000000000       0.53125000000000000        0.0000000000000000     
  0.87500000000000000       0.56250000000000000        0.0000000000000000     
  0.90625000000000000       0.56250000000000000        0.0000000000000000     
  0.93750000000000000       0.56250000000000000        0.0000000000000000     
  0.96875000000000000       0.56250000000000000        0.0000000000000000     
   1.0000000000000000       0.56250000000000000        0.0000000000000000     
  0.87500000000000000       0.59375000000000000        0.0000000000000000     
  0.90625000000000000       0.59375000000000000        0.0000000000000000     
  0.93750000000000000       0.59375000000000000        0.0000000000000000     
  0.96875000000000000       0.59375000000000000        0.0000000000000000     
   1.0000000000000000       0.59375000000000000        0.0000000000000000     
  0.87500000000000000       0.62500000000000000        0.0000000000000000     
  0.90625000000000000       0.62500000000000000        0.0000000000000000     
  0.93750000000000000       0.62500000000000000        0.0000000000000000     
  0.96875000000000000       0.62500000000000000        0.0000000000000000     
   1.0000000000000000       0.62500000000000000        0.0000000000000000     
   0.0000000000000000       0.62500000000000000        0.0000000000000000     
   3.1250000000000000E-002  0.62500000000000000        0.0000000000000000     
   6.2500000000000000E-002  0.62500000000000000        0.0000000000000000     
   9.3750000000000000E-002  0.62500000000000000        0.0000000000000000     
  0.12500000000000000       0.62500000000000000        0.0000000000000000     
   0.0000000000000000       0.65625000000000000        0.0000000000000000     
   3.1250000000000000E-002  0.65625000000000000        0.0000000000000000     
   6.2500000000000000E-002  0.65625000000000000        0.0000000000000000     
   9.3750000000000000E-002  0.65625000000000000        0.0000000000000000     
  0.12500000000000000       0.65625000000000000        0.0000000000000000     
   0.0000000000000000       0.68750000000000000        0.0000000000000000     
   3.1250000000000000E-002  0.68750000000000000        0.0000000000000000     
   6.2500000000000000E-002  0.68750000000000000        0.0000000000000000     
   9.3750000000000000E-002  0.68750000000000000        0.0000000000000000     
  0.12500000000000000       0.68750000000000000        0.0000000000000000     
   0.0000000000000000       0.71875000000000000        0.0000000000000000     
   3.1250000000000000E-002  0.71875000000000000        0.0000000000000000     
   6.2500000000000000E-002  0.71875000000000000        0.0000000000000000     
   9.3750000000000000E-002  0.71875000000000000        0.0000000000000000     
  0.12500000000000000       0.71875000000000000        0.0000000000000000     
   0.0000000000000000       0.75000000000000000        0.0000000000000000     
   3.1250000000000000E-002  0.75000000000000000        0.0000000000000000     
   6.2500000000000000E-002  0.75000000000000000        0.0000000000000000     
   9.3750000000000000E-002  0.75000000000000000        0.0000000000000000     
  0.12500000000000000       0.75000000000000000        0.0000000000000000     
  0.12500000000000000       0.62500000000000000        0.0000000000000000     
  0.15625000000000000       0.62500000000000000        0.0000000000000000     
  0.18750000000000000       0.62500000000000000        0.0000000000000000     
  0.21875000000000000       0.62500000000000000        0.0000000000000000     
  0.25000000000000000       0.62500000000000000        0.0000000000000000     
  0.12500000000000000       0.65625000000000000        0.0000000000000000     
  0.15625000000000000       0.65625000000000000        0.0000000000000000     
  0.18750000000000000       0.65625000000000000        0.0000000000000000     
  0.21875000000000000       0.65625000000000000        0.0000000000000000     
  0.25000000000000000       0.65625000000000000        0.0000000000000000     
  0.12500000000000000       0.68750000000000000        0.0000000000000000     
  0.15625000000000000       0.68750000000000000        0.0000000000000000     
  0.18750000000000000       0.68750000000000000        0.0000000000000000     
  0.21875000000000000       0.68750000000000000        0.0000000000000000     
  0.25000000000000000       0.68750000000000000        0.0000000000000000     
  0.12500000000000000       0.71875000000000000        0.0000000000000000     
  0.15625000000000000       0.71875000000000000        0.0000000000000000     
  0.18750000000000000       0.71875000000000000        0.0000000000000000     
  0.21875000000000000       0.71875000000000000        0.0000000000000000     
  0.25000000000000000       0.71875000000000000        0.0000000000000000     
  0.12500000000000000       0.75000000000000000        0.0000000000000000     
  0.15625000000000000       0.75000000000000000        0.0000000000000000     
  0.18750000000000000       0.75000000000000000        0.0000000000000000     
  0.21875000000000000       0.75000000000000000        0.0000000000000000     
  0.25000000000000000       0.75000000000000000        0.0000000000000000     
  0.25000000000000000       0.62500000000000000        0.0000000000000000     
  0.28125000000000000       0.62500000000000000        0.0000000000000000     
  0.31250000000000000       0.62500000000000000        0.0000000000000000     
  0.34375000000000000       0.62500000000000000        0.0000000000000000     
  0.37500000000000000       0.62500000000000000        0.0000000000000000     
  0.25000000000000000       0.65625000000000000        0.0000000000000000     
  0.28125000000000000       0.65625000000000000        0.0000000000000000     
  0.31250000000000000       0.65625000000000000        0.0000000000000000     
  0.34375000000000000       0.65625000000000000        0.0000000000000000     
  0.37500000000000000       0.65625000000000000        0.0000000000000000     
  0.25000000000000000       0.68750000000000000        0.0000000000000000     
  0.28125000000000000       0.68750000000000000        0.0000000000000000     
  0.31250000000000000       0.68750000000000000        0.0000000000000000     
  0.34375000000000000       0.68750000000000000        0.0000000000000000     
  0.37500000000000000       0.68750000000000000        0.0000000000000000     
  0.25000000000000000       0.71875000000000000        0.0000000000000000     
  0.28125000000000000       0.71875000000000000        0.0000000000000000     
  0.31250000000000000       0.71875000000000000        0.0000000000000000     
  0.34375000000000000       0.71875000000000000        0.0000000000000000     
  0.37500000000000000       0.71875000000000000        0.0000000000000000     
  0.25000000000000000       0.75000000000000000        0.0000000000000000     
  0.28125000000000000       0.75000000000000000        0.0000000000000000     
  0.31250000000000000       0.75000000000000000        0.0000000000000000     
  0.34375000000000000       0.75000000000000000        0.0000000000000000     
  0.37500000000000000       0.75000000000000000        0.0000000000000000     
  0.37500000000000000       0.62500000000000000        0.0000000000000000     
  0.40625000000000000       0.62500000000000000        0.0000000000000000     
  0.43750000000000000       0.62500000000000000        0.0000000000000000     
  0.46875000000000000       0.62500000000000000        0.0000000000000000     
  0.50000000000000000       0.62500000000000000        0.0000000000000000     
  0.37500000000000000       0.65625000000000000        0.0000000000000000     
  0.40625000000000000       0.65625000000000000        0.0000000000000000     
  0.43750000000000000       0.65625000000000000        0.0000000000000000     
  0.46875000000000000       0.65625000000000000        0.0000000000000000     
  0.50000000000000000       0.65625000000000000        0.0000000000000000     
  0.37500000000000000       0.68750000000000000        0.0000000000000000     
  0.40625000000000000       0.68750000000000000        0.0000000000000000     
  0.43750000000000000       0.68750000000000000        0.0000000000000000     
  0.46875000000000000       0.68750000000000000        0.0000000000000000     
  0.50000000000000000       0.68750000000000000        0.0000000000000000     
  0.37500000000000000       0.71875000000000000        0.0000000000000000     
  0.40625000000000000       0.71875000000000000        0.0000000000000000     
  0.43750000000000000       0.71875000000000000        0.0000000000000000     
  0.46875000000000000       0.71875000000000000        0.0000000000000000     
  0.50000000000000000       0.71875000000000000        0.0000000000000000     
  0.37500000000000000       0.75000000000000000        0.0000000000000000     
  0.40625000000000000       0.75000000000000000        0.0000000000000000     
  0.43750000000000000       0.75000000000000000        0.0000000000000000     
  0.46875000000000000       0.75000000000000000        0.0000000000000000     
  0.50000000000000000       0.75000000000000000        0.0000000000000000     
  0.50000000000000000       0.62500000000000000        0.0000000000000000     
  0.53125000000000000       0.62500000000000000        0.0000000000000000     
  0.56250000000000000       0.62500000000000000        0.0000000000000000     
  0.59375000000000000       0.62500000000000000        0.0000000000000000     
  0.62500000000000000       0.62500000000000000        0.0000000000000000     
  0.50000000000000000       0.65625000000000000        0.0000000000000000     
  0.53125000000000000       0.65625000000000000        0.0000000000000000     
  0.56250000000000000       0.65625000000000000        0.0000000000000000     
  0.59375000000000000       0.65625000000000000        0.0000000000000000     
  0.62500000000000000       0.65625000000000000        0.0000000000000000     
  0.50000000000000000       0.68750000000000000        0.0000000000000000     
  0.53125000000000000       0.68750000000000000        0.0000000000000000     
  0.56250000000000000       0.68750000000000000        0.0000000000000000     
  0.59375000000000000       0.68750000000000000        0.0000000000000000     
  0.62500000000000000       0.68750000000000000        0.0000000000000000     
  0.50000000000000000       0.71875000000000000        0.0000000000000000     
  0.53125000000000000       0.71875000000000000        0.0000000000000000     
  0.56250000000000000       0.71875000000000000        0.0000000000000000     
  0.59375000000000000       0.71875000000000000        0.0000000000000000     
  0.62500000000000000       0.71875000000000000        0.0000000000000000     
  0.50000000000000000       0.75000000000000000        0.0000000000000000     
  0.53125000000000000       0.75000000000000000        0.0000000000000000     
  0.56250000000000000       0.75000000000000000        0.0000000000000000     
  0.59375000000000000       0.75000000000000000        0.0000000000000000     
  0.62500000000000000       0.75000000000000000        0.0000000000000000     
  0.62500000000000000       0.62500000000000000        0.0000000000000000     
  0.65625000000000000       0.62500000000000000        0.0000000000000000     
  0.68750000000000000       0.62500000000000000        0.0000000000000000     
  0.71875000000000000       0.62500000000000000        0.0000000000000000     
  0.75000000000000000       0.62500000000000000        0.0000000000000000     
  0.62500000000000000       0.65625000000000000        0.0000000000000000     
  0.65625000000000000       0.65625000000000000        0.0000000000000000     
  0.68750000000000000       0.65625000000000000        0.0000000000000000     
  0.71875000000000000       0.65625000000000000        0.0000000000000000     
  0.75000000000000000       0.65625000000000000        0.0000000000000000     
  0.62500000000000000       0.68750000000000000        0.0000000000000000     
  0.65625000000000000       0.68750000000000000        0.0000000000000000     
  0.68750000000000000       0.68750000000000000        0.0000000000000000     
  0.71875000000000000       0.68750000000000000        0.0000000000000000     
  0.75000000000000000       0.68750000000000000        0.0000000000000000     
  0.62500000000000000       0.71875000000000000        0.0000000000000000     
  0.65625000000000000       0.71875000000000000        0.0000000000000000     
  0.68750000000000000       0.71875000000000000        0.0000000000000000     
  0.71875000000000000       0.71875000000000000        0.0000000000000000     
  0.75000000000000000       0.71875000000000000        0.0000000000000000     
  0.62500000000000000       0.75000000000000000        0.0000000000000000     
  0.65625000000000000       0.75000000000000000        0.0000000000000000     
  0.68750000000000000       0.75000000000000000        0.0000000000000000     
  0.71875000000000000       0.75000000000000000        0.0000000000000000     
  0.75000000000000000       0.75000000000000000        0.0000000000000000     
  0.75000000000000000       0.62500000000000000        0.0000000000000000     
  0.78125000000000000       0.62500000000000000        0.0000000000000000     
  0.81250000000000000       0.62500000000000000        0.0000000000000000     
  0.84375000000000000       0.62500000000000000        0.0000000000000000     
  0.87500000000000000       0.62500000000000000        0.0000000000000000     
  0.75000000000000000       0.65625000000000000        0.0000000000000000     
  0.78125000000000000       0.65625000000000000        0.0000000000000000     
  0.81250000000000000       0.65625000000000000        0.0000000000000000     
  0.84375000000000000       0.65625000000000000        0.0000000000000000     
  0.87500000000000000       0.65625000000000000        0.0000000000000000     
  0.75000000000000000       0.68750000000000000        0.0000000000000000     
  0.78125000000000000       0.68750000000000000        0.0000000000000000     
  0.81250000000000000       0.68750000000000000        0.0000000000000000     
  0.84375000000000000       0.68750000000000000        0.0000000000000000     
  0.87500000000000000       0.68750000000000000        0.0000000000000000     
  0.75000000000000000       0.71875000000000000        0.0000000000000000     
  0.78125000000000000       0.71875000000000000        0.0000000000000000     
  0.81250000000000000       0.71875000000000000        0.0000000000000000     
  0.84375000000000000       0.71875000000000000        0.0000000000000000     
  0.87500000000000000       0.71875000000000000        0.0000000000000000     
  0.75000000000000000       0.75000000000000000        0.0000000000000000     
  0.78125000000000000       0.75000000000000000        0.0000000000000000     
  0.81250000000000000       0.75000000000000000        0.0000000000000000     
  0.84375000000000000       0.75000000000000000        0.0000000000000000     
  0.87500000000000000       0.75000000000000000        0.0000000000000000     
  0.87500000000000000       0.62500000000000000        0.0000000000000000     
  0.90625000000000000       0.62500000000000000        0.0000000000000000     
  0.93750000000000000       0.62500000000000000        0.0000000000000000     
  0.96875000000000000       0.62500000000000000        0.0000000000000000     
   1.0000000000000000       0.62500000000000000        0.0000000000000000     
  0.87500000000000000       0.65625000000000000        0.0000000000000000     
  0.90625000000000000       0.65625000000000000        0.0000000000000000     
  0.93750000000000000       0.65625000000000000        0.0000000000000000     
  0.96875000000000000       0.65625000000000000        0.0000000000000000     
   1.0000000000000000       0.65625000000000000        0.0000000000000000     
  0.87500000000000000       0.68750000000000000        0.0000000000000000     
  0.90625000000000000       0.68750000000000000        0.0000000000000000     
  0.93750000000000000       0.68750000000000000        0.0000000000000000     
  0.96875000000000000       0.68750000000000000        0.0000000000000000     
   1.0000000000000000       0.68750000000000000        0.0000000000000000     
  0.87500000000000000       0.71875000000000000        0.0000000000000000     
  0.90625000000000000       0.71875000000000000        0.0000000000000000     
  0.93750000000000000       0.71875000000000000        0.0000000000000000     
  0.96875000000000000       0.71875000000000000        0.0000000000000000     
   1.0000000000000000       0.71875000000000000        0.0000000000000000     
  0.87500000000000000       0.75000000000000000        0.0000000000000000     
  0.90625000000000000       0.75000000000000000        0.0000000000000000     
  0.93750000000000000       0.75000000000000000        0.0000000000000000     
  0.96875000000000000       0.75000000000000000        0.0000000000000000     
   1.0000000000000000       0.75000000000000000        0.0000000000000000     
   0.0000000000000000       0.75000000000000000        0.0000000000000000     
   3.1250000000000000E-002  0.75000000000000000        0.0000000000000000     
   6.2500000000000000E-002  0.75000000000000000        0.0000000000000000     
   9.3750000000000000E-002  0.75000000000000000        0.0000000000000000     
  0.12500000000000000       0.75000000000000000        0.0000000000000000     
   0.0000000000000000       0.78125000000000000        0.0000000000000000     
   3.1250000000000000E-002  0.78125000000000000        0.0000000000000000     
   6.2500000000000000E-002  0.78125000000000000        0.0000000000000000     
   9.3750000000000000E-002  0.78125000000000000        0.0000000000000000     
  0.12500000000000000       0.78125000000000000        0.0000000000000000     
   0.0000000000000000       0.81250000000000000        0.0000000000000000     
   3.1250000000000000E-002  0.81250000000000000        0.0000000000000000     
   6.2500000000000000E-002  0.81250000000000000        0.0000000000000000     
   9.3750000000000000E-002  0.81250000000000000        0.0000000000000000     
  0.12500000000000000       0.81250000000000000        0.0000000000000000     
   0.0000000000000000       0.84375000000000000        0.0000000000000000     
   3.1250000000000000E-002  0.84375000000000000        0.0000000000000000     
   6.2500000000000000E-002  0.84375000000000000        0.0000000000000000     
   9.3750000000000000E-002  0.84375000000000000        0.0000000000000000     
  0.12500000000000000       0.84375000000000000        0.0000000000000000     
   0.0000000000000000       0.87500000000000000        0.0000000000000000     
   3.1250000000000000E-002  0.87500000000000000        0.0000000000000000     
   6.2500000000000000E-002  0.87500000000000000        0.0000000000000000     
   9.3750000000000000E-002  0.87500000000000000        0.0000000000000000     
  0.12500000000000000       0.87500000000000000        0.0000000000000000     
  0.12500000000000000       0.75000000000000000        0.0000000000000000     
  0.15625000000000000       0.75000000000000000        0.0000000000000000     
  0.18750000000000000       0.75000000000000000        0.0000000000000000     
  0.21875000000000000       0.75000000000000000        0.0000000000000000     
  0.25000000000000000       0.75000000000000000        0.0000000000000000     
  0.12500000000000000       0.78125000000000000        0.0000000000000000     
  0.15625000000000000       0.78125000000000000        0.0000000000000000     
  0.18750000000000000       0.78125000000000000        0.0000000000000000     
  0.21875000000000000       0.78125000000000000        0.0000000000000000     
  0.25000000000000000       0.78125000000000000        0.0000000000000000     
  0.12500000000000000       0.81250000000000000        0.0000000000000000     
  0.15625000000000000       0.81250000000000000        0.0000000000000000     
  0.18750000000000000       0.81250000000000000        0.0000000000000000     
  0.21875000000000000       0.81250000000000000        0.0000000000000000     
  0.25000000000000000       0.81250000000000000        0.0000000000000000     
  0.12500000000000000       0.84375000000000000        0.0000000000000000     
  0.15625000000000000       0.84375000000000000        0.0000000000000000     
  0.18750000000000000       0.84375000000000000        0.0000000000000000     
  0.21875000000000000       0.84375000000000000        0.0000000000000000     
  0.25000000000000000       0.84375000000000000        0.0000000000000000     
  0.12500000000000000       0.87500000000000000        0.0000000000000000     
  0.15625000000000000       0.87500000000000000        0.0000000000000000     
  0.18750000000000000       0.87500000000000000        0.0000000000000000     
  0.21875000000000000       0.87500000000000000        0.0000000000000000     
  0.25000000000000000       0.87500000000000000        0.0000000000000000     
  0.25000000000000000       0.75000000000000000        0.0000000000000000     
  0.28125000000000000       0.75000000000000000        0.0000000000000000     
  0.31250000000000000       0.75000000000000000        0.0000000000000000     
  0.34375000000000000       0.75000000000000000        0.0000000000000000     
  0.37500000000000000       0.75000000000000000        0.0000000000000000     
  0.25000000000000000       0.78125000000000000        0.0000000000000000     
  0.28125000000000000       0.78125000000000000        0.0000000000000000     
  0.31250000000000000       0.78125000000000000        0.0000000000000000     
  0.34375000000000000       0.78125000000000000        0.0000000000000000     
  0.37500000000000000       0.78125000000000000        0.0000000000000000     
  0.25000000000000000       0.81250000000000000        0.0000000000000000     
  0.28125000000000000       0.81250000000000000        0.0000000000000000     
  0.31250000000000000       0.81250000000000000        0.0000000000000000     
  0.34375000000000000       0.81250000000000000        0.0000000000000000     
  0.37500000000000000       0.81250000000000000        0.0000000000000000     
  0.25000000000000000       0.84375000000000000        0.0000000000000000     
  0.28125000000000000       0.84375000000000000        0.0000000000000000     
  0.31250000000000000       0.84375000000000000        0.0000000000000000     
  0.34375000000000000       0.84375000000000000        0.0000000000000000     
  0.37500000000000000       0.84375000000000000        0.0000000000000000     
  0.25000000000000000       0.87500000000000000        0.0000000000000000     
  0.28125000000000000       0.87500000000000000        0.0000000000000000     
  0.31250000000000000       0.87500000000000000        0.0000000000000000     
  0.34375000000000000       0.87500000000000000        0.0000000000000000     
  0.37500000000000000       0.87500000000000000        0.0000000000000000     
  0.37500000000000000       0.75000000000000000        0.0000000000000000     
  0.40625000000000000       0.75000000000000000        0.0000000000000000     
  0.43750000000000000       0.75000000000000000        0.0000000000000000     
  0.46875000000000000       0.75000000000000000        0.0000000000000000     
  0.50000000000000000       0.75000000000000000        0.0000000000000000     
  0.37500000000000000       0.78125000000000000        0.0000000000000000     
  0.40625000000000000       0.78125000000000000        0.0000000000000000     
  0.43750000000000000       0.78125000000000000        0.0000000000000000     
  0.46875000000000000       0.78125000000000000        0.0000000000000000     
  0.50000000000000000       0.78125000000000000        0.0000000000000000     
  0.37500000000000000       0.81250000000000000        0.0000000000000000     
  0.40625000000000000       0.81250000000000000        0.0000000000000000     
  0.43750000000000000       0.81250000000000000        0.0000000000000000     
  0.46875000000000000       0.81250000000000000        0.0000000000000000     
  0.50000000000000000       0.81250000000000000        0.0000000000000000     
  0.37500000000000000       0.84375000000000000        0.0000000000000000     
  0.40625000000000000       0.84375000000000000        0.0000000000000000     
  0.43750000000000000       0.84375000000000000        0.0000000000000000     
  0.46875000000000000       0.84375000000000000        0.0000000000000000     
  0.50000000000000000       0.84375000000000000        0.0000000000000000     
  0.37500000000000000       0.87500000000000000        0.0000000000000000     
  0.40625000000000000       0.87500000000000000        0.0000000000000000     
  0.43750000000000000       0.87500000000000000        0.0000000000000000     
  0.46875000000000000       0.87500000000000000        0.0000000000000000     
  0.50000000000000000       0.87500000000000000        0.0000000000000000     
  0.50000000000000000       0.75000000000000000        0.0000000000000000     
  0.53125000000000000       0.75000000000000000        0.0000000000000000     
  0.56250000000000000       0.75000000000000000        0.0000000000000000     
  0.59375000000000000       0.75000000000000000        0.0000000000000000     
  0.62500000000000000       0.75000000000000000        0.0000000000000000     
  0.50000000000000000       0.78125000000000000        0.0000000000000000     
  0.53125000000000000       0.78125000000000000        0.0000000000000000     
  0.56250000000000000       0.78125000000000000        0.0000000000000000     
  0.59375000000000000       0.78125000000000000        0.0000000000000000     
  0.62500000000000000       0.78125000000000000        0.0000000000000000     
  0.50000000000000000       0.81250000000000000        0.0000000000000000     
  0.53125000000000000       0.81250000000000000        0.0000000000000000     
  0.56250000000000000       0.81250000000000000        0.0000000000000000     
  0.59375000000000000       0.81250000000000000        0.0000000000000000     
  0.62500000000000000       0.81250000000000000        0.0000000000000000     
  0.50000000000000000       0.84375000000000000        0.0000000000000000     
  0.53125000000000000       0.84375000000000000        0.0000000000000000     
  0.56250000000000000       0.84375000000000000        0.0000000000000000     
  0.59375000000000000       0.84375000000000000        0.0000000000000000     
  0.62500000000000000       0.84375000000000000        0.0000000000000000     
  0.50000000000000000       0.87500000000000000        0.0000000000000000     
  0.53125000000000000       0.87500000000000000        0.0000000000000000     
  0.56250000000000000       0.87500000000000000        0.0000000000000000     
  0.59375000000000000       0.87500000000000000        0.0000000000000000     
  0.62500000000000000       0.87500000000000000        0.0000000000000000     
  0.62500000000000000       0.75000000000000000        0.0000000000000000     
  0.65625000000000000       0.75000000000000000        0.0000000000000000     
  0.68750000000000000       0.75000000000000000        0.0000000000000000     
  0.71875000000000000       0.75000000000000000        0.0000000000000000     
  0.75000000000000000       0.75000000000000000        0.0000000000000000     
  0.62500000000000000       0.78125000000000000        0.0000000000000000     
  0.65625000000000000       0.78125000000000000        0.0000000000000000     
  0.68750000000000000       0.78125000000000000        0.0000000000000000     
  0.71875000000000000       0.78125000000000000        0.0000000000000000     
  0.75000000000000000       0.78125000000000000        0.0000000000000000     
  0.62500000000000000       0.81250000000000000        0.0000000000000000     
  0.65625000000000000       0.81250000000000000        0.0000000000000000     
  0.68750000000000000       0.81250000000000000        0.0000000000000000     
  0.71875000000000000       0.81250000000000000        0.0000000000000000     
  0.75000000000000000       0.81250000000000000        0.0000000000000000     
  0.62500000000000000       0.84375000000000000        0.0000000000000000     
  0.65625000000000000       0.84375000000000000        0.0000000000000000     
  0.68750000000000000       0.84375000000000000        0.0000000000000000     
  0.71875000000000000       0.84375000000000000        0.0000000000000000     
  0.75000000000000000       0.84375000000000000        0.0000000000000000     
  0.62500000000000000       0.87500000000000000        0.0000000000000000     
  0.65625000000000000       0.87500000000000000        0.0000000000000000     
  0.68750000000000000       0.87500000000000000        0.0000000000000000     
  0.71875000000000000       0.87500000000000000        0.0000000000000000     
  0.75000000000000000       0.87500000000000000        0.0000000000000000     
  0.75000000000000000       0.75000000000000000        0.0000000000000000     
  0.78125000000000000       0.75000000000000000        0.0000000000000000     
  0.81250000000000000       0.75000000000000000        0.0000000000000000     
  0.84375000000000000       0.75000000000000000        0.0000000000000000     
  0.87500000000000000       0.75000000000000000        0.0000000000000000     
  0.75000000000000000       0.78125000000000000        0.0000000000000000     
  0.78125000000000000       0.78125000000000000        0.0000000000000000     
  0.81250000000000000       0.78125000000000000        0.0000000000000000     
  0.84375000000000000       0.78125000000000000        0.0000000000000000     
  0.87500000000000000       0.78125000000000000        0.0000000000000000     
  0.75000000000000000       0.81250000000000000        0.0000000000000000     
  0.78125000000000000       0.81250000000000000        0.0000000000000000     
  0.81250000000000000       0.81250000000000000        0.0000000000000000     
  0.84375000000000000       0.81250000000000000        0.0000000000000000     
  0.87500000000000000       0.81250000000000000        0.0000000000000000     
  0.75000000000000000       0.84375000000000000        0.0000000000000000     
  0.78125000000000000       0.84375000000000000        0.0000000000000000     
  0.81250000000000000       0.84375000000000000        0.0000000000000000     
  0.84375000000000000       0.84375000000000000        0.0000000000000000     
  0.87500000000000000       0.84375000000000000        0.0000000000000000     
  0.75000000000000000       0.87500000000000000        0.0000000000000000     
  0.78125000000000000       0.87500000000000000        0.0000000000000000     
  0.81250000000000000       0.87500000000000000        0.0000000000000000     
  0.84375000000000000       0.87500000000000000        0.0000000000000000     
  0.87500000000000000       0.87500000000000000        0.0000000000000000     
  0.87500000000000000       0.75000000000000000        0.0000000000000000     
  0.90625000000000000       0.75000000000000000        0.0000000000000000     
  0.93750000000000000       0.75000000000000000        0.0000000000000000     
  0.96875000000000000       0.75000000000000000        0.0000000000000000     
   1.0000000000000000       0.75000000000000000        0.0000000000000000     
  0.87500000000000000       0.78125000000000000        0.0000000000000000     
  0.90625000000000000       0.78125000000000000        0.0000000000000000     
  0.93750000000000000       0.78125000000000000        0.0000000000000000     
  0.96875000000000000       0.78125000000000000        0.0000000000000000     
   1.0000000000000000       0.78125000000000000        0.0000000000000000     
  0.87500000000000000       0.81250000000000000        0.0000000000000000     
  0.90625000000000000       0.81250000000000000        0.0000000000000000     
  0.93750000000000000       0.81250000000000000        0.0000000000000000     
  0.96875000000000000       0.81250000000000000        0.0000000000000000     
   1.0000000000000000       0.81250000000000000        0.0000000000000000     
  0.87500000000000000       0.84375000000000000        0.0000000000000000     
  0.90625000000000000       0.84375000000000000        0.0000000000000000     
  0.93750000000000000       0.84375000000000000        0.0000000000000000     
  0.96875000000000000       0.84375000000000000        0.0000000000000000     
   1.0000000000000000       0.84375000000000000        0.0000000000000000     
  0.87500000000000000       0.87500000000000000        0.0000000000000000     
  0.90625000000000000       0.87500000000000000        0.0000000000000000     
  0.93750000000000000       0.87500000000000000        0.0000000000000000     
  0.96875000000000000       0.87500000000000000        0.0000000000000000     
   1.0000000000000000       0.87500000000000000        0.0000000000000000     
   0.0000000000000000       0.87500000000000000        0.0000000000000000     
   3.1250000000000000E-002  0.87500000000000000        0.0000000000000000     
   6.2500000000000000E-002  0.87500000000000000        0.0000000000000000     
   9.3750000000000000E-002  0.87500000000000000        0.0000000000000000     
  0.12500000000000000       0.87500000000000000        0.0000000000000000     
   0.0000000000000000       0.90625000000000000        0.0000000000000000     
   3.1250000000000000E-002  0.90625000000000000        0.0000000000000000     
   6.2500000000000000E-002  0.90625000000000000        0.0000000000000000     
   9.3750000000000000E-002  0.90625000000000000        0.0000000000000000     
  0.12500000000000000       0.90625000000000000        0.0000000000000000     
   0.0000000000000000       0.93750000000000000        0.0000000000000000     
   3.1250000000000000E-002  0.93750000000000000        0.0000000000000000     
   6.2500000000000000E-002  0.93750000000000000        0.0000000000000000     
   9.3750000000000000E-002  0.93750000000000000        0.0000000000000000     
  0.12500000000000000       0.93750000000000000        0.0000000000000000     
   0.0000000000000000       0.96875000000000000        0.0000000000000000     
   3.1250000000000000E-002  0.96875000000000000        0.0000000000000000     
   6.2500000000000000E-002  0.96875000000000000        0.0000000000000000     
   9.3750000000000000E-002  0.96875000000000000        0.0000000000000000     
  0.12500000000000000       0.96875000000000000        0.0000000000000000     
   0.0000000000000000        1.0000000000000000        0.0000000000000000     
   3.1250000000000000E-002   1.0000000000000000        0.0000000000000000     
   6.2500000000000000E-002   1.0000000000000000        0.0000000000000000     
   9.3750000000000000E-002   1.0000000000000000        0.0000000000000000     
  0.12500000000000000        1.0000000000000000        0.0000000000000000     
  0.12500000000000000       0.87500000000000000        0.0000000000000000     
  0.15625000000000000       0.87500000000000000        0.0000000000000000     
  0.18750000000000000       0.87500000000000000        0.0000000000000000     
  0.21875000000000000       0.87500000000000000        0.0000000000000000     
  0.25000000000000000       0.87500000000000000        0.0000000000000000     
  0.12500000000000000       0.90625000000000000        0.0000000000000000     
  0.15625000000000000       0.90625000000000000        0.0000000000000000     
  0.18750000000000000       0.90625000000000000        0.0000000000000000     
  0.21875000000000000       0.90625000000000000        0.0000000000000000     
  0.25000000000000000       0.90625000000000000        0.0000000000000000     
  0.12500000000000000       0.93750000000000000        0.0000000000000000     
  0.15625000000000000       0.93750000000000000        0.0000000000000000     
  0.18750000000000000       0.93750000000000000        0.0000000000000000     
  0.21875000000000000       0.93750000000000000        0.0000000000000000     
  0.25000000000000000       0.93750000000000000        0.0000000000000000     
  0.12500000000000000       0.96875000000000000        0.0000000000000000     
  0.15625000000000000       0.96875000000000000        0.0000000000000000     
  0.18750000000000000       0.96875000000000000        0.0000000000000000     
  0.21875000000000000       0.96875000000000000        0.0000000000000000     
  0.25000000000000000       0.96875000000000000        0.0000000000000000     
  0.12500000000000000        1.0000000000000000        0.0000000000000000     
  0.15625000000000000        1.0000000000000000        0.0000000000000000     
  0.18750000000000000        1.0000000000000000        0.0000000000000000     
  0.21875000000000000        1.0000000000000000        0.0000000000000000     
  0.25000000000000000        1.0000000000000000        0.0000000000000000     
  0.25000000000000000       0.87500000000000000        0.0000000000000000     
  0.28125000000000000       0.87500000000000000        0.0000000000000000     
  0.31250000000000000       0.87500000000000000        0.0000000000000000     
  0.34375000000000000       0.87500000000000000        0.0000000000000000     
  0.37500000000000000       0.87500000000000000        0.0000000000000000     
  0.25000000000000000       0.90625000000000000        0.0000000000000000     
  0.28125000000000000       0.90625000000000000        0.0000000000000000     
  0.31250000000000000       0.90625000000000000        0.0000000000000000     
  0.34375000000000000       0.90625000000000000        0.0000000000000000     
  0.37500000000000000       0.90625000000000000        0.0000000000000000     
  0.25000000000000000       0.93750000000000000        0.0000000000000000     
  0.28125000000000000       0.93750000000000000        0.0000000000000000     
  0.31250000000000000       0.93750000000000000        0.0000000000000000     
  0.34375000000000000       0.93750000000000000        0.0000000000000000     
  0.37500000000000000       0.93750000000000000        0.0000000000000000     
  0.25000000000000000       0.96875000000000000        0.0000000000000000     
  0.28125000000000000       0.96875000000000000        0.0000000000000000     
  0.31250000000000000       0.96875000000000000        0.0000000000000000     
  0.34375000000000000       0.96875000000000000        0.0000000000000000     
  0.37500000000000000       0.96875000000000000        0.0000000000000000     
  0.25000000000000000        1.0000000000000000        0.0000000000000000     
  0.28125000000000000        1.0000000000000000        0.0000000000000000     
  0.31250000000000000        1.0000000000000000        0.0000000000000000     
  0.34375000000000000        1.0000000000000000        0.0000000000000000     
  0.37500000000000000        1.0000000000000000        0.0000000000000000     
  0.37500000000000000       0.87500000000000000        0.0000000000000000     
  0.40625000000000000       0.87500000000000000        0.0000000000000000     
  0.43750000000000000       0.87500000000000000        0.0000000000000000     
  0.46875000000000000       0.87500000000000000        0.0000000000000000     
  0.50000000000000000       0.87500000000000000        0.0000000000000000     
  0.37500000000000000       0.90625000000000000        0.0000000000000000     
  0.40625000000000000       0.90625000000000000        0.0000000000000000     
  0.43750000000000000       0.90625000000000000        0.0000000000000000     
  0.46875000000000000       0.90625000000000000        0.0000000000000000     
  0.50000000000000000       0.90625000000000000        0.0000000000000000     
  0.37500000000000000       0.93750000000000000        0.0000000000000000     
  0.40625000000000000       0.93750000000000000        0.0000000000000000     
  0.43750000000000000       0.93750000000000000        0.0000000000000000     
  0.46875000000000000       0.93750000000000000        0.0000000000000000     
  0.50000000000000000       0.93750000000000000        0.0000000000000000     
  0.37500000000000000       0.96875000000000000        0.0000000000000000     
  0.40625000000000000       0.96875000000000000        0.0000000000000000     
  0.43750000000000000       0.96875000000000000        0.0000000000000000     
  0.46875000000000000       0.96875000000000000        0.0000000000000000     
  0.50000000000000000       0.96875000000000000        0.0000000000000000     
  0.37500000000000000        1.0000000000000000        0.0000000000000000     
  0.40625000000000000        1.0000000000000000        0.0000000000000000     
  0.43750000000000000        1.0000000000000000        0.0000000000000000     
  0.46875000000000000        1.0000000000000000        0.0000000000000000     
  0.50000000000000000        1.0000000000000000        0.0000000000000000     
  0.50000000000000000       0.87500000000000000        0.0000000000000000     
  0.53125000000000000       0.87500000000000000        0.0000000000000000     
  0.56250000000000000       0.87500000000000000        0.0000000000000000     
  0.59375000000000000       0.87500000000000000        0.0000000000000000     
  0.62500000000000000       0.87500000000000000        0.0000000000000000     
  0.50000000000000000       0.90625000000000000        0.0000000000000000     
  0.53125000000000000       0.90625000000000000        0.0000000000000000     
  0.56250000000000000       0.90625000000000000        0.0000000000000000     
  0.59375000000000000       0.90625000000000000        0.0000000000000000     
  0.62500000000000000       0.90625000000000000        0.0000000000000000     
  0.50000000000000000       0.93750000000000000        0.0000000000000000     
  0.53125000000000000       0.93750000000000000        0.0000000000000000     
  0.56250000000000000       0.93750000000000000        0.0000000000000000     
  0.59375000000000000       0.93750000000000000        0.0000000000000000     
  0.62500000000000000       0.93750000000000000        0.0000000000000000     
  0.50000000000000000       0.96875000000000000        0.0000000000000000     
  0.53125000000000000       0.96875000000000000        0.0000000000000000     
  0.56250000000000000       0.96875000000000000        0.0000000000000000     
  0.59375000000000000       0.96875000000000000        0.0000000000000000     
  0.62500000000000000       0.96875000000000000        0.0000000000000000     
  0.50000000000000000        1.0000000000000000        0.0000000000000000     
  0.53125000000000000        1.0000000000000000        0.0000000000000000     
  0.56250000000000000        1.0000000000000000        0.0000000000000000     
  0.59375000000000000        1.0000000000000000        0.0000000000000000     
  0.62500000000000000        1.0000000000000000        0.0000000000000000     
  0.62500000000000000       0.87500000000000000        0.0000000000000000     
  0.65625000000000000       0.87500000000000000        0.0000000000000000     
  0.68750000000000000       0.87500000000000000        0.0000000000000000     
  0.71875000000000000       0.87500000000000000        0.0000000000000000     
  0.75000000000000000       0.87500000000000000        0.0000000000000000     
  0.62500000000000000       0.90625000000000000        0.0000000000000000     
  0.65625000000000000       0.90625000000000000        0.0000000000000000     
  0.68750000000000000       0.90625000000000000        0.0000000000000000     
  0.71875000000000000       0.90625000000000000        0.0000000000000000     
  0.75000000000000000       0.90625000000000000        0.0000000000000000     
  0.62500000000000000       0.93750000000000000        0.0000000000000000     
  0.65625000000000000       0.93750000000000000        0.0000000000000000     
  0.68750000000000000       0.93750000000000000        0.0000000000000000     
  0.71875000000000000       0.93750000000000000        0.0000000000000000     
  0.75000000000000000       0.93750000000000000        0.0000000000000000     
  0.62500000000000000       0.96875000000000000        0.0000000000000000     
  0.65625000000000000       0.96875000000000000        0.0000000000000000     
  0.68750000000000000       0.96875000000000000        0.0000000000000000     
  0.71875000000000000       0.96875000000000000        0.0000000000000000     
  0.75000000000000000       0.96875000000000000        0.0000000000000000     
  0.62500000000000000        1.0000000000000000        0.0000000000000000     
  0.65625000000000000        1.0000000000000000        0.0000000000000000     
  0.68750000000000000        1.0000000000000000        0.0000000000000000     
  0.71875000000000000        1.0000000000000000        0.0000000000000000     
  0.75000000000000000        1.0000000000000000        0.0000000000000000     
  0.75000000000000000       0.87500000000000000        0.0000000000000000     
  0.78125000000000000       0.87500000000000000        0.0000000000000000     
  0.81250000000000000       0.87500000000000000        0.0000000000000000     
  0.84375000000000000       0.87500000000000000        0.0000000000000000     
  0.87500000000000000       0.87500000000000000        0.0000000000000000     
  0.75000000000000000       0.90625000000000000        0.0000000000000000     
  0.78125000000000000       0.90625000000000000        0.0000000000000000     
  0.81250000000000000       0.90625000000000000        0.0000000000000000     
  0.84375000000000000       0.90625000000000000        0.0000000000000000     
  0.87500000000000000       0.90625000000000000        0.0000000000000000     
  0.75000000000000000       0.93750000000000000        0.0000000000000000     
  0.78125000000000000       0.93750000000000000        0.0000000000000000     
  0.81250000000000000       0.93750000000000000        0.0000000000000000     
  0.84375000000000000       0.93750000000000000        0.0000000000000000     
  0.87500000000000000       0.93750000000000000        0.0000000000000000     
  0.75000000000000000       0.96875000000000000        0.0000000000000000     
  0.78125000000000000       0.96875000000000000        0.0000000000000000     
  0.81250000000000000       0.96875000000000000        0.0000000000000000     
  0.84375000000000000       0.96875000000000000        0.0000000000000000     
  0.87500000000000000       0.96875000000000000        0.0000000000000000     
  0.75000000000000000        1.0000000000000000        0.0000000000000000     
  0.78125000000000000        1.0000000000000000        0.0000000000000000     
  0.81250000000000000        1.0000000000000000        0.0000000000000000     
  0.84375000000000000        1.0000000000000000        0.0000000000000000     
  0.87500000000000000        1.0000000000000000        0.0000000000000000     
  0.87500000000000000       0.87500000000000000        0.0000000000000000     
  0.90625000000000000       0.87500000000000000        0.0000000000000000     
  0.93750000000000000       0.87500000000000000        0.0000000000000000     
  0.96875000000000000       0.87500000000000000        0.0000000000000000     
   1.0000000000000000       0.87500000000000000        0.0000000000000000     
  0.87500000000000000       0.90625000000000000        0.0000000000000000     
  0.90625000000000000       0.90625000000000000        0.0000000000000000     
  0.93750000000000000       0.90625000000000000        0.0000000000000000     
  0.96875000000000000       0.90625000000000000        0.0000000000000000     
   1.0000000000000000       0.90625000000000000        0.0000000000000000     
  0.87500000000000000       0.93750000000000000        0.0000000000000000     
  0.90625000000000000       0.93750000000000000        0.0000000000000000     
  0.93750000000000000       0.93750000000000000        0.0000000000000000     
  0.96875000000000000       0.93750000000000000        0.0000000000000000     
   1.0000000000000000       0.93750000000000000        0.0000000000000000     
  0.87500000000000000       0.96875000000000000        0.0000000000000000     
  0.90625000000000000       0.96875000000000000        0.0000000000000000     
  0.93750000000000000       0.96875000000000000        0.0000000000000000     
  0.96875000000000000       0.96875000000000000        0.0000000000000000     
   1.0000000000000000       0.96875000000000000        0.0000000000000000     
  0.87500000000000000        1.0000000000000000        0.0000000000000000     
  0.90625000000000000        1.0000000000000000        0.0000000000000000     
  0.93750000000000000        1.0000000000000000        0.0000000000000000     
  0.96875000000000000        1.0000000000000000        0.0000000000000000     
   1.0000000000000000        1.0000000000000000        0.0000000000000000     
 </DataArray>
 </Points>
 <Cells>
 <DataArray  type="Int32"  Name="connectivity"  format="ascii">
           0           1           6           5
           1           2           7           6
           2           3           8           7
           3           4           9           8
           5           6          11          10
           6           7          12          11
           7           8          13          12
           8           9          14          13
          10          11          16          15
          11          12          17          16
          12          13          18          17
          13          14          19          18
          15          16          21          20
          16          17          22          21
          17          18          23          22
          18          19          24          23
          25          26          31          30
          26          27          32          31
          27          28          33          32
          28          29          34          33
          30          31          36          35
          31          32          37          36
          32          33          38          37
          33          34          39          38
          35          36          41          40
          36          37          42          41
          37          38          43          42
          38          39          44          43
          40          41          46          45
          41          42          47          46
          42          43          48          47
          43          44          49          48
          50          51          56          55
          51          52          57          56
          52          53          58          57
          53          54          59          58
          55          56          61          60
          56          57          62          61
          57          58          63          62
          58          59          64          63
          60          61          66          65
          61          62          67          66
          62          63          68          67
          63          64          69          68
          65          66          71          70
          66          67          72          71
          67          68          73          72
          68          69          74          73
          75          76          81          80
          76          77          82          81
          77          78          83          82
          78          79          84          83
          80          81          86          85
          81          82          87          86
          82          83          88          87
          83          84          89          88
          85          86          91          90
          86          87          92          91
          87          88          93          92
          88          89          94          93
          90          91          96          95
          91          92          97          96
          92          93          98          97
          93          94          99          98
         100         101         106         105
         101         102         107         106
         102         103         108         107
         103         104         109         108
         105         106         111         110
         106         107         112         111
         107         108         113         112
         108         109         114         113
         110         111         116         115
         111         112         117         116
         112         113         118         117
         113         114         119         118
         115         116         121         120
         116         117         122         121
         117         118         123         122
         118         119         124         123
         125         126         131         130
         126         127         132         131
         127         128         133         132
         128         129         134         133
         130         131         136         135
         131         132         137         136
         132         133         138         137
         133         134         139         138
         135         136         141         140
         136         137         142         141
         137         138         143         142
         138         139         144         143
         140         141         146         145
         141         142         147         146
         142         143         148         147
         143         144         149         148
         150         151         156         155
         151         152         157         156
         152         153         158         157
         153         154         159         158
         155         156         161         160
         156         157         162         161
         157         158         163         162
         158         159         164         163
         160         161         166         165
         161         162         167         166
         162         163         168         167
         163         164         169         168
         165         166         171         170
         166         167         172         171
         167         168         173         172
         168         169         174         173
         175         176         181         180
         176         177         182         181
         177         178         183         182
         178         179         184         183
         180         181         186         185
         181         182         187         186
         182         183         188         187
         183         184         189         188
         185         186         191         190
         186         187         192         191
         187         188         193         192
         188         189         194         193
         190         191         196         195
         191         192         197         196
         192         193         198         197
         193         194         199         198
         200         201         206         205
         201         202         207         206
         202         203         208         207
         203         204         209         208
         205         206         211         210
         206         207         212         211
         207         208         213         212
         208         209         214         213
         210         211         216         215
         211         212         217         216
         212         213         218         217
         213         214         219         218
         215         216         221         220
         216         217         222         221
         217         218         223         222
         218         219         224         223
         225         226         231         230
         226         227         232         231
         227         228         233         232
         228         229         234         233
         230         231         236         235
         231         232         237         236
         232         233         238         237
         233         234         239         238
         235         236         241         240
         236         237         242         241
         237         238         243         242
         238         239         244         243
         240         241         246         245
         241         242         247         246
         242         243         248         247
         243         244         249         248
         250         251         256         255
         251         252         257         256
         252         253         258         257
         253         254         259         258
         255         256         261         260
         256         257         262         261
         257         258         263         262
         258         259         264         263
         260         261         266         265
         261         262         267         266
         262         263         268         267
         263         264         269         268
         265         266         271         270
         266         267         272         271
         267         268         273         272
         268         269         274         273
         275         276         281         280
         276         277         282         281
         277         278         283         282
         278         279         284         283
         280         281         286         285
         281         282         287         286
         282         283         288         287
         283         284         289         288
         285         286         291         290
         286         287         292         291
         287         288         293         292
         288         289         294         293
         290         291         296         295
         291         292         297         296
         292         293         298         297
         293         294         299         298
         300         301         306         305
         301         302         307         306
         302         303         308         307
         303         304         309         308
         305         306         311         310
         306         307         312         311
         307         308         313         312
         308         309         314         313
         310         311         316         315
         311         312         317         316
         312         313         318         317
         313         314         319         318
         315         316         321         320
         316         317         322         321
         317         318         323         322
         318         319         324         323
         325         326         331         330
         326         327         332         331
         327         328         333         332
         328         329         334         333
         330         331         336         335
         331         332         337         336
         332         333         338         337
         333         334         339         338
         335         336         341         340
         336         337         342         341
         337         338         343         342
         338         339         344         343
         340         341         346         345
         341         342         347         346
         342         343         348         347
         343         344         349         348
         350         351         356         355
         351         352         357         356
         352         353         358         357
         353         354         359         358
         355         356         361         360
         356         357         362         361
         357         358         363         362
         358         359         364         363
         360         361         366         365
         361         362         367         366
         362         363         368         367
         363         364         369         368
         365         366         371         370
         366         367         372         371
         367         368         373         372
         368         369         374         373
         375         376         381         380
         376         377         382         381
         377         378         383         382
         378         379         384         383
         380         381         386         385
         381         382         387         386
         382         383         388         387
         383         384         389         388
         385         386         391         390
         386         387         392         391
         387         388         393         392
         388         389         394         393
         390         391         396         395
         391         392         397         396
         392         393         398         397
         393         394         399         398
         400         401         406         405
         401         402         407         406
         402         403         408         407
         403         404         409         408
         405         406         411         410
         406         407         412         411
         407         408         413         412
         408         409         414         413
         410         411         416         415
         411         412         417         416
         412         413         418         417
         413         414         419         418
         415         416         421         420
         416         417         422         421
         417         418         423         422
         418         419         424         423
         425         426         431         430
         426         427         432         431
         427         428         433         432
         428         429         434         433
         430         431         436         435
         431         432         437         436
         432         433         438         437
         433         434         439         438
         435         436         441         440
         436         437         442         441
         437         438         443         442
         438         439         444         443
         440         441         446         445
         441         442         447         446
         442         443         448         447
         443         444         449         448
         450         451         456         455
         451         452         457         456
         452         453         458         457
         453         454         459         458
         455         456         461         460
         456         457         462         461
         457         458         463         462
         458         459         464         463
         460         461         466         465
         461         462         467         466
         462         463         468         467
         463         464         469         468
         465         466         471         470
         466         467         472         471
         467         468         473         472
         468         469         474         473
         475         476         481         480
         476         477         482         481
         477         478         483         482
         478         479         484         483
         480         481         486         485
         481         482         487         486
         482         483         488         487
         483         484         489         488
         485         486         491         490
         486         487         492         491
         487         488         493         492
         488         489         494         493
         490         491         496         495
         491         492         497         496
         492         493         498         497
         493         494         499         498
         500         501         506         505
         501         502         507         506
         502         503         508         507
         503         504         509         508
         505         506         511         510
         506         507         512         511
         507         508         513         512
         508         509         514         513
         510         511         516         515
         511         512         517         516
         512         513         518         517
         513         514         519         518
         515         516         521         520
         516         517         522         521
         517         518         523         522
         518         519         524         523
         525         526         531         530
         526         527         532         531
         527         528         533         532
         528         529         534         533
         530         531         536         535
         531         532         537         536
         532         533         538         537
         533         534         539         538
         535         536         541         540
         536         537         542         541
         537         538         543         542
         538         539         544         543
         540         541         546         545
         541         542         547         546
         542         543         548         547
         543         544         549         548
         550         551         556         555
         551         552         557         556
         552         553         558         557
         553         554         559         558
         555         556         561         560
         556         557         562         561
         557         558         563         562
         558         559         564         563
         560         561         566         565
         561         562         567         566
         562         563         568         567
         563         564         569         568
         565         566         571         570
         566         567         572         571
         567         568         573         572
         568         569         574         573
         575         576         581         580
         576         577         582         581
         577         578         583         582
         578         579         584         583
         580         581         586         585
         581         582         587         586
         582         583         588         587
         583         584         589         588
         585         586         591         590
         586         587         592         591
         587         588         593         592
         588         589         594         593
         590         591         596         595
         591         592         597         596
         592         593         598         597
         593         594         599         598
         600         601         606         605
         601         602         607         606
         602         603         608         607
         603         604         609         608
         605         606         611         610
         606         607         612         611
         607         608         613         612
         608         609         614         613
         610         611         616         615
         611         612         617         616
         612         613         618         617
         613         614         619         618
         615         616         621         620
         616         617         622         621
         617         618         623         622
         618         619         624         623
         625         626         631         630
         626         627         632         631
         627         628         633         632
         628         629         634         633
         630         631         636         635
         631         632         637         636
         632         633         638         637
         633         634         639         638
         635         636         641         640
         636         637         642         641
         637         638         643         642
         638         639         644         643
         640         641         646         645
         641         642         647         646
         642         643         648         647
         643         644         649         648
         650         651         656         655
         651         652         657         656
         652         653         658         657
         653         654         659         658
         655         656         661         660
         656         657         662         661
         657         658         663         662
         658         659         664         663
         660         661         666         665
         661         662         667         666
         662         663         668         667
         663         664         669         668
         665         666         671         670
         666         667         672         671
         667         668         673         672
         668         669         674         673
         675         676         681         680
         676         677         682         681
         677         678         683         682
         678         679         684         683
         680         681         686         685
         681         682         687         686
         682         683         688         687
         683         684         689         688
         685         686         691         690
         686         687         692         691
         687         688         693         692
         688         689         694         693
         690         691         696         695
         691         692         697         696
         692         693         698         697
         693         694         699         698
         700         701         706         705
         701         702         707         706
         702         703         708         707
         703         704         709         708
         705         706         711         710
         706         707         712         711
         707         708         713         712
         708         709         714         713
         710         711         716         715
         711         712         717         716
         712         713         718         717
         713         714         719         718
         715         716         721         720
         716         717         722         721
         717         718         723         722
         718         719         724         723
         725         726         731         730
         726         727         732         731
         727         728         733         732
         728         729         734         733
         730         731         736         735
         731         732         737         736
         732         733         738         737
         733         734         739         738
         735         736         741         740
         736         737         742         741
         737         738         743         742
         738         739         744         743
         740         741         746         745
         741         742         747         746
         742         743         748         747
         743         744         749         748
         750         751         756         755
         751         752         757         756
         752         753         758         757
         753         754         759         758
         755         756         761         760
         756         757         762         761
         757         758         763         762
         758         759         764         763
         760         761         766         765
         761         762         767         766
         762         763         768         767
         763         764         769         768
         765         766         771         770
         766         767         772         771
         767         768         773         772
         768         769         774         773
         775         776         781         780
         776         777         782         781
         777         778         783         782
         778         779         784         783
         780         781         786         785
         781         782         787         786
         782         783         788         787
         783         784         789         788
         785         786         791         790
         786         787         792         791
         787         788         793         792
         788         789         794         793
         790         791         796         795
         791         792         797         796
         792         793         798         797
         793         794         799         798
         800         801         806         805
         801         802         807         806
         802         803         808         807
         803         804         809         808
         805         806         811         810
         806         807         812         811
         807         808         813         812
         808         809         814         813
         810         811         816         815
         811         812         817         816
         812         813         818         817
         813         814         819         818
         815         816         821         820
         816         817         822         821
         817         818         823         822
         818         819         824         823
         825         826         831         830
         826         827         832         831
         827         828         833         832
         828         829         834         833
         830         831         836         835
         831         832         837         836
         832         833         838         837
         833         834         839         838
         835         836         841         840
         836         837         842         841
         837         838         843         842
         838         839         844         843
         840         841         846         845
         841         842         847         846
         842         843         848         847
         843         844         849         848
         850         851         856         855
         851         852         857         856
         852         853         858         857
         853         854         859         858
         855         856         861         860
         856         857         862         861
         857         858         863         862
         858         859         864         863
         860         861         866         865
         861         862         867         866
         862         863         868         867
         863         864         869         868
         865         866         871         870
         866         867         872         871
         867         868         873         872
         868         869         874         873
         875         876         881         880
         876         877         882         881
         877         878         883         882
         878         879         884         883
         880         881         886         885
         881         882         887         886
         882         883         888         887
         883         884         889         888
         885         886         891         890
         886         887         892         891
         887         888         893         892
         888         889         894         893
         890         891         896         895
         891         892         897         896
         892         893         898         897
         893         894         899         898
         900         901         906         905
         901         902         907         906
         902         903         908         907
         903         904         909         908
         905         906         911         910
         906         907         912         911
         907         908         913         912
         908         909         914         913
         910         911         916         915
         911         912         917         916
         912         913         918         917
         913         914         919         918
         915         916         921         920
         916         917         922         921
         917         918         923         922
         918         919         924         923
         925         926         931         930
         926         927         932         931
         927         928         933         932
         928         929         934         933
         930         931         936         935
         931         932         937         936
         932         933         938         937
         933         934         939         938
         935         936         941         940
         936         937         942         941
         937         938         943         942
         938         939         944         943
         940         941         946         945
         941         942         947         946
         942         943         948         947
         943         944         949         948
         950         951         956         955
         951         952         957         956
         952         953         958         957
         953         954         959         958
         955         956         961         960
         956         957         962         961
         957         958         963         962
         958         959         964         963
         960         961         966         965
         961         962         967         966
         962         963         968         967
         963         964         969         968
         965         966         971         970
         966         967         972         971
         967         968         973         972
         968         969         974         973
         975         976         981         980
         976         977         982         981
         977         978         983         982
         978         979         984         983
         980         981         986         985
         981         982         987         986
         982         983         988         987
         983         984         989         988
         985         986         991         990
         986         987         992         991
         987         988         993         992
         988         989         994         993
         990         991         996         995
         991         992         997         996
         992         993         998         997
         993         994         999         998
        1000        1001        1006        1005
        1001        1002        1007        1006
        1002        1003        1008        1007
        1003        1004        1009        1008
        1005        1006        1011        1010
        1006        1007        1012        1011
        1007        1008        1013        1012
        1008        1009        1014        1013
        1010        1011        1016        1015
        1011        1012        1017        1016
        1012        1013        1018        1017
        1013        1014        1019        1018
        1015        1016        1021        1020
        1016        1017        1022        1021
        1017        1018        1023        1022
        1018        1019        1024        1023
        1025        1026        1031        1030
        1026        1027        1032        1031
        1027        1028        1033        1032
        1028        1029        1034        1033
        1030        1031        1036        1035
        1031        1032        1037        1036
        1032        1033        1038        1037
        1033        1034        1039        1038
        1035        1036        1041        1040
        1036        1037        1042        1041
        1037        1038        1043        1042
        1038        1039        1044        1043
        1040        1041        1046        1045
        1041        1042        1047        1046
        1042        1043        1048        1047
        1043        1044        1049        1048
        1050        1051        1056        1055
        1051        1052        1057        1056
        1052        1053        1058        1057
        1053        1054        1059        1058
        1055        1056        1061        1060
        1056        1057        1062        1061
        1057        1058        1063        1062
        1058        1059        1064        1063
        1060        1061        1066        1065
        1061        1062        1067        1066
        1062        1063        1068        1067
        1063        1064        1069        1068
        1065        1066        1071        1070
        1066        1067        1072        1071
        1067        1068        1073        1072
        1068        1069        1074        1073
        1075        1076        1081        1080
        1076        1077        1082        1081
        1077        1078        1083        1082
        1078        1079        1084        1083
        1080        1081        1086        1085
        1081        1082        1087        1086
        1082        1083        1088        1087
        1083        1084        1089        1088
        1085        1086        1091        1090
        1086        1087        1092        1091
        1087        1088        1093        1092
        1088        1089        1094        1093
        1090        1091        1096        1095
        1091        1092        1097        1096
        1092        1093        1098        1097
        1093        1094        1099        1098
        1100        1101        1106        1105
        1101        1102        1107        1106
        1102        1103        1108        1107
        1103        1104        1109        1108
        1105        1106        1111        1110
        1106        1107        1112        1111
        1107        1108        1113        1112
        1108        1109        1114        1113
        1110        1111        1116        1115
        1111        1112        1117        1116
        1112        1113        1118        1117
        1113        1114        1119        1118
        1115        1116        1121        1120
        1116        1117        1122        1121
        1117        1118        1123        1122
        1118        1119        1124        1123
        1125        1126        1131        1130
        1126        1127        1132        1131
        1127        1128        1133        1132
        1128        1129        1134        1133
        1130        1131        1136        1135
        1131        1132        1137        1136
        1132        1133        1138        1137
        1133        1134        1139        1138
        1135        1136        1141        1140
        1136        1137        1142        1141
        1137        1138        1143        1142
        1138        1139        1144        1143
        1140        1141        1146        1145
        1141        1142        1147        1146
        1142        1143        1148        1147
        1143        1144        1149        1148
        1150        1151        1156        1155
        1151        1152        1157        1156
        1152        1153        1158        1157
        1153        1154        1159        1158
        1155        1156        1161        1160
        1156        1157        1162        1161
        1157        1158        1163        1162
        1158        1159        1164        1163
        1160        1161        1166        1165
        1161        1162        1167        1166
        1162        1163        1168        1167
        1163        1164        1169        1168
        1165        1166        1171        1170
        1166        1167        1172        1171
        1167        1168        1173        1172
        1168        1169        1174        1173
        1175        1176        1181        1180
        1176        1177        1182        1181
        1177        1178        1183        1182
        1178        1179        1184        1183
        1180        1181        1186        1185
        1181        1182        1187        1186
        1182        1183        1188        1187
        1183        1184        1189        1188
        1185        1186        1191        1190
        1186        1187        1192        1191
        1187        1188        1193        1192
        1188        1189        1194        1193
        1190        1191        1196        1195
        1191        1192        1197        1196
        1192        1193        1198        1197
        1193        1194        1199        1198
        1200        1201        1206        1205
        1201        1202        1207        1206
        1202        1203        1208        1207
        1203        1204        1209        1208
        1205        1206        1211        1210
        1206        1207        1212        1211
        1207        1208        1213        1212
        1208        1209        1214        1213
        1210        1211        1216        1215
        1211        1212        1217        1216
        1212        1213        1218        1217
        1213        1214        1219        1218
        1215        1216        1221        1220
        1216        1217        1222        1221
        1217        1218        1223        1222
        1218        1219        1224        1223
        1225        1226        1231        1230
        1226        1227        1232        1231
        1227        1228        1233        1232
        1228        1229        1234        1233
        1230        1231        1236        1235
        1231        1232        1237        1236
        1232        1233        1238        1237
        1233        1234        1239        1238
        1235        1236        1241        1240
        1236        1237        1242        1241
        1237        1238        1243        1242
        1238        1239        1244        1243
        1240        1241        1246        1245
        1241        1242        1247        1246
        1242        1243        1248        1247
        1243        1244        1249        1248
        1250        1251        1256        1255
        1251        1252        1257        1256
        1252        1253        1258        1257
        1253        1254        1259        1258
        1255        1256        1261        1260
        1256        1257        1262        1261
        1257        1258        1263        1262
        1258        1259        1264        1263
        1260        1261        1266        1265
        1261        1262        1267        1266
        1262        1263        1268        1267
        1263        1264        1269        1268
        1265        1266        1271        1270
        1266        1267        1272        1271
        1267        1268        1273        1272
        1268        1269        1274        1273
        1275        1276        1281        1280
        1276        1277        1282        1281
        1277        1278        1283        1282
        1278        1279        1284        1283
        1280        1281        1286        1285
        1281        1282        1287        1286
        1282        1283        1288        1287
        1283        1284        1289        1288
        1285        1286        1291        1290
        1286        1287        1292        1291
        1287        1288        1293        1292
        1288        1289        1294        1293
        1290        1291        1296        1295
        1291        1292        1297        1296
        1292        1293        1298        1297
        1293        1294        1299        1298
        1300        1301        1306        1305
        1301        1302        1307        1306
        1302        1303        1308        1307
        1303        1304        1309        1308
        1305        1306        1311        1310
        1306        1307        1312        1311
        1307        1308        1313        1312
        1308        1309        1314        1313
        1310        1311        1316        1315
        1311        1312        1317        1316
        1312        1313        1318        1317
        1313        1314        1319        1318
        1315        1316        1321        1320
        1316        1317        1322        1321
        1317        1318        1323        1322
        1318        1319        1324        1323
        1325        1326        1331        1330
        1326        1327        1332        1331
        1327        1328        1333        1332
        1328        1329        1334        1333
        1330        1331        1336        1335
        1331        1332        1337        1336
        1332        1333        1338        1337
        1333        1334        1339        1338
        1335        1336        1341        1340
        1336        1337        1342        1341
        1337        1338        1343        1342
        1338        1339        1344        1343
        1340        1341        1346        1345
        1341        1342        1347        1346
        1342        1343        1348        1347
        1343        1344        1349        1348
        1350        1351        1356        1355
        1351        1352        1357        1356
        1352        1353        1358        1357
        1353        1354        1359        1358
        1355        1356        1361        1360
        1356        1357        1362        1361
        1357        1358        1363        1362
        1358        1359        1364        1363
        1360        1361        1366        1365
        1361        1362        1367        1366
        1362        1363        1368        1367
        1363        1364        1369        1368
        1365        1366        1371        1370
        1366        1367        1372        1371
        1367        1368        1373        1372
        1368        1369        1374        1373
        1375        1376        1381        1380
        1376        1377        1382        1381
        1377        1378        1383        1382
        1378        1379        1384        1383
        1380        1381        1386        1385
        1381        1382        1387        1386
        1382        1383        1388        1387
        1383        1384        1389        1388
        1385        1386        1391        1390
        1386        1387        1392        1391
        1387        1388        1393        1392
        1388        1389        1394        1393
        1390        1391        1396        1395
        1391        1392        1397        1396
        1392        1393        1398        1397
        1393        1394        1399        1398
        1400        1401        1406        1405
        1401        1402        1407        1406
        1402        1403        1408        1407
        1403        1404        1409        1408
        1405        1406        1411        1410
        1406        1407        1412        1411
        1407        1408        1413        1412
        1408        1409        1414        1413
        1410        1411        1416        1415
        1411        1412        1417        1416
        1412        1413        1418        1417
        1413        1414        1419        1418
        1415        1416        1421        1420
        1416        1417        1422        1421
        1417        1418        1423        1422
        1418        1419        1424        1423
        1425        1426        1431        1430
        1426        1427        1432        1431
        1427        1428        1433        1432
        1428        1429        1434        1433
        1430        1431        1436        1435
        1431        1432        1437        1436
        1432        1433        1438        1437
        1433        1434        1439        1438
        1435        1436        1441        1440
        1436        1437        1442        1441
        1437        1438        1443        1442
        1438        1439        1444        1443
        1440        1441        1446        1445
        1441        1442        1447        1446
        1442        1443        1448        1447
        1443        1444        1449        1448
        1450        1451        1456        1455
        1451        1452        1457        1456
        1452        1453        1458        1457
        1453        1454        1459        1458
        1455        1456        1461        1460
        1456        1457        1462        1461
        1457        1458        1463        1462
        1458        1459        1464        1463
        1460        1461        1466        1465
        1461        1462        1467        1466
        1462        1463        1468        1467
        1463        1464        1469        1468
        1465        1466        1471        1470
        1466        1467        1472        1471
        1467        1468        1473        1472
        1468        1469        1474        1473
        1475        1476        1481        1480
        1476        1477        1482        1481
        1477        1478        1483        1482
        1478        1479        1484        1483
        1480        1481        1486        1485
        1481        1482        1487        1486
        1482        1483        1488        1487
        1483        1484        1489        1488
        1485        1486        1491        1490
        1486        1487        1492        1491
        1487        1488        1493        1492
        1488        1489        1494        1493
        1490        1491        1496        1495
        1491        1492        1497        1496
        1492        1493        1498        1497
        1493        1494        1499        1498
        1500        1501        1506        1505
        1501        1502        1507        1506
        1502        1503        1508        1507
        1503        1504        1509        1508
        1505        1506        1511        1510
        1506        1507        1512        1511
        1507        1508        1513        1512
        1508        1509        1514        1513
        1510        1511        1516        1515
        1511        1512        1517        1516
        1512        1513        1518        1517
        1513        1514        1519        1518
        1515        1516        1521        1520
        1516        1517        1522        1521
        1517        1518        1523        1522
        1518        1519        1524        1523
        1525        1526        1531        1530
        1526        1527        1532        1531
        1527        1528        1533        1532
        1528        1529        1534        1533
        1530        1531        1536        1535
        1531        1532        1537        1536
        1532        1533        1538        1537
        1533        1534        1539        1538
        1535        1536        1541        1540
        1536        1537        1542        1541
        1537        1538        1543        1542
        1538        1539        1544        1543
        1540        1541        1546        1545
        1541        1542        1547        1546
        1542        1543        1548        1547
        1543        1544        1549        1548
        1550        1551        1556        1555
        1551        1552        1557        1556
        1552        1553        1558        1557
        1553        1554        1559        1558
        1555        1556        1561        1560
        1556        1557        1562        1561
        1557        1558        1563        1562
        1558        1559        1564        1563
        1560        1561        1566        1565
        1561        1562        1567        1566
        1562        1563        1568        1567
        1563        1564        1569        1568
        1565        1566        1571        1570
        1566        1567        1572        1571
        1567        1568        1573        1572
        1568        1569        1574        1573
        1575        1576        1581        1580
        1576        1577        1582        1581
        1577        1578        1583        1582
        1578        1579        1584        1583
        1580        1581        1586        1585
        1581        1582        1587        1586
        1582        1583        1588        1587
        1583        1584        1589        1588
        1585        1586        1591        1590
        1586        1587        1592        1591
        1587        1588        1593        1592
        1588        1589        1594        1593
        1590        1591        1596        1595
        1591        1592        1597        1596
        1592        1593        1598        1597
        1593        1594        1599        1598
 </DataArray>
 <DataArray  type="Int32"  Name="offsets"  format="ascii"> 
           4
           8
          12
          16
          20
          24
          28
          32
          36
          40
          44
          48
          52
          56
          60
          64
          68
          72
          76
          80
          84
          88
          92
          96
         100
         104
         108
         112
         116
         120
         124
         128
         132
         136
         140
         144
         148
         152
         156
         160
         164
         168
         172
         176
         180
         184
         188
         192
         196
         200
         204
         208
         212
         216
         220
         224
         228
         232
         236
         240
         244
         248
         252
         256
         260
         264
         268
         272
         276
         280
         284
         288
         292
         296
         300
         304
         308
         312
         316
         320
         324
         328
         332
         336
         340
         344
         348
         352
         356
         360
         364
         368
         372
         376
         380
         384
         388
         392
         396
         400
         404
         408
         412
         416
         420
         424
         428
         432
         436
         440
         444
         448
         452
         456
         460
         464
         468
         472
         476
         480
         484
         488
         492
         496
         500
         504
         508
         512
         516
         520
         524
         528
         532
         536
         540
         544
         548
         552
         556
         560
         564
         568
         572
         576
         580
         584
         588
         592
         596
         600
         604
         608
         612
         616
         620
         624
         628
         632
         636
         640
         644
         648
         652
         656
         660
         664
         668
         672
         676
         680
         684
         688
         692
         696
         700
         704
         708
         712
         716
         720
         724
         728
         732
         736
         740
         744
         748
         752
         756
         760
         764
         768
         772
         776
         780
         784
         788
         792
         796
         800
         804
         808
         812
         816
         820
         824
         828
         832
         836
         840
         844
         848
         852
         856
         860
         864
         868
         872
         876
         880
         884
         888
         892
         896
         900
         904
         908
         912
         916
         920
         924
         928
         932
         936
         940
         944
         948
         952
         956
         960
         964
         968
         972
         976
         980
         984
         988
         992
         996
        1000
        1004
        1008
        1012
        1016
        1020
        1024
        1028
        1032
        1036
        1040
        1044
        1048
        1052
        1056
        1060
        1064
        1068
        1072
        1076
        1080
        1084
        1088
        1092
        1096
        1100
        1104
        1108
        1112
        1116
        1120
        1124
        1128
        1132
        1136
        1140
        1144
        1148
        1152
        1156
        1160
        1164
        1168
        1172
        1176
        1180
        1184
        1188
        1192
        1196
        1200
        1204
        1208
        1212
        1216
        1220
        1224
        1228
        1232
        1236
        1240
        1244
        1248
        1252
        1256
        1260
        1264
        1268
        1272
        1276
        1280
        1284
        1288
        1292
        1296
        1300
        1304
        1308
        1312
        1316
        1320
        1324
        1328
        1332
        1336
        1340
        1344
        1348
        1352
        1356
        1360
        1364
        1368
        1372
        1376
        1380
        1384
        1388
        1392
        1396
        1400
        1404
        1408
        1412
        1416
        1420
        1424
        1428
        1432
        1436
        1440
        1444
        1448
        1452
        1456
        1460
        1464
        1468
        1472
        1476
        1480
        1484
        1488
        1492
        1496
        1500
        1504
        1508
        1512
        1516
        1520
        1524
        1528
        1532
        1536
        1540
        1544
        1548
        1552
        1556
        1560
        1564
        1568
        1572
        1576
        1580
        1584
        1588
        1592
        1596
        1600
        1604
        1608
        1612
        1616
        1620
        1624
        1628
        1632
        1636
        1640
        1644
        1648
        1652
        1656
        1660
        1664
        1668
        1672
        1676
        1680
        1684
        1688
        1692
        1696
        1700
        1704
        1708
        1712
        1716
        1720
        1724
        1728
        1732
        1736
        1740
        1744
        1748
        1752
        1756
        1760
        1764
        1768
        1772
        1776
        1780
        1784
        1788
        1792
        1796
        1800
        1804
        1808
        1812
        1816
        1820
        1824
        1828
        1832
        1836
        1840
        1844
        1848
        1852
        1856
        1860
        1864
        1868
        1872
        1876
        1880
        1884
        1888
        1892
        1896
        1900
        1904
        1908
        1912
        1916
        1920
        1924
        1928
        1932
        1936
        1940
        1944
        1948
        1952
        1956
        1960
        1964
        1968
        1972
        1976
        1980
        1984
        1988
        1992
        1996
        2000
        2004
        2008
        2012
        2016
        2020
        2024
        2028
        2032
        2036
        2040
        2044
        2048
        2052
        2056
        2060
        2064
        2068
        2072
        2076
        2080
        2084
        2088
        2092
        2096
        2100
        2104
        2108
        2112
        2116
        2120
        2124
        2128
        2132
        2136
        2140
        2144
        2148
        2152
        2156
        2160
        2164
        2168
        2172
        2176
        2180
        2184
        2188
        2192
        2196
        2200
        2204
        2208
        2212
        2216
        2220
        2224
        2228
        2232
        2236
        2240
        2244
        2248
        2252
        2256
        2260
        2264
        2268
        2272
        2276
        2280
        2284
        2288
        2292
        2296
        2300
        2304
        2308
        2312
        2316
        2320
        2324
        2328
        2332
        2336
        2340
        2344
        2348
        2352
        2356
        2360
        2364
        2368
        2372
        2376
        2380
        2384
        2388
        2392
        2396
        2400
        2404
        2408
        2412
        2416
        2420
        2424
        2428
        2432
        2436
        2440
        2444
        2448
        2452
        2456
        2460
        2464
        2468
        2472
        2476
        2480
        2484
        2488
        2492
        2496
        2500
        2504
        2508
        2512
        2516
        2520
        2524
        2528
        2532
        2536
        2540
        2544
        2548
        2552
        2556
        2560
        2564
        2568
        2572
        2576
        2580
        2584
        2588
        2592
        2596
        2600
        2604
        2608
        2612
        2616
        2620
        2624
        2628
        2632
        2636
        2640
        2644
        2648
        2652
        2656
        2660
        2664
        2668
        2672
        2676
        2680
        2684
        2688
        2692
        2696
        2700
        2704
        2708
        2712
        2716
        2720
        2724
        2728
        2732
        2736
        2740
        2744
        2748
        2752
        2756
        2760
        2764
        2768
        2772
        2776
        2780
        2784
        2788
        2792
        2796
        2800
        2804
        2808
        2812
        2816
        2820
        2824
        2828
        2832
        2836
        2840
        2844
        2848
        2852
        2856
        2860
        2864
        2868
        2872
        2876
        2880
        2884
        2888
        2892
        2896
        2900
        2904
        2908
        2912
        2916
        2920
        2924
        2928
        2932
        2936
        2940
        2944
        2948
        2952
        2956
        2960
        2964
        2968
        2972
        2976
        2980
        2984
        2988
        2992
        2996
        3000
        3004
        3008
        3012
        3016
        3020
        3024
        3028
        3032
        3036
        3040
        3044
        3048
        3052
        3056
        3060
        3064
        3068
        3072
        3076
        3080
        3084
        3088
        3092
        3096
        3100
        3104
        3108
        3112
        3116
        3120
        3124
        3128
        3132
        3136
        3140
        3144
        3148
        3152
        3156
        3160
        3164
        3168
        3172
        3176
        3180
        3184
        3188
        3192
        3196
        3200
        3204
        3208
        3212
        3216
        3220
        3224
        3228
        3232
        3236
        3240
        3244
        3248
        3252
        3256
        3260
        3264
        3268
        3272
        3276
        3280
        3284
        3288
        3292
        3296
        3300
        3304
        3308
        3312
        3316
        3320
        3324
        3328
        3332
        3336
        3340
        3344
        3348
        3352
        3356
        3360
        3364
        3368
        3372
        3376
        3380
        3384
        3388
        3392
        3396
        3400
        3404
        3408
        3412
        3416
        3420
        3424
        3428
        3432
        3436
        3440
        3444
        3448
        3452
        3456
        3460
        3464
        3468
        3472
        3476
        3480
        3484
        3488
        3492
        3496
        3500
        3504
        3508
        3512
        3516
        3520
        3524
        3528
        3532
        3536
        3540
        3544
        3548
        3552
        3556
        3560
        3564
        3568
        3572
        3576
        3580
        3584
        3588
        3592
        3596
        3600
        3604
        3608
        3612
        3616
        3620
        3624
        3628
        3632
        3636
        3640
        3644
        3648
        3652
        3656
        3660
        3664
        3668
        3672
        3676
        3680
        3684
        3688
        3692
        3696
        3700
        3704
        3708
        3712
        3716
        3720
        3724
        3728
        3732
        3736
        3740
        3744
        3748
        3752
        3756
        3760
        3764
        3768
        3772
        3776
        3780
        3784
        3788
        3792
        3796
        3800
        3804
        3808
        3812
        3816
        3820
        3824
        3828
        3832
        3836
        3840
        3844
        3848
        3852
        3856
        3860
        3864
        3868
        3872
        3876
        3880
        3884
        3888
        3892
        3896
        3900
        3904
        3908
        3912
        3916
        3920
        3924
        3928
        3932
        3936
        3940
        3944
        3948
        3952
        3956
        3960
        3964
        3968
        3972
        3976
        3980
        3984
        3988
        3992
        3996
        4000
        4004
        4008
        4012
        4016
        4020
        4024
        4028
        4032
        4036
        4040
        4044
        4048
        4052
        4056
        4060
        4064
        4068
        4072
        4076
        4080
        4084
        4088
        4092
        4096
 </DataArray>
 <DataArray  type="UInt8"  Name="types"  format="ascii">
 9
 9
 9
 9
 9
 9
 9
 9
 9
 9
 9
 9
 9
 9
 9
 9
 9
 9
 9
 9
 9
 9
 9
 9
 9
 9
 9
 9
 9
 9
 9
 9
 9
 9
 9
 9
 9
 9
 9
 9
 9
 9
 9
 9
 9
 9
 9
 9
 9
 9
 9
 9
 9
 9
 9
 9
 9
 9
 9
 9
 9
 9
 9
 9
 9
 9
 9
 9
 9
 9
 9
 9
 9
 9
 9
 9
 9
 9
 9
 9
 9
 9
 9
 9
 9
 9
 9
 9
 9
 9
 9
 9
 9
 9
 9
 9
 9
 9
 9
 9
 9
 9
 9
 9
 9
 9
 9
 9
 9
 9
 9
 9
 9
 9
 9
 9
 9
 9
 9
 9
 9
 9
 9
 9
 9
 9
 9
 9
 9
 9
 9
 9
 9
 9
 9
 9
 9
 9
 9
 9
 9
 9
 9
 9
 9
 9
 9
 9
 9
 9
 9
 9
 9
 9
 9
 9
 9
 9
 9
 9
 9
 9
 9
 9
 9
 9
 9
 9
 9
 9
 9
 9
 9
 9
 9
 9
 9
 9
 9
 9
 9
 9
 9
 9
 9
 9
 9
 9
 9
 9
 9
 9
 9
 9
 9
 9
 9
 9
 9
 9
 9
 9
 9
 9
 9
 9
 9
 9
 9
 9
 9
 9
 9
 9
 9
 9
 9
 9
 9
 9
 9
 9
 9
 9
 9
 9
 9
 9
 9
 9
 9
 9
 9
 9
 9
 9
 9
 9
 9
 9
 9
 9
 9
 9
 9
 9
 9
 9
 9
 9
 9
 9
 9
 9
 9
 9
 9
 9
 9
 9
 9
 9
 9
 9
 9
 9
 9
 9
 9
 9
 9
 9
 9
 9
 9
 9
 9
 9
 9
 9
 9
 9
 9
 9
 9
 9
 9
 9
 9
 9
 9
 9
 9
 9
 9
 9
 9
 9
 9
 9
 9
 9
 9
 9
 9
 9
 9
 9
 9
 9
 9
 9
 9
 9
 9
 9
 9
 9
 9
 9
 9
 9
 9
 9
 9
 9
 9
 9
 9
 9
 9
 9
 9
 9
 9
 9
 9
 9
 9
 9
 9
 9
 9
 9
 9
 9
 9
 9
 9
 9
 9
 9
 9
 9
 9
 9
 9
 9
 9
 9
 9
 9
 9
 9
 9
 9
 9
 9
 9
 9
 9
 9
 9
 9
 9
 9
 9
 9
 9
 9
 9
 9
 9
 9
 9
 9
 9
 9
 9
 9
 9
 9
 9
 9
 9
 9
 9
 9
 9
 9
 9
 9
 9
 9
 9
 9
 9
 9
 9
 9
 9
 9
 9
 9
 9
 9
 9
 9
 9
 9
 9
 9
 9
 9
 9
 9
 9
 9
 9
 9
 9
 9
 9
 9
 9
 9
 9
 9
 9
 9
 9
 9
 9
 9
 9
 9
 9
 9
 9
 9
 9
 9
 9
 9
 9
 9
 9
 9
 9
 9
 9
 9
 9
 9
 9
 9
 9
 9
 9
 9
 9
 9
 9
 9
 9
 9
 9
 9
 9
 9
 9
 9
 9
 9
 9
 9
 9
 9
 9
 9
 9
 9
 9
 9
 9
 9
 9
 9
 9
 9
 9
 9
 9
 9
 9
 9
 9
 9
 9
 9
 9
 9
 9
 9
 9
 9
 9
 9
 9
 9
 9
 9
 9
 9
 9
 9
 9
 9
 9
 9
 9
 9
 9
 9
 9
 9
 9
 9
 9
 9
 9
 9
 9
 9
 9
 9
 9
 9
 9
 9
 9
 9
 9
 9
 9
 9
 9
 9
 9
 9
 9
 9
 9
 9
 9
 9
 9
 9
 9
 9
 9
 9
 9
 9
 9
 9
 9
 9
 9
 9
 9
 9
 9
 9
 9
 9
 9
 9
 9
 9
 9
 9
 9
 9
 9
 9
 9
 9
 9
 9
 9
 9
 9
 9
 9
 9
 9
 9
 9
 9
 9
 9
 9
 9
 9
 9
 9
 9
 9
 9
 9
 9
 9
 9
 9
 9
 9
 9
 9
 9
 9
 9
 9
 9
 9
 9
 9
 9
 9
 9
 9
 9
 9
 9
 9
 9
 9
 9
 9
 9
 9
 9
 9
 9
 9
 9
 9
 9
 9
 9
 9
 9
 9
 9
 9
 9
 9
 9
 9
 9
 9
 9
 9
 9
 9
 9
 9
 9
 9
 9
 9
 9
 9
 9
 9
 9
 9
 9
 9
 9
 9
 9
 9
 9
 9
 9
 9
 9
 9
 9
 9
 9
 9
 9
 9
 9
 9
 9
 9
 9
 9
 9
 9
 9
 9
 9
 9
 9
 9
 9
 9
 9
 9
 9
 9
 9
 9
 9
 9
 9
 9
 9
 9
 9
 9
 9
 9
 9
 9
 9
 9
 9
 9
 9
 9
 9
 9
 9
 9
 9
 9
 9
 9
 9
 9
 9
 9
 9
 9
 9
 9
 9
 9
 9
 9
 9
 9
 9
 9
 9
 9
 9
 9
 9
 9
 9
 9
 9
 9
 9
 9
 9
 9
 9
 9
 9
 9
 9
 9
 9
 9
 9
 9
 9
 9
 9
 9
 9
 9
 9
 9
 9
 9
 9
 9
 9
 9
 9
 9
 9
 9
 9
 9
 9
 9
 9
 9
 9
 9
 9
 9
 9
 9
 9
 9
 9
 9
 9
 9
 9
 9
 9
 9
 9
 9
 9
 9
 9
 9
 9
 9
 9
 9
 9
 9
 9
 9
 9
 9
 9
 9
 9
 9
 9
 9
 9
 9
 9
 9
 9
 9
 9
 9
 9
 9
 9
 9
 9
 9
 9
 9
 9
 9
 9
 9
 9
 9
 9
 9
 9
 9
 9
 9
 9
 9
 9
 9
 9
 9
 9
 9
 9
 9
 9
 9
 9
 9
 9
 9
 9
 9
 9
 9
 9
 9
 9
 9
 9
 9
 9
 9
 9
 9
 9
 9
 9
 9
 9
 9
 9
 9
 9
 9
 9
 9
 9
 9
 9
 9
 9
 9
 9
 9
 9
 9
 9
 9
 9
 9
 9
 9
 9
 9
 9
 9
 9
 9
 9
 9
 9
 9
 9
 9
 9
 9
 9
 9
 9
 9
 9
 9
 9
 9
 9
 9
 9
 9
 9
 9
 9
 9
 9
 9
 9
 9
 9
 9
 9
 9
 9
 9
 9
 9
 9
 9
 9
 9
 9
 9
 9
 9
 9
 9
 9
 9
 9
 9
 9
 9
 9
 9
 9
 9
 9
 9
 9
 9
 9
 9
 9
 9
 9
 9
 9
 9
 9
 9
 9
 9
 9
 9
 9
 9
 9
 </DataArray>
 </Cells> 
 <PointData>
 <DataArray  type="Float64" Name="disp" NumberOfComponents="3" format="ascii">
   0.0000000000000000        0.0000000000000000        0.0000000000000000     
   6.0959922209439295E-003   3.7903849632307859E-003   0.0000000000000000     
   1.1666023432525204E-002   7.3238112456163046E-003   0.0000000000000000     
   1.6710093634743829E-002   1.0600278847156558E-002   0.0000000000000000     
   2.1228202827599796E-002   1.3619787767851542E-002   0.0000000000000000     
   0.0000000000000000        0.0000000000000000        0.0000000000000000     
   4.8911545253031942E-003   3.0221483327985800E-003   0.0000000000000000     
   9.5736270441288997E-003   6.0605581683972915E-003   0.0000000000000000     
   1.4047417556477114E-002   9.1152295067961353E-003   0.0000000000000000     
   1.8312526062347841E-002   1.2186162347995112E-002   0.0000000000000000     
   0.0000000000000000        0.0000000000000000        0.0000000000000000     
   3.9535561371975766E-003   2.4251510316824791E-003   0.0000000000000000     
   7.9106004712373099E-003   5.0629526484927715E-003   0.0000000000000000     
   1.1871133002119203E-002   7.9134048504308756E-003   0.0000000000000000     
   1.5835153729843256E-002   1.0976507637496795E-002   0.0000000000000000     
   0.0000000000000000        0.0000000000000000        0.0000000000000000     
   3.2831970566270757E-003   1.9993930598824839E-003   0.0000000000000000     
   6.6769437138504417E-003   4.3309946859027438E-003   0.0000000000000000     
   1.0181239971670095E-002   6.9948048780607789E-003   0.0000000000000000     
   1.3796085830086038E-002   9.9908236363565901E-003   0.0000000000000000     
   0.0000000000000000        0.0000000000000000        0.0000000000000000     
   2.8800772835916935E-003   1.7448744173985940E-003   0.0000000000000000     
   5.8726567719682892E-003   3.8646842806272087E-003   0.0000000000000000     
   8.9777384651297896E-003   6.3594295896858442E-003   0.0000000000000000     
   1.2195322363076190E-002   9.2291103445744996E-003   0.0000000000000000     
   2.1228202827599796E-002   1.3619787767851542E-002   0.0000000000000000     
   2.5433273140932754E-002   1.6612850677885038E-002   0.0000000000000000     
   2.9538226704582352E-002   1.9809980247440819E-002   0.0000000000000000     
   3.3543063518548584E-002   2.3211176476518894E-002   0.0000000000000000     
   3.7447783582831455E-002   2.6816439365119252E-002   0.0000000000000000     
   1.8312526062347841E-002   1.2186162347995112E-002   0.0000000000000000     
   2.2407186212938579E-002   1.5341674725168897E-002   0.0000000000000000     
   2.6369631659446828E-002   1.8650084671492165E-002   0.0000000000000000     
   3.0199862401872599E-002   2.2111392186964913E-002   0.0000000000000000     
   3.3897878440215884E-002   2.5725597271587148E-002   0.0000000000000000     
   1.5835153729843256E-002   1.0976507637496795E-002   0.0000000000000000     
   1.9730893558110182E-002   1.4211086664527809E-002   0.0000000000000000     
   2.3486583390620711E-002   1.7575967586361214E-002   0.0000000000000000     
   2.7102223227374836E-002   2.1071150402997004E-002   0.0000000000000000     
   3.0577813068372560E-002   2.4696635114435182E-002   0.0000000000000000     
   1.3796085830086038E-002   9.9908236363565901E-003   0.0000000000000000     
   1.7404395176447571E-002   1.3221086495961785E-002   0.0000000000000000     
   2.0889081898103991E-002   1.6587628992047979E-002   0.0000000000000000     
   2.4250145995055303E-002   2.0090451124615168E-002   0.0000000000000000     
   2.7487587467301507E-002   2.3729552893663349E-002   0.0000000000000000     
   1.2195322363076190E-002   9.2291103445744996E-003   0.0000000000000000     
   1.5427691067950739E-002   1.2371674219470821E-002   0.0000000000000000     
   1.8577127181896674E-002   1.5685068888552457E-002   0.0000000000000000     
   2.1643630704913996E-002   1.9169294351819396E-002   0.0000000000000000     
   2.4627201637002702E-002   2.2824350609271654E-002   0.0000000000000000     
   3.7447783582831455E-002   2.6816439365119252E-002   0.0000000000000000     
   4.1256541847614348E-002   3.0621339493738617E-002   0.0000000000000000     
   4.4973493263080651E-002   3.4621447442873717E-002   0.0000000000000000     
   4.8598637829230358E-002   3.8816763212524551E-002   0.0000000000000000     
   5.2131975546063476E-002   4.3207286802691119E-002   0.0000000000000000     
   3.3897878440215884E-002   2.5725597271587148E-002   0.0000000000000000     
   3.7486692340019938E-002   2.9521653137293807E-002   0.0000000000000000     
   4.0989316666828049E-002   3.3528512996019846E-002   0.0000000000000000     
   4.4405751420640210E-002   3.7746176847765246E-002   0.0000000000000000     
   4.7735996601456415E-002   4.2174644692530031E-002   0.0000000000000000     
   3.0577813068372560E-002   2.4696635114435182E-002   0.0000000000000000     
   3.3942645230782220E-002   2.8497025490470486E-002   0.0000000000000000     
   3.7226012031772143E-002   3.2516925300897677E-002   0.0000000000000000     
   4.0427913471342329E-002   3.6756334545716723E-002   0.0000000000000000     
   4.3548349549492792E-002   4.1215253224927653E-002   0.0000000000000000     
   2.7487587467301507E-002   2.3729552893663349E-002   0.0000000000000000     
   3.0624400519901177E-002   2.7547456553268648E-002   0.0000000000000000     
   3.3683579357912920E-002   3.1586684357507194E-002   0.0000000000000000     
   3.6665123981336728E-002   3.5847236306378982E-002   0.0000000000000000     
   3.9569034390172599E-002   4.0329112399883994E-002   0.0000000000000000     
   2.4627201637002702E-002   2.2824350609271654E-002   0.0000000000000000     
   2.7531958207376823E-002   2.6672946325688299E-002   0.0000000000000000     
   3.0362018645250385E-002   3.0737790165848416E-002   0.0000000000000000     
   3.3117382950623386E-002   3.5018882129752002E-002   0.0000000000000000     
   3.5798051123495829E-002   3.9516222217399054E-002   0.0000000000000000     
   5.2131975546063476E-002   4.3207286802691119E-002   0.0000000000000000     
   5.5571468289540071E-002   4.7797021536153700E-002   0.0000000000000000     
   5.8915077935620210E-002   5.2589970735692562E-002   0.0000000000000000     
   6.2162804484303891E-002   5.7586134401307734E-002   0.0000000000000000     
   6.5314647935591108E-002   6.2785512532999202E-002   0.0000000000000000     
   4.7735996601456415E-002   4.2174644692530031E-002   0.0000000000000000     
   5.0976506197030154E-002   4.6807089820058212E-002   0.0000000000000000     
   5.4123734195114903E-002   5.1636685520093845E-002   0.0000000000000000     
   5.7177680595710649E-002   5.6663431792636935E-002   0.0000000000000000     
   6.0138345398817405E-002   6.1887328637687464E-002   0.0000000000000000     
   4.3548349549492792E-002   4.1215253224927653E-002   0.0000000000000000     
   4.6583639714648836E-002   4.5881012784887695E-002   0.0000000000000000     
   4.9530103415235782E-002   5.0740944671954065E-002   0.0000000000000000     
   5.2387740651253643E-002   5.5795048886126790E-002   0.0000000000000000     
   5.5156551422702399E-002   6.1043325427405842E-002   0.0000000000000000     
   3.9569034390172599E-002   4.0329112399883994E-002   0.0000000000000000     
   4.2392868842396111E-002   4.5018790430642122E-002   0.0000000000000000     
   4.5134185595982868E-002   4.9902748191273230E-002   0.0000000000000000     
   4.7792984650932860E-002   5.4980985681777304E-002   0.0000000000000000     
   5.0369266007246088E-002   6.0253502902154338E-002   0.0000000000000000     
   3.5798051123495829E-002   3.9516222217399054E-002   0.0000000000000000     
   3.8404193580271986E-002   4.4220422757321520E-002   0.0000000000000000     
   4.0935980737356145E-002   4.9122096078051326E-002   0.0000000000000000     
   4.3393412594748312E-002   5.4221242179588465E-002   0.0000000000000000     
   4.5776489152448474E-002   5.9517861061932957E-002   0.0000000000000000     
   6.5314647935591108E-002   6.2785512532999202E-002   0.0000000000000000     
   6.8371657051911505E-002   6.8175636358331251E-002   0.0000000000000000     
   7.1334880595694733E-002   7.3744037104868182E-002   0.0000000000000000     
   7.4204318566940777E-002   7.9490714772609994E-002   0.0000000000000000     
   7.6979970965649652E-002   8.5415669361556673E-002   0.0000000000000000     
   6.0138345398817405E-002   6.1887328637687464E-002   0.0000000000000000     
   6.3008065011772724E-002   6.7300027259369719E-002   0.0000000000000000     
   6.5789175841914155E-002   7.2893178861807947E-002   0.0000000000000000     
   6.8481677889241699E-002   7.8666783445002164E-002   0.0000000000000000     
   7.1085571153755356E-002   8.4620841008952369E-002   0.0000000000000000     
   5.5156551422702399E-002   6.1043325427405842E-002   0.0000000000000000     
   5.7839174372844963E-002   6.6479485613798808E-002   0.0000000000000000     
   6.0438248144944230E-002   7.2097240763313281E-002   0.0000000000000000     
   6.2953772739000213E-002   7.7896590875949218E-002   0.0000000000000000     
   6.5385748155012885E-002   8.3877535951706633E-002   0.0000000000000000     
   5.0369266007246088E-002   6.0253502902154338E-002   0.0000000000000000     
   5.2864985135128231E-002   6.5714011421618562E-002   0.0000000000000000     
   5.5282097504784980E-002   7.1356222809384168E-002   0.0000000000000000     
   5.7620603116216321E-002   7.7180137065451140E-002   0.0000000000000000     
   5.9880501969422253E-002   8.3185754189819494E-002   0.0000000000000000     
   4.5776489152448474E-002   5.9517861061932957E-002   0.0000000000000000     
   4.8085497298622534E-002   6.5003604682828953E-002   0.0000000000000000     
   5.0320723921436383E-002   7.0670125000020609E-002   0.0000000000000000     
   5.2482169020890035E-002   7.6517422013507932E-002   0.0000000000000000     
   5.4569832596983475E-002   8.2545495723290924E-002   0.0000000000000000     
   7.6979970965649652E-002   8.5415669361556673E-002   0.0000000000000000     
   7.9660426540733020E-002   9.1508972772761280E-002   0.0000000000000000     
   8.2244274041102530E-002   9.7760696907276845E-002   0.0000000000000000     
   8.4731513466758168E-002  0.10417084176510334        0.0000000000000000     
   8.7122144817699976E-002  0.11073940734624080        0.0000000000000000     
   7.1085571153755356E-002   8.4620841008952369E-002   0.0000000000000000     
   7.3599803128836155E-002   9.0743930684653099E-002   0.0000000000000000     
   7.6023321307865127E-002   9.7024631603098876E-002   0.0000000000000000     
   7.8356125690842271E-002  0.10346294376428979        0.0000000000000000     
   8.0598216277767587E-002  0.11005886716822573        0.0000000000000000     
   6.5385748155012885E-002   8.3877535951706633E-002   0.0000000000000000     
   6.7733533583529404E-002   9.0027881464209425E-002   0.0000000000000000     
   6.9996488215096950E-002   9.6335432887081518E-002   0.0000000000000000     
   7.2174612049715495E-002  0.10280019022032288        0.0000000000000000     
   7.4267905087385039E-002  0.10942215346393352        0.0000000000000000     
   5.9880501969422253E-002   8.3185754189819494E-002   0.0000000000000000     
   6.2061617904812814E-002   8.9360825111430314E-002   0.0000000000000000     
   6.4163774762798012E-002   9.5693100759224686E-002   0.0000000000000000     
   6.6186972543377853E-002  0.10218258113320265        0.0000000000000000     
   6.8131211246552317E-002  0.10882926623336417        0.0000000000000000     
   5.4569832596983475E-002   8.2545495723290924E-002   0.0000000000000000     
   5.6584056092686345E-002   8.8742761626315711E-002   0.0000000000000000     
   5.8525180950968307E-002   9.5097635219528451E-002   0.0000000000000000     
   6.0393207171829333E-002  0.10161011650292910        0.0000000000000000     
   6.2188134755269443E-002  0.10828020547651770        0.0000000000000000     
   8.7122144817699976E-002  0.11073940734624080        0.0000000000000000     
   8.9416721209964925E-002  0.11745379998291897        0.0000000000000000     
   9.1615795759590071E-002  0.12430142600736761        0.0000000000000000     
   9.3719368466575359E-002  0.13128228541958670        0.0000000000000000     
   9.5727439330920844E-002  0.13839637821957626        0.0000000000000000     
   8.0598216277767587E-002  0.11005886716822573        0.0000000000000000     
   8.2750098541589448E-002  0.11680036725949948        0.0000000000000000     
   8.4812277955256254E-002  0.12367540948270375        0.0000000000000000     
   8.6784754518767993E-002  0.13068399383783857        0.0000000000000000     
   8.8667528232124648E-002  0.13782612032490388        0.0000000000000000     
   7.4267905087385039E-002  0.10942215346393352        0.0000000000000000     
   7.6276764229088079E-002  0.11618956549299007        0.0000000000000000     
   7.8201586375807070E-002  0.12309066918256918        0.0000000000000000     
   8.0042371527542053E-002  0.13012546453267085        0.0000000000000000     
   8.1799119684292987E-002  0.13729395154329510        0.0000000000000000     
   6.8131211246552317E-002  0.10882926623336417        0.0000000000000000     
   6.9996718272460762E-002  0.11562139468339076        0.0000000000000000     
   7.1783721021242516E-002  0.12254720510696390        0.0000000000000000     
   7.3492219492897554E-002  0.12960669750408360        0.0000000000000000     
   7.5122213687425901E-002  0.13679987187474987        0.0000000000000000     
   6.2188134755269443E-002  0.10828020547651770        0.0000000000000000     
   6.3909960671707539E-002  0.11509585483070155        0.0000000000000000     
   6.5558681891562567E-002  0.12204501725588793        0.0000000000000000     
   6.7134298414834495E-002  0.12912769275207681        0.0000000000000000     
   6.8636810241523363E-002  0.13634388131926825        0.0000000000000000     
   9.5727439330920844E-002  0.13839637821957626        0.0000000000000000     
   9.7641167823945274E-002  0.14563197213144735        0.0000000000000000     
   9.9461713416967426E-002  0.15297733487931098        0.0000000000000000     
  0.10118907610998730       0.16043246646316717        0.0000000000000000     
  0.10282325590300490       0.16799736688301597        0.0000000000000000     
   8.8667528232124648E-002  0.13782612032490388        0.0000000000000000     
   9.0461681269553715E-002  0.14508951874629256        0.0000000000000000     
   9.2168295805282657E-002  0.15246191890439739        0.0000000000000000     
   9.3787371839311476E-002  0.15994332079921839        0.0000000000000000     
   9.5318909371640170E-002  0.16753372443075557        0.0000000000000000     
   8.1799119684292987E-002  0.13729395154329510        0.0000000000000000     
   8.3472703197366785E-002  0.14458361222269722        0.0000000000000000     
   8.5063994418070291E-002  0.15198192857913254        0.0000000000000000     
   8.6572993346403504E-002  0.15948890061260113        0.0000000000000000     
   8.7999699982366411E-002  0.16710452832310285        0.0000000000000000     
   7.5122213687425901E-002  0.13679987187474987        0.0000000000000000     
   7.6674233607384498E-002  0.14411425256066129        0.0000000000000000     
   7.8148809255330312E-002  0.15153736390351644        0.0000000000000000     
   7.9545940631263329E-002  0.15906920590331530        0.0000000000000000     
   8.0865627735183604E-002  0.16670977856005792        0.0000000000000000     
   6.8636810241523363E-002  0.13634388131926825        0.0000000000000000     
   7.0066272499606855E-002  0.14368143976018477        0.0000000000000000     
   7.1422740317062763E-002  0.15112822487754904        0.0000000000000000     
   7.2706213693891061E-002  0.15868423667136100        0.0000000000000000     
   7.3916692630091776E-002  0.16634947514162063        0.0000000000000000     
   0.0000000000000000        0.0000000000000000        0.0000000000000000     
   2.8800772835916935E-003   1.7448744173985940E-003   0.0000000000000000     
   5.8726567719682892E-003   3.8646842806272087E-003   0.0000000000000000     
   8.9777384651297896E-003   6.3594295896858442E-003   0.0000000000000000     
   1.2195322363076190E-002   9.2291103445744996E-003   0.0000000000000000     
   0.0000000000000000        0.0000000000000000        0.0000000000000000     
   2.6103443435807616E-003   1.5889482815516689E-003   0.0000000000000000     
   5.2897498716793934E-003   3.5567244269386635E-003   0.0000000000000000     
   8.0382165842958972E-003   5.9033284361609843E-003   0.0000000000000000     
   1.0855744481430269E-002   8.6287603092186273E-003   0.0000000000000000     
   0.0000000000000000        0.0000000000000000        0.0000000000000000     
   2.3401457620836142E-003   1.4589678296625668E-003   0.0000000000000000     
   4.7202332390722905E-003   3.2998181191096036E-003   0.0000000000000000     
   7.1402624309660307E-003   5.5225508683411093E-003   0.0000000000000000     
   9.6002333377648331E-003   8.1271660773570842E-003   0.0000000000000000     
   0.0000000000000000        0.0000000000000000        0.0000000000000000     
   2.0694815391002512E-003   1.3549330617312883E-003   0.0000000000000000     
   4.1641068741469812E-003   3.0939653571400291E-003   0.0000000000000000     
   6.2838760051401902E-003   5.2170968862262218E-003   0.0000000000000000     
   8.4287889320798781E-003   7.7243276489898666E-003   0.0000000000000000     
   0.0000000000000000        0.0000000000000000        0.0000000000000000     
   1.7983516746306739E-003   1.2768439777578334E-003   0.0000000000000000     
   3.6213707769034657E-003   2.9391661410299408E-003   0.0000000000000000     
   5.4690573068183765E-003   4.9869664898163218E-003   0.0000000000000000     
   7.3414112643754061E-003   7.4202450241169756E-003   0.0000000000000000     
   1.2195322363076190E-002   9.2291103445744996E-003   0.0000000000000000     
   1.5427691067950739E-002   1.2371674219470821E-002   0.0000000000000000     
   1.8577127181896674E-002   1.5685068888552457E-002   0.0000000000000000     
   2.1643630704913996E-002   1.9169294351819396E-002   0.0000000000000000     
   2.4627201637002702E-002   2.2824350609271654E-002   0.0000000000000000     
   1.0855744481430269E-002   8.6287603092186273E-003   0.0000000000000000     
   1.3689029959555019E-002   1.1650768099152400E-002   0.0000000000000000     
   1.6484769415142639E-002   1.4887099859003095E-002   0.0000000000000000     
   1.9242962848193143E-002   1.8337755588770717E-002   0.0000000000000000     
   2.1963610258706516E-002   2.2002735288455269E-002   0.0000000000000000     
   9.6002333377648331E-003   8.1271660773570842E-003   0.0000000000000000     
   1.2076660578195736E-002   1.1046286399104011E-002   0.0000000000000000     
   1.4546058770985784E-002   1.4212534486528365E-002   0.0000000000000000     
   1.7008427916134976E-002   1.7625910339630152E-002   0.0000000000000000     
   1.9463768013643308E-002   2.1286413958409366E-002   0.0000000000000000     
   8.4287889320798781E-003   7.7243276489898666E-003   0.0000000000000000     
   1.0590582923872898E-002   1.0558229119325652E-002   0.0000000000000000     
   1.2760995249426102E-002   1.3661372771128258E-002   0.0000000000000000     
   1.4940025908739493E-002   1.7033758604397695E-002   0.0000000000000000     
   1.7127674901813068E-002   2.0675386619133953E-002   0.0000000000000000     
   7.3414112643754061E-003   7.4202450241169756E-003   0.0000000000000000     
   9.2307969965864985E-003   1.0186596259817323E-002   0.0000000000000000     
   1.1129578850463593E-002   1.3233614712802778E-002   0.0000000000000000     
   1.3037756826006696E-002   1.6561300383073345E-002   0.0000000000000000     
   1.4955330923215805E-002   2.0169653270629018E-002   0.0000000000000000     
   2.4627201637002702E-002   2.2824350609271654E-002   0.0000000000000000     
   2.7531958207376823E-002   2.6672946325688299E-002   0.0000000000000000     
   3.0362018645250385E-002   3.0737790165848416E-002   0.0000000000000000     
   3.3117382950623386E-002   3.5018882129752002E-002   0.0000000000000000     
   3.5798051123495829E-002   3.9516222217399054E-002   0.0000000000000000     
   2.1963610258706516E-002   2.2002735288455269E-002   0.0000000000000000     
   2.4630110086005273E-002   2.5880030712447526E-002   0.0000000000000000     
   2.7225860769411903E-002   2.9967633615138288E-002   0.0000000000000000     
   2.9750862308926426E-002   3.4265543996527557E-002   0.0000000000000000     
   3.2205114704548815E-002   3.8773761856615317E-002   0.0000000000000000     
   1.9463768013643308E-002   2.1286413958409366E-002   0.0000000000000000     
   2.1883647948582642E-002   2.5175245618264435E-002   0.0000000000000000     
   2.4239636606024850E-002   2.9273605594593771E-002   0.0000000000000000     
   2.6531733985969932E-002   3.3581493887397375E-002   0.0000000000000000     
   2.8759940088417882E-002   3.8098910496675270E-002   0.0000000000000000     
   1.7127674901813068E-002   2.0675386619133953E-002   0.0000000000000000     
   1.9292571795108942E-002   2.4558591043139014E-002   0.0000000000000000     
   2.1403346155089226E-002   2.8655706104214862E-002   0.0000000000000000     
   2.3459997981753928E-002   3.2966731802361489E-002   0.0000000000000000     
   2.5462527275103026E-002   3.7491668137578892E-002   0.0000000000000000     
   1.4955330923215805E-002   2.0169653270629018E-002   0.0000000000000000     
   1.6856881625584165E-002   2.4030066987071268E-002   0.0000000000000000     
   1.8716989416605028E-002   2.8113935144001557E-002   0.0000000000000000     
   2.0535654296278391E-002   3.2421257741419865E-002   0.0000000000000000     
   2.2312876264604257E-002   3.6952034779326216E-002   0.0000000000000000     
   3.5798051123495829E-002   3.9516222217399054E-002   0.0000000000000000     
   3.8404193580271986E-002   4.4220422757321520E-002   0.0000000000000000     
   4.0935980737356145E-002   4.9122096078051326E-002   0.0000000000000000     
   4.3393412594748312E-002   5.4221242179588465E-002   0.0000000000000000     
   4.5776489152448474E-002   5.9517861061932957E-002   0.0000000000000000     
   3.2205114704548815E-002   3.8773761856615317E-002   0.0000000000000000     
   3.4591093684247592E-002   4.3487920268153783E-002   0.0000000000000000     
   3.6911274975991261E-002   4.8403652303895137E-002   0.0000000000000000     
   3.9165658579779820E-002   5.3520957963839370E-002   0.0000000000000000     
   4.1354244495613271E-002   5.8839837247986498E-002   0.0000000000000000     
   2.8759940088417882E-002   3.8098910496675270E-002   0.0000000000000000     
   3.0927048910294064E-002   4.2823293466366819E-002   0.0000000000000000     
   3.3035854448523840E-002   4.7752080840411416E-002   0.0000000000000000     
   3.5086356703107224E-002   5.2885272618809084E-002   0.0000000000000000     
   3.7078555674044202E-002   5.8222868801559795E-002   0.0000000000000000     
   2.5462527275103026E-002   3.7491668137578892E-002   0.0000000000000000     
   2.7412059258411402E-002   4.2226542351960619E-002   0.0000000000000000     
   2.9309719154953895E-002   4.7167381687600193E-002   0.0000000000000000     
   3.1155506964730524E-002   5.2314186144497572E-002   0.0000000000000000     
   3.2949422687741273E-002   5.7666955722652818E-002   0.0000000000000000     
   2.2312876264604257E-002   3.6952034779326216E-002   0.0000000000000000     
   2.4046124728599606E-002   4.1697666924935206E-002   0.0000000000000000     
   2.5732869095281424E-002   4.6649554845461426E-002   0.0000000000000000     
   2.7373109364649709E-002   5.1807698540904897E-002   0.0000000000000000     
   2.8966845536704471E-002   5.7172098011265604E-002   0.0000000000000000     
   4.5776489152448474E-002   5.9517861061932957E-002   0.0000000000000000     
   4.8085497298622534E-002   6.5003604682828953E-002   0.0000000000000000     
   5.0320723921436383E-002   7.0670125000020609E-002   0.0000000000000000     
   5.2482169020890035E-002   7.6517422013507932E-002   0.0000000000000000     
   5.4569832596983475E-002   8.2545495723290924E-002   0.0000000000000000     
   4.1354244495613271E-002   5.8839837247986498E-002   0.0000000000000000     
   4.3475576422121985E-002   6.4349364739462206E-002   0.0000000000000000     
   4.5528198057936314E-002   7.0038615021392150E-002   0.0000000000000000     
   4.7512109403056293E-002   7.5907588093776332E-002   0.0000000000000000     
   4.9427310457481888E-002   8.1956283956614792E-002   0.0000000000000000     
   3.7078555674044202E-002   5.8222868801559795E-002   0.0000000000000000     
   3.9010088064420703E-002   6.3752390933550548E-002   0.0000000000000000     
   4.0878590577322647E-002   6.9461360559668325E-002   0.0000000000000000     
   4.2684063212750041E-002   7.5349777679913132E-002   0.0000000000000000     
   4.4426505970702884E-002   8.1417642294284942E-002   0.0000000000000000     
   3.2949422687741273E-002   5.7666955722652818E-002   0.0000000000000000     
   3.4689032225518703E-002   6.3212683265093980E-002   0.0000000000000000     
   3.6371901479595369E-002   6.8938361614849120E-002   0.0000000000000000     
   3.7998030449971291E-002   7.4843990771918251E-002   0.0000000000000000     
   3.9567419136646451E-002   8.0929570736301332E-002   0.0000000000000000     
   2.8966845536704471E-002   5.7172098011265604E-002   0.0000000000000000     
   3.0512408905415966E-002   6.2730241734092501E-002   0.0000000000000000     
   3.2008130764754485E-002   6.8469618186934533E-002   0.0000000000000000     
   3.3454011114720024E-002   7.4390227369791728E-002   0.0000000000000000     
   3.4850049955312587E-002   8.0492069282664044E-002   0.0000000000000000     
   5.4569832596983475E-002   8.2545495723290924E-002   0.0000000000000000     
   5.6584056092686345E-002   8.8742761626315711E-002   0.0000000000000000     
   5.8525180950968307E-002   9.5097635219528451E-002   0.0000000000000000     
   6.0393207171829333E-002  0.10161011650292910        0.0000000000000000     
   6.2188134755269443E-002  0.10828020547651770        0.0000000000000000     
   4.9427310457481888E-002   8.1956283956614792E-002   0.0000000000000000     
   5.1274521900319288E-002   8.8173897135011031E-002   0.0000000000000000     
   5.3054464410674650E-002   9.4549622154068591E-002   0.0000000000000000     
   5.4767137988547973E-002  0.10108345901378751        0.0000000000000000     
   5.6412542633939265E-002  0.10777540771416776        0.0000000000000000     
   4.4426505970702884E-002   8.1417642294284942E-002   0.0000000000000000     
   4.6106689080880919E-002   8.7654437763661608E-002   0.0000000000000000     
   4.7725382772983896E-002   9.4049647448921012E-002   0.0000000000000000     
   4.9282587047011807E-002  0.10060327135006314        0.0000000000000000     
   5.0778301902964652E-002  0.10731530946708799        0.0000000000000000     
   3.9567419136646451E-002   8.0929570736301332E-002   0.0000000000000000     
   4.1080557634371233E-002   8.7184383512267483E-002   0.0000000000000000     
   4.2537936037896025E-002   9.3597711104085698E-002   0.0000000000000000     
   4.3939554347220820E-002  0.10016955351175599        0.0000000000000000     
   4.5285412562345619E-002  0.10689991073527835        0.0000000000000000     
   3.4850049955312587E-002   8.0492069282664044E-002   0.0000000000000000     
   3.6196127560790235E-002   8.6763734380828655E-002   0.0000000000000000     
   3.7492124205411051E-002   9.3193813119562666E-002   0.0000000000000000     
   3.8738039889175020E-002   9.9782305498866089E-002   0.0000000000000000     
   3.9933874612082157E-002  0.10652921151873890        0.0000000000000000     
   6.2188134755269443E-002  0.10828020547651770        0.0000000000000000     
   6.3909960671707539E-002  0.11509585483070155        0.0000000000000000     
   6.5558681891562567E-002  0.12204501725588793        0.0000000000000000     
   6.7134298414834495E-002  0.12912769275207681        0.0000000000000000     
   6.8636810241523363E-002  0.13634388131926825        0.0000000000000000     
   5.6412542633939265E-002  0.10777540771416776        0.0000000000000000     
   5.7990458411339263E-002  0.11461309525513540        0.0000000000000000     
   5.9500665385238675E-002  0.12158414863661644        0.0000000000000000     
   6.0943163555637538E-002  0.12868856785861088        0.0000000000000000     
   6.2317952922535828E-002  0.13592635292111879        0.0000000000000000     
   5.0778301902964652E-002  0.10731530946708799        0.0000000000000000     
   5.2212178475866712E-002  0.11417326527690526        0.0000000000000000     
   5.3583867900742252E-002  0.12116464225642470        0.0000000000000000     
   5.4893370177591265E-002  0.12828944040564635        0.0000000000000000     
   5.6140685306413751E-002  0.13554765972457014        0.0000000000000000     
   4.5285412562345619E-002  0.10689991073527835        0.0000000000000000     
   4.6575120865289955E-002  0.11377636489601115        0.0000000000000000     
   4.7808289438073311E-002  0.12078649811531274        0.0000000000000000     
   4.8984918280695719E-002  0.12793031039318314        0.0000000000000000     
   5.0105007393157160E-002  0.13520780172962232        0.0000000000000000     
   3.9933874612082157E-002  0.10652921151873890        0.0000000000000000     
   4.1079285579608937E-002  0.11342239411245308        0.0000000000000000     
   4.2173929997231845E-002  0.12044971621328054        0.0000000000000000     
   4.3217807864950872E-002  0.12761117782122128        0.0000000000000000     
   4.4210919182766026E-002  0.13490677893627528        0.0000000000000000     
   6.8636810241523363E-002  0.13634388131926825        0.0000000000000000     
   7.0066272499606855E-002  0.14368143976018477        0.0000000000000000     
   7.1422740317062763E-002  0.15112822487754904        0.0000000000000000     
   7.2706213693891061E-002  0.15868423667136100        0.0000000000000000     
   7.3916692630091776E-002  0.16634947514162063        0.0000000000000000     
   6.2317952922535828E-002  0.13592635292111879        0.0000000000000000     
   6.3624611531397618E-002  0.14328575259111898        0.0000000000000000     
   6.4862717427686983E-002  0.15075501563559027        0.0000000000000000     
   6.6032270611403945E-002  0.15833414205453275        0.0000000000000000     
   6.7133271082548449E-002  0.16602313184794634        0.0000000000000000     
   5.6140685306413751E-002  0.13554765972457014        0.0000000000000000     
   5.7325042360120516E-002  0.14292776982331509        0.0000000000000000     
   5.8445670411622332E-002  0.15041824031200007        0.0000000000000000     
   5.9502569460919225E-002  0.15801907119062519        0.0000000000000000     
   6.0495739508011161E-002  0.16573026245919031        0.0000000000000000     
   5.0105007393157160E-002  0.13520780172962232        0.0000000000000000     
   5.1167564985775557E-002  0.14260749145677318        0.0000000000000000     
   5.2171599268868815E-002  0.15011789890677846        0.0000000000000000     
   5.3117110242436934E-002  0.15773902407963830        0.0000000000000000     
   5.4004097906479920E-002  0.16547086697535263        0.0000000000000000     
   4.4210919182766026E-002  0.13490677893627528        0.0000000000000000     
   4.5152179408362733E-002  0.14232491749149315        0.0000000000000000     
   4.6040503999426420E-002  0.14985399141992545        0.0000000000000000     
   4.6875892955957087E-002  0.15749400072157210        0.0000000000000000     
   4.7658346277954733E-002  0.16524494539643320        0.0000000000000000     
   0.0000000000000000        0.0000000000000000        0.0000000000000000     
   1.7983516746306739E-003   1.2768439777578334E-003   0.0000000000000000     
   3.6213707769034657E-003   2.9391661410299408E-003   0.0000000000000000     
   5.4690573068183765E-003   4.9869664898163218E-003   0.0000000000000000     
   7.3414112643754061E-003   7.4202450241169756E-003   0.0000000000000000     
   0.0000000000000000        0.0000000000000000        0.0000000000000000     
   1.5350373414947955E-003   1.2175793593375418E-003   0.0000000000000000     
   3.0993872516105487E-003   2.8208987777275057E-003   0.0000000000000000     
   4.6930497303472596E-003   4.8099582551698926E-003   0.0000000000000000     
   6.3160247777049273E-003   7.1847577916646990E-003   0.0000000000000000     
   0.0000000000000000        0.0000000000000000        0.0000000000000000     
   1.2878197125125329E-003   1.1700179880657538E-003   0.0000000000000000     
   2.6055186025370357E-003   2.7246415741808932E-003   0.0000000000000000     
   3.9530966700735094E-003   4.6638707583454182E-003   0.0000000000000000     
   5.3305539151219531E-003   6.9877055405593285E-003   0.0000000000000000     
   0.0000000000000000        0.0000000000000000        0.0000000000000000     
   1.0566987876838854E-003   1.1341598639424686E-003   0.0000000000000000     
   2.1397648296829271E-003   2.6503945303901016E-003   0.0000000000000000     
   3.2491981259971255E-003   4.5487039993428995E-003   0.0000000000000000     
   4.3849986766264807E-003   6.8290882708008632E-003   0.0000000000000000     
   0.0000000000000000        0.0000000000000000        0.0000000000000000     
   8.4167456700885300E-004   1.1100049869676868E-003   0.0000000000000000     
   1.7021259330482227E-003   2.5981576463551329E-003   0.0000000000000000     
   2.5813540981181092E-003   4.4644579781623383E-003   0.0000000000000000     
   3.4793590622185120E-003   6.7089059823893021E-003   0.0000000000000000     
   7.3414112643754061E-003   7.4202450241169756E-003   0.0000000000000000     
   9.2307969965864985E-003   1.0186596259817323E-002   0.0000000000000000     
   1.1129578850463593E-002   1.3233614712802778E-002   0.0000000000000000     
   1.3037756826006696E-002   1.6561300383073345E-002   0.0000000000000000     
   1.4955330923215805E-002   2.0169653270629018E-002   0.0000000000000000     
   6.3160247777049273E-003   7.1847577916646990E-003   0.0000000000000000     
   7.9556356474006842E-003   9.8957550069464460E-003   0.0000000000000000     
   9.5992055931516593E-003   1.2893407520749647E-002   0.0000000000000000     
   1.1246734614957855E-002   1.6177715333074303E-002   0.0000000000000000     
   1.2898222712819270E-002   1.9748678443920416E-002   0.0000000000000000     
   5.3305539151219531E-003   6.9877055405593285E-003   0.0000000000000000     
   6.7234317273796038E-003   9.6500725470804478E-003   0.0000000000000000     
   8.1172714965436973E-003   1.2604898404166592E-002   0.0000000000000000     
   9.5120732226142320E-003   1.5852183111817769E-002   0.0000000000000000     
   1.0907836905591214E-002   1.9391926670033980E-002   0.0000000000000000     
   4.3849986766264807E-003   6.8290882708008632E-003   0.0000000000000000     
   5.5341852365232529E-003   9.4495488802193248E-003   0.0000000000000000     
   6.6837765606397037E-003   1.2368087363053620E-002   0.0000000000000000     
   7.8337726489758307E-003   1.5584703719303745E-002   0.0000000000000000     
   8.9841735015316372E-003   1.9099397948969705E-002   0.0000000000000000     
   3.4793590622185120E-003   6.7089059823893021E-003   0.0000000000000000     
   4.3878961748316349E-003   9.2941840063630789E-003   0.0000000000000000     
   5.2987207854396819E-003   1.2182974397410718E-002   0.0000000000000000     
   6.2118328940426511E-003   1.5375277155532227E-002   0.0000000000000000     
   7.1272325006405436E-003   1.8871092280727596E-002   0.0000000000000000     
   1.4955330923215805E-002   2.0169653270629018E-002   0.0000000000000000     
   1.6856881625584165E-002   2.4030066987071268E-002   0.0000000000000000     
   1.8716989416605028E-002   2.8113935144001557E-002   0.0000000000000000     
   2.0535654296278391E-002   3.2421257741419865E-002   0.0000000000000000     
   2.2312876264604257E-002   3.6952034779326216E-002   0.0000000000000000     
   1.2898222712819270E-002   1.9748678443920416E-002   0.0000000000000000     
   1.4537223625494752E-002   2.3580125431505759E-002   0.0000000000000000     
   1.6147291091743152E-002   2.7645884874048107E-002   0.0000000000000000     
   1.7728425111564475E-002   3.1945956771547462E-002   0.0000000000000000     
   1.9280625684958710E-002   3.6480341124003834E-002   0.0000000000000000     
   1.0907836905591214E-002   1.9391926670033980E-002   0.0000000000000000     
   1.2294243980327134E-002   2.3199218357887037E-002   0.0000000000000000     
   1.3660975881674496E-002   2.7249147454448785E-002   0.0000000000000000     
   1.5008032609633296E-002   3.1541713959719220E-002   0.0000000000000000     
   1.6335414164203539E-002   3.6076917873698322E-002   0.0000000000000000     
   8.9841735015316372E-003   1.9099397948969705E-002   0.0000000000000000     
   1.0127942690081316E-002   2.2887345766215112E-002   0.0000000000000000     
   1.1258043786399058E-002   2.6923722885203588E-002   0.0000000000000000     
   1.2374476790484866E-002   3.1208529305935120E-002   0.0000000000000000     
   1.3477241702338738E-002   3.5741765028409721E-002   0.0000000000000000     
   7.1272325006405436E-003   1.8871092280727596E-002   0.0000000000000000     
   8.0383197547572935E-003   2.2644507656489975E-002   0.0000000000000000     
   8.9384948059168384E-003   2.6669611166312501E-002   0.0000000000000000     
   9.8277576541191784E-003   3.0946402810195176E-002   0.0000000000000000     
   1.0706108299364312E-002   3.5474882588137996E-002   0.0000000000000000     
   2.2312876264604257E-002   3.6952034779326216E-002   0.0000000000000000     
   2.4046124728599606E-002   4.1697666924935206E-002   0.0000000000000000     
   2.5732869095281424E-002   4.6649554845461426E-002   0.0000000000000000     
   2.7373109364649709E-002   5.1807698540904897E-002   0.0000000000000000     
   2.8966845536704471E-002   5.7172098011265604E-002   0.0000000000000000     
   1.9280625684958710E-002   3.6480341124003834E-002   0.0000000000000000     
   2.0797681132106009E-002   4.1235037730804898E-002   0.0000000000000000     
   2.2273379773186500E-002   4.6196046391338418E-002   0.0000000000000000     
   2.3707721608200193E-002   5.1363367105604345E-002   0.0000000000000000     
   2.5100706637147082E-002   5.6736999873602714E-002   0.0000000000000000     
   1.6335414164203539E-002   3.6076917873698322E-002   0.0000000000000000     
   1.7635164280177935E-002   4.0837025315084062E-002   0.0000000000000000     
   1.8899326692349217E-002   4.5804302402574375E-002   0.0000000000000000     
   2.0127901400717366E-002   5.0978749136169267E-002   0.0000000000000000     
   2.1320888405282398E-002   5.6360365515868725E-002   0.0000000000000000     
   1.3477241702338738E-002   3.5741765028409721E-002   0.0000000000000000     
   1.4558574172815397E-002   4.0503629677772678E-002   0.0000000000000000     
   1.5610709852769564E-002   4.5474322879169332E-002   0.0000000000000000     
   1.6633648742201239E-002   5.0653844632599650E-002   0.0000000000000000     
   1.7627390841110417E-002   5.6042194938063630E-002   0.0000000000000000     
   1.0706108299364312E-002   3.5474882588137996E-002   0.0000000000000000     
   1.1567910810018386E-002   4.0234850818870765E-002   0.0000000000000000     
   1.2407529254447549E-002   4.5206107821123262E-002   0.0000000000000000     
   1.3224963632651798E-002   5.0388653594895486E-002   0.0000000000000000     
   1.4020213944631137E-002   5.5782488140187450E-002   0.0000000000000000     
   2.8966845536704471E-002   5.7172098011265604E-002   0.0000000000000000     
   3.0512408905415966E-002   6.2730241734092501E-002   0.0000000000000000     
   3.2008130764754485E-002   6.8469618186934533E-002   0.0000000000000000     
   3.3454011114720024E-002   7.4390227369791728E-002   0.0000000000000000     
   3.4850049955312587E-002   8.0492069282664044E-002   0.0000000000000000     
   2.5100706637147082E-002   5.6736999873602714E-002   0.0000000000000000     
   2.6451587557576404E-002   6.2305144694503656E-002   0.0000000000000000     
   2.7759617067037386E-002   6.8056001567477334E-002   0.0000000000000000     
   2.9024795165530033E-002   7.3989570492523776E-002   0.0000000000000000     
   3.0247121853054337E-002   8.0105851469642927E-002   0.0000000000000000     
   2.1320888405282398E-002   5.6360365515868725E-002   0.0000000000000000     
   2.2477937635463897E-002   6.1937470500284982E-002   0.0000000000000000     
   2.3598699020681457E-002   6.7698383048030247E-002   0.0000000000000000     
   2.4683172560935079E-002   7.3643103159104564E-002   0.0000000000000000     
   2.5731358256224759E-002   7.9771630833507884E-002   0.0000000000000000     
   1.7627390841110417E-002   5.6042194938063630E-002   0.0000000000000000     
   1.8591459139078462E-002   6.1627219151436458E-002   0.0000000000000000     
   1.9525376625686711E-002   6.7396762628593287E-002   0.0000000000000000     
   2.0429143300935173E-002   7.3350825369534120E-002   0.0000000000000000     
   2.1302759164823840E-002   7.9489407374258927E-002   0.0000000000000000     
   1.4020213944631137E-002   5.5782488140187450E-002   0.0000000000000000     
   1.4792152068420078E-002   6.1374390647958105E-002   0.0000000000000000     
   1.5539649882053133E-002   6.7151140309166427E-002   0.0000000000000000     
   1.6262707385530303E-002   7.3112737123812402E-002   0.0000000000000000     
   1.6961324578851592E-002   7.9259181091896030E-002   0.0000000000000000     
   3.4850049955312587E-002   8.0492069282664044E-002   0.0000000000000000     
   3.6196127560790235E-002   8.6763734380828655E-002   0.0000000000000000     
   3.7492124205411051E-002   9.3193813119562666E-002   0.0000000000000000     
   3.8738039889175020E-002   9.9782305498866089E-002   0.0000000000000000     
   3.9933874612082157E-002  0.10652921151873890        0.0000000000000000     
   3.0247121853054337E-002   8.0105851469642927E-002   0.0000000000000000     
   3.1425869941470626E-002   8.6392638182625409E-002   0.0000000000000000     
   3.2560312242639208E-002   9.2837724315261688E-002   0.0000000000000000     
   3.3650448756560092E-002   9.9441109867551863E-002   0.0000000000000000     
   3.4696279483233262E-002  0.10620279483949585        0.0000000000000000     
   2.5731358256224759E-002   7.9771630833507884E-002   0.0000000000000000     
   2.6742255857745114E-002   8.6071242730937983E-002   0.0000000000000000     
   2.7714865116690756E-002   9.2529215511092611E-002   0.0000000000000000     
   2.8649186033061696E-002   9.9145549173971712E-002   0.0000000000000000     
   2.9545218606857923E-002  0.10592024371957534        0.0000000000000000     
   2.1302759164823840E-002   7.9489407374258927E-002   0.0000000000000000     
   2.2145285309613696E-002   8.5799548025766448E-002   0.0000000000000000     
   2.2955782827565697E-002   9.2268286707055364E-002   0.0000000000000000     
   2.3734251718679850E-002   9.8895623418125717E-002   0.0000000000000000     
   2.4480691982956149E-002  0.10568155815897744        0.0000000000000000     
   1.6961324578851592E-002   7.9259181091896030E-002   0.0000000000000000     
   1.7634958297076373E-002   8.5577554067110762E-002   0.0000000000000000     
   1.8283065375264026E-002   9.2054937903150003E-002   0.0000000000000000     
   1.8905645813414546E-002   9.8691332600013781E-002   0.0000000000000000     
   1.9502699611527941E-002  0.10548673815770213        0.0000000000000000     
   3.9933874612082157E-002  0.10652921151873890        0.0000000000000000     
   4.1079285579608937E-002  0.11342239411245308        0.0000000000000000     
   4.2173929997231845E-002  0.12044971621328054        0.0000000000000000     
   4.3217807864950872E-002  0.12761117782122128        0.0000000000000000     
   4.4210919182766026E-002  0.13490677893627528        0.0000000000000000     
   3.4696279483233262E-002  0.10620279483949585        0.0000000000000000     
   3.5697524804130590E-002  0.11311095276099351        0.0000000000000000     
   3.6653905100723923E-002  0.12015375716194468        0.0000000000000000     
   3.7565420373013268E-002  0.12733120804234932        0.0000000000000000     
   3.8432070620998633E-002  0.13464330540220748        0.0000000000000000     
   2.9545218606857923E-002  0.10592024371957534        0.0000000000000000     
   3.0402690724161786E-002  0.11284164067639489        0.0000000000000000     
   3.1221330271055617E-002  0.11989808157292174        0.0000000000000000     
   3.2001137247539439E-002  0.12708956640915586        0.0000000000000000     
   3.2742111653613237E-002  0.13441609518509734        0.0000000000000000     
   2.4480691982956149E-002  0.10568155815897744        0.0000000000000000     
   2.5194783339702535E-002  0.11261445785865724        0.0000000000000000     
   2.5876205508226953E-002  0.11968268944621173        0.0000000000000000     
   2.6524958488529388E-002  0.12688625292164091        0.0000000000000000     
   2.7141042280609845E-002  0.13422514828494486        0.0000000000000000     
   1.9502699611527941E-002  0.10548673815770213        0.0000000000000000     
   2.0073802650752846E-002  0.11242940430778055        0.0000000000000000     
   2.0618530812237898E-002  0.11950758078181467        0.0000000000000000     
   2.1136884095983108E-002  0.12672126757980448        0.0000000000000000     
   2.1628862501988460E-002  0.13407046470175002        0.0000000000000000     
   4.4210919182766026E-002  0.13490677893627528        0.0000000000000000     
   4.5152179408362733E-002  0.14232491749149315        0.0000000000000000     
   4.6040503999426420E-002  0.14985399141992545        0.0000000000000000     
   4.6875892955957087E-002  0.15749400072157210        0.0000000000000000     
   4.7658346277954733E-002  0.16524494539643320        0.0000000000000000     
   3.8432070620998633E-002  0.13464330540220748        0.0000000000000000     
   3.9252771060673548E-002  0.14207827728800870        0.0000000000000000     
   4.0026436908031572E-002  0.14962435174624267        0.0000000000000000     
   4.0753068163072691E-002  0.15728152877690926        0.0000000000000000     
   4.1432664825796925E-002  0.16504980838000860        0.0000000000000000     
   3.2742111653613237E-002  0.13441609518509734        0.0000000000000000     
   3.3443225375499493E-002  0.14186580020685355        0.0000000000000000     
   3.4103450299420669E-002  0.14942681378053196        0.0000000000000000     
   3.4722786425376767E-002  0.15709913590613250        0.0000000000000000     
   3.5301233753367800E-002  0.16488276658365533        0.0000000000000000     
   2.7141042280609845E-002  0.13422514828494486        0.0000000000000000     
   2.7723542352840545E-002  0.14168748624802757        0.0000000000000000     
   2.8271544173593708E-002  0.14926137752279325        0.0000000000000000     
   2.8785047742869312E-002  0.15694682210924185        0.0000000000000000     
   2.9264053060667376E-002  0.16474382000737342        0.0000000000000000     
   2.1628862501988460E-002  0.13407046470175002        0.0000000000000000     
   2.2093721992696727E-002  0.14154333541153086        0.0000000000000000     
   2.2530718530550685E-002  0.14912804297302665        0.0000000000000000     
   2.2939852115550323E-002  0.15682458738623731        0.0000000000000000     
   2.3321122747695648E-002  0.16463296865116289        0.0000000000000000     
   0.0000000000000000        0.0000000000000000        0.0000000000000000     
   8.4167456700885300E-004   1.1100049869676868E-003   0.0000000000000000     
   1.7021259330482227E-003   2.5981576463551329E-003   0.0000000000000000     
   2.5813540981181092E-003   4.4644579781623383E-003   0.0000000000000000     
   3.4793590622185120E-003   6.7089059823893021E-003   0.0000000000000000     
   0.0000000000000000        0.0000000000000000        0.0000000000000000     
   6.3383800512788874E-004   1.0939896402410814E-003   0.0000000000000000     
   1.2780569683508217E-003   2.5620798177154241E-003   0.0000000000000000     
   1.9326568896687992E-003   4.4042705324230285E-003   0.0000000000000000     
   2.5976377690818211E-003   6.6205617843638938E-003   0.0000000000000000     
   0.0000000000000000        0.0000000000000000        0.0000000000000000     
   4.2428005668144515E-004   1.0825501068623246E-003   0.0000000000000000     
   8.5301299130862351E-004   2.5363099401104140E-003   0.0000000000000000     
   1.2861988038815352E-003   4.3612794997442677E-003   0.0000000000000000     
   1.7238374944001801E-003   6.5574587857638849E-003   0.0000000000000000     
   0.0000000000000000        0.0000000000000000        0.0000000000000000     
   2.1300072166952245E-004   1.0756863868314167E-003   0.0000000000000000     
   4.2699400192162826E-004   2.5208480135401022E-003   0.0000000000000000     
   6.4197984075631753E-004   4.3354848801260559E-003   0.0000000000000000     
   8.5795823817358982E-004   6.5195969865892772E-003   0.0000000000000000     
   0.0000000000000000        0.0000000000000000        0.0000000000000000     
   9.2120565732892179E-014   1.0733984801483579E-003   0.0000000000000000     
   1.8983588572635268E-013   2.5156940380044891E-003   0.0000000000000000     
   2.9314577024500132E-013   4.3268866735683923E-003   0.0000000000000000     
   4.0205035481410967E-013   6.5069763868400706E-003   0.0000000000000000     
   3.4793590622185120E-003   6.7089059823893021E-003   0.0000000000000000     
   4.3878961748316349E-003   9.2941840063630789E-003   0.0000000000000000     
   5.2987207854396819E-003   1.2182974397410718E-002   0.0000000000000000     
   6.2118328940426511E-003   1.5375277155532227E-002   0.0000000000000000     
   7.1272325006405436E-003   1.8871092280727596E-002   0.0000000000000000     
   2.5976377690818211E-003   6.6205617843638938E-003   0.0000000000000000     
   3.2700449036048617E-003   9.1779967136733902E-003   0.0000000000000000     
   3.9469235902528958E-003   1.2043618460486887E-002   0.0000000000000000     
   4.6282738290259230E-003   1.5217427024804388E-002   0.0000000000000000     
   5.3140956199239451E-003   1.8699422406625893E-002   0.0000000000000000     
   1.7238374944001801E-003   6.5574587857638849E-003   0.0000000000000000     
   2.1661117841430431E-003   9.0950057903119424E-003   0.0000000000000000     
   2.6132043943886104E-003   1.1944078505531119E-002   0.0000000000000000     
   3.0651153251368807E-003   1.5104676931421408E-002   0.0000000000000000     
   3.5218445763878555E-003   1.8576801067982811E-002   0.0000000000000000     
   8.5795823817358982E-004   6.5195969865892772E-003   0.0000000000000000     
   1.0760968164461810E-003   9.0452112362787371E-003   0.0000000000000000     
   1.2975631978468258E-003   1.1884354532543403E-002   0.0000000000000000     
   1.5223573823755243E-003   1.5037026875383282E-002   0.0000000000000000     
   1.7504793700322766E-003   1.8503228264798367E-002   0.0000000000000000     
   4.0205035481410967E-013   6.5069763868400706E-003   0.0000000000000000     
   5.1427403459890220E-013   9.0286130515737743E-003   0.0000000000000000     
   6.2754150292020083E-013   1.1864446541523757E-002   0.0000000000000000     
   7.4185267168657906E-013   1.5014476856690015E-002   0.0000000000000000     
   8.5720764254199056E-013   1.8478703997072552E-002   0.0000000000000000     
   7.1272325006405436E-003   1.8871092280727596E-002   0.0000000000000000     
   8.0383197547572935E-003   2.2644507656489975E-002   0.0000000000000000     
   8.9384948059168384E-003   2.6669611166312501E-002   0.0000000000000000     
   9.8277576541191784E-003   3.0946402810195176E-002   0.0000000000000000     
   1.0706108299364312E-002   3.5474882588137996E-002   0.0000000000000000     
   5.3140956199239451E-003   1.8699422406625893E-002   0.0000000000000000     
   5.9974619517478740E-003   2.2462226896336888E-002   0.0000000000000000     
   6.6714458132986236E-003   2.6478462784322879E-002   0.0000000000000000     
   7.3360472045761972E-003   3.0748130070583864E-002   0.0000000000000000     
   7.9912661255805914E-003   3.5271228755119843E-002   0.0000000000000000     
   3.5218445763878555E-003   1.8576801067982811E-002   0.0000000000000000     
   3.9774560584458531E-003   2.2332026353381104E-002   0.0000000000000000     
   4.4260136816151969E-003   2.6341928225782050E-002   0.0000000000000000     
   4.8675174458958827E-003   3.0606506685185653E-002   0.0000000000000000     
   5.3019673512879140E-003   3.5125761731591910E-002   0.0000000000000000     
   1.7504793700322766E-003   1.8503228264798367E-002   0.0000000000000000     
   1.9783020748512362E-003   2.2253906027622620E-002   0.0000000000000000     
   2.2021984108665559E-003   2.6260007490690011E-002   0.0000000000000000     
   2.4221683780782373E-003   3.0521532654000538E-002   0.0000000000000000     
   2.6382119764862782E-003   3.5038481517554204E-002   0.0000000000000000     
   8.5720764254199056E-013   1.8478703997072552E-002   0.0000000000000000     
   9.6402015059907087E-013   2.2227865919061448E-002   0.0000000000000000     
   1.0527042291260530E-012   2.6232700579046773E-002   0.0000000000000000     
   1.1232589497748267E-012   3.0493207977028539E-002   0.0000000000000000     
   1.1756854170763553E-012   3.5009388113006731E-002   0.0000000000000000     
   1.0706108299364312E-002   3.5474882588137996E-002   0.0000000000000000     
   1.1567910810018386E-002   4.0234850818870765E-002   0.0000000000000000     
   1.2407529254447549E-002   4.5206107821123262E-002   0.0000000000000000     
   1.3224963632651798E-002   5.0388653594895486E-002   0.0000000000000000     
   1.4020213944631137E-002   5.5782488140187450E-002   0.0000000000000000     
   7.9912661255805914E-003   3.5271228755119843E-002   0.0000000000000000     
   8.6341413915803893E-003   4.0027939157914041E-002   0.0000000000000000     
   9.2617118178441680E-003   4.4998441598949675E-002   0.0000000000000000     
   9.8739774043719308E-003   5.0182736078226750E-002   0.0000000000000000     
   1.0470938151163674E-002   5.5580822595745261E-002   0.0000000000000000     
   5.3019673512879140E-003   3.5125761731591910E-002   0.0000000000000000     
   5.7282331172948935E-003   3.9880145114438242E-002   0.0000000000000000     
   6.1451844634204250E-003   4.4850108583162053E-002   0.0000000000000000     
   6.5528213896645093E-003   5.0035652137763349E-002   0.0000000000000000     
   6.9511438960271482E-003   5.5436775778242131E-002   0.0000000000000000     
   2.6382119764862782E-003   3.5038481517554204E-002   0.0000000000000000     
   2.8501859871618998E-003   3.9791468688443382E-002   0.0000000000000000     
   3.0579471911763197E-003   4.4761108773760397E-002   0.0000000000000000     
   3.2614955885295390E-003   4.9947401773505311E-002   0.0000000000000000     
   3.4608311792215574E-003   5.5350347687678075E-002   0.0000000000000000     
   1.1756854170763553E-012   3.5009388113006731E-002   0.0000000000000000     
   1.1814084866640373E-012   3.9761909879929433E-002   0.0000000000000000     
   1.1118522010196419E-012   4.4731442170744727E-002   0.0000000000000000     
   9.6701646527547896E-013   4.9917984985452614E-002   0.0000000000000000     
   7.4690253981657406E-013   5.5321538324053093E-002   0.0000000000000000     
   1.4020213944631137E-002   5.5782488140187450E-002   0.0000000000000000     
   1.4792152068420078E-002   6.1374390647958105E-002   0.0000000000000000     
   1.5539649882053133E-002   6.7151140309166427E-002   0.0000000000000000     
   1.6262707385530303E-002   7.3112737123812402E-002   0.0000000000000000     
   1.6961324578851592E-002   7.9259181091896030E-002   0.0000000000000000     
   1.0470938151163674E-002   5.5580822595745261E-002   0.0000000000000000     
   1.1050851545848084E-002   6.1178288202205840E-002   0.0000000000000000     
   1.1611975076053840E-002   6.6960719948309114E-002   0.0000000000000000     
   1.2154308741780945E-002   7.2928117834055076E-002   0.0000000000000000     
   1.2677852543029396E-002   7.9080481859443746E-002   0.0000000000000000     
   6.9511438960271482E-003   5.5436775778242131E-002   0.0000000000000000     
   7.3383926937218022E-003   6.1038215026535558E-002   0.0000000000000000     
   7.7128084939619371E-003   6.6824705404580770E-002   0.0000000000000000     
   8.0743912967475504E-003   7.2796246912377793E-002   0.0000000000000000     
   8.4231411020786445E-003   7.8952839549926615E-002   0.0000000000000000     
   3.4608311792215574E-003   5.5350347687678075E-002   0.0000000000000000     
   3.6547755120412322E-003   6.0954171120947268E-002   0.0000000000000000     
   3.8421501357774200E-003   6.6743096677981423E-002   0.0000000000000000     
   4.0229550504301227E-003   7.2717124358780555E-002   0.0000000000000000     
   4.1971902559993397E-003   7.8876254163344636E-002   0.0000000000000000     
   7.4690253981657406E-013   5.5321538324053093E-002   0.0000000000000000     
   8.0637308896153170E-013   6.0926156485440960E-002   0.0000000000000000     
   1.5002926743827583E-012   6.6715893768511031E-002   0.0000000000000000     
   2.8286622583096818E-012   7.2690750173263319E-002   0.0000000000000000     
   4.7914799298359734E-012   7.8850725699697796E-002   0.0000000000000000     
   1.6961324578851592E-002   7.9259181091896030E-002   0.0000000000000000     
   1.7634958297076373E-002   8.5577554067110762E-002   0.0000000000000000     
   1.8283065375264026E-002   9.2054937903150003E-002   0.0000000000000000     
   1.8905645813414546E-002   9.8691332600013781E-002   0.0000000000000000     
   1.9502699611527941E-002  0.10548673815770213        0.0000000000000000     
   1.2677852543029396E-002   7.9080481859443746E-002   0.0000000000000000     
   1.3182519470379083E-002   8.5405053429561978E-002   0.0000000000000000     
   1.3668222514409890E-002   9.1889073949496691E-002   0.0000000000000000     
   1.4134961675121826E-002   9.8532543419247859E-002   0.0000000000000000     
   1.4582736952514882E-002  0.10533546183881549        0.0000000000000000     
   8.4231411020786445E-003   7.8952839549926615E-002   0.0000000000000000     
   8.7592134797677655E-003   8.5281838687711220E-002   0.0000000000000000     
   9.0827639996274596E-003   9.1770599696215593E-002   0.0000000000000000     
   9.3937926616577266E-003   9.8419122575439735E-002   0.0000000000000000     
   9.6922994658585684E-003  0.10522740732538366        0.0000000000000000     
   4.1971902559993397E-003   7.8876254163344636E-002   0.0000000000000000     
   4.3650403252424239E-003   8.5207909841558432E-002   0.0000000000000000     
   4.5266898309167273E-003   9.1699515143306709E-002   0.0000000000000000     
   4.6821387730222527E-003   9.8351070068589452E-002   0.0000000000000000     
   4.8313871515589975E-003  0.10516257461740666        0.0000000000000000     
   4.7914799298359734E-012   7.8850725699697796E-002   0.0000000000000000     
   6.8030542137165195E-012   8.5183266891103657E-002   0.0000000000000000     
   8.2776936889163155E-012   9.1675820290770038E-002   0.0000000000000000     
   9.2153995074001696E-012   9.8328385898696982E-002   0.0000000000000000     
   9.6161685385343088E-012  0.10514096371488446        0.0000000000000000     
   1.9502699611527941E-002  0.10548673815770213        0.0000000000000000     
   2.0073802650752846E-002  0.11242940430778055        0.0000000000000000     
   2.0618530812237898E-002  0.11950758078181467        0.0000000000000000     
   2.1136884095983108E-002  0.12672126757980448        0.0000000000000000     
   2.1628862501988460E-002  0.13407046470175002        0.0000000000000000     
   1.4582736952514882E-002  0.10533546183881549        0.0000000000000000     
   1.5011051979729956E-002  0.11228591400524279        0.0000000000000000     
   1.5419410389907934E-002  0.11937198471557300        0.0000000000000000     
   1.5807812183048817E-002  0.12659367396980614        0.0000000000000000     
   1.6176257359152610E-002  0.13395098176794221        0.0000000000000000     
   9.6922994658585684E-003  0.10522740732538366        0.0000000000000000     
   9.9778346490511198E-003  0.11218342093252194        0.0000000000000000     
   1.0249948448056516E-002  0.11927513038332922        0.0000000000000000     
   1.0508640862874757E-002  0.12650253567780548        0.0000000000000000     
   1.0753911893505844E-002  0.13386563681595071        0.0000000000000000     
   4.8313871515589975E-003  0.10516257461740666        0.0000000000000000     
   4.9741506587163359E-003  0.11212192508961805        0.0000000000000000     
   5.1101449866836441E-003  0.11921701778508330        0.0000000000000000     
   5.2393701354609169E-003  0.12644785270380249        0.0000000000000000     
   5.3618261050481621E-003  0.13381442984577552        0.0000000000000000     
   9.6161685385343088E-012  0.10514096371488446        0.0000000000000000     
   8.7256068256186259E-012  0.11210142647653104        0.0000000000000000     
   5.7893186772295380E-012  0.11919764692083525        0.0000000000000000     
   8.0730192496270003E-013  0.12642962504779712        0.0000000000000000     
  -6.2204408290966740E-012  0.13379736085741664        0.0000000000000000     
   2.1628862501988460E-002  0.13407046470175002        0.0000000000000000     
   2.2093721992696727E-002  0.14154333541153086        0.0000000000000000     
   2.2530718530550685E-002  0.14912804297302665        0.0000000000000000     
   2.2939852115550323E-002  0.15682458738623731        0.0000000000000000     
   2.3321122747695648E-002  0.16463296865116289        0.0000000000000000     
   1.6176257359152610E-002  0.13395098176794221        0.0000000000000000     
   1.6524197595670760E-002  0.14143214979574706        0.0000000000000000     
   1.6851084570054721E-002  0.14902541973898656        0.0000000000000000     
   1.7156918282304492E-002  0.15673079159766076        0.0000000000000000     
   1.7441698732420075E-002  0.16454826537176961        0.0000000000000000     
   1.0753911893505844E-002  0.13386563681595071        0.0000000000000000     
   1.0985402462365370E-002  0.14135273149905975        0.0000000000000000     
   1.1202753491868923E-002  0.14895211742842762        0.0000000000000000     
   1.1405964982016502E-002  0.15666379460405416        0.0000000000000000     
   1.1595036932808112E-002  0.16448776302593954        0.0000000000000000     
   5.3618261050481621E-003  0.13381442984577552        0.0000000000000000     
   5.4773365927805566E-003  0.14130508052146909        0.0000000000000000     
   5.5857252959932878E-003  0.14890813604134975        0.0000000000000000     
   5.6869922146863556E-003  0.15662359640541765        0.0000000000000000     
   5.7811373488597601E-003  0.16445146161367269        0.0000000000000000     
  -6.2204408290966740E-012  0.13379736085741664        0.0000000000000000     
  -1.3083679755929167E-011  0.14128919686297492        0.0000000000000000     
  -1.7572182099169498E-011  0.14889347557775309        0.0000000000000000     
  -1.9685950379587716E-011  0.15661019700175111        0.0000000000000000     
  -1.9424980721161056E-011  0.16443936113496901        0.0000000000000000     
   0.0000000000000000        0.0000000000000000        0.0000000000000000     
   9.2120565732892179E-014   1.0733984801483579E-003   0.0000000000000000     
   1.8983588572635268E-013   2.5156940380044891E-003   0.0000000000000000     
   2.9314577024500132E-013   4.3268866735683923E-003   0.0000000000000000     
   4.0205035481410967E-013   6.5069763868400706E-003   0.0000000000000000     
   0.0000000000000000        0.0000000000000000        0.0000000000000000     
  -2.1300072148850013E-004   1.0756863868101431E-003   0.0000000000000000     
  -4.2699400154746223E-004   2.5208480134997721E-003   0.0000000000000000     
  -6.4197984017688628E-004   4.3354848800688864E-003   0.0000000000000000     
  -8.5795823737677267E-004   6.5195969865174865E-003   0.0000000000000000     
   0.0000000000000000        0.0000000000000000        0.0000000000000000     
  -4.2428005651007914E-004   1.0825501068137688E-003   0.0000000000000000     
  -8.5301299095097438E-004   2.5363099400221500E-003   0.0000000000000000     
  -1.2861988033226860E-003   4.3612794996251434E-003   0.0000000000000000     
  -1.7238374936252134E-003   6.5574587856227495E-003   0.0000000000000000     
   0.0000000000000000        0.0000000000000000        0.0000000000000000     
  -6.3383800497261657E-004   1.0939896401592349E-003   0.0000000000000000     
  -1.2780569680207008E-003   2.5620798175716229E-003   0.0000000000000000     
  -1.9326568891442520E-003   4.4042705322371650E-003   0.0000000000000000     
  -2.5976377683432717E-003   6.6205617841558588E-003   0.0000000000000000     
   0.0000000000000000        0.0000000000000000        0.0000000000000000     
  -8.4167456687611218E-004   1.1100049868465406E-003   0.0000000000000000     
  -1.7021259327566407E-003   2.5981576461481903E-003   0.0000000000000000     
  -2.5813540976415859E-003   4.4644579779049487E-003   0.0000000000000000     
  -3.4793590615309474E-003   6.7089059821168143E-003   0.0000000000000000     
   4.0205035481410967E-013   6.5069763868400706E-003   0.0000000000000000     
   5.1427403459890220E-013   9.0286130515737743E-003   0.0000000000000000     
   6.2754150292020083E-013   1.1864446541523757E-002   0.0000000000000000     
   7.4185267168657906E-013   1.5014476856690015E-002   0.0000000000000000     
   8.5720764254199056E-013   1.8478703997072552E-002   0.0000000000000000     
  -8.5795823737677267E-004   6.5195969865174865E-003   0.0000000000000000     
  -1.0760968154257336E-003   9.0452112362014274E-003   0.0000000000000000     
  -1.2975631966023818E-003   1.1884354532476554E-002   0.0000000000000000     
  -1.5223573809067174E-003   1.5037026875342877E-002   0.0000000000000000     
  -1.7504793683387413E-003   1.8503228264800390E-002   0.0000000000000000     
  -1.7238374936252134E-003   6.5574587856227495E-003   0.0000000000000000     
  -2.1661117831468994E-003   9.0950057901660677E-003   0.0000000000000000     
  -2.6132043931760855E-003   1.1944078505406196E-002   0.0000000000000000     
  -3.0651153237127729E-003   1.5104676931343141E-002   0.0000000000000000     
  -3.5218445747569613E-003   1.8576801067976899E-002   0.0000000000000000     
  -2.5976377683432717E-003   6.6205617841558588E-003   0.0000000000000000     
  -3.2700449026492225E-003   9.1779967134677023E-003   0.0000000000000000     
  -3.9469235890935688E-003   1.2043618460312685E-002   0.0000000000000000     
  -4.6282738276763125E-003   1.5217427024690809E-002   0.0000000000000000     
  -5.3140956183974509E-003   1.8699422406602075E-002   0.0000000000000000     
  -3.4793590615309474E-003   6.7089059821168143E-003   0.0000000000000000     
  -4.3878961739327038E-003   9.2941840061063243E-003   0.0000000000000000     
  -5.2987207843548335E-003   1.2182974397196011E-002   0.0000000000000000     
  -6.2118328927973365E-003   1.5375277155385876E-002   0.0000000000000000     
  -7.1272324992602120E-003   1.8871092280675916E-002   0.0000000000000000     
   8.5720764254199056E-013   1.8478703997072552E-002   0.0000000000000000     
   9.6402015059907087E-013   2.2227865919061448E-002   0.0000000000000000     
   1.0527042291260530E-012   2.6232700579046773E-002   0.0000000000000000     
   1.1232589497748267E-012   3.0493207977028539E-002   0.0000000000000000     
   1.1756854170763553E-012   3.5009388113006731E-002   0.0000000000000000     
  -1.7504793683387413E-003   1.8503228264800390E-002   0.0000000000000000     
  -1.9783020729472523E-003   2.2253906027685556E-002   0.0000000000000000     
  -2.2021984087810505E-003   2.6260007490834830E-002   0.0000000000000000     
  -2.4221683758401356E-003   3.0521532654248222E-002   0.0000000000000000     
  -2.6382119741245090E-003   3.5038481517925713E-002   0.0000000000000000     
  -3.5218445747569613E-003   1.8576801067976899E-002   0.0000000000000000     
  -3.9774560566140389E-003   2.2332026353482928E-002   0.0000000000000000     
  -4.4260136795893973E-003   2.6341928226036690E-002   0.0000000000000000     
  -4.8675174436830330E-003   3.0606506685638194E-002   0.0000000000000000     
  -5.3019673488949480E-003   3.5125761732287417E-002   0.0000000000000000     
  -5.3140956183974509E-003   1.8699422406602075E-002   0.0000000000000000     
  -5.9974619500363412E-003   2.2462226896453559E-002   0.0000000000000000     
  -6.6714458113723337E-003   2.6478462784652351E-002   0.0000000000000000     
  -7.3360472024054301E-003   3.0748130071198438E-002   0.0000000000000000     
  -7.9912661231356322E-003   3.5271228756091830E-002   0.0000000000000000     
  -7.1272324992602120E-003   1.8871092280675916E-002   0.0000000000000000     
  -8.0383197532141563E-003   2.2644507656597455E-002   0.0000000000000000     
  -8.9384948041298633E-003   2.6669611166681810E-002   0.0000000000000000     
  -9.8277576520073295E-003   3.0946402810928975E-002   0.0000000000000000     
  -1.0706108296846560E-002   3.5474882589338959E-002   0.0000000000000000     
   1.1756854170763553E-012   3.5009388113006731E-002   0.0000000000000000     
   1.1814084866640373E-012   3.9761909879929433E-002   0.0000000000000000     
   1.1118522010196419E-012   4.4731442170744727E-002   0.0000000000000000     
   9.6701646527547896E-013   4.9917984985452614E-002   0.0000000000000000     
   7.4690253981657406E-013   5.5321538324053093E-002   0.0000000000000000     
  -2.6382119741245090E-003   3.5038481517925713E-002   0.0000000000000000     
  -2.8501859847751445E-003   3.9791468688889324E-002   0.0000000000000000     
  -3.0579471889330204E-003   4.4761108774161014E-002   0.0000000000000000     
  -3.2614955865981374E-003   4.9947401773740810E-002   0.0000000000000000     
  -3.4608311777704929E-003   5.5350347687628705E-002   0.0000000000000000     
  -5.3019673488949480E-003   3.5125761732287417E-002   0.0000000000000000     
  -5.7282331148363229E-003   3.9880145115315936E-002   0.0000000000000000     
  -6.1451844611183411E-003   4.4850108584055276E-002   0.0000000000000000     
  -6.5528213877410028E-003   5.0035652138505450E-002   0.0000000000000000     
  -6.9511438947043045E-003   5.5436775778666438E-002   0.0000000000000000     
  -7.9912661231356322E-003   3.5271228756091830E-002   0.0000000000000000     
  -8.6341413890021288E-003   4.0027939159209262E-002   0.0000000000000000     
  -9.2617118154441104E-003   4.4998441600427500E-002   0.0000000000000000     
  -9.8739774024615770E-003   5.0182736079746514E-002   0.0000000000000000     
  -1.0470938150054532E-002   5.5580822597166318E-002   0.0000000000000000     
  -1.0706108296846560E-002   3.5474882589338959E-002   0.0000000000000000     
  -1.1567910807272559E-002   4.0234850820569337E-002   0.0000000000000000     
  -1.2407529251910325E-002   4.5206107823277684E-002   0.0000000000000000     
  -1.3224963630759867E-002   5.0388653597464021E-002   0.0000000000000000     
  -1.4020213943821174E-002   5.5782488143128320E-002   0.0000000000000000     
   7.4690253981657406E-013   5.5321538324053093E-002   0.0000000000000000     
   8.0637308896153170E-013   6.0926156485440960E-002   0.0000000000000000     
   1.5002926743827583E-012   6.6715893768511031E-002   0.0000000000000000     
   2.8286622583096818E-012   7.2690750173263319E-002   0.0000000000000000     
   4.7914799298359734E-012   7.8850725699697796E-002   0.0000000000000000     
  -3.4608311777704929E-003   5.5350347687628705E-002   0.0000000000000000     
  -3.6547755105298500E-003   6.0954171120394834E-002   0.0000000000000000     
  -3.8421501329559695E-003   6.6743096676609381E-002   0.0000000000000000     
  -4.0229550450488500E-003   7.2717124356272311E-002   0.0000000000000000     
  -4.1971902468084946E-003   7.8876254159383652E-002   0.0000000000000000     
  -6.9511438947043045E-003   5.5436775778666438E-002   0.0000000000000000     
  -7.3383926925145110E-003   6.1038215026187080E-002   0.0000000000000000     
  -7.7128084916778849E-003   6.6824705402716178E-002   0.0000000000000000     
  -8.0743912921944303E-003   7.2796246908253703E-002   0.0000000000000000     
  -8.4231410940641405E-003   7.8952839542799691E-002   0.0000000000000000     
  -1.0470938150054532E-002   5.5580822597166318E-002   0.0000000000000000     
  -1.1050851545147613E-002   6.1178288202817691E-002   0.0000000000000000     
  -1.1611975074665460E-002   6.6960719946831435E-002   0.0000000000000000     
  -1.2154308738608075E-002   7.2928117829207537E-002   0.0000000000000000     
  -1.2677852536975462E-002   7.9080481849945983E-002   0.0000000000000000     
  -1.4020213943821174E-002   5.5782488143128320E-002   0.0000000000000000     
  -1.4792152068429151E-002   6.1374390650286686E-002   0.0000000000000000     
  -1.5539649881918690E-002   6.7151140308955151E-002   0.0000000000000000     
  -1.6262707384289792E-002   7.3112737119133742E-002   0.0000000000000000     
  -1.6961324575542457E-002   7.9259181080822444E-002   0.0000000000000000     
   4.7914799298359734E-012   7.8850725699697796E-002   0.0000000000000000     
   6.8030542137165195E-012   8.5183266891103657E-002   0.0000000000000000     
   8.2776936889163155E-012   9.1675820290770038E-002   0.0000000000000000     
   9.2153995074001696E-012   9.8328385898696982E-002   0.0000000000000000     
   9.6161685385343088E-012  0.10514096371488446        0.0000000000000000     
  -4.1971902468084946E-003   7.8876254159383652E-002   0.0000000000000000     
  -4.3650403121369679E-003   8.5207909836653759E-002   0.0000000000000000     
  -4.5266898149363384E-003   9.1699515138793028E-002   0.0000000000000000     
  -4.6821387552066053E-003   9.8351070065801433E-002   0.0000000000000000     
  -4.8313871329477695E-003  0.10516257461767901        0.0000000000000000     
  -8.4231410940641405E-003   7.8952839542799691E-002   0.0000000000000000     
  -8.7592134681642730E-003   8.5281838678515631E-002   0.0000000000000000     
  -9.0827639853720676E-003   9.1770599687563029E-002   0.0000000000000000     
  -9.3937926456875345E-003   9.8419122569941869E-002   0.0000000000000000     
  -9.6922994491106668E-003  0.10522740732565215        0.0000000000000000     
  -1.2677852536975462E-002   7.9080481849945983E-002   0.0000000000000000     
  -1.3182519461278857E-002   8.5405053416689317E-002   0.0000000000000000     
  -1.3668222503029499E-002   9.1889073937080096E-002   0.0000000000000000     
  -1.4134961662227387E-002   9.8532543411118306E-002   0.0000000000000000     
  -1.4582736938872526E-002  0.10533546183880396        0.0000000000000000     
  -1.6961324575542457E-002   7.9259181080822444E-002   0.0000000000000000     
  -1.7634958291480721E-002   8.5577554051174759E-002   0.0000000000000000     
  -1.8283065367908625E-002   9.2054937887344201E-002   0.0000000000000000     
  -1.8905645804826166E-002   9.8691332589330744E-002   0.0000000000000000     
  -1.9502699602233345E-002  0.10548673815713440        0.0000000000000000     
   9.6161685385343088E-012  0.10514096371488446        0.0000000000000000     
   8.7256068256186259E-012  0.11210142647653104        0.0000000000000000     
   5.7893186772295380E-012  0.11919764692083525        0.0000000000000000     
   8.0730192496270003E-013  0.12642962504779712        0.0000000000000000     
  -6.2204408290966740E-012  0.13379736085741664        0.0000000000000000     
  -4.8313871329477695E-003  0.10516257461767901        0.0000000000000000     
  -4.9741506418259319E-003  0.11212192509293115        0.0000000000000000     
  -5.1101449755071963E-003  0.11921701779006331        0.0000000000000000     
  -5.2393701339915610E-003  0.12644785270907552        0.0000000000000000     
  -5.3618261172790243E-003  0.13381442984996772        0.0000000000000000     
  -9.6922994491106668E-003  0.10522740732565215        0.0000000000000000     
  -9.9778346338431443E-003  0.11218342093848854        0.0000000000000000     
  -1.0249948438086631E-002  0.11927513039224573        0.0000000000000000     
  -1.0508640861841136E-002  0.12650253568692366        0.0000000000000000     
  -1.0753911905106654E-002  0.13386563682252237        0.0000000000000000     
  -1.4582736938872526E-002  0.10533546183880396        0.0000000000000000     
  -1.5011051967326022E-002  0.11228591401320329        0.0000000000000000     
  -1.5419410381948990E-002  0.11937198472738247        0.0000000000000000     
  -1.5807812182741424E-002  0.12659367398134155        0.0000000000000000     
  -1.6176257369703330E-002  0.13395098177508055        0.0000000000000000     
  -1.9502699602233345E-002  0.10548673815713440        0.0000000000000000     
  -2.0073802642274579E-002  0.11242940431707529        0.0000000000000000     
  -2.0618530807094273E-002  0.11950758079547355        0.0000000000000000     
  -2.1136884096692433E-002  0.12672126759232924        0.0000000000000000     
  -2.1628862511069054E-002  0.13407046470764228        0.0000000000000000     
  -6.2204408290966740E-012  0.13379736085741664        0.0000000000000000     
  -1.3083679755929167E-011  0.14128919686297492        0.0000000000000000     
  -1.7572182099169498E-011  0.14889347557775309        0.0000000000000000     
  -1.9685950379587716E-011  0.15661019700175111        0.0000000000000000     
  -1.9424980721161056E-011  0.16443936113496901        0.0000000000000000     
  -5.3618261172790243E-003  0.13381442984996772        0.0000000000000000     
  -5.4773366183650434E-003  0.14130508052264479        0.0000000000000000     
  -5.5857253302450680E-003  0.14890813603701158        0.0000000000000000     
  -5.6869922529190989E-003  0.15662359639306805        0.0000000000000000     
  -5.7811373863871363E-003  0.16445146159081425        0.0000000000000000     
  -1.0753911905106654E-002  0.13386563682252237        0.0000000000000000     
  -1.0985402486201241E-002  0.14135273149954614        0.0000000000000000     
  -1.1202753523442953E-002  0.14895211741849937        0.0000000000000000     
  -1.1405965016831781E-002  0.15666379457938201        0.0000000000000000     
  -1.1595036966367730E-002  0.16448776298219406        0.0000000000000000     
  -1.6176257369703330E-002  0.13395098177508055        0.0000000000000000     
  -1.6524197616592278E-002  0.14143214979367899        0.0000000000000000     
  -1.6851084597165833E-002  0.14902541972221642        0.0000000000000000     
  -1.7156918311423994E-002  0.15673079156069294        0.0000000000000000     
  -1.7441698759366766E-002  0.16454826530910849        0.0000000000000000     
  -2.1628862511069054E-002  0.13407046470764228        0.0000000000000000     
  -2.2093722009538144E-002  0.14154333540504330        0.0000000000000000     
  -2.2530718551413711E-002  0.14912804294816284        0.0000000000000000     
  -2.2939852136695738E-002  0.15682458733700091        0.0000000000000000     
  -2.3321122765384242E-002  0.16463296857155751        0.0000000000000000     
   0.0000000000000000        0.0000000000000000        0.0000000000000000     
  -8.4167456687611218E-004   1.1100049868465406E-003   0.0000000000000000     
  -1.7021259327566407E-003   2.5981576461481903E-003   0.0000000000000000     
  -2.5813540976415859E-003   4.4644579779049487E-003   0.0000000000000000     
  -3.4793590615309474E-003   6.7089059821168143E-003   0.0000000000000000     
   0.0000000000000000        0.0000000000000000        0.0000000000000000     
  -1.0566987875777051E-003   1.1341598637838524E-003   0.0000000000000000     
  -2.1397648294394218E-003   2.6503945301222490E-003   0.0000000000000000     
  -3.2491981255851495E-003   4.5487039990151894E-003   0.0000000000000000     
  -4.3849986760148892E-003   6.8290882704626736E-003   0.0000000000000000     
   0.0000000000000000        0.0000000000000000        0.0000000000000000     
  -1.2878197124345341E-003   1.1700179878793354E-003   0.0000000000000000     
  -2.6055186023496695E-003   2.7246415738641956E-003   0.0000000000000000     
  -3.9530966697454064E-003   4.6638707579545807E-003   0.0000000000000000     
  -5.3305539146217447E-003   6.9877055401504889E-003   0.0000000000000000     
   0.0000000000000000        0.0000000000000000        0.0000000000000000     
  -1.5350373414465984E-003   1.2175793591329895E-003   0.0000000000000000     
  -3.0993872514873829E-003   2.8208987773740298E-003   0.0000000000000000     
  -4.6930497301223553E-003   4.8099582547231207E-003   0.0000000000000000     
  -6.3160247773515130E-003   7.1847577911802645E-003   0.0000000000000000     
   0.0000000000000000        0.0000000000000000        0.0000000000000000     
  -1.7983516746138987E-003   1.2768439775448148E-003   0.0000000000000000     
  -3.6213707768525645E-003   2.9391661406517524E-003   0.0000000000000000     
  -5.4690573067159975E-003   4.9869664893208120E-003   0.0000000000000000     
  -7.3414112642041958E-003   7.4202450235519943E-003   0.0000000000000000     
  -3.4793590615309474E-003   6.7089059821168143E-003   0.0000000000000000     
  -4.3878961739327038E-003   9.2941840061063243E-003   0.0000000000000000     
  -5.2987207843548335E-003   1.2182974397196011E-002   0.0000000000000000     
  -6.2118328927973365E-003   1.5375277155385876E-002   0.0000000000000000     
  -7.1272324992602120E-003   1.8871092280675916E-002   0.0000000000000000     
  -4.3849986760148892E-003   6.8290882704626736E-003   0.0000000000000000     
  -5.5341852357133660E-003   9.4495488799077564E-003   0.0000000000000000     
  -6.6837765596653061E-003   1.2368087362793491E-002   0.0000000000000000     
  -7.8337726478707112E-003   1.5584703719119875E-002   0.0000000000000000     
  -8.9841735003295779E-003   1.9099397948886914E-002   0.0000000000000000     
  -5.3305539146217447E-003   6.9877055401504889E-003   0.0000000000000000     
  -6.7234317267072319E-003   9.6500725466978094E-003   0.0000000000000000     
  -8.1172714957304173E-003   1.2604898403842425E-002   0.0000000000000000     
  -9.5120732216913018E-003   1.5852183111584334E-002   0.0000000000000000     
  -1.0907836904589885E-002   1.9391926669923544E-002   0.0000000000000000     
  -6.3160247773515130E-003   7.1847577911802645E-003   0.0000000000000000     
  -7.9556356469143007E-003   9.8957550064764851E-003   0.0000000000000000     
  -9.5992055925501699E-003   1.2893407520342817E-002   0.0000000000000000     
  -1.1246734614259110E-002   1.6177715332779251E-002   0.0000000000000000     
  -1.2898222712041130E-002   1.9748678443785805E-002   0.0000000000000000     
  -7.3414112642041958E-003   7.4202450235519943E-003   0.0000000000000000     
  -9.2307969963345768E-003   1.0186596259243784E-002   0.0000000000000000     
  -1.1129578850124559E-002   1.3233614712294667E-002   0.0000000000000000     
  -1.3037756825574138E-002   1.6561300382704636E-002   0.0000000000000000     
  -1.4955330922683318E-002   2.0169653270473698E-002   0.0000000000000000     
  -7.1272324992602120E-003   1.8871092280675916E-002   0.0000000000000000     
  -8.0383197532141563E-003   2.2644507656597455E-002   0.0000000000000000     
  -8.9384948041298633E-003   2.6669611166681810E-002   0.0000000000000000     
  -9.8277576520073295E-003   3.0946402810928975E-002   0.0000000000000000     
  -1.0706108296846560E-002   3.5474882589338959E-002   0.0000000000000000     
  -8.9841735003295779E-003   1.9099397948886914E-002   0.0000000000000000     
  -1.0127942688737393E-002   2.2887345766306442E-002   0.0000000000000000     
  -1.1258043784789635E-002   2.6923722885590289E-002   0.0000000000000000     
  -1.2374476788486306E-002   3.1208529306738470E-002   0.0000000000000000     
  -1.3477241699827409E-002   3.5741765029750967E-002   0.0000000000000000     
  -1.0907836904589885E-002   1.9391926669923544E-002   0.0000000000000000     
  -1.2294243979195955E-002   2.3199218357972340E-002   0.0000000000000000     
  -1.3660975880279303E-002   2.7249147454843022E-002   0.0000000000000000     
  -1.5008032607839937E-002   3.1541713960535595E-002   0.0000000000000000     
  -1.6335414161877844E-002   3.6076917875050039E-002   0.0000000000000000     
  -1.2898222712041130E-002   1.9748678443785805E-002   0.0000000000000000     
  -1.4537223624589844E-002   2.3580125431595156E-002   0.0000000000000000     
  -1.6147291090598877E-002   2.7645884874440002E-002   0.0000000000000000     
  -1.7728425110068214E-002   3.1945956772320337E-002   0.0000000000000000     
  -1.9280625682997873E-002   3.6480341125236175E-002   0.0000000000000000     
  -1.4955330922683318E-002   2.0169653270473698E-002   0.0000000000000000     
  -1.6856881624919065E-002   2.4030066987174886E-002   0.0000000000000000     
  -1.8716989415748338E-002   2.8113935144381225E-002   0.0000000000000000     
  -2.0535654295171152E-002   3.2421257742092729E-002   0.0000000000000000     
  -2.2312876263187491E-002   3.6952034780309381E-002   0.0000000000000000     
  -1.0706108296846560E-002   3.5474882589338959E-002   0.0000000000000000     
  -1.1567910807272559E-002   4.0234850820569337E-002   0.0000000000000000     
  -1.2407529251910325E-002   4.5206107823277684E-002   0.0000000000000000     
  -1.3224963630759867E-002   5.0388653597464021E-002   0.0000000000000000     
  -1.4020213943821174E-002   5.5782488143128320E-002   0.0000000000000000     
  -1.3477241699827409E-002   3.5741765029750967E-002   0.0000000000000000     
  -1.4558574169984627E-002   4.0503629679761649E-002   0.0000000000000000     
  -1.5610709850129655E-002   4.5474322881904325E-002   0.0000000000000000     
  -1.6633648740262491E-002   5.0653844636179016E-002   0.0000000000000000     
  -1.7627390840383138E-002   5.6042194942585728E-002   0.0000000000000000     
  -1.6335414161877844E-002   3.6076917875050039E-002   0.0000000000000000     
  -1.7635164277475347E-002   4.0837025317151700E-002   0.0000000000000000     
  -1.8899326689714762E-002   4.5804302405605887E-002   0.0000000000000000     
  -2.0127901398596083E-002   5.0978749140412574E-002   0.0000000000000000     
  -2.1320888404119324E-002   5.6360365521571809E-002   0.0000000000000000     
  -1.9280625682997873E-002   3.6480341125236175E-002   0.0000000000000000     
  -2.0797681129744724E-002   4.1235037732739517E-002   0.0000000000000000     
  -2.2273379770665649E-002   4.6196046394382358E-002   0.0000000000000000     
  -2.3707721605760661E-002   5.1363367110164704E-002   0.0000000000000000     
  -2.5100706635029734E-002   5.6736999880086562E-002   0.0000000000000000     
  -2.2312876263187491E-002   3.6952034780309381E-002   0.0000000000000000     
  -2.4046124726792753E-002   4.1697666926525094E-002   0.0000000000000000     
  -2.5732869092982318E-002   4.6649554848233764E-002   0.0000000000000000     
  -2.7373109361756194E-002   5.1807698545435384E-002   0.0000000000000000     
  -2.8966845533114374E-002   5.7172098018129974E-002   0.0000000000000000     
  -1.4020213943821174E-002   5.5782488143128320E-002   0.0000000000000000     
  -1.4792152068429151E-002   6.1374390650286686E-002   0.0000000000000000     
  -1.5539649881918690E-002   6.7151140308955151E-002   0.0000000000000000     
  -1.6262707384289792E-002   7.3112737119133742E-002   0.0000000000000000     
  -1.6961324575542457E-002   7.9259181080822444E-002   0.0000000000000000     
  -1.7627390840383138E-002   5.6042194942585728E-002   0.0000000000000000     
  -1.8591459139419966E-002   6.1627219155668891E-002   0.0000000000000000     
  -1.9525376626301352E-002   6.7396762629972920E-002   0.0000000000000000     
  -2.0429143301027290E-002   7.3350825365497821E-002   0.0000000000000000     
  -2.1302759163597786E-002   7.9489407362243608E-002   0.0000000000000000     
  -2.1320888404119324E-002   5.6360365521571809E-002   0.0000000000000000     
  -2.2477937635180894E-002   6.1937470506039184E-002   0.0000000000000000     
  -2.3598699020677214E-002   6.7698383050770319E-002   0.0000000000000000     
  -2.4683172560608289E-002   7.3643103155765208E-002   0.0000000000000000     
  -2.5731358254974114E-002   7.9771630821023856E-002   0.0000000000000000     
  -2.5100706635029734E-002   5.6736999880086562E-002   0.0000000000000000     
  -2.6451587555711930E-002   6.2305144701397551E-002   0.0000000000000000     
  -2.7759617065046281E-002   6.8056001571347335E-002   0.0000000000000000     
  -2.9024795163032777E-002   7.3989570489935902E-002   0.0000000000000000     
  -3.0247121849671429E-002   8.0105851457163216E-002   0.0000000000000000     
  -2.8966845533114374E-002   5.7172098018129974E-002   0.0000000000000000     
  -3.0512408901013088E-002   6.2730241741744006E-002   0.0000000000000000     
  -3.2008130759408553E-002   6.8469618191703982E-002   0.0000000000000000     
  -3.3454011108300770E-002   7.4390227368009862E-002   0.0000000000000000     
  -3.4850049947689754E-002   8.0492069270661687E-002   0.0000000000000000     
  -1.6961324575542457E-002   7.9259181080822444E-002   0.0000000000000000     
  -1.7634958291480721E-002   8.5577554051174759E-002   0.0000000000000000     
  -1.8283065367908625E-002   9.2054937887344201E-002   0.0000000000000000     
  -1.8905645804826166E-002   9.8691332589330744E-002   0.0000000000000000     
  -1.9502699602233345E-002  0.10548673815713440        0.0000000000000000     
  -2.1302759163597786E-002   7.9489407362243608E-002   0.0000000000000000     
  -2.2145285306824799E-002   8.5799548007504292E-002   0.0000000000000000     
  -2.2955782823520291E-002   9.2268286688573981E-002   0.0000000000000000     
  -2.3734251713684255E-002   9.8895623405452604E-002   0.0000000000000000     
  -2.4480691977316702E-002  0.10568155815814020        0.0000000000000000     
  -2.5731358254974114E-002   7.9771630821023856E-002   0.0000000000000000     
  -2.6742255855366014E-002   8.6071242711210139E-002   0.0000000000000000     
  -2.7714865113375318E-002   9.2529215490987957E-002   0.0000000000000000     
  -2.8649186029002040E-002   9.9145549160357296E-002   0.0000000000000000     
  -2.9545218602246164E-002  0.10592024371931816        0.0000000000000000     
  -3.0247121849671429E-002   8.0105851457163216E-002   0.0000000000000000     
  -3.1425869937104368E-002   8.6392638162292326E-002   0.0000000000000000     
  -3.2560312237473736E-002   9.2837724294586185E-002   0.0000000000000000     
  -3.3650448750779528E-002   9.9441109854044835E-002   0.0000000000000000     
  -3.4696279477021731E-002  0.10620279484066823        0.0000000000000000     
  -3.4850049947689754E-002   8.0492069270661687E-002   0.0000000000000000     
  -3.6196127552039874E-002   8.6763734360750841E-002   0.0000000000000000     
  -3.7492124195815518E-002   9.3193813099368680E-002   0.0000000000000000     
  -3.8738039879016695E-002   9.9782305486515205E-002   0.0000000000000000     
  -3.9933874601643396E-002  0.10652921152219046        0.0000000000000000     
  -1.9502699602233345E-002  0.10548673815713440        0.0000000000000000     
  -2.0073802642274579E-002  0.11242940431707529        0.0000000000000000     
  -2.0618530807094273E-002  0.11950758079547355        0.0000000000000000     
  -2.1136884096692433E-002  0.12672126759232924        0.0000000000000000     
  -2.1628862511069054E-002  0.13407046470764228        0.0000000000000000     
  -2.4480691977316702E-002  0.10568155815814020        0.0000000000000000     
  -2.5194783334482215E-002  0.11261445786927357        0.0000000000000000     
  -2.5876205505245380E-002  0.11968268946148944        0.0000000000000000     
  -2.6524958489606201E-002  0.12688625293478786        0.0000000000000000     
  -2.7141042287564681E-002  0.13422514828916884        0.0000000000000000     
  -2.9545218602246164E-002  0.10592024371931816        0.0000000000000000     
  -3.0402690719742338E-002  0.11284164068896708        0.0000000000000000     
  -3.1221330268125208E-002  0.11989808159040059        0.0000000000000000     
  -3.2001137247394791E-002  0.12708956642361874        0.0000000000000000     
  -3.2742111657551080E-002  0.13441609518862146        0.0000000000000000     
  -3.4696279477021731E-002  0.10620279484066823        0.0000000000000000     
  -3.5697524798054957E-002  0.11311095277615583        0.0000000000000000     
  -3.6653905095733769E-002  0.12015375718220701        0.0000000000000000     
  -3.7565420370058215E-002  0.12733120805882184        0.0000000000000000     
  -3.8432070621028235E-002  0.13464330540600022        0.0000000000000000     
  -3.9933874601643396E-002  0.10652921152219046        0.0000000000000000     
  -4.1079285569420053E-002  0.11342239413083981        0.0000000000000000     
  -4.2173929988071061E-002  0.12044971623690869        0.0000000000000000     
  -4.3217807857596442E-002  0.12761117784039711        0.0000000000000000     
  -4.4210919177996161E-002  0.13490677894130504        0.0000000000000000     
  -2.1628862511069054E-002  0.13407046470764228        0.0000000000000000     
  -2.2093722009538144E-002  0.14154333540504330        0.0000000000000000     
  -2.2530718551413711E-002  0.14912804294816284        0.0000000000000000     
  -2.2939852136695738E-002  0.15682458733700091        0.0000000000000000     
  -2.3321122765384242E-002  0.16463296857155751        0.0000000000000000     
  -2.7141042287564681E-002  0.13422514828916884        0.0000000000000000     
  -2.7723542364981795E-002  0.14168748623684405        0.0000000000000000     
  -2.8271544187718524E-002  0.14926137749002508        0.0000000000000000     
  -2.8785047755774857E-002  0.15694682204871202        0.0000000000000000     
  -2.9264053069150808E-002  0.16474381991290485        0.0000000000000000     
  -3.2742111657551080E-002  0.13441609518862146        0.0000000000000000     
  -3.3443225382866183E-002  0.14186580019228609        0.0000000000000000     
  -3.4103450307612214E-002  0.14942681374148975        0.0000000000000000     
  -3.4722786431789193E-002  0.15709913583623250        0.0000000000000000     
  -3.5301233755397114E-002  0.16488276647651434        0.0000000000000000     
  -3.8432070621028235E-002  0.13464330540600022        0.0000000000000000     
  -3.9252771063191298E-002  0.14207827727136946        0.0000000000000000     
  -4.0026436911094802E-002  0.14962435170255686        0.0000000000000000     
  -4.0753068164738754E-002  0.15728152869956236        0.0000000000000000     
  -4.1432664824123146E-002  0.16504980826238591        0.0000000000000000     
  -4.4210919177996161E-002  0.13490677894130504        0.0000000000000000     
  -4.5152179405957144E-002  0.14232491747409423        0.0000000000000000     
  -4.6040503998166275E-002  0.14985399137322639        0.0000000000000000     
  -4.6875892954623535E-002  0.15749400063870153        0.0000000000000000     
  -4.7658346275328931E-002  0.16524494527051964        0.0000000000000000     
   0.0000000000000000        0.0000000000000000        0.0000000000000000     
  -1.7983516746138987E-003   1.2768439775448148E-003   0.0000000000000000     
  -3.6213707768525645E-003   2.9391661406517524E-003   0.0000000000000000     
  -5.4690573067159975E-003   4.9869664893208120E-003   0.0000000000000000     
  -7.3414112642041958E-003   7.4202450235519943E-003   0.0000000000000000     
   0.0000000000000000        0.0000000000000000        0.0000000000000000     
  -2.0694815391170880E-003   1.3549330615168316E-003   0.0000000000000000     
  -4.1641068741745451E-003   3.0939653567492011E-003   0.0000000000000000     
  -6.2838760051723720E-003   5.2170968856971077E-003   0.0000000000000000     
  -8.4287889321105671E-003   7.7243276483605515E-003   0.0000000000000000     
   0.0000000000000000        0.0000000000000000        0.0000000000000000     
  -2.3401457621368199E-003   1.4589678294510617E-003   0.0000000000000000     
  -4.7202332391826614E-003   3.2998181187182157E-003   0.0000000000000000     
  -7.1402624311375238E-003   5.5225508678014602E-003   0.0000000000000000     
  -9.6002333380014095E-003   8.1271660767008001E-003   0.0000000000000000     
   0.0000000000000000        0.0000000000000000        0.0000000000000000     
  -2.6103443436730949E-003   1.5889482813475041E-003   0.0000000000000000     
  -5.2897498718769125E-003   3.5567244265587955E-003   0.0000000000000000     
  -8.0382165846114538E-003   5.9033284356338747E-003   0.0000000000000000     
  -1.0855744481876716E-002   8.6287603085727395E-003   0.0000000000000000     
   0.0000000000000000        0.0000000000000000        0.0000000000000000     
  -2.8800772837259108E-003   1.7448744172061594E-003   0.0000000000000000     
  -5.8726567722572976E-003   3.8646842802709412E-003   0.0000000000000000     
  -8.9777384655941577E-003   6.3594295891943450E-003   0.0000000000000000     
  -1.2195322363736494E-002   9.2291103439763721E-003   0.0000000000000000     
  -7.3414112642041958E-003   7.4202450235519943E-003   0.0000000000000000     
  -9.2307969963345768E-003   1.0186596259243784E-002   0.0000000000000000     
  -1.1129578850124559E-002   1.3233614712294667E-002   0.0000000000000000     
  -1.3037756825574138E-002   1.6561300382704636E-002   0.0000000000000000     
  -1.4955330922683318E-002   2.0169653270473698E-002   0.0000000000000000     
  -8.4287889321105671E-003   7.7243276483605515E-003   0.0000000000000000     
  -1.0590582923884238E-002   1.0558229118663446E-002   0.0000000000000000     
  -1.2760995249388484E-002   1.3661372770529702E-002   0.0000000000000000     
  -1.4940025908623306E-002   1.7033758603959327E-002   0.0000000000000000     
  -1.7127674901588709E-002   2.0675386618952313E-002   0.0000000000000000     
  -9.6002333380014095E-003   8.1271660767008001E-003   0.0000000000000000     
  -1.2076660578479465E-002   1.1046286398399208E-002   0.0000000000000000     
  -1.4546058771276842E-002   1.4212534485879667E-002   0.0000000000000000     
  -1.7008427916393540E-002   1.7625910339142178E-002   0.0000000000000000     
  -1.9463768013829558E-002   2.1286413958186735E-002   0.0000000000000000     
  -1.0855744481876716E-002   8.6287603085727395E-003   0.0000000000000000     
  -1.3689029960120259E-002   1.1650768098451071E-002   0.0000000000000000     
  -1.6484769415789628E-002   1.4887099858344556E-002   0.0000000000000000     
  -1.9242962848884836E-002   1.8337755588253190E-002   0.0000000000000000     
  -2.1963610259405877E-002   2.2002735288176967E-002   0.0000000000000000     
  -1.2195322363736494E-002   9.2291103439763721E-003   0.0000000000000000     
  -1.5427691068806620E-002   1.2371674218819038E-002   0.0000000000000000     
  -1.8577127182926857E-002   1.5685068887924366E-002   0.0000000000000000     
  -2.1643630706097199E-002   1.9169294351292356E-002   0.0000000000000000     
  -2.4627201638317650E-002   2.2824350608923009E-002   0.0000000000000000     
  -1.4955330922683318E-002   2.0169653270473698E-002   0.0000000000000000     
  -1.6856881624919065E-002   2.4030066987174886E-002   0.0000000000000000     
  -1.8716989415748338E-002   2.8113935144381225E-002   0.0000000000000000     
  -2.0535654295171152E-002   3.2421257742092729E-002   0.0000000000000000     
  -2.2312876263187491E-002   3.6952034780309381E-002   0.0000000000000000     
  -1.7127674901588709E-002   2.0675386618952313E-002   0.0000000000000000     
  -1.9292571794760991E-002   2.4558591043243729E-002   0.0000000000000000     
  -2.1403346154616473E-002   2.8655706104568624E-002   0.0000000000000000     
  -2.3459997981155157E-002   3.2966731802927009E-002   0.0000000000000000     
  -2.5462527274377037E-002   3.7491668138318883E-002   0.0000000000000000     
  -1.9463768013829558E-002   2.1286413958186735E-002   0.0000000000000000     
  -2.1883647948693023E-002   2.5175245618333876E-002   0.0000000000000000     
  -2.4239636606092060E-002   2.9273605594904120E-002   0.0000000000000000     
  -2.6531733986026658E-002   3.3581493887897468E-002   0.0000000000000000     
  -2.8759940088496829E-002   3.8098910497313926E-002   0.0000000000000000     
  -2.1963610259405877E-002   2.2002735288176967E-002   0.0000000000000000     
  -2.4630110086715153E-002   2.5880030712445334E-002   0.0000000000000000     
  -2.7225860770175078E-002   2.9967633615387707E-002   0.0000000000000000     
  -2.9750862309785658E-002   3.4265543997004107E-002   0.0000000000000000     
  -3.2205114705546878E-002   3.8773761857294517E-002   0.0000000000000000     
  -2.4627201638317650E-002   2.2824350608923009E-002   0.0000000000000000     
  -2.7531958208827374E-002   2.6672946325578092E-002   0.0000000000000000     
  -3.0362018646865541E-002   3.0737790166019390E-002   0.0000000000000000     
  -3.3117382952432148E-002   3.5018882130246905E-002   0.0000000000000000     
  -3.5798051125527197E-002   3.9516222218260642E-002   0.0000000000000000     
  -2.2312876263187491E-002   3.6952034780309381E-002   0.0000000000000000     
  -2.4046124726792753E-002   4.1697666926525094E-002   0.0000000000000000     
  -2.5732869092982318E-002   4.6649554848233764E-002   0.0000000000000000     
  -2.7373109361756194E-002   5.1807698545435384E-002   0.0000000000000000     
  -2.8966845533114374E-002   5.7172098018129974E-002   0.0000000000000000     
  -2.5462527274377037E-002   3.7491668138318883E-002   0.0000000000000000     
  -2.7412059257356226E-002   4.2226542353205075E-002   0.0000000000000000     
  -2.9309719153166866E-002   4.7167381690046417E-002   0.0000000000000000     
  -3.1155506961808955E-002   5.2314186148842930E-002   0.0000000000000000     
  -3.2949422683282485E-002   5.7666955729594599E-002   0.0000000000000000     
  -2.8759940088496829E-002   3.8098910497313926E-002   0.0000000000000000     
  -3.0927048910171954E-002   4.2823293467476119E-002   0.0000000000000000     
  -3.3035854447721412E-002   4.7752080842706691E-002   0.0000000000000000     
  -3.5086356701145197E-002   5.2885272623005630E-002   0.0000000000000000     
  -3.7078555670443325E-002   5.8222868808372956E-002   0.0000000000000000     
  -3.2205114705546878E-002   3.8773761857294517E-002   0.0000000000000000     
  -3.4591093685239924E-002   4.3487920269338232E-002   0.0000000000000000     
  -3.6911274976645939E-002   4.8403652306214566E-002   0.0000000000000000     
  -3.9165658579764930E-002   5.3520957967923499E-002   0.0000000000000000     
  -4.1354244494596896E-002   5.8839837254465052E-002   0.0000000000000000     
  -3.5798051125527197E-002   3.9516222218260642E-002   0.0000000000000000     
  -3.8404193582560142E-002   4.4220422758791407E-002   0.0000000000000000     
  -4.0935980739940460E-002   4.9122096080570041E-002   0.0000000000000000     
  -4.3393412597668150E-002   5.4221242183596523E-002   0.0000000000000000     
  -4.5776489155743200E-002   5.9517861067870881E-002   0.0000000000000000     
  -2.8966845533114374E-002   5.7172098018129974E-002   0.0000000000000000     
  -3.0512408901013088E-002   6.2730241741744006E-002   0.0000000000000000     
  -3.2008130759408553E-002   6.8469618191703982E-002   0.0000000000000000     
  -3.3454011108300770E-002   7.4390227368009862E-002   0.0000000000000000     
  -3.4850049947689754E-002   8.0492069270661687E-002   0.0000000000000000     
  -3.2949422683282485E-002   5.7666955729594599E-002   0.0000000000000000     
  -3.4689032219347521E-002   6.3212683273095566E-002   0.0000000000000000     
  -3.6371901471764105E-002   6.8938361620140040E-002   0.0000000000000000     
  -3.7998030440532252E-002   7.4843990770727939E-002   0.0000000000000000     
  -3.9567419125651968E-002   8.0929570724859318E-002   0.0000000000000000     
  -3.7078555670443325E-002   5.8222868808372956E-002   0.0000000000000000     
  -3.9010088058978397E-002   6.3752390941469284E-002   0.0000000000000000     
  -4.0878590570113033E-002   6.9461360564955235E-002   0.0000000000000000     
  -4.2684063203847225E-002   7.5349777678830845E-002   0.0000000000000000     
  -4.4426505960180995E-002   8.1417642283096101E-002   0.0000000000000000     
  -4.1354244494596896E-002   5.8839837254465052E-002   0.0000000000000000     
  -4.3475576419905730E-002   6.4349364746865131E-002   0.0000000000000000     
  -4.5528198054455335E-002   7.0038615026149650E-002   0.0000000000000000     
  -4.7512109398245690E-002   7.5907588092318637E-002   0.0000000000000000     
  -4.9427310451276824E-002   8.1956283945372049E-002   0.0000000000000000     
  -4.5776489155743200E-002   5.9517861067870881E-002   0.0000000000000000     
  -4.8085497302129521E-002   6.5003604689283109E-002   0.0000000000000000     
  -5.0320723924790998E-002   7.0670125003723244E-002   0.0000000000000000     
  -5.2482169023727647E-002   7.6517422011191258E-002   0.0000000000000000     
  -5.4569832598939459E-002   8.2545495711687178E-002   0.0000000000000000     
  -3.4850049947689754E-002   8.0492069270661687E-002   0.0000000000000000     
  -3.6196127552039874E-002   8.6763734360750841E-002   0.0000000000000000     
  -3.7492124195815518E-002   9.3193813099368680E-002   0.0000000000000000     
  -3.8738039879016695E-002   9.9782305486515205E-002   0.0000000000000000     
  -3.9933874601643396E-002  0.10652921152219046        0.0000000000000000     
  -3.9567419125651968E-002   8.0929570724859318E-002   0.0000000000000000     
  -4.1080557622033005E-002   8.7184383492807549E-002   0.0000000000000000     
  -4.2537936024585138E-002   9.3597711084846047E-002   0.0000000000000000     
  -4.3939554333308359E-002  0.10016955350097478        0.0000000000000000     
  -4.5285412548202661E-002  0.10689991074119377        0.0000000000000000     
  -4.4426505960180995E-002   8.1417642283096101E-002   0.0000000000000000     
  -4.6106689068944266E-002   8.7654437744684330E-002   0.0000000000000000     
  -4.7725382759967037E-002   9.4049647430528904E-002   0.0000000000000000     
  -4.9282587033249274E-002  0.10060327134062985        0.0000000000000000     
  -5.0778301888791004E-002  0.10731530947498713        0.0000000000000000     
  -4.9427310451276824E-002   8.1956283945372049E-002   0.0000000000000000     
  -5.1274521892773692E-002   8.8173897116381170E-002   0.0000000000000000     
  -5.3054464401961224E-002   9.4549622136417336E-002   0.0000000000000000     
  -5.4767137978839482E-002  0.10108345900548045        0.0000000000000000     
  -5.6412542623408418E-002  0.10777540772357057        0.0000000000000000     
  -5.4569832598939459E-002   8.2545495711687178E-002   0.0000000000000000     
  -5.6584056093521219E-002   8.8742761607898124E-002   0.0000000000000000     
  -5.8525180950567718E-002   9.5097635202511258E-002   0.0000000000000000     
  -6.0393207170078934E-002  0.10161011649552658        0.0000000000000000     
  -6.2188134752054897E-002  0.10828020548694406        0.0000000000000000     
  -3.9933874601643396E-002  0.10652921152219046        0.0000000000000000     
  -4.1079285569420053E-002  0.11342239413083981        0.0000000000000000     
  -4.2173929988071061E-002  0.12044971623690869        0.0000000000000000     
  -4.3217807857596442E-002  0.12761117784039711        0.0000000000000000     
  -4.4210919177996161E-002  0.13490677894130504        0.0000000000000000     
  -4.5285412548202661E-002  0.10689991074119377        0.0000000000000000     
  -4.6575120851435468E-002  0.11377636491760490        0.0000000000000000     
  -4.7808289425174157E-002  0.12078649814231006        0.0000000000000000     
  -4.8984918269418719E-002  0.12793031041530922        0.0000000000000000     
  -5.0105007384169155E-002  0.13520780173660246        0.0000000000000000     
  -5.0778301888791004E-002  0.10731530947498713        0.0000000000000000     
  -5.2212178461699010E-002  0.11417326530103697        0.0000000000000000     
  -5.3583867887080090E-002  0.12116464228621557        0.0000000000000000     
  -5.4893370164934271E-002  0.12828944043052287        0.0000000000000000     
  -5.6140685295261519E-002  0.13554765973395899        0.0000000000000000     
  -5.6412542623408418E-002  0.10777540772357057        0.0000000000000000     
  -5.7990458400210679E-002  0.11461309528113603        0.0000000000000000     
  -5.9500665373788904E-002  0.12158414866862521        0.0000000000000000     
  -6.0943163544143100E-002  0.12868856788603805        0.0000000000000000     
  -6.2317952911273247E-002  0.13592635293337463        0.0000000000000000     
  -6.2188134752054897E-002  0.10828020548694406        0.0000000000000000     
  -6.3909960666970481E-002  0.11509585485790208        0.0000000000000000     
  -6.5558681885300576E-002  0.12204501728953897        0.0000000000000000     
  -6.7134298407045198E-002  0.12912769278185471        0.0000000000000000     
  -6.8636810232204346E-002  0.13634388133484937        0.0000000000000000     
  -4.4210919177996161E-002  0.13490677894130504        0.0000000000000000     
  -4.5152179405957144E-002  0.14232491747409423        0.0000000000000000     
  -4.6040503998166275E-002  0.14985399137322639        0.0000000000000000     
  -4.6875892954623535E-002  0.15749400063870153        0.0000000000000000     
  -4.7658346275328931E-002  0.16524494527051964        0.0000000000000000     
  -5.0105007384169155E-002  0.13520780173660246        0.0000000000000000     
  -5.1167564979145916E-002  0.14260749143984408        0.0000000000000000     
  -5.2171599264069383E-002  0.15011789885868851        0.0000000000000000     
  -5.3117110238939544E-002  0.15773902399313569        0.0000000000000000     
  -5.4004097903756466E-002  0.16547086684318571        0.0000000000000000     
  -5.6140685295261519E-002  0.13554765973395899        0.0000000000000000     
  -5.7325042350739749E-002  0.14292776980800279        0.0000000000000000     
  -5.8445670404046884E-002  0.15041824026413333        0.0000000000000000     
  -5.9502569455182890E-002  0.15801907110235053        0.0000000000000000     
  -6.0495739504147779E-002  0.16573026232265448        0.0000000000000000     
  -6.2317952911273247E-002  0.13592635293337463        0.0000000000000000     
  -6.3624611520738700E-002  0.14328575257857035        0.0000000000000000     
  -6.4862717418098792E-002  0.15075501558956089        0.0000000000000000     
  -6.6032270603353496E-002  0.15833414196634601        0.0000000000000000     
  -6.7133271076502868E-002  0.16602313170892588        0.0000000000000000     
  -6.8636810232204346E-002  0.13634388133484937        0.0000000000000000     
  -7.0066272489142725E-002  0.14368143975154682        0.0000000000000000     
  -7.1422740306225085E-002  0.15112822483497110        0.0000000000000000     
  -7.2706213683451426E-002  0.15868423658512212        0.0000000000000000     
  -7.3916692620821733E-002  0.16634947500199998        0.0000000000000000     
   0.0000000000000000        0.0000000000000000        0.0000000000000000     
  -2.8800772837259108E-003   1.7448744172061594E-003   0.0000000000000000     
  -5.8726567722572976E-003   3.8646842802709412E-003   0.0000000000000000     
  -8.9777384655941577E-003   6.3594295891943450E-003   0.0000000000000000     
  -1.2195322363736494E-002   9.2291103439763721E-003   0.0000000000000000     
   0.0000000000000000        0.0000000000000000        0.0000000000000000     
  -3.2831970567977946E-003   1.9993930597064810E-003   0.0000000000000000     
  -6.6769437142200141E-003   4.3309946855813958E-003   0.0000000000000000     
  -1.0181239972266659E-002   6.9948048776247440E-003   0.0000000000000000     
  -1.3796085830937726E-002   9.9908236358365269E-003   0.0000000000000000     
   0.0000000000000000        0.0000000000000000        0.0000000000000000     
  -3.9535561373912689E-003   2.4251510315279235E-003   0.0000000000000000     
  -7.9106004716612589E-003   5.0629526482169037E-003   0.0000000000000000     
  -1.1871133002809972E-002   7.9134048500669411E-003   0.0000000000000000     
  -1.5835153730837409E-002   1.0976507637078036E-002   0.0000000000000000     
   0.0000000000000000        0.0000000000000000        0.0000000000000000     
  -4.8911545255063329E-003   3.0221483326704859E-003   0.0000000000000000     
  -9.5736270445810328E-003   6.0605581681774665E-003   0.0000000000000000     
  -1.4047417557224101E-002   9.1152295065209353E-003   0.0000000000000000     
  -1.8312526063435537E-002   1.2186162347700898E-002   0.0000000000000000     
   0.0000000000000000        0.0000000000000000        0.0000000000000000     
  -6.0959922211429882E-003   3.7903849631341696E-003   0.0000000000000000     
  -1.1666023432979337E-002   7.3238112454630799E-003   0.0000000000000000     
  -1.6710093635509043E-002   1.0600278846986728E-002   0.0000000000000000     
  -2.1228202828732112E-002   1.3619787767705116E-002   0.0000000000000000     
  -1.2195322363736494E-002   9.2291103439763721E-003   0.0000000000000000     
  -1.5427691068806620E-002   1.2371674218819038E-002   0.0000000000000000     
  -1.8577127182926857E-002   1.5685068887924366E-002   0.0000000000000000     
  -2.1643630706097199E-002   1.9169294351292356E-002   0.0000000000000000     
  -2.4627201638317650E-002   2.2824350608923009E-002   0.0000000000000000     
  -1.3796085830937726E-002   9.9908236358365269E-003   0.0000000000000000     
  -1.7404395177567474E-002   1.3221086495397645E-002   0.0000000000000000     
  -2.0889081899490146E-002   1.6587628991489009E-002   0.0000000000000000     
  -2.4250145996705753E-002   2.0090451124110620E-002   0.0000000000000000     
  -2.7487587469214293E-002   2.3729552893262468E-002   0.0000000000000000     
  -1.5835153730837409E-002   1.0976507637078036E-002   0.0000000000000000     
  -1.9730893559431740E-002   1.4211086664081439E-002   0.0000000000000000     
  -2.3486583392281154E-002   1.7575967585908393E-002   0.0000000000000000     
  -2.7102223229385627E-002   2.1071150402558900E-002   0.0000000000000000     
  -3.0577813070745186E-002   2.4696635114032969E-002   0.0000000000000000     
  -1.8312526063435537E-002   1.2186162347700898E-002   0.0000000000000000     
  -2.2407186214399421E-002   1.5341674724870406E-002   0.0000000000000000     
  -2.6369631661299860E-002   1.8650084671182510E-002   0.0000000000000000     
  -3.0199862404136826E-002   2.2111392186637213E-002   0.0000000000000000     
  -3.3897878442910347E-002   2.5725597271234513E-002   0.0000000000000000     
  -2.1228202828732112E-002   1.3619787767705116E-002   0.0000000000000000     
  -2.5433273142470524E-002   1.6612850677764558E-002   0.0000000000000000     
  -2.9538226706546267E-002   1.9809980247311371E-002   0.0000000000000000     
  -3.3543063520959350E-002   2.3211176476345543E-002   0.0000000000000000     
  -3.7447783585709764E-002   2.6816439364867092E-002   0.0000000000000000     
  -2.4627201638317650E-002   2.2824350608923009E-002   0.0000000000000000     
  -2.7531958208827374E-002   2.6672946325578092E-002   0.0000000000000000     
  -3.0362018646865541E-002   3.0737790166019390E-002   0.0000000000000000     
  -3.3117382952432148E-002   3.5018882130246905E-002   0.0000000000000000     
  -3.5798051125527197E-002   3.9516222218260642E-002   0.0000000000000000     
  -2.7487587469214293E-002   2.3729552893262468E-002   0.0000000000000000     
  -3.0624400522087196E-002   2.7547456553060925E-002   0.0000000000000000     
  -3.3683579360395934E-002   3.1586684357622345E-002   0.0000000000000000     
  -3.6665123984140492E-002   3.5847236306946743E-002   0.0000000000000000     
  -3.9569034393320879E-002   4.0329112401034109E-002   0.0000000000000000     
  -3.0577813070745186E-002   2.4696635114032969E-002   0.0000000000000000     
  -3.3942645233552129E-002   2.8497025490222587E-002   0.0000000000000000     
  -3.7226012034998757E-002   3.2516925301019746E-002   0.0000000000000000     
  -4.0427913475085064E-002   3.6756334546424456E-002   0.0000000000000000     
  -4.3548349553811067E-002   4.1215253226436717E-002   0.0000000000000000     
  -3.3897878442910347E-002   2.5725597271234513E-002   0.0000000000000000     
  -3.7486692343222147E-002   2.9521653137063085E-002   0.0000000000000000     
  -4.0989316670673973E-002   3.3528512996211589E-002   0.0000000000000000     
  -4.4405751425265844E-002   3.7746176848680056E-002   0.0000000000000000     
  -4.7735996606997746E-002   4.2174644694468452E-002   0.0000000000000000     
  -3.7447783585709764E-002   2.6816439364867092E-002   0.0000000000000000     
  -4.1256541851097270E-002   3.0621339493582408E-002   0.0000000000000000     
  -4.4973493267421637E-002   3.4621447443197888E-002   0.0000000000000000     
  -4.8598637834682851E-002   3.8816763213713523E-002   0.0000000000000000     
  -5.2131975552880919E-002   4.3207286805129336E-002   0.0000000000000000     
  -3.5798051125527197E-002   3.9516222218260642E-002   0.0000000000000000     
  -3.8404193582560142E-002   4.4220422758791407E-002   0.0000000000000000     
  -4.0935980739940460E-002   4.9122096080570041E-002   0.0000000000000000     
  -4.3393412597668150E-002   5.4221242183596523E-002   0.0000000000000000     
  -4.5776489155743200E-002   5.9517861067870881E-002   0.0000000000000000     
  -3.9569034393320879E-002   4.0329112401034109E-002   0.0000000000000000     
  -4.2392868846072553E-002   4.5018790432544212E-002   0.0000000000000000     
  -4.5134185600530972E-002   4.9902748194136828E-002   0.0000000000000000     
  -4.7792984656696139E-002   5.4980985685811966E-002   0.0000000000000000     
  -5.0369266014568051E-002   6.0253502907569610E-002   0.0000000000000000     
  -4.3548349553811067E-002   4.1215253226436717E-002   0.0000000000000000     
  -4.6583639719717081E-002   4.5881012787305213E-002   0.0000000000000000     
  -4.9530103421343459E-002   5.0740944675278676E-002   0.0000000000000000     
  -5.2387740658690195E-002   5.5795048890357087E-002   0.0000000000000000     
  -5.5156551431757281E-002   6.1043325432540450E-002   0.0000000000000000     
  -4.7735996606997746E-002   4.2174644694468452E-002   0.0000000000000000     
  -5.0976506203493754E-002   4.6807089823074424E-002   0.0000000000000000     
  -5.4123734202377934E-002   5.1636685523995550E-002   0.0000000000000000     
  -5.7177680603650319E-002   5.6663431797231878E-002   0.0000000000000000     
  -6.0138345407310882E-002   6.1887328642783367E-002   0.0000000000000000     
  -5.2131975552880919E-002   4.3207286805129336E-002   0.0000000000000000     
  -5.5571468297402539E-002   4.7797021539851825E-002   0.0000000000000000     
  -5.8915077943634410E-002   5.2589970740287484E-002   0.0000000000000000     
  -6.2162804491576511E-002   5.7586134406436340E-002   0.0000000000000000     
  -6.5314647941228862E-002   6.2785512538298366E-002   0.0000000000000000     
  -4.5776489155743200E-002   5.9517861067870881E-002   0.0000000000000000     
  -4.8085497302129521E-002   6.5003604689283109E-002   0.0000000000000000     
  -5.0320723924790998E-002   7.0670125003723244E-002   0.0000000000000000     
  -5.2482169023727647E-002   7.6517422011191258E-002   0.0000000000000000     
  -5.4569832598939459E-002   8.2545495711687178E-002   0.0000000000000000     
  -5.0369266014568051E-002   6.0253502907569610E-002   0.0000000000000000     
  -5.2864985143918346E-002   6.5714011427068467E-002   0.0000000000000000     
  -5.5282097514518666E-002   7.1356222811967185E-002   0.0000000000000000     
  -5.7620603126369026E-002   7.7180137062265786E-002   0.0000000000000000     
  -5.9880501979469383E-002   8.3185754177964255E-002   0.0000000000000000     
  -5.5156551431757281E-002   6.1043325432540450E-002   0.0000000000000000     
  -5.7839174383540838E-002   6.6479485618566439E-002   0.0000000000000000     
  -6.0438248157037001E-002   7.2097240765172710E-002   0.0000000000000000     
  -6.2953772752245757E-002   7.7896590872359270E-002   0.0000000000000000     
  -6.5385748169167091E-002   8.3877535940126119E-002   0.0000000000000000     
  -6.0138345407310882E-002   6.1887328642783367E-002   0.0000000000000000     
  -6.3008065020996984E-002   6.7300027263777012E-002   0.0000000000000000     
  -6.5789175852345963E-002   7.2893178863339791E-002   0.0000000000000000     
  -6.8481677901357826E-002   7.8666783441471697E-002   0.0000000000000000     
  -7.1085571168032574E-002   8.4620840998172742E-002   0.0000000000000000     
  -6.5314647941228862E-002   6.2785512538298366E-002   0.0000000000000000     
  -6.8371657056286769E-002   6.8175636362700201E-002   0.0000000000000000     
  -7.1334880600445572E-002   7.3744037106468430E-002   0.0000000000000000     
  -7.4204318573705255E-002   7.9490714769603080E-002   0.0000000000000000     
  -7.6979970976065820E-002   8.5415669352104123E-002   0.0000000000000000     
  -5.4569832598939459E-002   8.2545495711687178E-002   0.0000000000000000     
  -5.6584056093521219E-002   8.8742761607898124E-002   0.0000000000000000     
  -5.8525180950567718E-002   9.5097635202511258E-002   0.0000000000000000     
  -6.0393207170078934E-002  0.10161011649552658        0.0000000000000000     
  -6.2188134752054897E-002  0.10828020548694406        0.0000000000000000     
  -5.9880501979469383E-002   8.3185754177964255E-002   0.0000000000000000     
  -6.2061617914266211E-002   8.9360825093403012E-002   0.0000000000000000     
  -6.4163774771205856E-002   9.5693100742922435E-002   0.0000000000000000     
  -6.6186972550288395E-002  0.10218258112652252        0.0000000000000000     
  -6.8131211251513779E-002  0.10882926624420329        0.0000000000000000     
  -6.5385748169167091E-002   8.3877535940126119E-002   0.0000000000000000     
  -6.7733533598087911E-002   9.0027881447063737E-002   0.0000000000000000     
  -6.9996488229295065E-002   9.6335432871762577E-002   0.0000000000000000     
  -7.2174612062788551E-002  0.10280019021422264        0.0000000000000000     
  -7.4267905098568385E-002  0.10942215347444398        0.0000000000000000     
  -7.1085571168032574E-002   8.4620840998172742E-002   0.0000000000000000     
  -7.3599803144986320E-002   9.0743930668880271E-002   0.0000000000000000     
  -7.6023321324835288E-002   9.7024631589031698E-002   0.0000000000000000     
  -7.8356125707579424E-002  0.10346294375862695        0.0000000000000000     
  -8.0598216293218727E-002  0.11005886717766608        0.0000000000000000     
  -7.6979970976065820E-002   8.5415669352104123E-002   0.0000000000000000     
  -7.9660426554961514E-002   9.1508972758852655E-002   0.0000000000000000     
  -8.2244274057826583E-002   9.7760696894729757E-002   0.0000000000000000     
  -8.4731513484661000E-002  0.10417084175973541        0.0000000000000000     
  -8.7122144835464793E-002  0.11073940735386967        0.0000000000000000     
  -6.2188134752054897E-002  0.10828020548694406        0.0000000000000000     
  -6.3909960666970481E-002  0.11509585485790208        0.0000000000000000     
  -6.5558681885300576E-002  0.12204501728953897        0.0000000000000000     
  -6.7134298407045198E-002  0.12912769278185471        0.0000000000000000     
  -6.8636810232204346E-002  0.13634388133484937        0.0000000000000000     
  -6.8131211251513779E-002  0.10882926624420329        0.0000000000000000     
  -6.9996718274972031E-002  0.11562139471076108        0.0000000000000000     
  -7.1783721020753130E-002  0.12254720514099220        0.0000000000000000     
  -7.3492219488857091E-002  0.12960669753489665        0.0000000000000000     
  -7.5122213679283914E-002  0.13679987189247447        0.0000000000000000     
  -7.4267905098568385E-002  0.10942215347444398        0.0000000000000000     
  -7.6276764237208930E-002  0.11618956551913900        0.0000000000000000     
  -7.8201586379284566E-002  0.12309066921502020        0.0000000000000000     
  -8.0042371524795278E-002  0.13012546456208757        0.0000000000000000     
  -8.1799119673741066E-002  0.13729395156034116        0.0000000000000000     
  -8.0598216293218727E-002  0.11005886717766608        0.0000000000000000     
  -8.2750098553681206E-002  0.11680036728303587        0.0000000000000000     
  -8.4812277960894883E-002  0.12367540951162302        0.0000000000000000     
  -8.6784754514859758E-002  0.13068399386342755        0.0000000000000000     
  -8.8667528215575830E-002  0.13782612033844943        0.0000000000000000     
  -8.7122144835464793E-002  0.11073940735386967        0.0000000000000000     
  -8.9416721224388859E-002  0.11745380000245165        0.0000000000000000     
  -9.1615795765584110E-002  0.12430142603080059        0.0000000000000000     
  -9.3719368459050545E-002  0.13128228543891649        0.0000000000000000     
  -9.5727439304788164E-002  0.13839637822679934        0.0000000000000000     
  -6.8636810232204346E-002  0.13634388133484937        0.0000000000000000     
  -7.0066272489142725E-002  0.14368143975154682        0.0000000000000000     
  -7.1422740306225085E-002  0.15112822483497110        0.0000000000000000     
  -7.2706213683451426E-002  0.15868423658512212        0.0000000000000000     
  -7.3916692620821733E-002  0.16634947500199998        0.0000000000000000     
  -7.5122213679283914E-002  0.13679987189247447        0.0000000000000000     
  -7.6674233595502281E-002  0.14411425255517987        0.0000000000000000     
  -7.8148809240980874E-002  0.15153736386446720        0.0000000000000000     
  -7.9545940615719721E-002  0.15906920582033643        0.0000000000000000     
  -8.0865627719718780E-002  0.16670977842278756        0.0000000000000000     
  -8.1799119673741066E-002  0.13729395156034116        0.0000000000000000     
  -8.3472703179367780E-002  0.14458361221771726        0.0000000000000000     
  -8.5063994394921238E-002  0.15198192854215234        0.0000000000000000     
  -8.6572993320401428E-002  0.15948890053364637        0.0000000000000000     
  -8.7999699955808378E-002  0.16710452819219934        0.0000000000000000     
  -8.8667528215575830E-002  0.13782612033844943        0.0000000000000000     
  -9.0461681240739236E-002  0.14508951873915901        0.0000000000000000     
  -9.2168295768046166E-002  0.15246191886802654        0.0000000000000000     
  -9.3787371797496577E-002  0.15994332072505199        0.0000000000000000     
  -9.5318909329090554E-002  0.16753372431023542        0.0000000000000000     
  -9.5727439304788164E-002  0.13839637822679934        0.0000000000000000     
  -9.7641167779616622E-002  0.14563197211950507        0.0000000000000000     
  -9.9461713360355655E-002  0.15297733484208972        0.0000000000000000     
 -0.10118907604700521       0.16043246639455327        0.0000000000000000     
 -0.10282325583956529       0.16799736677689570        0.0000000000000000     
 </DataArray>
 <DataArray  type="Float64" Name="stress" NumberOfComponents="3" format="ascii">
   13416733662.857683        4025020098.8573050        2893930562.6979098     
   11766550845.332096        1890561167.0263319        1715777186.5106649     
   10313623173.915579        413619388.89225483        810731553.83203983     
   9057950648.6081295       -405805235.54492712        178793664.66203466     
   7999533269.4097462       -567712706.28521299       -180036480.99935058     
   10539946609.670904        3161983982.9012713        2225736060.1096716     
   9667576472.6130009        1589648367.4975257        1446691231.2557311     
   8943829927.4235020        512724724.98845816        863135340.07741344     
   8368706974.1024027       -68786944.625933647        475068386.57471877     
   7942207612.6497087       -154886641.34564495        282490370.74764645     
   8337889136.7592030        2501366741.0277610        1712363622.7337153     
   8021563663.5032768        1424624037.0515311        1275690527.9323027     
   7805230227.8750916        681188125.16776085        956887564.97351623     
   7688888829.8746424        271059005.37645054        755954733.85735583     
   7672539469.5019283        194236677.67759800        672892034.58382010     
   6810561244.1225824        2043168373.2367747        1353813250.5700402     
   6828512418.0029287        1395488175.6883492        1202775076.5403788     
   6897824075.2703466        919009589.43016434        1091988228.5203469     
   7018496215.9248400        613732614.46222115        1021452706.5099441     
   7190528839.9664040        479657250.78451896        991168510.50917017     
   5957962931.7610378        1787388879.5283115        1150084943.6186464     
   6088422736.1119518        1502240783.4079781        1227944877.0799608     
   6221611469.6092720        1226189117.7756681        1268437330.7179070     
   6357529132.2529993        959233882.63138008        1271562304.5324848     
   6496175724.0431337        701375077.97511601        1237319798.5236950     
   7999533269.4097462       -567712706.28521299       -180036480.99935058     
   7917512373.8693829       -200368493.44623613       -78194085.993176758     
   7794060115.8343611        28871177.743881702       -9013317.3956635948     
   7629176495.3046808        120006307.28513908        27505824.793194503     
   7422861512.2803411        73036895.177536488        31363340.573389214     
   7942207612.6497087       -154886641.34564495        282490370.74764645     
   7739684986.1188459        16212043.012716293        281185011.94134665     
   7513817027.4568491        109492953.60063219        265135069.96961567     
   7264603736.6637192        124956090.41810560        234340544.83245805     
   6992045113.7394505        62601453.465129375        188801436.52986810     
   7672539469.5019283        194236677.67759800        672892034.58382010     
   7400706664.1040802        184447299.19240046        589539290.72249126     
   7123614556.9386187        157126914.81517124        509359006.93896097     
   6841263148.0055466        112275524.54590583        432351183.23323262     
   6553652437.3048697        49893128.384614944        358515819.60530359     
   7190528839.9664040        479657250.78451896        991168510.50917017     
   6900577407.8250809        304337275.09281373        846868750.35025573     
   6623452704.2796707        171773061.38749123        723658493.51237130     
   6359154729.3301773        81964609.668550730        621537739.99551749     
   6107683482.9765959        34911919.935992956        540506489.79969513     
   6496175724.0431337        701375077.97511601        1237319798.5236950     
   6239297217.2818499        375881970.71395779        1053173390.8246421     
   6013331469.4800053        153431393.31759667        908033529.68984830     
   5818278480.6375971        34023345.786030531        801900215.11931455     
   5654138250.7546310        17657828.119261742        734773447.11303866     
   7422861512.2803411        73036895.177536488        31363340.573389214     
   7219390157.5340977       -17637118.350427151        14587076.015621882     
   7027971468.6426468       -68135579.029078484        2288700.9541141661     
   6848605445.6059952       -78458486.858407974       -5531784.6111376183     
   6681292088.4241362       -48605841.838416100       -8874380.6801269054     
   6992045113.7394505        62601453.465129375        188801436.52986810     
   6808767323.7433672        3288753.9856042862        180560901.26790285     
   6633180593.9630308       -30387078.108096600        176138761.53708643     
   6465284924.3984404       -38426042.815979004        175535017.33741251     
   6305080315.0495930       -20828140.138046503        178749668.66888762     
   6553652437.3048697        49893128.384614944        358515819.60530359     
   6388683943.5871983        21376462.412006378        353722473.72691500     
   6227044904.4462280        3957978.3617227077        352088029.41456252     
   6068735319.8819523       -2362323.7662370205        353612486.66824663     
   5913755189.8943729        2415556.0281219482        358295845.48796821     
   6107683482.9765959        34911919.935992956        540506489.79969513     
   5959140017.0655947        36626006.928778410        534071793.39265585     
   5809564400.0922394        34899590.380387783        530136504.58654761     
   5658956632.0565310        29732670.290822506        528700623.38136369     
   5507316712.9584751        21125246.660091400        529764149.77710211     
   5654138250.7546310        17657828.119261742        734773447.11303866     
   5520135544.1785507        49037387.535917282        721608860.26513100     
   5380739080.9010677        62437757.947900534        710284187.05303848     
   5235948860.9221849        57858939.355211496        700799427.47676361     
   5085764884.2419014        35300931.757850885        693154581.53630078     
   6681292088.4241362       -48605841.838416100       -8874380.6801269054     
   6508997227.9088755       -9270220.2186167240       -3447087.5619604723     
   6331887565.8903599        14016063.056993008        3216894.8371282299     
   6149963102.3685837        21253007.988412142        11117566.517144324     
   5963223837.3435516        12440614.575632572        20254927.478076283     
   6305080315.0495930       -20828140.138046503        178749668.66888762     
   6132326999.5027828        329698.63547372818        175093754.83295542     
   5956711996.0182257        11948577.616509676        174043366.96404558     
   5778235304.5959272        14028496.805069447        175598505.06216836     
   5596896925.2358828        6569456.2011463642        179759169.12731159     
   5913755189.8943729        2415556.0281219482        358295845.48796821     
   5744454381.2763071        6568900.5434477329        347835357.19102991     
   5574244998.2860146        7693663.8180093765        341349231.54722351     
   5403127040.9234877        5789845.8517956734        338837468.55654931     
   5231100509.1887341        857446.64482450485        340300068.21900642     
   5507316712.9584751        21125246.660091400        529764149.77710211     
   5345379373.2294559        9447385.5053145885        514777719.51226246     
   5184486572.6937218        1251321.6614816189        505134488.58666033     
   5024638311.3512688       -3462944.8714032173        500834457.00029051     
   4865834589.2021027       -4695414.0933411121        501877624.75315541     
   5085764884.2419014        35300931.757850885        693154581.53630078     
   4935101975.3622255        8965153.5210618973        675920841.79665446     
   4787436719.2413492       -7378448.8530707359        665399138.08235335     
   4642769115.8792696       -13729875.364542007        661589470.39338851     
   4501099165.2759876       -10089126.013357401        664491838.72976446     
   5963223837.3435516        12440614.575632572        20254927.478076283     
   5779355039.6935577       -227713.35308670998        13528279.525061475     
   5597190884.3852053       -7213900.1430032253        10667759.965627069     
   5416731371.4184799       -8517945.7941591740        11673368.799774025     
   5237976500.7934017       -4139850.3064963818        16545106.027495619     
   5596896925.2358828        6569456.2011463642        179759169.12731159     
   5424511880.1621304       -951150.70249629021        174781862.78914902     
   5253176940.6619816       -4971405.6941111088        173584148.26410294     
   5082892106.7354422       -5491308.7737026215        176166025.55218744     
   4913657378.3825064       -2510859.9412798882        182527494.65339929     
   5231100509.1887341        857446.64482450485        340300068.21900642     
   5069951969.3184938       -1589613.4455552101        336308477.26631719     
   4909198998.2538261       -2718110.8506851196        336009941.54629511     
   4748841595.9947338       -2528045.5705668926        339404461.05894804     
   4588879762.5412169       -1019417.6051948071        346492035.80427021     
   4865834589.2021027       -4695414.0933411121        501877624.75315541     
   4715675307.1626492       -2143101.5822799206        498108122.95657140     
   4565257057.1607399       -454015.61274194717        497945139.81220412     
   4414579839.1963730        371843.81527614594        501388675.32005888     
   4263643653.2695546        334476.70178532600        508438729.48012370     
   4501099165.2759876       -10089126.013357401        664491838.72976446     
   4361681893.6945953       -2611615.1126708984        660180799.85991263     
   4221351117.3827171        1820880.0197265148        659389743.06183136     
   4080106836.3403525        3208359.3838319778        662118668.33551240     
   3937949050.5674973        1550822.9796431065        668367575.68095589     
   5237976500.7934017       -4139850.3064963818        16545106.027495619     
   5053798641.5352278        225630.33490729332        10865300.431861086     
   4868980501.5246382        2456841.8016190529        9542357.6854291297     
   4683522080.7616463        2553784.0936362743        12576277.788198467     
   4497423379.2462406        516457.21095919609        19967060.740160130     
   4913657378.3825064       -2510859.9412798882        182527494.65339929     
   4740314122.0686340        246580.41083478928        176085281.33277839     
   4566586397.4830999        1722459.8574244976        173991601.34071702     
   4392474204.6259279        1916778.3985414505        176246454.67722279     
   4217977543.4970956        829536.03413295746        182849841.34228545     
   4588879762.5412169       -1019417.6051948071        346492035.80427021     
   4426347310.5412579        122842.86850476265        339585862.65288025     
   4263686202.7504015        836250.70589447021        337019893.30941474     
   4100896439.1686478        1120805.9069583416        338794127.77387202     
   3937978019.7960043        976508.47171330452        344908566.04625618     
   4263643653.2695546        334476.70178532600        508438729.48012370     
   4111898206.9531112       -145582.29204535484        501367044.39217418     
   3960279917.3265314       -201785.65299654007        498627233.59151477     
   3808788784.3898196        165866.61893367767        500219297.07814980     
   3657424808.1429586        957374.52371525764        506143234.85206658     
   3937949050.5674973        1550822.9796431065        668367575.68095589     
   3796966811.3041883       -558695.07082295418        661428826.55066442     
   3656367541.2114973       -1391649.2192282677        658813622.18702877     
   3516151240.2894197       -948039.46558833122        660521962.59004319     
   3376317908.5379634        772134.19012260437        666553847.75970817     
   4497423379.2462406        516457.21095919609        19967060.740160130     
   4313461472.4557724       -1478105.8623864651        13102142.216037115     
   4129745379.6430817       -2653289.0097947121        10568714.996486064     
   3946275100.8081832       -3009092.2312276363        12366779.081519790     
   3763050635.9510789       -2545515.5266916752        18496334.471120354     
   4217977543.4970956        829536.03413295746        182849841.34228545     
   4045494150.8676863       -16865.071447134018        175969969.32966501     
   3873155794.0103750       -379813.60338163376        173323271.83609724     
   3700962472.9251485       -259309.56168723106        174909748.86159080     
   3528914187.6120243        344647.05368065834        180729400.40615180     
   3937978019.7960043        976508.47171330452        344908566.04625618     
   3776692236.2262049        1193997.8035001755        337896165.97180843     
   3615450710.2227969        1559012.3565902710        335018623.63090885     
   3454253441.7857828        2071552.1309866905        336275939.02356189     
   3293100430.9151616        2731617.1267006397        341668112.14975733     
   3657424808.1429586        957374.52371525764        506143234.85206658     
   3507055728.5313044        2154482.7624084949        498880732.14247316     
   3356630128.2803407        3163188.8700747490        495654770.38092953     
   3206148007.3900728        3983492.8467346430        496465349.56741828     
   3055609365.8605013        4615394.6923726797        501312469.70195210     
   3376317908.5379634        772134.19012260437        666553847.75970817     
   3236584627.7829862        2864589.8052847385        658923667.84166634     
   3096694048.1830106        4432715.9371075630        655231712.08615828     
   2956646169.7380266        5476512.5855755806        655477980.49317217     
   2816440992.4480481        5995979.7507172823        659662473.06271613     
   3763050635.9510789       -2545515.5266916752        18496334.471120354     
   3584532391.8971882       -1235769.0250797272        11621563.845024638     
   3405395347.1992168       -1988691.3370809555        9061987.8933670614     
   3225639501.8571343       -4804282.4627749920        10817606.616187982     
   3045264855.8709707       -9682542.4020849466        16888420.013435517     
   3528914187.6120243        344647.05368065834        180729400.40615180     
   3361328809.3534579        1973130.4059197903        172554074.92247462     
   3193391134.6330323        2427292.2186053991        168399896.87213707     
   3025101163.4507489        1707132.4917782545        168266866.25514948     
   2856458895.8065953       -187348.77461934090        172154983.07150924     
   3293100430.9151616        2731617.1267006397        341668112.14975733     
   3135607783.4773426        4426796.8371638060        332503153.35443068     
   2978029343.7599101        5836002.2822382450        327065294.75135005     
   2820365111.7628465        6959233.4618830681        325354536.34050661     
   2662615087.4861479        7796490.3760780096        327370878.12192166     
   3055609365.8605013        4615394.6923726797        501312469.70195210     
   2907369314.2688622        6125230.2687318325        491468799.14090818     
   2759309974.5798321        8237438.8537706137        485058181.53101254     
   2611431346.7933969        10952020.447480559        482080616.87225997     
   2463733430.9095764        14268975.049898386        482536105.16467148     
   2816440992.4480481        5995979.7507172823        659662473.06271613     
   2676613401.7280054        7068430.7005600929        649451012.28190327     
   2537233027.0928092        9631601.9332251549        642378557.21114182     
   2398299868.5424485        13685493.448673129        638445107.85040891     
   2259813926.0769186        19230105.246905804        637650664.19973183     
   5957962931.7610378        1787388879.5283115        1150084943.6186464     
   6088422736.1119518        1502240783.4079781        1227944877.0799608     
   6221611469.6092720        1226189117.7756681        1268437330.7179070     
   6357529132.2529993        959233882.63138008        1271562304.5324848     
   6496175724.0431337        701375077.97511601        1237319798.5236950     
   5434683958.8328638        1630405187.6498592        1033502288.9604965     
   5489910746.7519140        1372502899.7989881        1113892765.0820618     
   5547336150.0763283        1121929329.9659972        1167491675.7095325     
   5606960168.8061066        878684478.15088677        1194299020.8429077     
   5668782802.9412518        642768344.35365701        1194314800.4821875     
   4895314084.4963512        1468594225.3489053        936388873.67655301     
   4905524754.0671759        1247002815.1925874        1018691193.0938194     
   4917403725.3023224        1030972410.5840080        1084777861.3462636     
   4930950998.2017889        820503011.52316582        1134648878.4338865     
   4946166572.7655783        615594618.01006186        1168304244.3566873     
   4339853308.7514982        1301955992.6254494        858744697.76681530     
   4335264758.0577345        1125740529.5887766        942340161.11523259     
   4331814195.2872515        953318359.62969911        1020295887.6281016     
   4329501620.4400454        784689482.74821711        1092611877.3054221     
   4328327033.5161180        619853898.94433033        1159288130.1471937     
   3768301631.5983071        1130490489.4794922        800569761.23128366     
   3779130758.7235932        1008716042.9875550        884839669.14630234     
   3790567560.0311165        888967177.10307097        974045754.55504596     
   3802612035.5208745        771243891.82604027        1068188017.4575143     
   3815264185.1928692        655546187.15646231        1167266457.8537066     
   6496175724.0431337        701375077.97511601        1237319798.5236950     
   6239297217.2818499        375881970.71395779        1053173390.8246421     
   6013331469.4800053        153431393.31759667        908033529.68984830     
   5818278480.6375971        34023345.786030531        801900215.11931455     
   5654138250.7546310        17657828.119261742        734773447.11303866     
   5668782802.9412518        642768344.35365701        1194314800.4821875     
   5518848619.8881712        383282278.41431260        1073467960.6262650     
   5393061170.6699581        204285325.25786281        980647044.44582033     
   5291420455.2866125        105777484.88430762        915852051.94085598     
   5213926473.7381392        87758757.293645859        879082983.11136973     
   4946166572.7655783        615594618.01006186        1168304244.3566873     
   4871803505.1670446        412703630.91643405        1102863276.3652284     
   4814821146.2788076        267748339.52379799        1054467609.1604686     
   4775219496.1008673        180728743.83215523        1023117242.7424067     
   4752998554.6332273        151644843.84150481        1008812177.1110451     
   4328327033.5161180        619853898.94433033        1159288130.1471937     
   4298161873.1184711        464146028.22032058        1141359338.0415328     
   4278611396.3065524        343820436.11540127        1129495223.8337915     
   4269675603.0803604        258877122.62957358        1123695787.5239687     
   4271354493.4398966        209316087.76283765        1123961029.1120641     
   3815264185.1928692        655546187.15646231        1167266457.8537066     
   3797923723.7424536        537609470.32597411        1188956145.6551785     
   3784431920.7531939        432501615.03267479        1205729888.4657903     
   3774788776.2250919        340222621.27656555        1217587686.2855396     
   3768994290.1581459        260772489.05764377        1224529539.1144276     
   5654138250.7546310        17657828.119261742        734773447.11303866     
   5520135544.1785507        49037387.535917282        721608860.26513100     
   5380739080.9010677        62437757.947900534        710284187.05303848     
   5235948860.9221849        57858939.355211496        700799427.47676361     
   5085764884.2419014        35300931.757850885        693154581.53630078     
   5213926473.7381392        87758757.293645859        879082983.11136973     
   5077387567.6253824        85423591.160702705        855355594.29741931     
   4938721953.2779837        75999397.578938723        835617690.40781391     
   4797929630.6959343        59486176.548344612        819869271.44255197     
   4655010599.8792372        35883928.068928480        808110337.40163124     
   4752998554.6332273        151644843.84150481        1008812177.1110451     
   4620065081.2367401        117437441.83484745        978333542.87559807     
   4488271948.0723581        87031173.935213804        953993964.85302269     
   4357619155.1400852        60426040.142601967        935793443.04332316     
   4228106702.4399166        37622040.457011461        923731977.44649303     
   4271354493.4398966        209316087.76283765        1123961029.1120641     
   4148168085.0126157        145078939.55834842        1090542705.9996665     
   4029389065.2841983        95533087.016728878        1065413010.3886718     
   3915017434.2546420        60678530.137979031        1048571942.2790779     
   3805053191.9239440        40515268.922096491        1040019501.6708858     
   3768994290.1581459        260772489.05764377        1224529539.1144276     
   3661696578.9530153        168348084.33120418        1191983083.6696258     
   3562073304.9135013        101505136.82348371        1169874827.0147543     
   3470124468.0395994        60243646.534476280        1158204769.1498148     
   3385850068.3313146        44563613.464184880        1156972910.0748076     
   5085764884.2419014        35300931.757850885        693154581.53630078     
   4935101975.3622255        8965153.5210618973        675920841.79665446     
   4787436719.2413492       -7378448.8530707359        665399138.08235335     
   4642769115.8792696       -13729875.364542007        661589470.39338851     
   4501099165.2759876       -10089126.013357401        664491838.72976446     
   4655010599.8792372        35883928.068928480        808110337.40163124     
   4522572115.1536198        15527515.229566813        794859979.31146586     
   4392327375.0226870        2483584.3724918365        787536519.45352042     
   4264276379.4864445       -3247864.5022850037        786139957.82779527     
   4138419128.5448866       -1666831.3947780132        790670294.43429339     
   4228106702.4399166        37622040.457011461        923731977.44649303     
   4111649391.0308723        22572017.763831377        913527108.14767790     
   3996581916.0524058        12154783.172572613        908463999.28796327     
   3882904277.5045142        6370336.6832396984        908542650.86735082     
   3770616475.3872032        5218678.2958309650        913763062.88584077     
   3805053191.9239440        40515268.922096491        1040019501.6708858     
   3702333802.9939909        30098661.123852730        1031922228.3052899     
   3600200342.3305044        21635147.547164679        1028181577.5856763     
   3498652809.9334846        15124728.192034245        1028797549.5120467     
   3397691205.8029327        10567403.058460474        1033770144.0843984     
   3385850068.3313146        44563613.464184880        1156972910.0748076     
   3294625351.0429711        38107445.309636354        1150045339.7843041     
   3203182653.8569827        30924677.496273279        1146689254.3466654     
   3111521976.7733517        23015310.024102092        1146904653.7618880     
   3019643319.7920780        14379342.893116713        1150691538.0299754     
   4501099165.2759876       -10089126.013357401        664491838.72976446     
   4361681893.6945953       -2611615.1126708984        660180799.85991263     
   4221351117.3827171        1820880.0197265148        659389743.06183136     
   4080106836.3403525        3208359.3838319778        662118668.33551240     
   3937949050.5674973        1550822.9796431065        668367575.68095589     
   4138419128.5448866       -1666831.3947780132        790670294.43429339     
   4007303142.8988447        1025743.5623862743        784012999.09063971     
   3875766486.6763496        2316083.2647051811        781325542.22784305     
   3743809159.8774052        2204187.7121963501        782607923.84590268     
   3611431162.5020123        690056.90485119820        787860143.94481611     
   3770616475.3872032        5218678.2958309650        913763062.88584077     
   3649087079.7024865        3511908.5172510147        905334484.24808979     
   3527629847.5953569        2045683.9972939491        901325600.50029135     
   3406244779.0658159        820004.73596572876        901736411.64243829     
   3284931874.1138592       -165129.26673936844        906566917.67453992     
   3397691205.8029327        10567403.058460474        1033770144.0843984     
   3287033704.1055222        4846879.7519361973        1024145255.3322666     
   3176941200.1397367        1009682.2174988985        1019389917.8791771     
   3067413693.9055753       -944189.54486107826        1019504131.7251277     
   2958451185.4030409       -1014735.5351287127        1024487896.8701214     
   3019643319.7920780        14379342.893116713        1150691538.0299754     
   2921143016.1079531        5030657.2664436102        1140445312.3431683     
   2823700544.3094893       -791922.07469093800        1135518494.3644993     
   2727315904.3966918       -3088395.1302756071        1135911084.0939608     
   2631989096.3695569       -1858761.9003177881        1141623081.5315599     
   3937949050.5674973        1550822.9796431065        668367575.68095589     
   3796966811.3041883       -558695.07082295418        661428826.55066442     
   3656367541.2114973       -1391649.2192282677        658813622.18702877     
   3516151240.2894197       -948039.46558833122        660521962.59004319     
   3376317908.5379634        772134.19012260437        666553847.75970817     
   3611431162.5020123        690056.90485119820        787860143.94481611     
   3482011563.3194118       -187439.15211629868        781281668.54709566     
   3352847216.2248344       -214094.91567945480        778989674.13861048     
   3223938121.2182765        610089.61415457726        780984160.71937370     
   3095284278.2997332        2285114.4373748302        787265128.28937066     
   3284931874.1138592       -165129.26673936844        906566917.67453992     
   3166969018.5050898        157627.71773946285        900199712.74635279     
   3049133697.9017367        905501.38694536686        898081925.02999270     
   2931425912.3038049        2078491.7408925295        900213554.52546287     
   2813845661.7112908        3676598.7795648575        906594601.23276639     
   2958451185.4030409       -1014735.5351287127        1024487896.8701214     
   2851839176.8612056        476505.53871691227        1018182959.1484318     
   2745226986.2421970        1967139.6886426210        1016090374.8611662     
   2638614613.5460033        3457166.9146296978        1018210144.0083182     
   2532002058.7726350        4946587.2166901827        1024542266.5898948     
   2631989096.3695569       -1858761.9003177881        1141623081.5315599     
   2536622038.3877754        769194.31083893776        1135231407.7533433     
   2441127081.2462120        2970819.9893921614        1133015023.6321361     
   2345504224.9448800        4746115.1353776455        1134973929.1679392     
   2249753469.4837618        6095079.7487502098        1141108124.3607533     
   3376317908.5379634        772134.19012260437        666553847.75970817     
   3236584627.7829862        2864589.8052847385        658923667.84166634     
   3096694048.1830106        4432715.9371075630        655231712.08615828     
   2956646169.7380266        5476512.5855755806        655477980.49317217     
   2816440992.4480481        5995979.7507172823        659662473.06271613     
   3095284278.2997332        2285114.4373748302        787265128.28937066     
   2965815439.2902231        4058660.1426337957        779430914.43982017     
   2836317515.0340090        5735255.0255370140        775627795.44191968     
   2706790505.5310807        7314899.0860764980        775855771.29567671     
   2577234410.7814565        8797592.3242781162        780114842.00108433     
   2813845661.7112908        3676598.7795648575        906594601.23276639     
   2694906609.2733154        5210838.0227359533        898705935.98305357     
   2576066685.1869268        7075505.1045389175        894941236.27411246     
   2457325889.4521341        9270600.0249840021        895300502.10595274     
   2338684222.0689240        11796122.784058213        899783733.47856641     
   2532002058.7726350        4946587.2166901827        1024542266.5898948     
   2423858137.7322631        6321123.4456032515        1016748732.4713598     
   2315941558.6417737        8453466.1741213799        1013172034.5827295     
   2208252321.5011735        11343615.402278781        1013812172.9239976     
   2100790426.3104653        14991571.130063295        1018669147.4951718     
   2249753469.4837618        6095079.7487502098        1141108124.3607533     
   2152670024.6670623        7389516.4112125635        1133559303.9047494     
   2055942135.3985407        9869138.2342782021        1130320190.3677714     
   1959569801.6782100        13533945.217978835        1131390783.7498236     
   1863553023.5060611        18383937.362284660        1136771084.0508966     
   2816440992.4480481        5995979.7507172823        659662473.06271613     
   2676613401.7280054        7068430.7005600929        649451012.28190327     
   2537233027.0928092        9631601.9332251549        642378557.21114182     
   2398299868.5424485        13685493.448673129        638445107.85040891     
   2259813926.0769186        19230105.246905804        637650664.19973183     
   2577234410.7814565        8797592.3242781162        780114842.00108433     
   2446062618.8204865        10295646.251237273        770744335.37912714     
   2315249628.4922719        12989705.620712161        764794913.71323371     
   2184795439.7968073        16879770.432679653        762266577.00339770     
   2054700052.7340956        21965840.687166572        763159325.24962676     
   2338684222.0689240        11796122.784058213        899783733.47856641     
   2216974169.5699301        13961561.898993134        891151030.82136953     
   2095534504.2516007        17028291.616145968        886221492.36624849     
   1974365226.1139312        20996311.935517192        884995118.11320448     
   1853466335.1569378        25865622.857120395        887471908.06223643     
   2100790426.3104653        14991571.130063295        1018669147.4951718     
   1989348053.9763391        18066177.643840313        1010671098.6086349     
   1878087654.3707922        21747359.919544935        1006658293.1701872     
   1767009227.4938242        26035117.957188249        1006630731.1798298     
   1656112773.3454483        30929451.756781280        1010588412.6375620     
   1863553023.5060611        18383937.362284660        1136771084.0508966     
   1763184272.0397136        22609493.485783935        1129304538.7409143     
   1662909078.8498509        27146910.530902743        1126105316.1250379     
   1562727443.9364886        31996188.497690141        1127173416.2032697     
   1462639367.2996252        37157327.386135399        1132508838.9756124     
   3768301631.5983071        1130490489.4794922        800569761.23128366     
   3779130758.7235932        1008716042.9875550        884839669.14630234     
   3790567560.0311165        888967177.10307097        974045754.55504596     
   3802612035.5208745        771243891.82604027        1068188017.4575143     
   3815264185.1928692        655546187.15646231        1167266457.8537066     
   3207836955.8174596        962351086.74523795        756708428.16836751     
   3235874589.5767117        868209426.76861691        853058516.53268850     
   3263636063.7866368        773147234.96090508        951332943.31049335     
   3291121378.4472346        677164511.32210326        1051531708.5017819     
   3318330533.5585055        580261255.85221052        1153654812.1065545     
   2685637184.1896391        805691155.25689173        722005062.67647552     
   2722278070.0678825        736600705.44109440        829404192.13660908     
   2757758962.6652360        663643611.35566330        935715820.92998493     
   2792079861.9816995        586819873.00059795        1040939949.0566041     
   2825240768.0172720        506129490.37589836        1145076576.5164654     
   2201702316.7148457        660510695.01445377        696459664.75560832     
   2238341200.1971064        613889879.00498796        813876695.95806336     
   2272936256.6669145        560456306.28734457        927194387.41352057     
   2305487486.1242685        500209976.86152375        1036412739.1219791     
   2335994888.5691700        433150890.72752506        1141531751.0834403     
   1756032353.3930788        526809706.01792365        680072234.40576541     
   1784063979.9643831        500076947.46029735        806476027.99705231     
   1809167945.7916706        463585319.75594974        925768642.76109982     
   1831344250.8749418        417334822.90488100        1037950078.6979090     
   1850592895.2141974        361325456.90709102        1143020335.8074782     
   3815264185.1928692        655546187.15646231        1167266457.8537066     
   3797923723.7424536        537609470.32597411        1188956145.6551785     
   3784431920.7531939        432501615.03267479        1205729888.4657903     
   3774788776.2250919        340222621.27656555        1217587686.2855396     
   3768994290.1581459        260772489.05764377        1224529539.1144276     
   3318330533.5585055        580261255.85221052        1153654812.1065545     
   3293774454.4622445        473069572.11127400        1182012723.6472809     
   3272950232.9314976        378317413.58871341        1207256482.0460155     
   3255857868.9662638        296004780.28452957        1229386087.3027582     
   3242497362.5665407        226131672.19871998        1248401539.4175084     
   2825240768.0172720        506129490.37589836        1145076576.5164654     
   2798617047.9862227        411227232.73782998        1179966444.0848625     
   2775608384.6250424        328375163.99932408        1213543950.3601356     
   2756214777.9337316        257573284.16038227        1245809095.3422866     
   2740436227.9122882        198821593.22100294        1276761879.0313139     
   2335994888.5691700        433150890.72752506        1141531751.0834403     
   2312451504.3143854        352082452.20564127        1182817306.9679222     
   2292406375.8338275        282674866.26450735        1224592293.4081497     
   2275859503.1274953        224928132.90412533        1266856710.4041247     
   2262810886.1953859        178842252.12449121        1309610557.9558458     
   1850592895.2141974        361325456.90709102        1143020335.8074782     
   1835277823.4467356        295635230.51470923        1190565312.2964606     
   1823344206.5578537        241216520.38426280        1240401511.1900585     
   1814792044.5475540        198069326.51575482        1292528932.4882727     
   1809621337.4158347        166193648.90918279        1346947576.1911016     
   3768994290.1581459        260772489.05764377        1224529539.1144276     
   3661696578.9530153        168348084.33120418        1191983083.6696258     
   3562073304.9135013        101505136.82348371        1169874827.0147543     
   3470124468.0395994        60243646.534476280        1158204769.1498148     
   3385850068.3313146        44563613.464184880        1156972910.0748076     
   3242497362.5665407        226131672.19871998        1248401539.4175084     
   3164638723.6943636        151776933.09145045        1231225397.4907060     
   3092851178.0612469        97659171.447716713        1222086574.1948957     
   3027134725.6671953        63778387.267531157        1220985069.5300775     
   2967489366.5122042        50134580.550884485        1227920883.4962521     
   2740436227.9122882        198821593.22100294        1276761879.0313139     
   2685157003.7760944        140478622.45380712        1273085482.7081993     
   2634345528.9524097        97028149.394978285        1275045524.8571372     
   2588001803.4412355        68470174.044519067        1282642005.4781289     
   2546125827.2425728        54804696.402426958        1295874924.5711772     
   2262810886.1953859        178842252.12449121        1309610557.9558458     
   2223251419.1982079        134453152.41827989        1317563339.3221073     
   2186556357.5869875        99612070.665264964        1328751679.0014825     
   2152725701.3617263        74319006.865443230        1343175576.9939749     
   2121759450.5224233        58573961.018815041        1360835033.2995801     
   1809621337.4158347        166193648.90918279        1346947576.1911016     
   1778921969.9607050        133700522.98486960        1364658967.3324287     
   1749483663.9649808        105410935.25857425        1383205036.6279321     
   1721306419.4286630        81324885.730300605        1402585784.0776126     
   1694390236.3517506        61442374.400044799        1422801209.6814690     
   3385850068.3313146        44563613.464184880        1156972910.0748076     
   3294625351.0429711        38107445.309636354        1150045339.7843041     
   3203182653.8569827        30924677.496273279        1146689254.3466654     
   3111521976.7733517        23015310.024102092        1146904653.7618880     
   3019643319.7920780        14379342.893116713        1150691538.0299754     
   2967489366.5122042        50134580.550884485        1227920883.4962521     
   2884812242.9247799        39227727.420338631        1220213471.5986166     
   2802424344.5043368        29284958.179730296        1216536728.0740566     
   2720325671.2508721        20306272.829046726        1216890652.9225693     
   2638516223.1643896        12291671.368306637        1221275246.1441548     
   2546125827.2425728        54804696.402426958        1295874924.5711772     
   2473308250.2709551        39840744.170354962        1287979410.3084705     
   2401287103.5309415        27531559.376960993        1284573747.9390504     
   2330062387.0225306        17877142.022243381        1285657937.4629121     
   2259634100.7457228        10877492.106204510        1291231978.8800566     
   2121759450.5224233        58573961.018815041        1360835033.2995801     
   2060113373.0814958        39946495.559678078        1353343155.9138675     
   1999770930.9367955        25664481.087965727        1350800313.9416471     
   1940732124.0883229        15727917.603675723        1353206507.3829181     
   1882996952.5360765        10136805.106806159        1360561736.2376842     
   1694390236.3517506        61442374.400044799        1422801209.6814690     
   1645227611.3564017        39544981.588315904        1416304708.4148054     
   1597875826.7219017        23683723.312750161        1415216426.0818458     
   1552334882.4482517        13858599.573350728        1419536362.6825867     
   1508604778.5354512        10069610.370117486        1429264518.2170327     
   3019643319.7920780        14379342.893116713        1150691538.0299754     
   2921143016.1079531        5030657.2664436102        1140445312.3431683     
   2823700544.3094893       -791922.07469093800        1135518494.3644993     
   2727315904.3966918       -3088395.1302756071        1135911084.0939608     
   2631989096.3695569       -1858761.9003177881        1141623081.5315599     
   2638516223.1643896        12291671.368306637        1221275246.1441548     
   2554105381.7122226        5171230.0584411621        1212749694.9867961     
   2470509432.5615921        767096.42035806179        1209228573.7650785     
   2387728375.7124996       -920729.54592454433        1210711882.4790061     
   2305762211.1649389        107752.15956091881        1217199621.1285825     
   2259634100.7457228        10877492.106204510        1291231978.8800566     
   2188412785.0326858        5715314.1652979851        1284143672.7373257     
   2117763422.0370576        2459645.2824195623        1281744818.7577488     
   2047686011.7588398        1110485.4575761557        1284035416.9413309     
   1978180554.1980307        1667834.6907576323        1291015467.2880666     
   1882996952.5360765        10136805.106806159        1360561736.2376842     
   1824065226.0693426        6662909.5870139599        1354627245.5947673     
   1765462512.7358911        4285724.5114895105        1353067229.3425186     
   1707188812.5357223        3005249.8802429438        1355881687.4809346     
   1649244125.4688339        2821485.6932650805        1363070620.0100162     
   1508604778.5354512        10069610.370117486        1429264518.2170327     
   1461062704.8221927        8014016.3235846162        1424200413.5591180     
   1413606704.6580873        6245334.1075641513        1423195805.5193777     
   1366236778.0431414        4763563.7220720053        1426250694.0978146     
   1318952924.9773467        3568705.1670854688        1433365079.2944293     
   2631989096.3695569       -1858761.9003177881        1141623081.5315599     
   2536622038.3877754        769194.31083893776        1135231407.7533433     
   2441127081.2462120        2970819.9893921614        1133015023.6321361     
   2345504224.9448800        4746115.1353776455        1134973929.1679392     
   2249753469.4837618        6095079.7487502098        1141108124.3607533     
   2305762211.1649389        107752.15956091881        1217199621.1285825     
   2221126570.1461124        1545987.1487882137        1210338883.4118080     
   2136474232.1390116        2928565.5104290247        1207832343.2145836     
   2051805197.1436336        4255487.2444938421        1209680000.5369177     
   1967119465.1599813        5526752.3509666920        1215881855.3788044     
   1978180554.1980307        1667834.6907576323        1291015467.2880666     
   1904787495.4637172        2069698.0545202494        1283815401.4994862     
   1831488941.9126315        2786578.6957124472        1281148441.0930042     
   1758284893.5447748        3818476.6143300533        1283014586.0686231     
   1685175350.3601463        5165391.8103801012        1289413836.4263394     
   1649244125.4688339        2821485.6932650805        1363070620.0100162     
   1587604814.3405902        2340327.0280315876        1355660962.0163834     
   1526171210.5670810        2544859.5452443957        1352963317.2673924     
   1464943314.1482973        3435083.2448805571        1354977685.7630475     
   1403921125.0842490        5010998.1269613504        1361704067.5033488     
   1318952924.9773467        3568705.1670854688        1433365079.2944293     
   1269578526.7767305        2357874.0693197250        1425875564.9624965     
   1220521038.1023536        2203408.0590217710        1423276971.7377529     
   1171780458.9542022        3105307.1361420751        1425569299.6201987     
   1123356789.3322935        5063571.3007352352        1432752548.6098387     
   2249753469.4837618        6095079.7487502098        1141108124.3607533     
   2152670024.6670623        7389516.4112125635        1133559303.9047494     
   2055942135.3985407        9869138.2342782021        1130320190.3677714     
   1959569801.6782100        13533945.217978835        1131390783.7498236     
   1863553023.5060611        18383937.362284660        1136771084.0508966     
   1967119465.1599813        5526752.3509666920        1215881855.3788044     
   1881388574.9519520        6893273.8697187901        1208997218.5852339     
   1795943922.7516966        9213922.0810599327        1206518974.2201612     
   1710785508.5592189        12488696.984994531        1208447122.2835879     
   1625913332.3745232        16717598.581526458        1214781662.7755146     
   1685175350.3601463        5165391.8103801012        1289413836.4263394     
   1611073259.0735695        6686871.4792533517        1283112512.8313873     
   1537188088.2543595        8931419.3726943135        1281314267.1744082     
   1463519837.9025252        11899035.490713179        1284019099.4554040     
   1390068508.0180576        15589719.833293438        1291227009.6743722     
   1403921125.0842490        5010998.1269613504        1361704067.5033488     
   1341724077.0319071        6770309.2397971749        1355905186.6432090     
   1279674631.9065280        9021630.1091767550        1354706069.2305179     
   1217772789.7081137        11764960.735109627        1358106715.2652740     
   1156018550.4366632        15000301.117580116        1366107124.7474766     
   1123356789.3322935        5063571.3007352352        1432752548.6098387     
   1073341028.8269707        7143587.1513653994        1427375240.0206990     
   1023403553.7082028        9484554.2905128002        1426694380.3884854     
   973544363.97599483        12086472.718194187        1430709969.7131934     
   923763459.63033950        14949342.434384525        1439422007.9948237     
   1863553023.5060611        18383937.362284660        1136771084.0508966     
   1763184272.0397136        22609493.485783935        1129304538.7409143     
   1662909078.8498509        27146910.530902743        1126105316.1250379     
   1562727443.9364886        31996188.497690141        1127173416.2032697     
   1462639367.2996252        37157327.386135399        1132508838.9756124     
   1625913332.3745232        16717598.581526458        1214781662.7755146     
   1536665777.5554051        20247140.012606919        1208157161.0480983     
   1447536327.6459980        24170364.476070404        1205980722.0534666     
   1358524982.6463101        28487271.971909583        1208252345.7916088     
   1269631742.5563362        33197862.500151813        1214972032.2625299     
   1390068508.0180576        15589719.833293438        1291227009.6743722     
   1312458549.9566638        18578166.605113387        1285473189.2682827     
   1234991243.4382021        22042118.520042598        1284348171.6336489     
   1157666588.4626760        25981575.578097522        1287851956.7704625     
   1080484585.0300901        30396537.779281199        1295984544.6787384     
   1156018550.4366632        15000301.117580116        1366107124.7474766     
   1090562589.2434843        17602573.263275146        1361252623.4014695     
   1025273826.2264652        20762172.662838757        1361207664.8655910     
   960152261.38560319        24479099.316254616        1365972249.1398411     
   895197894.72089493        28753353.223522395        1375546376.2242062     
   923763459.63033950        14949342.434384525        1439422007.9948237     
   870977895.41587496        17320359.987124562        1435495463.4476600     
   818384076.01078784        20330526.904457003        1436559201.7492924     
   765982001.41507435        23979843.186367542        1442613222.8997316     
   713771671.62874222        28268308.832883000        1453657526.8989575     
   1756032353.3930788        526809706.01792365        680072234.40576541     
   1784063979.9643831        500076947.46029735        806476027.99705231     
   1809167945.7916706        463585319.75594974        925768642.76109982     
   1831344250.8749418        417334822.90488100        1037950078.6979090     
   1850592895.2141974        361325456.90709102        1143020335.8074782     
   1326377197.8838503        397913159.36515504        669739843.66113269     
   1339590861.6993895        375520573.60866904        791883805.80480611     
   1350608779.9569175        345808835.99214488        908738935.54794395     
   1359430952.6564341        308777946.51558250        1020305232.8905460     
   1366057379.7979388        264427905.17898178        1126582697.8326128     
   890486753.84667122        267146026.15400136        662359564.55589581     
   894089158.98274195        250655624.42154461        781097596.30229461     
   896227733.74680626        229285788.11573261        896369142.07486117     
   896902478.13886368        203036517.23656559        1008174201.8735963     
   896113392.15891492        171907811.78404340        1116512775.6984997     
   448361021.28154188        134508306.38446257        657931397.09005463     
   447558871.81444025        125482099.89892387        774117399.48951781     
   446024807.16133708        114016176.12671319        888659262.34185266     
   443758827.32223231        100110535.06783032        1001556985.6470596     
   440760932.29712588        83765176.722275585        1112810569.4051385     
  0.18846216940517765        5.6538650821553300E-002   656455341.26360929     
  0.19448454980175078        4.0806998348174042E-002   770943215.36647582     
  0.20050998407415743        2.5086045877949360E-002   885609296.34891820     
  0.20653890113754281        9.3764425024655748E-003   1000453584.2109360     
  0.21257106651829416       -6.3225066208124625E-003   1115476078.9525292     
   1850592895.2141974        361325456.90709102        1143020335.8074782     
   1835277823.4467356        295635230.51470923        1190565312.2964606     
   1823344206.5578537        241216520.38426280        1240401511.1900585     
   1814792044.5475540        198069326.51575482        1292528932.4882727     
   1809621337.4158347        166193648.90918279        1346947576.1911016     
   1366057379.7979388        264427905.17898178        1126582697.8326128     
   1360385782.5291269        216904647.34964928        1182008228.4680870     
   1357250276.4207625        177835026.72181186        1238368216.6448963     
   1356650861.4728470        147219043.29546803        1295662662.3630388     
   1358587537.6853805        125056697.07061940        1353891565.6225162     
   896113392.15891492        171907811.78404340        1116512775.6984997     
   896208798.35080576        141388581.20637572        1178832602.8093119     
   897994931.98501253        116505108.76976112        1240730122.5981762     
   901471793.06153524        97257394.474199653        1302205335.0650940     
   906639381.58037341        83645438.319690555        1363258240.2100644     
   440760932.29712588        83765176.722275585        1112810569.4051385     
   442746870.91177297        69087032.084888563        1181038435.3201330     
   445578173.25060356        57226766.528113365        1247487229.0498989     
   449254839.31361735        48184380.051948860        1312156950.5944359     
   453776869.10081470        41959872.656396389        1375047599.9537454     
  0.21257106651829416       -6.3225066208124625E-003   1115476078.9525292     
  0.21202793984828205       -1.4812221389913310E-002   1188625726.0005519     
  0.21753607100184955       -3.1314236917775601E-003   1258639536.0000646     
  0.22909467863857377        2.8717628950214083E-002   1325517508.9510674     
  0.24670364194735558        8.0734880777092774E-002   1389259644.8535612     
   1809621337.4158347        166193648.90918279        1346947576.1911016     
   1778921969.9607050        133700522.98486960        1364658967.3324287     
   1749483663.9649808        105410935.25857425        1383205036.6279321     
   1721306419.4286630        81324885.730300605        1402585784.0776126     
   1694390236.3517506        61442374.400044799        1422801209.6814690     
   1358587537.6853805        125056697.07061940        1353891565.6225162     
   1333034692.6860840        99928356.821306407        1372865236.2038953     
   1308427643.7828784        77952670.225626945        1393263526.1336620     
   1284766390.9757650        59129637.283587337        1415086435.4118152     
   1262050934.2647390        43459257.995175540        1438333964.0383582     
   906639381.58037341        83645438.319690555        1363258240.2100644     
   887918605.30608690        66387547.626132131        1383126380.6409602     
   869828359.76457512        51231426.041823536        1405009081.6144545     
   852368644.95583773        38177073.566763878        1428906343.1305482     
   835539460.87987542        27224490.200952321        1454818165.1892400     
   453776869.10081470        41959872.656396389        1375047599.9537454     
   443573707.82071227        33078095.399345443        1395442400.6436241     
   433685811.91006780        25247202.707156032        1418441703.0703115     
   424113181.36888319        18467194.579832479        1444045507.2338102     
   414855816.19715720        12738071.017370254        1472253813.1341176     
  0.24670364194735558        8.0734880777092774E-002   1389259644.8535612     
  0.22995873749165829       0.14094152241814908        1409813296.2118862     
  0.21935746488463628       0.22162676341577545        1433561390.5012319     
  0.21490056186033923       0.32279332309199221        1460503927.7215993     
  0.21658613547325989       0.44443480489226783        1490640907.8729885     
   1694390236.3517506        61442374.400044799        1422801209.6814690     
   1645227611.3564017        39544981.588315904        1416304708.4148054     
   1597875826.7219017        23683723.312750161        1415216426.0818458     
   1552334882.4482517        13858599.573350728        1419536362.6825867     
   1508604778.5354512        10069610.370117486        1429264518.2170327     
   1262050934.2647390        43459257.995175540        1438333964.0383582     
   1227991891.9741387        27880091.337018311        1435397594.2546484     
   1195290979.9418151        16828025.539782882        1437213093.8900626     
   1163948198.1677694        10303060.603476048        1443780462.9446025     
   1133963546.6520016        8305196.5280926228        1455099701.4182687     
   835539460.87987542        27224490.200952321        1454818165.1892400     
   814708716.96665907        17400964.398159772        1454913765.1021488     
   794783393.20914698        10595505.781047761        1459104884.9196043     
   775763489.60734046        6808114.3496213555        1467391524.6416085     
   757649006.16123855        6038790.1038770080        1479773684.2681592     
   414855816.19715720        12738071.017370254        1472253813.1341176     
   405378086.33396041        8107600.7717352062        1474853220.9573092     
   396353066.52389520        4986164.0365375727        1480891799.1704717     
   387780756.76696134        3373760.8117787987        1490369547.7736044     
   379661157.06316167        3270391.0974664390        1503286466.7667055     
  0.21658613547325989       0.44443480489226783        1490640907.8729885     
   7.6043109538175224E-002  0.45774419053713838        1495215961.8201292     
 -0.11394202888895896       0.30624653454184386        1502573836.6426640     
 -0.35336500781329688       -1.0043402693753672E-002   1512714532.3405893     
 -0.64222972178435667      -0.49114016425250939        1525638048.9139085     
   1508604778.5354512        10069610.370117486        1429264518.2170327     
   1461062704.8221927        8014016.3235846162        1424200413.5591180     
   1413606704.6580873        6245334.1075641513        1423195805.5193777     
   1366236778.0431414        4763563.7220720053        1426250694.0978146     
   1318952924.9773467        3568705.1670854688        1433365079.2944293     
   1133963546.6520016        8305196.5280926228        1455099701.4182687     
   1097337218.5987513        6472569.0139716864        1449650945.6734445     
   1060775445.6866800        4855125.3037809134        1448487966.9260485     
   1024278227.9157883        3452865.3975207806        1451610765.1760790     
   987845565.28607583        2265789.2951922417        1459019340.4235375     
   757649006.16123855        6038790.1038770080        1479773684.2681592     
   732584939.13728261        4623083.7329521775        1473915172.6271238     
   707563908.84652936        3350833.1393701136        1472568718.3627660     
   682585915.28897977        2222038.3231331110        1475734321.4750848     
   657650958.46463227        1236699.2842372358        1483411981.9640808     
   379661157.06316167        3270391.0974664390        1503286466.7667055     
   366805866.43778628        2465560.4805252403        1496993094.4201529     
   353972094.13763666        1732457.6143373251        1495438059.8295250     
   341159840.16271615        1071082.4989138246        1498621362.9948268     
   328369104.51302147        481435.13424205780        1506543003.9160547     
 -0.64222972178435667      -0.49114016425250939        1525638048.9139085     
  0.50026063877464699      -0.74331383539137086        1518884711.0525327     
   1.5600018529707302       -1.2713173005172429        1517095991.3263345     
   2.5369941152454256       -2.0751511257981177        1520271889.7353127     
   3.4312372082817264       -3.1548151682622794        1528412406.2794676     
   1318952924.9773467        3568705.1670854688        1433365079.2944293     
   1269578526.7767305        2357874.0693197250        1425875564.9624965     
   1220521038.1023536        2203408.0590217710        1423276971.7377529     
   1171780458.9542022        3105307.1361420751        1425569299.6201987     
   1123356789.3322935        5063571.3007352352        1432752548.6098387     
   987845565.28607583        2265789.2951922417        1459019340.4235375     
   951196860.72330713        1472293.9934364557        1452128223.7825260     
   914785838.41310072        1471072.8668894768        1450038872.8797419     
   878612498.35545623        2262125.9155490398        1452751287.7151892     
   842676840.55036831        3845453.1393962502        1460265468.2888622     
   657650958.46463227        1236699.2842372358        1483411981.9640808     
   633473217.91410816        784120.89082047343        1477026831.1947031     
   609453932.34247136        859725.76036098599        1475354290.7945921     
   585593101.74971926        1463513.8928486407        1478394360.7637506     
   561890726.13585091        2595485.2882845998        1486147041.1021717     
   328369104.51302147        481435.13424205780        1506543003.9160547     
   316407598.34913623        293354.76147924364        1500571387.1990278     
   304525319.89046061        369366.73941634595        1499223225.4823065     
   292722269.13699389        709471.06805010140        1502498518.7658885     
   280998446.08874029        1313667.7473925054        1510397267.0497766     
   3.4312372082817264       -3.1548151682622794        1528412406.2794676     
   2.0283840998777394       -4.3946076859952914        1522761891.7955027     
   1.0570626562711705       -4.1959602802361591        1521645676.9428792     
  0.51728585929374582       -2.5588305455741973        1525063761.7215989     
  0.40903754742279613       0.51672608499723305        1533016146.1316609     
   1123356789.3322935        5063571.3007352352        1432752548.6098387     
   1073341028.8269707        7143587.1513653994        1427375240.0206990     
   1023403553.7082028        9484554.2905128002        1426694380.3884854     
   973544363.97599483        12086472.718194187        1430709969.7131934     
   923763459.63033950        14949342.434384525        1439422007.9948237     
   842676840.55036831        3845453.1393962502        1460265468.2888622     
   804794821.78335702        5294406.2867575884        1454974107.7129111     
   766971516.94757903        6939072.5382318497        1454465575.5256531     
   729206926.04304147        8779451.8938399255        1458739871.7270801     
   691501049.06973529        10815544.353552967        1467796996.3171918     
   561890726.13585091        2595485.2882845998        1486147041.1021717     
   536389247.48362696        3487415.2453264594        1480918795.1748695     
   510926911.30731374        4509820.1220709980        1480559757.0680215     
   485503717.60691673        5662699.9185341299        1485069926.7816265     
   460119666.38243163        6946054.6347064972        1494449304.3156831     
   280998446.08874029        1313667.7473925054        1510397267.0497766     
   268124305.92777649        1722614.0270517170        1505209302.4065738     
   255269736.78740329        2196797.0420152694        1504976925.0155909     
   242434738.66762090        2736216.7922803760        1509700134.8768311     
   229619311.56842983        3340873.2778498083        1519378931.9902861     
  0.40903754742279613       0.51672608499723305        1533016146.1316609     
  -2.8841917864996915        2.6319483222884092        1527845629.4080191     
  -6.6121551915084629        3.2980576831813608        1527717079.3683643     
  -10.774846697104699        2.5150740693388220        1532630496.0126925     
  -15.372269574481241       0.28298380122709688        1542585879.3410082     
   923763459.63033950        14949342.434384525        1439422007.9948237     
   870977895.41587496        17320359.987124562        1435495463.4476600     
   818384076.01078784        20330526.904457003        1436559201.7492924     
   765982001.41507435        23979843.186367542        1442613222.8997316     
   713771671.62874222        28268308.832883000        1453657526.8989575     
   691501049.06973529        10815544.353552967        1467796996.3171918     
   651582632.60917699        12495033.810504109        1464412962.7248006     
   611808024.53172171        14653884.544466555        1466096035.6548729     
   572177224.83737350        17292096.555450320        1472846215.1074159     
   532690233.52612114        20409669.843429178        1484663501.0824163     
   460119666.38243163        6946054.6347064972        1494449304.3156831     
   433287893.88626057        7999864.8590230346        1491551855.8474052     
   406551993.34692103        9373248.2727786750        1493798337.5752618     
   379911964.76440722        11066204.875951737        1501188749.4992468     
   353367808.13872266        13078734.668555483        1513723091.6193678     
   229619311.56842983        3340873.2778498083        1519378931.9902861     
   216093679.24712566        3834853.1326806471        1516912142.8154738     
   202615982.45637268        4488618.0893516988        1519666107.5104551     
   189186221.19617802        5302168.1478817984        1527640826.0752430     
   175804395.46652991        6275503.3082335219        1540836298.5098238     
  -15.372269574481241       0.28298380122709688        1542585879.3410082     
  -11.308235849547934       -1.3685463934259907        1540493823.6289997     
  -8.1399158475874369       -6.0057889979884465        1543699345.4604599     
  -5.8673213037181231       -13.628782088687425        1552202444.8353832     
  -4.4904488552452531       -24.237517579042720        1566003121.7537792     
  0.18846216940517765        5.6538650821553300E-002   656455341.26360929     
  0.19448454980175078        4.0806998348174042E-002   770943215.36647582     
  0.20050998407415743        2.5086045877949360E-002   885609296.34891820     
  0.20653890113754281        9.3764425024655748E-003   1000453584.2109360     
  0.21257106651829416       -6.3225066208124625E-003   1115476078.9525292     
  -448361020.91239196       -134508306.27371758        657931397.07352638     
  -447558871.43508273       -125482099.83173005        774117399.46987283     
  -446024806.76897186       -114016176.09373668        888659262.32046759     
  -443758826.91405910       -100110535.05973729        1001556985.6253108     
  -440760931.87034458       -83765176.729731649        1112810569.3844020     
  -890486753.50084436       -267146026.05025330        662359564.51677239     
  -894089158.62461209       -250655624.37225574        781097596.26019728     
  -896227733.37077951       -229285788.10225713        896369142.03254271     
  -896902477.73934615       -203036517.24025708        1008174201.8338094     
  -896113391.73031318       -171907811.78625652        1116512775.6639972     
  -1326377197.5768955       -397913159.27306861        669739843.59334755     
  -1339590861.3741035       -375520573.58077008        791883805.73744845     
  -1350608779.6049130       -345808836.00047529        908738935.48514342     
  -1359430952.2693233       -308777946.53218424        1020305232.8364319     
  -1366057379.3673351       -264427905.17589763        1126582697.7913139     
  -1756032353.1405449       -526809705.94216347        680072234.30325150     
  -1784063979.6835568       -500076947.45727283        806476027.90162730     
  -1809167945.4713721       -463585319.78839123        925768642.67826927     
  -1831344250.5039895       -417334822.93551803        1037950078.6331779     
  -1850592894.7814100       -361325456.89865416        1143020335.7663529     
  0.21257106651829416       -6.3225066208124625E-003   1115476078.9525292     
  0.21202793984828205       -1.4812221389913310E-002   1188625726.0005519     
  0.21753607100184955       -3.1314236917775601E-003   1258639536.0000646     
  0.22909467863857377        2.8717628950214083E-002   1325517508.9510674     
  0.24670364194735558        8.0734880777092774E-002   1389259644.8535612     
  -440760931.87034458       -83765176.729731649        1112810569.3844020     
  -442746870.48571926       -69087032.097113818        1181038435.3099921     
  -445578172.81714451       -57226766.517998323        1247487229.0478122     
  -449254838.86462045       -48184379.992385224        1312156950.5978618     
  -453776868.62814724       -41959872.520274624        1375047599.9601412     
  -896113391.73031318       -171907811.78625652        1116512775.6639972     
  -896208797.92983544       -141388581.20332626        1178832602.7913699     
  -897994931.56750989       -116505108.74756980        1240730122.5917118     
  -901471792.64333665       -97257394.418988228        1302205335.0650232     
  -906639381.15731573       -83645438.217579871        1363258240.2113039     
  -1366057379.3673351       -264427905.17589763        1126582697.7913139     
  -1360385782.1203210       -216904647.33344966        1182008228.4446845     
  -1357250276.0335605       -177835026.69184768        1238368216.6317632     
  -1356650861.1070533       -147219043.25109059        1295662662.3525512     
  -1358587537.3408008       -125056697.01118064        1353891565.6070471     
  -1850592894.7814100       -361325456.89865416        1143020335.7663529     
  -1835277823.0571749       -295635230.48748332        1190565312.2699358     
  -1823344206.2152960       -241216520.35083032        1240401511.1679671     
  -1814792044.2557721       -198069326.48869532        1292528932.4604461     
  -1809621337.1786029       -166193648.90107572        1346947576.1473730     
  0.24670364194735558        8.0734880777092774E-002   1389259644.8535612     
  0.22995873749165829       0.14094152241814908        1409813296.2118862     
  0.21935746488463628       0.22162676341577545        1433561390.5012319     
  0.21490056186033923       0.32279332309199221        1460503927.7215993     
  0.21658613547325989       0.44443480489226783        1490640907.8729885     
  -453776868.62814724       -41959872.520274624        1375047599.9601412     
  -443573707.37497920       -33078095.167875275        1395442400.6608183     
  -433685811.47700274       -25247202.332781687        1418441703.1091316     
  -424113180.93421924       -18467194.014998525        1444045507.3050823     
  -414855815.74662864       -12738070.214523286        1472253813.2486689     
  -906639381.15731573       -83645438.217579871        1363258240.2113039     
  -887918604.87247527       -66387547.444458574        1383126380.6661062     
  -869828359.30416358       -51231425.726434499        1405009081.6851614     
  -852368644.45237982       -38177073.063502550        1428906343.2684691     
  -835539460.31712508       -27224489.455667108        1454818165.4160275     
  -1358587537.3408008       -125056697.01118064        1353891565.6070471     
  -1333034692.2625299       -99928356.688810766        1372865236.2277508     
  -1308427643.2621233       -77952669.959323168        1393263526.2293224     
  -1284766390.3395820       -59129636.822719097        1415086435.6117611     
  -1262050933.4949048       -43459257.278995335        1438333964.3750689     
  -1809621337.1786029       -166193648.90107572        1346947576.1473730     
  -1778921969.5451424       -133700522.90092880        1364658967.3457515     
  -1749483663.3508842       -105410935.03145665        1383205036.7416136     
  -1721306418.5958242       -81324885.292645931        1402585784.3349595     
  -1694390235.2799664       -61442373.684508026        1422801210.1257887     
  0.21658613547325989       0.44443480489226783        1490640907.8729885     
   7.6043109538175224E-002  0.45774419053713838        1495215961.8201292     
 -0.11394202888895896       0.30624653454184386        1502573836.6426640     
 -0.35336500781329688       -1.0043402693753672E-002   1512714532.3405893     
 -0.64222972178435667      -0.49114016425250939        1525638048.9139085     
  -414855815.74662864       -12738070.214523286        1472253813.2486689     
  -405378086.18116462       -8107599.8833083808        1474853221.0034099     
  -396353066.72157675       -4986163.2383475453        1480891799.1217101     
  -387780757.36786544       -3373760.2796410471        1490369547.6035681     
  -379661158.12002981       -3270391.0071885586        1503286466.4489837     
  -835539460.31712508       -27224489.455667108        1454818165.4160275     
  -814708716.79374921       -17400963.530971140        1454913765.2458603     
  -794783393.43268704       -10595504.813985854        1459104884.9274180     
  -775763490.23393631       -6808113.3047072887        1467391524.4607000     
  -757649007.19749808       -6038789.0031374097        1479773683.8457065     
  -1262050933.4949048       -43459257.278995335        1438333964.3750689     
  -1227991891.7617145       -27880090.485250235        1435397594.5474820     
  -1195290980.2472711       -16828024.420663774        1437213094.0597880     
  -1163948198.9515769       -10303059.085242391        1443780462.9119847     
  -1133963547.8746331       -8305194.4789862037        1455099701.1040719     
  -1694390235.2799664       -61442373.684508026        1422801210.1257887     
  -1645227611.0850561       -39544980.746139050        1416304708.9082761     
  -1597875827.1653309       -23683722.058387041        1415216426.5188203     
  -1552334883.5207908       -13858597.621252596        1419536362.9574225     
  -1508604780.1514359       -10069607.434735417        1429264518.2240808     
 -0.64222972178435667      -0.49114016425250939        1525638048.9139085     
  0.50026063877464699      -0.74331383539137086        1518884711.0525327     
   1.5600018529707302       -1.2713173005172429        1517095991.3263345     
   2.5369941152454256       -2.0751511257981177        1520271889.7353127     
   3.4312372082817264       -3.1548151682622794        1528412406.2794676     
  -379661158.12002981       -3270391.0071885586        1503286466.4489837     
  -366805865.10238928       -2465560.4144402146        1496993093.7820752     
  -353972090.64523381       -1732458.3566431105        1495438058.8428149     
  -341159834.74856228       -1071084.8337921798        1498621361.6312051     
  -328369097.41237396       -481439.84588657320        1506543002.1472421     
  -757649007.19749808       -6038789.0031374097        1479773683.8457065     
  -732584937.75478721       -4623082.2004909813        1473915171.4825711     
  -707563905.35029590       -3350832.1919122934        1472568716.4395583     
  -682585909.98402548       -2222038.9774037302        1475734318.7166657     
  -657650951.65597486       -1236702.5569581985        1483411978.3138940     
  -1133963547.8746331       -8305194.4789862037        1455099701.1040719     
  -1097337217.4569330       -6472566.1014677286        1449650944.1540203     
  -1060775442.5551870       -4855122.7771341205        1448487964.1165628     
  -1024278223.1693995       -3452864.5059909225        1451610760.9916975     
  -987845559.29956603       -2265791.2880302668        1459019334.7794242     
  -1508604780.1514359       -10069607.434735417        1429264518.2240808     
  -1461062704.2088258       -8014012.1173661947        1424200411.7964222     
  -1413606702.2599065       -6245330.1123036742        1423195801.8738277     
  -1366236774.3046796       -4763561.4195455909        1426250688.4562967     
  -1318952920.3431435       -3568706.0390915871        1433365071.5438316     
   3.4312372082817264       -3.1548151682622794        1528412406.2794676     
   2.0283840998777394       -4.3946076859952914        1522761891.7955027     
   1.0570626562711705       -4.1959602802361591        1521645676.9428792     
  0.51728585929374582       -2.5588305455741973        1525063761.7215989     
  0.40903754742279613       0.51672608499723305        1533016146.1316609     
  -328369097.41237396       -481439.84588657320        1506543002.1472421     
  -316407594.09678763       -293362.31352655590        1500571386.2555251     
  -304525317.65986049       -369374.37669557333        1499223225.4146152     
  -292722268.10159123       -709476.03539122641        1502498519.6245089     
  -280998445.42197621       -1313667.2896019667        1510397268.8852117     
  -657650951.65597486       -1236702.5569581985        1483411978.3138940     
  -633473213.85205209       -784127.32147568464        1477026829.1525328     
  -609453930.23698258       -859732.71550095081        1475354290.4614410     
  -585593100.81076121       -1463518.7390232384        1478394362.2406204     
  -561890725.57339287       -2595485.3920525312        1486147044.4900703     
  -987845559.29956603       -2265791.2880302668        1459019334.7794242     
  -951196857.23741055       -1472299.4184551239        1452128220.4865270     
  -914785836.67429900       -1471079.2123611569        1450038872.0833626     
  -878612497.61023307       -2262130.6697506905        1452751289.5699301     
  -842676840.04521346       -3845453.7906284928        1460265472.9462373     
  -1318952920.3431435       -3568706.0390915871        1433365071.5438316     
  -1269578524.2528577       -2357878.6044544578        1425875560.2575037     
  -1220521036.9718106       -2203413.8672780991        1423276970.2803750     
  -1171780458.5000041       -3105311.8275716901        1425569301.6124418     
  -1123356788.8374321       -5063572.4853138924        1432752554.2537062     
  0.40903754742279613       0.51672608499723305        1533016146.1316609     
  -2.8841917864996915        2.6319483222884092        1527845629.4080191     
  -6.6121551915084629        3.2980576831813608        1527717079.3683643     
  -10.774846697104699        2.5150740693388220        1532630496.0126925     
  -15.372269574481241       0.28298380122709688        1542585879.3410082     
  -280998445.42197621       -1313667.2896019667        1510397268.8852117     
  -268124311.88272837       -1722610.0855966806        1505209303.3165183     
  -255269750.23383376       -2196792.5161028355        1504976925.1452603     
  -242434760.47529370       -2736214.5811249912        1509700134.3714354     
  -229619342.60710138       -3340876.2806386203        1519378930.9950373     
  -561890725.57339287       -2595485.3920525312        1486147044.4900703     
  -536389253.16324711       -3487412.4877379835        1480918796.7114346     
  -510926924.09907603       -4509817.4033386707        1480559757.0436816     
  -485503738.38087916       -5662700.1388554871        1485069925.4868066     
  -460119696.00865835       -6946060.6942885816        1494449302.0408108     
  -842676840.04521346       -3845453.7906284928        1460265472.9462373     
  -804794826.72574747       -5294404.5744729638        1454974109.5927672     
  -766971528.20787680       -6939071.3636357188        1454465575.0636258     
  -729206944.49160695       -8779454.1581336856        1458739869.3588114     
  -691501075.57693410       -10815552.957952499        1467796992.4783242     
  -1123356788.8374321       -5063572.4853138924        1432752554.2537062     
  -1073341032.5702300       -7143586.3458042741        1427375241.9605141     
  -1023403562.5602429       -9484554.3970113397        1426694379.2050936     
  -973544378.80747783       -12086476.638958812        1430709965.9874470     
  -923763481.31192732       -14949353.071621716        1439422002.3075728     
  -15.372269574481241       0.28298380122709688        1542585879.3410082     
  -11.308235849547934       -1.3685463934259907        1540493823.6289997     
  -8.1399158475874369       -6.0057889979884465        1543699345.4604599     
  -5.8673213037181231       -13.628782088687425        1552202444.8353832     
  -4.4904488552452531       -24.237517579042720        1566003121.7537792     
  -229619342.60710138       -3340876.2806386203        1519378930.9950373     
  -216093702.32405302       -3834859.5888381898        1516912140.5266290     
  -202615998.94171762       -4488632.5660816953        1519666103.8347621     
  -189186232.46009693       -5302195.2123742476        1527640820.9194465     
  -175804402.87918893       -6275547.5277081653        1540836291.7806690     
  -460119696.00865835       -6946060.6942885816        1494449302.0408108     
  -433287915.98351681       -7999874.6022422910        1491551851.4768424     
  -406552008.86407894       -9373264.8625430912        1493798330.9224939     
  -379911974.65035093       -11066231.475203469        1501188740.3777685     
  -353367813.34232867       -13078774.440225333        1513723079.8426702     
  -691501075.57693410       -10815552.957952499        1467796992.4783242     
  -651582652.28661692       -12495046.408728093        1464412956.4796367     
  -611808037.90700066       -14653902.895172209        1466096026.7236497     
  -572177232.43807936       -17292122.417268246        1472846203.2103620     
  -532690235.87986755       -20409704.975058883        1484663485.9397786     
  -923763481.31192732       -14949353.071621716        1439422002.3075728     
  -870977911.23335910       -17320375.008313209        1435495455.5350101     
  -818384086.07047999       -20330546.663964391        1436559191.2382247     
  -765982005.82329571       -23979868.038598329        1442613209.4172192     
  -713771670.49180400       -28268339.132211685        1453657510.0719972     
  -1756032353.1405449       -526809705.94216347        680072234.30325150     
  -1784063979.6835568       -500076947.45727283        806476027.90162730     
  -1809167945.4713721       -463585319.78839123        925768642.67826927     
  -1831344250.5039895       -417334822.93551803        1037950078.6331779     
  -1850592894.7814100       -361325456.89865416        1143020335.7663529     
  -2201702316.5236735       -660510694.95710206        696459664.62024403     
  -2238341199.9608793       -613889878.99678087        813876695.83895171     
  -2272936256.3790517       -560456306.30635035        927194387.31260633     
  -2305487485.7781916       -500209976.88581109        1036412739.0412078     
  -2335994888.1582990       -433150890.73516232        1141531751.0247567     
  -2685637184.0581622       -805691155.21744871        722005062.51808465     
  -2722278069.8847594       -736600705.43025637        829404191.99826550     
  -2757758962.4284887       -663643611.36683679        935715820.81007373     
  -2792079861.6893487       -586819873.02718997        1040939948.9535098     
  -2825240767.6673417       -506129490.41131639        1145076576.4285731     
  -3207836955.7440104       -962351086.72320318        756708427.99677336     
  -3235874589.4551973       -868209426.75769889        853058516.37956846     
  -3263636063.6196814       -773147234.96985006        951332943.17067218     
  -3291121378.2374611       -677164511.35965562        1051531708.3700839     
  -3318330533.3085384       -580261255.92711663        1153654811.9778035     
  -3768301631.5812187       -1130490489.4743657        800569761.05631018     
  -3779130758.6721950       -1008716042.9791095        884839668.98286116     
  -3790567559.9526315       -888967177.11539030        974045754.39440084     
  -3802612035.4225283       -771243891.88320780        1068188017.2909291     
  -3815264185.0818868       -655546187.28256261        1167266457.6724467     
  -1850592894.7814100       -361325456.89865416        1143020335.7663529     
  -1835277823.0571749       -295635230.48748332        1190565312.2699358     
  -1823344206.2152960       -241216520.35083032        1240401511.1679671     
  -1814792044.2557721       -198069326.48869532        1292528932.4604461     
  -1809621337.1786029       -166193648.90107572        1346947576.1473730     
  -2335994888.1582990       -433150890.73516232        1141531751.0247567     
  -2312451503.9714875       -352082452.22362143        1182817306.9130909     
  -2292406375.5570149       -282674866.28654754        1224592293.3550282     
  -2275859502.9148846       -224928132.92394465        1266856710.3505685     
  -2262810886.0450935       -178842252.13580811        1309610557.8997128     
  -2825240767.6673417       -506129490.41131639        1145076576.4285731     
  -2798617047.7060800       -411227232.80584359        1179966443.9966762     
  -2775608384.4071441       -328375164.07478964        1213543950.2775373     
  -2756214777.7705340       -257573284.21815515        1245809095.2711568     
  -2740436227.7962503       -198821593.23593986        1276761878.9775343     
  -3318330533.3085384       -580261255.92711663        1153654811.9778035     
  -3293774454.2609553       -473069572.23415101        1182012723.5206921     
  -3272950232.7656837       -378317413.71555483        1207256481.9354944     
  -3255857868.8227224       -296004780.37132835        1229386087.2222099     
  -3242497362.4320717       -226131672.20147133        1248401539.3808391     
  -3815264185.0818868       -655546187.28256261        1167266457.6724467     
  -3797923723.6361117       -537609470.50854182        1188956145.4851384     
  -3784431920.6326308       -432501615.20884073        1205729888.3288987     
  -3774788776.0714483       -340222621.38346112        1217587686.2037275     
  -3768994289.9525604       -260772489.03240263        1224529539.1096256     
  -1809621337.1786029       -166193648.90107572        1346947576.1473730     
  -1778921969.5451424       -133700522.90092880        1364658967.3457515     
  -1749483663.3508842       -105410935.03145665        1383205036.7416136     
  -1721306418.5958242       -81324885.292645931        1402585784.3349595     
  -1694390235.2799664       -61442373.684508026        1422801210.1257887     
  -2262810886.0450935       -178842252.13580811        1309610557.8997128     
  -2223251418.7754807       -134453152.31275475        1317563339.3433516     
  -2186556356.8884926       -99612070.431782126        1328751679.1197228     
  -2152725700.3841286       -74319006.492890358        1343175577.2288265     
  -2121759449.2623875       -58573960.496074677        1360835033.6706617     
  -2740436227.7962503       -198821593.23593986        1276761878.9775343     
  -2685157003.3612027       -140478622.33119297        1273085482.7324405     
  -2634345528.2522020       -97028149.179938674        1275045524.9553266     
  -2588001802.4692497       -68470173.782174110        1282642005.6461945     
  -2546125826.0123429       -54804696.137900114        1295874924.8050427     
  -3242497362.4320717       -226131672.20147133        1248401539.3808391     
  -3164638723.3023076       -151776932.95624876        1231225397.5130174     
  -3092851177.4420128       -97659171.275925756        1222086574.2484255     
  -3027134724.8511906       -63778387.160506725        1220985069.5870628     
  -2967489365.5298367       -50134580.609986067        1227920883.5289309     
  -3768994289.9525604       -260772489.03240263        1224529539.1096256     
  -3661696578.5987964       -168348084.18791687        1191983083.6850827     
  -3562073304.4579258       -101505136.71974421        1169874826.9990189     
  -3470124467.5299497       -60243646.627883911        1158204769.0514338     
  -3385850067.8148665       -44563613.912334561        1156972909.8423264     
  -1694390235.2799664       -61442373.684508026        1422801210.1257887     
  -1645227611.0850561       -39544980.746139050        1416304708.9082761     
  -1597875827.1653309       -23683722.058387041        1415216426.5188203     
  -1552334883.5207908       -13858597.621252596        1419536362.9574225     
  -1508604780.1514359       -10069607.434735417        1429264518.2240808     
  -2121759449.2623875       -58573960.496074677        1360835033.6706617     
  -2060113372.8290532       -39946495.129648328        1353343156.4125156     
  -1999770931.6002543       -25664480.445014238        1350800314.5647793     
  -1940732125.5759974       -15727916.442179799        1353206508.1274529     
  -1882996954.7562768       -10136803.121138334        1360561737.1005361     
  -2546125826.0123429       -54804696.137900114        1295874924.8050427     
  -2473308249.9624319       -39840744.129967093        1287979410.7553501     
  -2401287104.0464134       -27531559.235008836        1284573748.6984198     
  -2330062388.2642884       -17877141.453030944        1285657938.6342518     
  -2259634102.6160564       -10877490.784024477        1291231980.5628469     
  -2967489365.5298367       -50134580.609986067        1227920883.5289309     
  -2884812242.4851995       -39227727.747105837        1220213471.9367785     
  -2802424344.5038075       -29284958.428377151        1216536728.9197414     
  -2720325671.5856647       -20306272.653807282        1216890654.4778211     
  -2638516223.7307668       -12291670.423389792        1221275248.6110139     
  -3385850067.8148665       -44563613.912334561        1156972909.8423264     
  -3294625350.3973522       -38107445.981058598        1150045339.9568017     
  -3203182652.9724374       -30924678.025113940        1146689255.2287452     
  -3111521975.5401239       -23015310.044509053        1146904655.6581559     
  -3019643318.1004105       -14379342.039235353        1150691541.2450368     
  -1508604780.1514359       -10069607.434735417        1429264518.2240808     
  -1461062704.2088258       -8014012.1173661947        1424200411.7964222     
  -1413606702.2599065       -6245330.1123036742        1423195801.8738277     
  -1366236774.3046796       -4763561.4195455909        1426250688.4562967     
  -1318952920.3431435       -3568706.0390915871        1433365071.5438316     
  -1882996954.7562768       -10136803.121138334        1360561737.1005361     
  -1824065226.4008391       -6662906.3978514671        1354627244.5423164     
  -1765462511.5387521       -4285721.3190708160        1353067226.2413819     
  -1707188810.1700201       -3005247.8848053217        1355881682.1977310     
  -1649244122.2946393       -2821486.0950477123        1363070612.4113622     
  -2259634102.6160564       -10877490.784024477        1291231980.5628469     
  -2188412785.4128757       -5715311.7243431807        1284143672.4577963     
  -2117763421.2027102       -2459642.6413788795        1281744816.3622499     
  -2047686009.9855604       -1110483.5351264477        1284035412.2762048     
  -1978180551.7614241       -1667834.4055922031        1291015460.1996620     
  -2638516223.7307668       -12291670.423389792        1221275248.6110139     
  -2554105381.2449336       -5171228.0968393087        1212749695.5428603     
  -2470509431.2517796       -767094.07921850681        1209228572.2364278     
  -2387728373.7512994        920731.62949001789        1210711878.6917169     
  -2305762208.7434964       -107750.97072219849        1217199614.9087298     
  -3019643318.1004105       -14379342.039235353        1150691541.2450368     
  -2921143013.8970156       -5030655.5153481960        1140445313.7975073     
  -2823700541.6859570        791924.36741423607        1135518493.8639195     
  -2727315901.4672356        3088397.6090513468        1135911081.4442720     
  -2631989093.2408538        1858764.2095623016        1141623076.5385666     
  -1318952920.3431435       -3568706.0390915871        1433365071.5438316     
  -1269578524.2528577       -2357878.6044544578        1425875560.2575037     
  -1220521036.9718106       -2203413.8672780991        1423276970.2803750     
  -1171780458.5000041       -3105311.8275716901        1425569301.6124418     
  -1123356788.8374321       -5063572.4853138924        1432752554.2537062     
  -1649244122.2946393       -2821486.0950477123        1363070612.4113622     
  -1587604812.5663915       -2340330.1359646916        1355660958.4412575     
  -1526171209.5996435       -2544863.3818826675        1352963317.8393612     
  -1464943313.3944092       -3435085.8328415751        1354977690.6056724     
  -1403921123.9506681       -5010997.4887855649        1361704076.7401967     
  -1978180551.7614241       -1667834.4055922031        1291015460.1996620     
  -1904787493.9408922       -2069699.5857583284        1283815399.2681355     
  -1831488940.8341317       -2786580.4784938097        1281148443.7638283     
  -1758284892.4411411       -3818477.0837962627        1283014593.6867423     
  -1685175348.7619207       -5165389.4016655684        1289413849.0368736     
  -2305762208.7434964       -107750.97072219849        1217199614.9087298     
  -2221126568.3763638       -1545986.9538449049        1210338882.7381382     
  -2136474230.6752684       -2928565.1570878029        1207832348.0537786     
  -2051805195.6402097       -4255485.5804584026        1209680010.8556516     
  -1967119463.2711897       -5526748.2239489555        1215881871.1437511     
  -2631989093.2408538        1858764.2095623016        1141623076.5385666     
  -2536622035.8728051       -769192.24022722244        1135231408.8512669     
  -2441127079.1230612       -2970817.4176937342        1133015030.7092083     
  -2345504222.9916134       -4746111.3228199482        1134973942.1123929     
  -2249753467.4784746       -6095073.9556336403        1141108143.0608218     
  -1123356788.8374321       -5063572.4853138924        1432752554.2537062     
  -1073341032.5702300       -7143586.3458042741        1427375241.9605141     
  -1023403562.5602429       -9484554.3970113397        1426694379.2050936     
  -973544378.80747783       -12086476.638958812        1430709965.9874470     
  -923763481.31192732       -14949353.071621716        1439422002.3075728     
  -1403921123.9506681       -5010997.4887855649        1361704076.7401967     
  -1341724078.7985675       -6770306.6234503984        1355905191.0947044     
  -1279674637.3407071       -9021628.0722493529        1354706069.3477089     
  -1217772799.5770879       -11764961.835190654        1358106711.4992118     
  -1156018565.5077114       -15000307.912271023        1366107117.5492086     
  -1685175348.7619207       -5165389.4016655684        1289413849.0368736     
  -1611073259.4085705       -6686867.2155987024        1283112519.6958940     
  -1537188091.1864834       -8931415.4670814276        1281314268.6141326     
  -1463519844.0956671       -11899034.156126618        1284019095.7915912     
  -1390068518.1361110       -15589723.282706559        1291227001.2282665     
  -1967119463.2711897       -5526748.2239489555        1215881871.1437511     
  -1881388574.4002423       -6893268.1222547293        1208997227.7640851     
  -1795943924.0975764       -9213916.5815048218        1206518977.0043621     
  -1710785512.3632030       -12488693.601733088        1208447118.8645809     
  -1625913339.1971216       -16717599.182924688        1214781653.3447409     
  -2249753467.4784746       -6095073.9556336403        1141108143.0608218     
  -2152670023.7735753       -7389509.3433957100        1133559315.2992759     
  -2055942136.0739868       -9869131.4155336618        1130320194.5183966     
  -1959569804.3797131       -13533940.172053933        1131390780.7181826     
  -1863553028.6907468       -18383935.612923861        1136771073.8986318     
  -923763481.31192732       -14949353.071621716        1439422002.3075728     
  -870977911.23335910       -17320375.008313209        1435495455.5350101     
  -818384086.07047999       -20330546.663964391        1436559191.2382247     
  -765982005.82329571       -23979868.038598329        1442613209.4172192     
  -713771670.49180400       -28268339.132211685        1453657510.0719972     
  -1156018565.5077114       -15000307.912271023        1366107117.5492086     
  -1090562599.3645759       -17602584.056302905        1361252613.2411811     
  -1025273831.5199852       -20762187.862150609        1361207651.3241210     
  -960152261.97394788       -24479119.329846740        1365972231.7980280     
  -895197890.72645533       -28753378.459355265        1375546354.6628983     
  -1390068518.1361110       -15589723.282706559        1291227001.2282665     
  -1312458556.1707280       -18578173.706766546        1285473177.1047747     
  -1234991245.8867545       -22042129.735523224        1284348155.2874396     
  -1157666587.2841849       -25981591.368959010        1287851935.7762601     
  -1080484580.3630221       -30396558.607086897        1295984518.5712261     
  -1625913339.1971216       -16717599.182924688        1214781653.3447409     
  -1536665781.6518199       -20247143.959725320        1208157147.1257873     
  -1447536329.1707768       -24170372.284061491        1205980703.1281741     
  -1358524981.7539995       -28487284.155947030        1208252321.3519015     
  -1269631739.4014883       -33197879.575384915        1214972001.7969689     
  -1863553028.6907468       -18383935.612923861        1136771073.8986318     
  -1763184275.8078446       -22609494.815154076        1129304523.3042190     
  -1662909081.3720672       -27146915.507799268        1126105294.8463278     
  -1562727445.3834031       -31996197.690826476        1127173388.5249674     
  -1462639367.8418596       -37157341.364247859        1132508804.3401334     
  -3768301631.5812187       -1130490489.4743657        800569761.05631018     
  -3779130758.6721950       -1008716042.9791095        884839668.98286116     
  -3790567559.9526315       -888967177.11539030        974045754.39440084     
  -3802612035.4225283       -771243891.88320780        1068188017.2909291     
  -3815264185.0818868       -655546187.28256261        1167266457.6724467     
  -4339853308.7934666       -1301955992.6380398        858744697.59438527     
  -4335264758.0863342       -1125740529.5959032        942340160.94508779     
  -4331814195.3076162       -953318359.64847994        1020295887.4523734     
  -4329501620.4573116       -784689482.79577041        1092611877.1162419     
  -4328327033.5354223       -619853899.03777480        1159288129.9366932     
  -4895314084.6044331       -1468594225.3813300        936388873.50868857     
  -4905524754.1803532       -1247002815.2166605        1018691192.9214313     
  -4917403725.4236403       -1030972410.6098815        1084777861.1623507     
  -4930950998.3342962       -820503011.56099296        1134648878.2314472     
  -4946166572.9123182       -615594618.06999445        1168304244.1287210     
  -5434683959.0141172       -1630405187.7042351        1033502288.7992203     
  -5489910746.9542503       -1372502899.8413813        1113892764.9118910     
  -5547336150.3007011       -1121929329.9995942        1167491675.5243323     
  -5606960169.0534754       -878684478.17887425        1194299020.6365457     
  -5668782803.2125683       -642768344.37922120        1194314800.2485287     
  -5957962932.0225210       -1787388879.6067564        1150084943.4659801     
  -6088422736.4080257       -1502240783.4700658        1227944876.9164670     
  -6221611469.9388018       -1226189117.8176181        1268437330.5383193     
  -6357529132.6148539       -959233882.64941502        1271562304.3315368     
  -6496175724.4361763       -701375077.96545410        1237319798.2961190     
  -3815264185.0818868       -655546187.28256261        1167266457.6724467     
  -3797923723.6361117       -537609470.50854182        1188956145.4851384     
  -3784431920.6326308       -432501615.20884073        1205729888.3288987     
  -3774788776.0714483       -340222621.38346112        1217587686.2037275     
  -3768994289.9525604       -260772489.03240263        1224529539.1096256     
  -4328327033.5354223       -619853899.03777480        1159288129.9366932     
  -4298161873.0879526       -464146028.33717883        1141359337.8551133     
  -4278611396.2165127       -343820436.22335219        1129495223.6837900     
  -4269675602.9211011       -258877122.69629192        1123695787.4227235     
  -4271354493.2017221       -209316087.75600100        1123961029.0719135     
  -4946166572.9123182       -615594618.06999445        1168304244.1287210     
  -4871803505.2368994       -412703630.97494769        1102863276.1635129     
  -4814821146.2712479       -267748339.57911706        1054467608.9877491     
  -4775219496.0153589       -180728743.88250256        1023117242.6014305     
  -4752998554.4692354       -151644843.88510346        1008812177.0045556     
  -5668782803.2125683       -642768344.37922120        1194314800.2485287     
  -5518848620.0829525       -383282278.42184830        1073467960.4103363     
  -5393061170.7968369       -204285325.27613878        980647044.24077547     
  -5291420455.3542194       -105777484.94209361        915852051.73984706     
  -5213926473.7551022       -87758757.419712067        879082982.90755117     
  -6496175724.4361763       -701375077.96545410        1237319798.2961190     
  -6239297217.6261110       -375881970.67788029        1053173390.5955839     
  -6013331469.7932796       -153431393.31441736        908033529.44286919     
  -5818278480.9376850       -34023345.875067711        801900214.83797538     
  -5654138251.0593185       -17657828.359827280        734773446.78090119     
  -3768994289.9525604       -260772489.03240263        1224529539.1096256     
  -3661696578.5987964       -168348084.18791687        1191983083.6850827     
  -3562073304.4579258       -101505136.71974421        1169874826.9990189     
  -3470124467.5299497       -60243646.627883911        1158204769.0514338     
  -3385850067.8148665       -44563613.912334561        1156972909.8423264     
  -4271354493.2017221       -209316087.75600100        1123961029.0719135     
  -4148168084.7613969       -145078939.51579022        1090542705.9110224     
  -4029389065.0415421       -95533087.010486603        1065413010.2176864     
  -3915017434.0421615       -60678530.240091801        1048571941.9919057     
  -3805053191.7632556       -40515269.204612970        1040019501.2336812     
  -4752998554.4692354       -151644843.88510346        1008812177.0045556     
  -4620065081.1449833       -117437441.90995550        978333542.68180680     
  -4488271948.0487843       -87031174.028316498        953993964.55568969     
  -4357619155.1806374       -60426040.240181923        935793442.62620509     
  -4228106702.5405450       -37622040.545557261        923731976.89335358     
  -5213926473.7551022       -87758757.419712067        879082982.90755117     
  -5077387567.7495642       -85423591.370421410        855355593.99743509     
  -4938721953.4796562       -75999397.773234129        835617690.01302767     
  -4797929630.9453793       -59486176.628150940        819869270.95433116     
  -4655010600.1467352       -35883927.935174942        808110336.82134283     
  -5654138251.0593185       -17657828.359827280        734773446.78090119     
  -5520135544.5751305       -49037387.897181273        721608859.85790920     
  -5380739081.3341532       -62437758.245241404        710284186.58970296     
  -5235948861.3363838       -57858939.403995991        700799426.97628284     
  -5085764884.5818272       -35300931.373459816        693154581.01764965     
  -3385850067.8148665       -44563613.912334561        1156972909.8423264     
  -3294625350.3973522       -38107445.981058598        1150045339.9568017     
  -3203182652.9724374       -30924678.025113940        1146689255.2287452     
  -3111521975.5401239       -23015310.044509053        1146904655.6581559     
  -3019643318.1004105       -14379342.039235353        1150691541.2450368     
  -3805053191.7632556       -40515269.204612970        1040019501.2336812     
  -3702333802.0267563       -30098661.295036554        1031922228.3132334     
  -3600200340.5125418       -21635147.459749460        1028181578.1780059     
  -3498652807.2206144       -15124727.698746443        1028797550.8279996     
  -3397691202.1509714       -10567402.012030602        1033770146.2632133     
  -4228106702.5405450       -37622040.545557261        923731976.89335358     
  -4111649390.1200523       -22572017.548183680        913527108.00334871     
  -3996581914.1515322       -12154782.724046946        908463999.52631772     
  -3882904274.6349826       -6370336.0731470585        908542651.46225929     
  -3770616471.5704064       -5218677.5954875946        913763063.81117558     
  -4655010600.1467352       -35883927.935174942        808110336.82134283     
  -4522572114.6772480       -15527514.740502596        794859979.02714884     
  -4392327373.8894110       -2483583.8180134296        787536519.27368045     
  -4264276377.7832313        3247864.8322842121        786139957.56093955     
  -4138419126.3587122        1666831.2103939056        790670293.88892400     
  -5085764884.5818272       -35300931.373459816        693154581.01764965     
  -4935101975.6983299       -8965152.8719816208        675920841.38463366     
  -4787436719.7261734        7378449.2583568096        665399137.42009664     
  -4642769116.6653595        13729875.017557621        661589469.12403667     
  -4501099166.5158901        10089124.405613422        664491836.49645662     
  -3019643318.1004105       -14379342.039235353        1150691541.2450368     
  -2921143013.8970156       -5030655.5153481960        1140445313.7975073     
  -2823700541.6859570        791924.36741423607        1135518493.8639195     
  -2727315901.4672356        3088397.6090513468        1135911081.4442720     
  -2631989093.2408538        1858764.2095623016        1141623076.5385666     
  -3397691202.1509714       -10567402.012030602        1033770146.2632133     
  -3287033700.4631648       -4846878.4026885033        1024145255.1065022     
  -3176941196.5285535       -1009680.6373389959        1019389915.1733681     
  -3067413690.3471460        944191.28399896622        1019504126.4638135     
  -2958451181.9189363        1014737.3613412380        1024487888.9778383     
  -3770616471.5704064       -5218677.5954875946        913763063.81117558     
  -3649087076.0849347       -3511908.0067126751        905334482.22427297     
  -3527629844.1135230       -2045683.4648103714        901325595.57058859     
  -3406244775.6561766       -820003.96978783607        901736403.85011852     
  -3284931870.7128925        165130.47836136818        906566907.06286812     
  -4138419126.3587122        1666831.2103939056        790670293.88892400     
  -4007303140.7623243       -1025744.3274273872        784012995.15082610     
  -3875766484.4408607       -2316084.1149883270        781325535.05558109     
  -3743809157.3943257       -2204188.1523144245        782607913.60319209     
  -3611431159.6227117       -690056.43937587738        787860130.79365885     
  -4501099166.5158901        10089124.405613422        664491836.49645662     
  -4361681894.4953384        2611612.6351730824        660180793.88615394     
  -4221351117.5105691       -1820882.5878765583        659389733.62834728     
  -4080106835.5615935       -3208361.2635691166        662118655.72303069     
  -3937949048.6484046       -1550823.3918817043        668367560.17020690     
  -2631989093.2408538        1858764.2095623016        1141623076.5385666     
  -2536622035.8728051       -769192.24022722244        1135231408.8512669     
  -2441127079.1230612       -2970817.4176937342        1133015030.7092083     
  -2345504222.9916134       -4746111.3228199482        1134973942.1123929     
  -2249753467.4784746       -6095073.9556336403        1141108143.0608218     
  -2958451181.9189363        1014737.3613412380        1024487888.9778383     
  -2851839174.0692196       -476503.64460670948        1018182957.4457794     
  -2745226984.0111933       -1967137.2895324230        1016090379.3288774     
  -2638614611.7448525       -3457163.5733987093        1018210154.6271322     
  -2532002057.2702012       -4946582.4962395430        1024542283.3405421     
  -3284931870.7128925        165130.47836136818        906566907.06286812     
  -3166969015.6103220       -157626.05239844322        900199708.31710041     
  -3049133695.4728270       -905499.13341176510        898081926.85640240     
  -2931425910.3004074       -2078488.7646722794        900213562.68077648     
  -2813845660.0930667       -3676594.9461890459        906594615.79021847     
  -3611431159.6227117       -690056.43937587738        787860130.79365885     
  -3482011560.4961047        187440.53641390800        781281661.46522951     
  -3352847213.5079632        214097.05065989494        778989673.29178464     
  -3223938118.6582861       -610086.89663600922        780984166.27332556     
  -3095284275.9470639       -2285111.3054721355        787265140.40984833     
  -3937949048.6484046       -1550823.3918817043        668367560.17020690     
  -3796966808.7265830        558696.12180590630        661428816.89016509     
  -3656367538.1166096        1391651.2626624107        658813618.63502264     
  -3516151236.8184834        948042.03069353104        660521965.40477753     
  -3376317904.8322096       -772131.57410979271        666553857.19943035     
  -2249753467.4784746       -6095073.9556336403        1141108143.0608218     
  -2152670023.7735753       -7389509.3433957100        1133559315.2992759     
  -2055942136.0739868       -9869131.4155336618        1130320194.5183966     
  -1959569804.3797131       -13533940.172053933        1131390780.7181826     
  -1863553028.6907468       -18383935.612923861        1136771073.8986318     
  -2532002057.2702012       -4946582.4962395430        1024542283.3405421     
  -2423858137.2261944       -6321117.7785743475        1016748741.7245561     
  -2315941559.4104819       -8453460.4885512590        1013172036.4413478     
  -2208252323.8230586       -11343610.626158357        1013812167.4909178     
  -2100790430.4639211       -14991568.191388130        1018669134.8732679     
  -2813845660.0930667       -3676594.9461890459        906594615.79021847     
  -2694906608.4181962       -5210833.5355662107        898705943.05964673     
  -2576066685.1946006       -7075500.2958463430        894941236.01396775     
  -2457325890.4222741       -9270595.2270274162        895300494.65318274     
  -2338684224.1012144       -11796118.329089999        899783718.97729445     
  -3095284275.9470639       -2285111.3054721355        787265140.40984833     
  -2965815437.3495865       -4058656.6143835783        779430919.30454934     
  -2836317513.4263511       -5735250.8374357224        775627793.23626029     
  -2706790504.1773658       -7314893.9746608734        775855762.20497906     
  -2577234409.6026225       -8797586.0260256529        780114826.21070480     
  -3376317904.8322096       -772131.57410979271        666553857.19943035     
  -3236584624.0203528       -2864587.0149955750        658923670.45926476     
  -3096694044.1057258       -4432712.1133133173        655231708.10822308     
  -2956646165.0883255       -5476506.8690583706        655477970.14630365     
  -2816440986.9681454       -5995971.2821921110        659662456.57350862     
  -1863553028.6907468       -18383935.612923861        1136771073.8986318     
  -1763184275.8078446       -22609494.815154076        1129304523.3042190     
  -1662909081.3720672       -27146915.507799268        1126105294.8463278     
  -1562727445.3834031       -31996197.690826476        1127173388.5249674     
  -1462639367.8418596       -37157341.364247859        1132508804.3401334     
  -2100790430.4639211       -14991568.191388130        1018669134.8732679     
  -1989348057.7346578       -18066176.768173337        1010671080.8504968     
  -1878087658.0447483       -21747362.142794609        1006658269.8132958     
  -1767009231.3941705       -26035124.315207958        1006630701.7616688     
  -1656112777.7829468       -30929463.285440326        1010588376.6956074     
  -2338684224.1012144       -11796118.329089999        899783718.97729445     
  -2216974171.9568930       -13961558.409824133        891151011.16856778     
  -2095534507.4441426       -17028290.595797539        886221467.19445693     
  -1974365230.5629635       -20996314.887002110        884995087.05496228     
  -1853466341.3133588       -25865631.283437014        887471870.75008440     
  -2577234409.6026225       -8797586.0260256529        780114826.21070480     
  -2446062618.4745436       -10295639.740090489        770744314.25843251     
  -2315249629.5702696       -12989700.866826773        764794886.98981988     
  -2184795442.8897758       -16879769.406196237        762266544.40486586     
  -2054700058.4330962       -21965845.358224630        763159286.50356495     
  -2816440986.9681454       -5995971.2821921110        659662456.57350862     
  -2676613397.2876163       -7068420.7589868307        649450990.12008739     
  -2537233024.4231143       -9631592.9558771849        642378529.19937456     
  -2398299868.3746262       -13685487.872813106        638445073.81136298     
  -2259813929.1421633       -19230105.509817839        637650623.95605159     
  -5957962932.0225210       -1787388879.6067564        1150084943.4659801     
  -6088422736.4080257       -1502240783.4700658        1227944876.9164670     
  -6221611469.9388018       -1226189117.8176181        1268437330.5383193     
  -6357529132.6148539       -959233882.64941502        1271562304.3315368     
  -6496175724.4361763       -701375077.96545410        1237319798.2961190     
  -6810561244.4530964       -2043168373.3359289        1353813250.4287488     
  -6828512418.3808184       -1395488175.7653522        1202775076.3997681     
  -6897824075.6941442       -919009589.48011899        1091988228.3745112     
  -7018496216.3930731       -613732614.48022938        1021452706.3529782     
  -7190528840.4776058       -479657250.76568365        991168510.33516955     
  -8337889137.1292992       -2501366741.1387897        1712363622.6073067     
  -8021563663.9353571       -1424624037.1351624        1275690527.8184733     
  -7805230228.3673496       -681188125.21797800        956887564.86572218     
  -7688888830.4252739       -271059005.38723803        755954733.74905443     
  -7672539470.1091328       -194236677.64294243        672892034.46846950     
  -10539946610.051130       -3161983983.0153389        2225736060.0016541     
  -9667576473.0716400       -1589648367.5794954        1446691231.1725826     
  -8943829927.9584160       -512724725.03119612        863135340.01195276     
  -8368706974.7114525        68786944.629559040        475068386.51976472     
  -7942207613.3307581        154886641.40276957        282490370.69601774     
  -13416733663.218586       -4025020098.9655762        2893930562.6117907     
  -11766550845.789671       -1890561167.0983531        1715777186.4620965     
  -10313623174.467346       -413619388.91977262        810731553.81320262     
  -9057950649.2516117        405805235.57016277        178793664.66510946     
  -7999533270.1424770        567712706.37145376       -180036480.98218387     
  -6496175724.4361763       -701375077.96545410        1237319798.2961190     
  -6239297217.6261110       -375881970.67788029        1053173390.5955839     
  -6013331469.7932796       -153431393.31441736        908033529.44286919     
  -5818278480.9376850       -34023345.875067711        801900214.83797538     
  -5654138251.0593185       -17657828.359827280        734773446.78090119     
  -7190528840.4776058       -479657250.76568365        991168510.33516955     
  -6900577408.3239069       -304337275.04527044        846868750.16394973     
  -6623452704.7839041       -171773061.37050748        723658493.30166543     
  -6359154729.8575926       -81964609.741392136        621537739.74831629     
  -6107683483.5449781       -34911920.157930136        540506489.50390410     
  -7672539470.1091328       -194236677.64294243        672892034.46846950     
  -7400706664.7228975       -184447299.12302065        589539290.58402562     
  -7123614557.5868196       -157126914.77028418        509359006.76963454     
  -6841263148.7008991       -112275524.58474016        432351183.02529240     
  -6553652438.0651331       -49893128.566378593        358515819.35100156     
  -7942207613.3307581        154886641.40276957        282490370.69601774     
  -7739684986.8230839       -16212042.911126614        281185011.85581505     
  -7513817028.2020350       -109492953.51375389        265135069.84677643     
  -7264603737.4675999       -124956090.40509987        234340544.66890523     
  -6992045114.6197834       -62601453.585172653        188801436.32219690     
  -7999533270.1424770        567712706.37145376       -180036480.98218387     
  -7917512374.6244726        200368493.59040260       -78194086.020690009     
  -7794060116.6295452       -28871177.600906849       -9013317.4669079669     
  -7629176496.1576996       -120006307.20248938        27505824.679148030     
  -7422861513.2089310       -73036895.214324951        31363340.417489558     
  -5654138251.0593185       -17657828.359827280        734773446.78090119     
  -5520135544.5751305       -49037387.897181273        721608859.85790920     
  -5380739081.3341532       -62437758.245241404        710284186.58970296     
  -5235948861.3363838       -57858939.403995991        700799426.97628284     
  -5085764884.5818272       -35300931.373459816        693154581.01764965     
  -6107683483.5449781       -34911920.157930136        540506489.50390410     
  -5959140017.7107334       -36626007.254505634        534071793.09604967     
  -5809564400.7594061       -34899590.627479315        530136504.27788657     
  -5658956632.6910000       -29732670.276853323        528700623.04941905     
  -5507316713.5055113       -21125246.202625275        529764149.41064429     
  -6553652438.0651331       -49893128.566378593        358515819.35100156     
  -6388683944.4953833       -21376462.706543922        353722473.54529095     
  -6227044905.4482613       -3957978.5888035297        352088029.26418149     
  -6068735320.9237680        2362323.7868437767        353612486.50767237     
  -5913755190.9218998       -2415555.5795946121        358295845.27576345     
  -6992045114.6197834       -62601453.585172653        188801436.32219690     
  -6808767324.9290819       -3288754.2533001900        180560901.20563903     
  -6633180595.4007111        30387077.870798111        176138761.54858798     
  -6465284926.0346794        38426042.787102938        175535017.35104141     
  -6305080316.8309832        20828140.495622873        178749668.61300495     
  -7422861513.2089310       -73036895.214324951        31363340.417489558     
  -7219390159.0118237        17637118.105236530        14587076.077088740     
  -7027971470.6167603        68135578.751320362        2288701.1311046397     
  -6848605448.0237465        78458486.723908424       -5531784.4204706643     
  -6681292091.2327709        48605842.023030758       -8874380.5776255652     
  -5085764884.5818272       -35300931.373459816        693154581.01764965     
  -4935101975.6983299       -8965152.8719816208        675920841.38463366     
  -4787436719.7261734        7378449.2583568096        665399137.42009664     
  -4642769116.6653595        13729875.017557621        661589469.12403667     
  -4501099166.5158901        10089124.405613422        664491836.49645662     
  -5507316713.5055113       -21125246.202625275        529764149.41064429     
  -5345379374.4062719       -9447384.9486236572        514777719.11844313     
  -5184486574.6401691       -1251321.4717597961        505134488.07314074     
  -5024638314.2072077        3462944.2279729843        500834456.27473438     
  -4865834593.1073885        4695412.1505699158        501877623.72322500     
  -5913755190.9218998       -2415555.5795946121        358295845.27576345     
  -5744454382.8114300       -6568899.9344260693        347835356.83228338     
  -5574245000.4559011       -7693663.4723954201        341349231.21411633     
  -5403127043.8553085       -5789846.1934807301        338837468.42126566     
  -5231100513.0096569       -857448.09770441055        340300068.45372921     
  -6305080316.8309832        20828140.495622873        178749668.61300495     
  -6132327000.9138079       -329697.82940244675        175093754.52614504     
  -5956711997.1733713       -11948576.743555069        174043366.84302226     
  -5778235305.6096678       -14028496.246814251        175598505.56362909     
  -5596896926.2227020       -6569456.3392050266        179759170.68797040     
  -6681292091.2327709        48605842.023030758       -8874380.5776255652     
  -6508997228.7134066        9270221.3664612770       -3447087.7999643194     
  -6331887564.7925806       -14016061.285238266        3216894.9598521763     
  -6149963099.4702797       -21253005.932024956        11117567.701823363     
  -5963223832.7465229       -12440612.573948860        20254930.425942592     
  -4501099166.5158901        10089124.405613422        664491836.49645662     
  -4361681894.4953384        2611612.6351730824        660180793.88615394     
  -4221351117.5105691       -1820882.5878765583        659389733.62834728     
  -4080106835.5615935       -3208361.2635691166        662118655.72303069     
  -3937949048.6484046       -1550823.3918817043        668367560.17020690     
  -4865834593.1073885        4695412.1505699158        501877623.72322500     
  -4715675310.2406635        2143099.0397882462        498108119.25646001     
  -4565257059.1815357        454013.23703145981        497945133.39741236     
  -4414579839.9299974       -371845.25770735741        501388666.14608335     
  -4263643652.4860592       -334476.44443106651        508438717.50247085     
  -5231100513.0096569       -857448.09770441055        340300068.45372921     
  -5069951972.8532591        1589611.3842256069        336308475.89672601     
  -4909199001.2762680        2718108.9348132610        336009938.20266312     
  -4748841598.2786722        2528044.5540733337        339404455.37154490     
  -4588879763.8604803        1019418.2419896126        346492027.40337354     
  -5596896926.2227020       -6569456.3392050266        179759170.68797040     
  -5424511882.3331299        951149.66847729683        174781863.80695185     
  -5253176943.7947712        4971404.5054721832        173584148.04410380     
  -5082892110.6076136        5491308.1717667580        176166023.39942786     
  -4913657382.7716675        2510860.6673872471        182527489.87291735     
  -5963223832.7465229       -12440612.573948860        20254930.425942592     
  -5779355038.6802778        227713.89254593849        13528282.987136973     
  -5597190886.7370453        7213899.9489850998        10667762.921728138     
  -5416731376.9168272        8517945.5953903198        11673370.229713766     
  -5237976509.2196198        4139850.8317487240        16545104.911096338     
  -3937949048.6484046       -1550823.3918817043        668367560.17020690     
  -3796966808.7265830        558696.12180590630        661428816.89016509     
  -3656367538.1166096        1391651.2626624107        658813618.63502264     
  -3516151236.8184834        948042.03069353104        660521965.40477753     
  -3376317904.8322096       -772131.57410979271        666553857.19943035     
  -4263643652.4860592       -334476.44443106651        508438717.50247085     
  -4111898204.8212404        145584.15260481834        501367037.68301159     
  -3960279914.1065135        201788.24931144714        498627232.39095730     
  -3808788780.3418937       -165864.15433096886        500219301.62630683     
  -3657424803.5273690       -957373.05828809738        506143245.38906795     
  -4588879763.8604803        1019418.2419896126        346492027.40337354     
  -4426347309.8740654       -122840.50404548645        339585858.79986942     
  -4263686200.4759994       -836247.87792134285        337019894.22627729     
  -4100896435.6662860       -1120803.8796370029        338794133.68259525     
  -3937978015.4449239       -976508.50918507576        344908577.16883403     
  -4913657382.7716675        2510860.6673872471        182527489.87291735     
  -4740314123.8850670       -246577.84815764427        176085280.24074057     
  -4566586397.2250643       -1722457.1190228462        173991604.14098653     
  -4392474202.7916679       -1916777.1452562809        176246461.57365090     
  -4217977540.5848703       -829537.92680239677        182849852.53873813     
  -5237976509.2196198        4139850.8317487240        16545104.911096338     
  -5053798646.8542366       -225627.87970352173        10865302.005625281     
  -4868980504.3537064       -2456839.4739992619        9542362.1350768302     
  -4683522081.7180376       -2553783.9511699677        12576285.299459150     
  -4497423378.9472113       -516461.31113862991        19967071.498774644     
  -3376317904.8322096       -772131.57410979271        666553857.19943035     
  -3236584624.0203528       -2864587.0149955750        658923670.45926476     
  -3096694044.1057258       -4432712.1133133173        655231708.10822308     
  -2956646165.0883255       -5476506.8690583706        655477970.14630365     
  -2816440986.9681454       -5995971.2821921110        659662456.57350862     
  -3657424803.5273690       -957373.05828809738        506143245.38906795     
  -3507055723.1137791       -2154482.1466765404        498880735.95708400     
  -3356630121.7484212       -3163188.0625383854        495654768.05597007     
  -3206147999.4313059       -3983490.8058432341        496465341.68572795     
  -3055609356.1624203       -4615390.3766118288        501312456.84635037     
  -3937978015.4449239       -976508.50918507576        344908577.16883403     
  -3776692229.3103189       -1193999.4093058109        337896170.53552097     
  -3615450700.3749590       -1559014.3069090843        335018622.57482493     
  -3454253428.6388445       -2071553.2020056248        336275933.28674150     
  -3293100414.1019821       -2731616.0946059227        341668102.67127812     
  -4217977540.5848703       -829537.92680239677        182849852.53873813     
  -4045494142.6099730        16861.197155952454        175969974.19458348     
  -3873155779.9853301        379809.15357351303        173323271.66478151     
  -3700962452.7109485        259305.94246411324        174909744.94935519     
  -3528914160.7868333       -344648.43619251251        180729394.04828092     
  -4497423378.9472113       -516461.31113862991        19967071.498774644     
  -4313461463.0127506        1478099.6726472378        13102146.934256520     
  -4129745360.5795527        2653282.3188753128        10568715.325850805     
  -3946275071.6476207        3009086.6275572777        12366776.673555898     
  -3763050596.2169647        2545512.5986499786        18496330.977366351     
  -2816440986.9681454       -5995971.2821921110        659662456.57350862     
  -2676613397.2876163       -7068420.7589868307        649450990.12008739     
  -2537233024.4231143       -9631592.9558771849        642378529.19937456     
  -2398299868.3746262       -13685487.872813106        638445073.81136298     
  -2259813929.1421633       -19230105.509817839        637650623.95605159     
  -3055609356.1624203       -4615390.3766118288        501312456.84635037     
  -2907369306.5626397       -6125224.4451656342        491468780.96037740     
  -2759309968.9456415       -8237431.7896816730        485058157.46230149     
  -2611431343.3114290       -10952012.410162926        482080586.35212243     
  -2463733429.6600275       -14268966.306620836        482536067.62985134     
  -3293100414.1019821       -2731616.0946059227        341668102.67127812     
  -3135607770.7109542       -4426794.5933269262        332503139.65817946     
  -2978029334.4694805       -5835996.9239031076        327065275.88817859     
  -2820365105.3775606       -6959223.0863180161        325354511.36127436     
  -2662615083.4352045       -7796473.0806179047        327370846.07746482     
  -3528914160.7868333       -344648.43619251251        180729394.04828092     
  -3361328789.7325640       -1973131.2034595013        172554066.21349964     
  -3193391120.9946227       -2427288.3584971428        168399884.47700813     
  -3025101154.5729995       -1707119.9012688398        168266848.83880967     
  -2856458890.4677153        187374.16818845272        172154959.29890293     
  -3763050596.2169647        2545512.5986499786        18496330.977366351     
  -3584532363.6274786        1235765.7243969440        11621560.626327533     
  -3405395328.5210671        1988693.9065277576        9061983.2287855204     
  -3225639490.8977594        4804297.1449867487        10817598.784728142     
  -3045264850.7575550        9682575.4397892952        16888407.294163726     
 </DataArray>
 <DataArray  type="Float64" Name="VM" NumberOfComponents="1" format="ascii">
   12935664212.841850     
   11340733234.023233     
   10210183466.278793     
   9272691796.9863892     
   8303824801.2670736     
   10130309862.498825     
   9322001726.2676964     
   8826339304.6200447     
   8443501392.2618341     
   8035682667.0038977     
   7982335484.2004747     
   7734952088.6676350     
   7669139942.8213911     
   7669598721.1075668     
   7666397608.5729418     
   6491655341.7147188     
   6586870608.1630440     
   6757418442.0641823     
   6961219269.4759045     
   7171612916.9266081     
   5657823852.5641098     
   5890915693.4694080     
   6116364650.5206223     
   6331710751.3281422     
   6536730921.0428171     
   8303824801.2670736     
   8020717716.9495106     
   7779680369.9679661     
   7570036718.7129412     
   7386813632.2609320     
   8035682667.0038977     
   7746915866.4344397     
   7473795208.9832563     
   7214365631.6247168     
   6968632546.9949312     
   7666397608.5729418     
   7381199719.8220730     
   7101380248.8933401     
   6827017173.1219082     
   6558312904.2102938     
   7171612916.9266081     
   6911009105.3688917     
   6658299017.6302929     
   6409623149.6325293     
   6161836350.4862280     
   6536730921.0428171     
   6328696568.8844690     
   6142852545.9735794     
   5965290992.9615393     
   5787005046.8176794     
   7386813632.2609320     
   7228269011.4321499     
   7062286884.6469765     
   6888176486.2712145     
   6705744745.3003569     
   6968632546.9949312     
   6814303899.9816561     
   6655422280.6223955     
   6491706913.9539576     
   6323104381.4868889     
   6558312904.2102938     
   6407380961.6153078     
   6254866532.5460196     
   6100738943.2114325     
   5945027250.7867937     
   6161836350.4862280     
   6012497795.8677387     
   5864523784.8321362     
   5717953423.2922659     
   5572844012.8940325     
   5787005046.8176794     
   5636112676.9421949     
   5489426302.0075521     
   5346860873.0824318     
   5208465051.8334293     
   6705744745.3003569     
   6513640021.8964663     
   6324893636.0182714     
   6139394386.8069172     
   5957116577.6763334     
   6323104381.4868889     
   6139656845.9998226     
   5958377263.7475233     
   5779242561.3943682     
   5602273632.8131113     
   5945027250.7867937     
   5772697189.9319792     
   5601690639.4370975     
   5432031347.5054989     
   5263776238.8002987     
   5572844012.8940325     
   5414578315.8753452     
   5257175827.6259356     
   5100677176.3476057     
   4945185421.7388773     
   5208465051.8334293     
   5067709037.3733845     
   4927798360.1300392     
   4788772295.2917147     
   4650812386.4551210     
   5957116577.6763334     
   5779516398.9766636     
   5600831796.7985296     
   5421033068.7361002     
   5240126011.9816837     
   5602273632.8131113     
   5433427617.0455608     
   5264257091.7573977     
   5094785320.1958933     
   4925070710.2477608     
   5263776238.8002987     
   5104094918.5462542     
   4944926084.5944023     
   4786344570.4824095     
   4628462670.4466372     
   4945185421.7388773     
   4795001509.1912317     
   4646234280.4527225     
   4499004953.5329762     
   4353476892.0231762     
   4650812386.4551210     
   4510341767.7796898     
   4372242730.8753014     
   4236672637.0279050     
   4103837681.5734315     
   5240126011.9816837     
   5053720870.2175808     
   4867780604.6741600     
   4682296379.6509151     
   4497298149.1921988     
   4925070710.2477608     
   4749992341.7819996     
   4575660363.5761509     
   4402113395.9759493     
   4229437134.4954433     
   4628462670.4466372     
   4465194559.9006853     
   4303045717.8260946     
   4142113100.2281079     
   3982550957.0956850     
   4353476892.0231762     
   4202667277.4217653     
   4053455753.5766735     
   3906007976.9754171     
   3760558275.1782165     
   4103837681.5734315     
   3966300909.2482882     
   3830955504.8948398     
   3698042953.0633945     
   3567884294.8029137     
   4497298149.1921988     
   4314260401.3015747     
   4131113220.6543355     
   3947838616.6758862     
   3764460361.7742162     
   4229437134.4954433     
   4056967764.5816507     
   3884962019.8752265     
   3713470512.7331800     
   3542599127.8928351     
   3982550957.0956850     
   3821180153.7617722     
   3660950992.6761956     
   3501993715.9905634     
   3344507993.2433491     
   3760558275.1782165     
   3610891107.2497492     
   3463145842.0032654     
   3317538662.2942138     
   3174367595.6305752     
   3567884294.8029137     
   3430562340.4148974     
   3296026805.3420029     
   3164577160.3788085     
   3036602085.8282971     
   3764460361.7742162     
   3585206944.1000438     
   3406426289.3418608     
   3228098700.8144345     
   3050257916.3596005     
   3542599127.8928351     
   3373607511.8591013     
   3205476113.2861285     
   3038258864.8374519     
   2872073228.0349560     
   3344507993.2433491     
   3185882940.5185885     
   3028568666.2618904     
   2872707248.9675937     
   2718517226.7236452     
   3174367595.6305752     
   3026491414.6679678     
   2880446851.1727376     
   2736475532.4598832     
   2594909314.3571839     
   3036602085.8282971     
   2900129248.9718790     
   2766072525.3130217     
   2634775911.2032900     
   2506684548.6548920     
   5657823852.5641098     
   5890915693.4694080     
   6116364650.5206223     
   6331710751.3281422     
   6536730921.0428171     
   5151471132.8369102     
   5311331007.7616749     
   5467819957.8976154     
   5618041503.0809698     
   5760529402.9829416     
   4643502057.3993206     
   4755542155.8646812     
   4868704649.2792883     
   4980354106.5753450     
   5088564768.1282711     
   4134180147.6953211     
   4224386814.1453123     
   4320514229.7369833     
   4420905972.9782324     
   4524107678.1584616     
   3625025876.4996214     
   3719689670.1638737     
   3825607183.3850956     
   3942716202.0499229     
   4070925283.9623585     
   6536730921.0428171     
   6328696568.8844690     
   6142852545.9735794     
   5965290992.9615393     
   5787005046.8176794     
   5760529402.9829416     
   5652107474.9518833     
   5559687392.8898945     
   5474208719.7001600     
   5390132079.8901949     
   5088564768.1282711     
   5054018688.4597883     
   5029983826.3414812     
   5011254470.7813749     
   4994630088.5526638     
   4524107678.1584616     
   4539025851.0598774     
   4558610788.2378473     
   4580382348.0328379     
   4602617125.7338400     
   4070925283.9623585     
   4112456557.9910922     
   4151332723.8290353     
   4186654096.8072686     
   4217687518.5931940     
   5787005046.8176794     
   5636112676.9421949     
   5489426302.0075521     
   5346860873.0824318     
   5208465051.8334293     
   5390132079.8901949     
   5248650550.3938818     
   5110399330.8283386     
   4975420959.4766426     
   4843810300.5796661     
   4994630088.5526638     
   4866994333.9502020     
   4742557683.7226267     
   4621288829.0719366     
   4503229285.9903727     
   4602617125.7338400     
   4493816275.0789461     
   4389245662.0773821     
   4288588957.4039531     
   4191757414.0949540     
   4217687518.5931940     
   4133085327.5257926     
   4054987314.0167561     
   3982543788.9112778     
   3915461637.0374846     
   5208465051.8334293     
   5067709037.3733845     
   4927798360.1300392     
   4788772295.2917147     
   4650812386.4551210     
   4843810300.5796661     
   4720072297.4582176     
   4598073349.8234282     
   4477941656.7247925     
   4359918835.5133123     
   4503229285.9903727     
   4395106064.6609497     
   4289540497.2860312     
   4186717096.6320419     
   4086904330.9069643     
   4191757414.0949540     
   4097723353.7052450     
   4006930469.6213665     
   3919586363.7271452     
   3835955495.0440850     
   3915461637.0374846     
   3833832478.9199152     
   3755924226.7674489     
   3681936573.0494103     
   3612105356.2483654     
   4650812386.4551210     
   4510341767.7796898     
   4372242730.8753014     
   4236672637.0279050     
   4103837681.5734315     
   4359918835.5133123     
   4230649857.1808977     
   4104144665.3840585     
   3980613685.5110173     
   3860325665.5247788     
   4086904330.9069643     
   3970129112.9966946     
   3856698539.5403523     
   3746878260.4610391     
   3641004066.4484673     
   3835955495.0440850     
   3733001837.5462151     
   3634173375.2792830     
   3539786703.2925458     
   3450240983.4890852     
   3612105356.2483654     
   3524237944.5867467     
   3441471821.0380707     
   3364159119.6939597     
   3292745371.3148341     
   4103837681.5734315     
   3966300909.2482882     
   3830955504.8948398     
   3698042953.0633945     
   3567884294.8029137     
   3860325665.5247788     
   3735807859.6659412     
   3614246403.6046348     
   3495943258.7461958     
   3381283196.2299175     
   3641004066.4484673     
   3529911069.0504513     
   3422588138.3854799     
   3319385874.8510175     
   3220735452.7712307     
   3450240983.4890852     
   3352867073.9346938     
   3260091069.3305054     
   3172291378.7613378     
   3089918234.1001959     
   3292745371.3148341     
   3209166846.6289935     
   3130978638.5032773     
   3058558160.5413013     
   2992339995.9039054     
   3567884294.8029137     
   3430562340.4148974     
   3296026805.3420029     
   3164577160.3788085     
   3036602085.8282971     
   3381283196.2299175     
   3256774187.2739720     
   3135802666.9647217     
   3018745597.5529242     
   2906076160.0838542     
   3220735452.7712307     
   3109907256.1451254     
   3003448369.0373774     
   2901800226.1971636     
   2805499587.2265038     
   3089918234.1001959     
   2993516440.0576863     
   2902349349.3183670     
   2816895950.1348381     
   2737720129.8804970     
   2992339995.9039054     
   2910842787.9198046     
   2835414658.4088507     
   2766534218.4107800     
   2704746548.4068637     
   3036602085.8282971     
   2900129248.9718790     
   2766072525.3130217     
   2634775911.2032900     
   2506684548.6548920     
   2906076160.0838542     
   2782136774.4321909     
   2661805579.6203513     
   2545562452.2274208     
   2434004531.2181969     
   2805499587.2265038     
   2695675694.6739697     
   2590759936.6189561     
   2491335702.0468550     
   2398100203.8282762     
   2737720129.8804970     
   2643153487.7838435     
   2554784823.5435295     
   2473239056.5032411     
   2399231191.0628519     
   2704746548.4068637     
   2625919169.8743258     
   2554447154.3375654     
   2490923368.7189164     
   2435995818.3478465     
   3625025876.4996214     
   3719689670.1638737     
   3825607183.3850956     
   3942716202.0499229     
   4070925283.9623585     
   3138008142.8381639     
   3255515572.6203284     
   3382441265.1551709     
   3518317482.1329880     
   3662687577.2776871     
   2694784801.9502425     
   2830526538.4750156     
   2973580420.0387869     
   3122865271.1320181     
   3277470958.9024892     
   2298844869.9558268     
   2449514836.0756140     
   2604906396.6759992     
   2763097686.4710417     
   2922659364.8654184     
   1955397130.1753275     
   2119434528.3624151     
   2284828011.8841372     
   2448617464.7363706     
   2608844627.4974709     
   4070925283.9623585     
   4112456557.9910922     
   4151332723.8290353     
   4186654096.8072686     
   4217687518.5931940     
   3662687577.2776871     
   3702164602.1907630     
   3740256390.4189696     
   3776062798.0319095     
   3808833488.0361028     
   3277470958.9024892     
   3320761976.0511093     
   3364291612.3606648     
   3407236051.8053899     
   3448916574.1539335     
   2922659364.8654184     
   2975632833.8187008     
   3030825838.1986265     
   3087556005.6855273     
   3145290273.3036537     
   2608844627.4974709     
   2676828232.2357497     
   2749315639.7935529     
   2825799021.3367324     
   2905925921.2135153     
   4217687518.5931940     
   4133085327.5257926     
   4054987314.0167561     
   3982543788.9112778     
   3915461637.0374846     
   3808833488.0361028     
   3755716079.1756086     
   3708599091.8976927     
   3667009705.3626900     
   3630854151.6052895     
   3448916574.1539335     
   3422694137.6901884     
   3401589103.2751174     
   3385373259.7884231     
   3374032615.4813762     
   3145290273.3036537     
   3141643012.9168577     
   3141637620.1701770     
   3145174830.7216845     
   3152242088.2620764     
   2905925921.2135153     
   2920869510.7253103     
   2937202472.8596621     
   2954871422.5543447     
   2973838584.3800445     
   3915461637.0374846     
   3833832478.9199152     
   3755924226.7674489     
   3681936573.0494103     
   3612105356.2483654     
   3630854151.6052895     
   3560516621.5052552     
   3494603807.0108714     
   3433338464.3273063     
   3376984875.7886105     
   3374032615.4813762     
   3316168787.7182326     
   3263620030.5115619     
   3216613818.8931994     
   3175425248.1897917     
   3152242088.2620764     
   3107729334.3731213     
   3069593429.5939908     
   3038036936.0480924     
   3013316680.8843145     
   2973838584.3800445     
   2942963520.7342401     
   2919663854.8571925     
   2904078668.9486380     
   2896409829.7121477     
   3612105356.2483654     
   3524237944.5867467     
   3441471821.0380707     
   3364159119.6939597     
   3292745371.3148341     
   3376984875.7886105     
   3304929446.1547918     
   3238552694.7542963     
   3178193808.2999730     
   3124262423.0713658     
   3175425248.1897917     
   3118292903.5955920     
   3067299847.7487874     
   3022744806.6735849     
   2984973135.3662105     
   3013316680.8843145     
   2969873681.6841969     
   2932862551.6220984     
   2902519180.9078517     
   2879104960.3780918     
   2896409829.7121477     
   2864978171.8993320     
   2840062213.4081817     
   2821823983.9700994     
   2810435722.7068076     
   3292745371.3148341     
   3209166846.6289935     
   3130978638.5032773     
   3058558160.5413013     
   2992339995.9039054     
   3124262423.0713658     
   3053642486.5474420     
   2989122082.5328398     
   2931069490.2116661     
   2879899965.5877538     
   2984973135.3662105     
   2927255251.4144034     
   2876330979.8504095     
   2832533435.2975616     
   2796229993.4882436     
   2879104960.3780918     
   2833765858.5346713     
   2795863080.0728717     
   2765670280.0548940     
   2743482912.6126060     
   2810435722.7068076     
   2776365442.3016443     
   2750298014.4709640     
   2732431853.2686262     
   2722977692.7728019     
   2992339995.9039054     
   2910842787.9198046     
   2835414658.4088507     
   2766534218.4107800     
   2704746548.4068637     
   2879899965.5877538     
   2812778765.5843773     
   2752456337.1872935     
   2699372312.9817324     
   2654011254.8223119     
   2796229993.4882436     
   2742984119.9464602     
   2697145986.2688684     
   2659084912.4813743     
   2629194608.4869423     
   2743482912.6126060     
   2703076409.3077731     
   2670541032.1123657     
   2646156360.2223654     
   2630210885.1745510     
   2722977692.7728019     
   2693816014.0014410     
   2672846577.9095278     
   2660255823.4814982     
   2656230394.2242284     
   2704746548.4068637     
   2625919169.8743258     
   2554447154.3375654     
   2490923368.7189164     
   2435995818.3478465     
   2654011254.8223119     
   2590283719.7522020     
   2534586090.7919488     
   2487432848.5026598     
   2449365002.8745060     
   2629194608.4869423     
   2579890207.1615500     
   2539117579.1866941     
   2507284778.0063748     
   2484804965.7118535     
   2630210885.1745510     
   2594121434.6903162     
   2566902704.6264219     
   2548848462.5498052     
   2540245969.2307539     
   2656230394.2242284     
   2631683589.4955449     
   2616225270.7113008     
   2610044839.4134965     
   2613322137.6218004     
   1955397130.1753275     
   2119434528.3624151     
   2284828011.8841372     
   2448617464.7363706     
   2608844627.4974709     
   1653929498.7102761     
   1820361319.8629889     
   1988490567.3429062     
   2155621103.5558357     
   2319995024.9539156     
   1393773381.4036517     
   1571131934.2050607     
   1749496143.9504642     
   1926862629.0245545     
   2101981196.3708012     
   1207241888.8111317     
   1399166651.4923909     
   1590669553.2666652     
   1780973966.3759663     
   1969621404.4896972     
   1137014003.9685373     
   1335312818.7652514     
   1533920296.9316490     
   1732836438.4677293     
   1932061243.3734930     
   2608844627.4974709     
   2676828232.2357497     
   2749315639.7935529     
   2825799021.3367324     
   2905925921.2135153     
   2319995024.9539156     
   2407084016.2796769     
   2496608597.7555022     
   2588179933.5936594     
   2681523059.6217818     
   2101981196.3708012     
   2205766571.2880831     
   2309454708.8830447     
   2412809938.7843046     
   2515665790.1271143     
   1969621404.4896972     
   2086807393.9725683     
   2201133565.4888725     
   2312525063.2565904     
   2420929855.3692250     
   1932061243.3734930     
   2058760148.6163990     
   2180027624.7670288     
   2295863671.8253827     
   2406268289.7914624     
   2905925921.2135153     
   2920869510.7253103     
   2937202472.8596621     
   2954871422.5543447     
   2973838584.3800445     
   2681523059.6217818     
   2703337950.0734468     
   2727565553.5557408     
   2754189913.8863306     
   2783204492.4776220     
   2515665790.1271143     
   2544204349.4785395     
   2576201670.1803312     
   2611660174.6210475     
   2650586333.0558887     
   2420929855.3692250     
   2454578925.5559192     
   2492729838.1732302     
   2535386189.1492448     
   2582552422.4497385     
   2406268289.7914624     
   2441868258.2251382     
   2483001164.1172214     
   2529667007.4677134     
   2581865788.2766142     
   2973838584.3800445     
   2942963520.7342401     
   2919663854.8571925     
   2904078668.9486380     
   2896409829.7121477     
   2783204492.4776220     
   2766876148.4594727     
   2757831349.7715983     
   2756155911.3722792     
   2761968489.0521331     
   2650586333.0558887     
   2645788835.3638072     
   2647703338.8231258     
   2656367353.2577004     
   2671831519.7931356     
   2582552422.4497385     
   2585862825.5359759     
   2595046415.0607581     
   2610111335.7197475     
   2631068652.2141781     
   2581865788.2766142     
   2589790014.1604304     
   2602534227.1887922     
   2620098427.3616943     
   2642482614.6791415     
   2896409829.7121477     
   2864978171.8993320     
   2840062213.4081817     
   2821823983.9700994     
   2810435722.7068076     
   2761968489.0521331     
   2738896103.8105187     
   2722952458.5813432     
   2714248064.6279187     
   2712898459.5703487     
   2671831519.7931356     
   2655295289.1797514     
   2646443438.9369822     
   2645333079.1946006     
   2652023061.8961000     
   2631068652.2141781     
   2618513550.6271911     
   2614132929.9689217     
   2617942654.5088520     
   2629958912.2455482     
   2642482614.6791415     
   2630785490.3825603     
   2627687336.9362841     
   2633188154.3403115     
   2647287942.5946431     
   2810435722.7068076     
   2776365442.3016443     
   2750298014.4709640     
   2732431853.2686262     
   2722977692.7728019     
   2712898459.5703487     
   2688755535.3717527     
   2672700465.1059747     
   2664852044.5330997     
   2665333803.5672903     
   2652023061.8961000     
   2635453849.5832710     
   2626960548.1675467     
   2626597429.5395899     
   2634419979.5929022     
   2629958912.2455482     
   2618236906.5681934     
   2614504573.4973211     
   2618775391.0746236     
   2631062984.1883001     
   2647287942.5946431     
   2637500964.4195113     
   2635567623.5826049     
   2641487920.0839252     
   2655261853.9234715     
   2722977692.7728019     
   2693816014.0014410     
   2672846577.9095278     
   2660255823.4814982     
   2656230394.2242284     
   2665333803.5672903     
   2644675932.4136825     
   2632371880.7784762     
   2628532636.8024921     
   2633267131.1112318     
   2634419979.5929022     
   2620155798.5258441     
   2614370677.8989854     
   2617115726.5990205     
   2628440318.5605264     
   2631062984.1883001     
   2620762650.1253042     
   2619059625.7287107     
   2625966912.8025136     
   2641496938.7801967     
   2655261853.9234715     
   2646306256.2567391     
   2646083601.0567422     
   2654593888.3234730     
   2671837118.0569401     
   2656230394.2242284     
   2631683589.4955449     
   2616225270.7113008     
   2610044839.4134965     
   2613322137.6218004     
   2633267131.1112318     
   2617267751.3300633     
   2610339286.0598764     
   2612588672.0790710     
   2624115192.2240453     
   2628440318.5605264     
   2618877043.3671622     
   2618370120.5780578     
   2626966760.9419684     
   2644710012.7672467     
   2641496938.7801967     
   2636086084.3017616     
   2639757404.2367988     
   2652522558.3578105     
   2674392043.5789022     
   2671837118.0569401     
   2668213571.2714767     
   2673765697.9483371     
   2688493498.0875111     
   2712396971.6890163     
   1137014003.9685373     
   1335312818.7652514     
   1533920296.9316490     
   1732836438.4677293     
   1932061243.3734930     
   1207241888.6758001     
   1399166651.3601687     
   1590669553.1371257     
   1780973966.2495961     
   1969621404.3676028     
   1393773381.1733239     
   1571131933.9732006     
   1749496143.7191136     
   1926862628.7967167     
   2101981196.1503358     
   1653929498.4334600     
   1820361319.5737698     
   1988490567.0469482     
   2155621103.2597346     
   2319995024.6653004     
   1955397129.8892052     
   2119434528.0507834     
   2284828011.5560675     
   2448617464.4019914     
   2608844627.1682110     
   1932061243.3734930     
   2058760148.6163990     
   2180027624.7670288     
   2295863671.8253827     
   2406268289.7914624     
   1969621404.3676028     
   2086807393.8711174     
   2201133565.4039745     
   2312525063.1844177     
   2420929855.3060207     
   2101981196.1503358     
   2205766571.1021919     
   2309454708.7240124     
   2412809938.6444602     
   2515665789.9986987     
   2319995024.6653004     
   2407084016.0356975     
   2496608597.5452623     
   2588179933.4056797     
   2681523059.4440908     
   2608844627.1682110     
   2676828231.9611068     
   2749315639.5596485     
   2825799021.1281776     
   2905925921.0138211     
   2406268289.7914624     
   2441868258.2251382     
   2483001164.1172214     
   2529667007.4677134     
   2581865788.2766142     
   2420929855.3060207     
   2454578925.5254931     
   2492729838.1951227     
   2535386189.2430267     
   2582552422.6349106     
   2515665789.9986987     
   2544204349.4008403     
   2576201670.1921144     
   2611660174.7615619     
   2650586333.3646245     
   2681523059.4440908     
   2703337949.9365315     
   2727565553.5162292     
   2754189914.0021858     
   2783204492.8077703     
   2905925921.0138211     
   2920869510.5221210     
   2937202472.7250023     
   2954871422.5625429     
   2973838584.6072512     
   2581865788.2766142     
   2589790014.1604304     
   2602534227.1887922     
   2620098427.3616943     
   2642482614.6791415     
   2582552422.6349106     
   2585862825.6579952     
   2595046415.0667038     
   2610111335.5562053     
   2631068651.8278275     
   2650586333.3646245     
   2645788835.6760240     
   2647703339.0439744     
   2656367353.2899837     
   2671831519.5374789     
   2783204492.8077703     
   2766876149.0024452     
   2757831350.4041018     
   2756155911.9654694     
   2761968489.4701562     
   2973838584.6072512     
   2942963521.5209088     
   2919663856.0665727     
   2904078670.4348330     
   2896409831.3157105     
   2642482614.6791415     
   2630785490.3825603     
   2627687336.9362841     
   2633188154.3403115     
   2647287942.5946431     
   2631068651.8278275     
   2618513549.3509626     
   2614132927.7540493     
   2617942651.3114433     
   2629958908.0266190     
   2671831519.5374789     
   2655295287.1022887     
   2646443434.9194775     
   2645333073.1276455     
   2652023053.6798029     
   2761968489.4701562     
   2738896101.5183468     
   2722952453.3682909     
   2714248056.2933087     
   2712898447.9254718     
   2896409831.3157105     
   2864978170.0194087     
   2840062207.7221518     
   2821823974.1624551     
   2810435708.4726124     
   2647287942.5946431     
   2637500964.4195113     
   2635567623.5826049     
   2641487920.0839252     
   2655261853.9234715     
   2629958908.0266190     
   2618236903.9768400     
   2614504572.6775231     
   2618775392.1606302     
   2631062987.3024430     
   2652023053.6798029     
   2635453844.4029818     
   2626960546.3135867     
   2626597431.2867846     
   2634419985.1958632     
   2712898447.9254718     
   2688755527.8426228     
   2672700462.1326766     
   2664852046.5413599     
   2665333810.9608912     
   2810435708.4726124     
   2776365432.8664155     
   2750298010.4229970     
   2732431855.1916866     
   2722977701.2358861     
   2655261853.9234715     
   2646306256.2567391     
   2646083601.0567422     
   2654593888.3234730     
   2671837118.0569401     
   2631062987.3024430     
   2620762652.4994678     
   2619059627.4739432     
   2625966914.0325727     
   2641496939.6145840     
   2634419985.1958632     
   2620155802.5687795     
   2614370680.6074677     
   2617115728.2061667     
   2628440319.3129487     
   2665333810.9608912     
   2644675937.2724652     
   2632371883.4466181     
   2628532637.6402535     
   2633267130.5037966     
   2722977701.2358861     
   2693816018.7298717     
   2672846579.3681707     
   2660255822.1646919     
   2656230390.6678381     
   2671837118.0569401     
   2668213571.2714767     
   2673765697.9483371     
   2688493498.0875111     
   2712396971.6890163     
   2641496939.6145840     
   2636086081.9701953     
   2639757398.6090431     
   2652522549.3308892     
   2674392031.0769401     
   2628440319.3129487     
   2618877038.7455087     
   2618370110.3447170     
   2626966744.9020138     
   2644709990.7678337     
   2633267130.5037966     
   2617267744.1909657     
   2610339272.0610704     
   2612588650.9368515     
   2624115163.6980572     
   2656230390.6678381     
   2631683579.3433323     
   2616225253.5672908     
   2610044814.9125319     
   2613322105.4274354     
   1955397129.8892052     
   2119434528.0507834     
   2284828011.5560675     
   2448617464.4019914     
   2608844627.1682110     
   2298844869.6881528     
   2449514835.7723179     
   2604906396.3438277     
   2763097686.1169806     
   2922659364.4967856     
   2694784801.7194166     
   2830526538.2035017     
   2973580419.7297540     
   3122865270.7881188     
   3277470958.5259438     
   3138008142.6547117     
   3255515572.3978963     
   3382441264.8929133     
   3518317481.8285289     
   3662687576.9272971     
   3625025876.3696618     
   3719689670.0039849     
   3825607183.1905012     
   3942716201.8129077     
   4070925283.6725779     
   2608844627.1682110     
   2676828231.9611068     
   2749315639.5596485     
   2825799021.1281776     
   2905925921.0138211     
   2922659364.4967856     
   2975632833.5022655     
   3030825837.9314938     
   3087556005.4647698     
   3145290273.1262579     
   3277470958.5259438     
   3320761975.7181177     
   3364291612.0783815     
   3407236051.5825210     
   3448916574.0002775     
   3662687576.9272971     
   3702164601.8643289     
   3740256390.1325712     
   3776062797.8044796     
   3808833487.8885550     
   4070925283.6725779     
   4112456557.6919179     
   4151332723.5441856     
   4186654096.5641003     
   4217687518.4213700     
   2905925921.0138211     
   2920869510.5221210     
   2937202472.7250023     
   2954871422.5625429     
   2973838584.6072512     
   3145290273.1262579     
   3141643012.6863031     
   3141637619.9189801     
   3145174830.4836950     
   3152242088.0724645     
   3448916574.0002775     
   3422694137.4433270     
   3401589102.9303808     
   3385373259.3412023     
   3374032614.9279828     
   3808833487.8885550     
   3755716078.9266176     
   3708599091.5094533     
   3667009704.7954059     
   3630854150.8190041     
   4217687518.4213700     
   4133085327.2901969     
   4054987313.6516099     
   3982543788.3459420     
   3915461636.1990790     
   2973838584.6072512     
   2942963521.5209088     
   2919663856.0665727     
   2904078670.4348330     
   2896409831.3157105     
   3152242088.0724645     
   3107729334.9958539     
   3069593431.0501480     
   3038036938.3544550     
   3013316684.0504742     
   3374032614.9279828     
   3316168788.0252514     
   3263620031.8363562     
   3216613821.3967876     
   3175425252.0362544     
   3630854150.8190041     
   3560516621.3704128     
   3494603807.7960300     
   3433338466.3136692     
   3376984879.2722006     
   3915461636.1990790     
   3833832478.2417197     
   3755924226.6034679     
   3681936573.7746301     
   3612105358.2636700     
   2896409831.3157105     
   2864978170.0194087     
   2840062207.7221518     
   2821823974.1624551     
   2810435708.4726124     
   3013316684.0504742     
   2969873681.4195065     
   2932862547.5664320     
   2902519172.6984158     
   2879104947.6542645     
   3175425252.0362544     
   3118292904.3687768     
   3067299845.0796232     
   3022744800.1779838     
   2984973124.6491432     
   3376984879.2722006     
   3304929447.1610847     
   3238552692.9353490     
   3178193803.2813201     
   3124262414.4533048     
   3612105358.2636700     
   3524237944.8908319     
   3441471819.3307881     
   3364159115.6407475     
   3292745364.5439730     
   2810435708.4726124     
   2776365432.8664155     
   2750298010.4229970     
   2732431855.1916866     
   2722977701.2358861     
   2879104947.6542645     
   2833765851.5424080     
   2795863079.3319178     
   2765670286.0914488     
   2743482925.9495649     
   2984973124.6491432     
   2927255246.9910851     
   2876330982.1671820     
   2832533444.8201828     
   2796230010.6930308     
   3124262414.4533048     
   3053642484.5303826     
   2989122087.4794827     
   2931069502.5162601     
   2879899985.6686730     
   3292745364.5439730     
   3209166846.6243868     
   3130978645.5320196     
   3058558174.9112039     
   2992340017.9576635     
   2722977701.2358861     
   2693816018.7298717     
   2672846579.3681707     
   2660255822.1646919     
   2656230390.6678381     
   2743482925.9495649     
   2703076417.5240788     
   2670541035.3666396     
   2646156358.6952782     
   2630210879.0849590     
   2796230010.6930308     
   2742984131.0177650     
   2697145991.0870347     
   2659084910.9298782     
   2629194600.4710712     
   2879899985.6686730     
   2812778778.9599490     
   2752456343.5002985     
   2699372311.8484116     
   2654011245.8502607     
   2992340017.9576635     
   2910842803.1676717     
   2835414666.3096805     
   2766534218.3606162     
   2704746539.7516088     
   2656230390.6678381     
   2631683579.3433323     
   2616225253.5672908     
   2610044814.9125319     
   2613322105.4274354     
   2630210879.0849590     
   2594121420.7207303     
   2566902682.2640390     
   2548848431.3099174     
   2540245928.6582885     
   2629194600.4710712     
   2579890190.3631654     
   2539117552.9318981     
   2507284741.6358480     
   2484804918.5872178     
   2654011245.8502607     
   2590283701.5455275     
   2534586062.4858198     
   2487432809.2185493     
   2449364951.7305126     
   2704746539.7516088     
   2625919152.0372252     
   2554447126.2574463     
   2490923329.2774010     
   2435995766.3793592     
   3625025876.3696618     
   3719689670.0039849     
   3825607183.1905012     
   3942716201.8129077     
   4070925283.6725779     
   4134180147.6226749     
   4224386814.0552306     
   4320514229.6253881     
   4420905972.8384991     
   4524107677.9818897     
   4643502057.3877831     
   4755542155.8497028     
   4868704649.2584572     
   4980354106.5447674     
   5088564768.0831327     
   5151471132.8909054     
   5311331007.8266516     
   5467819957.9734507     
   5618041503.1673098     
   5760529403.0797424     
   5657823852.6885414     
   5890915693.6191664     
   6116364650.6981335     
   6331710751.5366745     
   6536730921.2868671     
   4070925283.6725779     
   4112456557.6919179     
   4151332723.5441856     
   4186654096.5641003     
   4217687518.4213700     
   4524107677.9818897     
   4539025850.8485327     
   4558610788.0027170     
   4580382347.7870417     
   4602617125.4916697     
   5088564768.0831327     
   5054018688.3687963     
   5029983826.2022896     
   5011254470.5929174     
   4994630088.3151474     
   5760529403.0797424     
   5652107475.0092707     
   5559687392.8939466     
   5474208719.6371565     
   5390132079.7478228     
   6536730921.2868671     
   6328696569.1149311     
   6142852546.1682882     
   5965290993.0970039     
   5787005046.8716059     
   4217687518.4213700     
   4133085327.2901969     
   4054987313.6516099     
   3982543788.3459420     
   3915461636.1990790     
   4602617125.4916697     
   4493816274.8048382     
   4389245661.7354794     
   4288588956.9556770     
   4191757413.4989452     
   4994630088.3151474     
   4866994333.7135067     
   4742557683.4787550     
   4621288828.8117857     
   4503229285.7032137     
   5390132079.7478228     
   5248650550.2683134     
   5110399330.7370834     
   4975420959.4368200     
   4843810300.6085911     
   5787005046.8716059     
   5636112676.9987040     
   5489426302.1073999     
   5346860873.2656498     
   5208465052.1421881     
   3915461636.1990790     
   3833832478.2417197     
   3755924226.6034679     
   3681936573.7746301     
   3612105358.2636700     
   4191757413.4989452     
   4097723352.7648163     
   4006930468.4876237     
   3919586362.5653219     
   3835955494.0364890     
   4503229285.7032137     
   4395106063.8209763     
   4289540495.8767886     
   4186717094.6422019     
   4086904328.3308339     
   4843810300.6085911     
   4720072297.0916166     
   4598073348.9132967     
   4477941655.1190500     
   4359918833.0534992     
   5208465052.1421881     
   5067709037.8504324     
   4927798360.5306215     
   4788772295.3596687     
   4650812385.9177113     
   3612105358.2636700     
   3524237944.8908319     
   3441471819.3307881     
   3364159115.6407475     
   3292745364.5439730     
   3835955494.0364890     
   3733001834.7478242     
   3634173370.5362306     
   3539786696.4165163     
   3450240974.2541552     
   4086904328.3308339     
   3970129108.5229368     
   3856698533.1434956     
   3746878252.0838642     
   3641004056.0001001     
   4359918833.0534992     
   4230649852.6049404     
   4104144658.7763386     
   3980613676.9283185     
   3860325654.9969039     
   4650812385.9177113     
   4510341764.7317734     
   4372242725.4919558     
   4236672629.4611692     
   4103837671.9562159     
   3292745364.5439730     
   3209166846.6243868     
   3130978645.5320196     
   3058558174.9112039     
   2992340017.9576635     
   3450240974.2541552     
   3352867070.8142247     
   3260091072.6386056     
   3172291388.8750629     
   3089918251.4590802     
   3641004056.0001001     
   3529911063.8117166     
   3422588138.6628857     
   3319385881.0298533     
   3220735465.3217287     
   3860325654.9969039     
   3735807853.2364025     
   3614246401.5270333     
   3495943261.3603897     
   3381283203.9744639     
   4103837671.9562159     
   3966300902.4507356     
   3830955501.0838027     
   3698042952.4911137     
   3567884297.8243408     
   2992340017.9576635     
   2910842803.1676717     
   2835414666.3096805     
   2766534218.3606162     
   2704746539.7516088     
   3089918251.4590802     
   2993516451.3593454     
   2902349354.1289511     
   2816895947.9370403     
   2737720120.0783591     
   3220735465.3217287     
   3109907263.4765210     
   3003448370.8622899     
   2901800222.1350780     
   2805499576.8018737     
   3381283203.9744639     
   3256774190.6028113     
   3135802665.7617898     
   3018745591.6106858     
   2906076149.0974774     
   3567884297.8243408     
   3430562339.6888390     
   3296026800.9327960     
   3164577152.2697725     
   3036602073.9154572     
   2704746539.7516088     
   2625919152.0372252     
   2554447126.2574463     
   2490923329.2774010     
   2435995766.3793592     
   2737720120.0783591     
   2643153470.5525050     
   2554784797.8206034     
   2473239021.1446261     
   2399231144.8492990     
   2805499576.8018737     
   2695675678.5567913     
   2590759913.7651463     
   2491335671.3109117     
   2398100163.9632382     
   2906076149.0974774     
   2782136759.4134884     
   2661805559.5649815     
   2545562426.0206733     
   2434004497.6285653     
   3036602073.9154572     
   2900129234.5539184     
   2766072507.4389744     
   2634775888.8152223     
   2506684520.5784326     
   5657823852.6885414     
   5890915693.6191664     
   6116364650.6981335     
   6331710751.5366745     
   6536730921.2868671     
   6491655341.9002542     
   6586870608.4141407     
   6757418442.3785648     
   6961219269.8507614     
   7171612917.3581018     
   7982335484.4245234     
   7734952088.9916525     
   7669139943.2390804     
   7669598721.6128035     
   7666397609.1590309     
   10130309862.740154     
   9322001726.6369953     
   8826339305.1081696     
   8443501392.8605194     
   8035682667.7074747     
   12935664213.079767     
   11340733234.412449     
   10210183466.807703     
   9272691797.6426582     
   8303824802.0443211     
   6536730921.2868671     
   6328696569.1149311     
   6142852546.1682882     
   5965290993.0970039     
   5787005046.8716059     
   7171612917.3581018     
   6911009105.8091345     
   6658299018.0646906     
   6409623150.0453033     
   6161836350.8614292     
   7666397609.1590309     
   7381199720.4346647     
   7101380249.5214863     
   6827017173.7546682     
   6558312904.8359852     
   8035682667.7074747     
   7746915867.1785040     
   7473795209.7563000     
   7214365632.4176197     
   6968632547.7982426     
   8303824802.0443211     
   8020717717.7798777     
   7779680370.8344831     
   7570036719.6049566     
   7386813633.1693573     
   5787005046.8716059     
   5636112676.9987040     
   5489426302.1073999     
   5346860873.2656498     
   5208465052.1421881     
   6161836350.8614292     
   6012497796.2667141     
   5864523785.2864418     
   5717953423.8333006     
   5572844013.5534010     
   6558312904.8359852     
   6407380962.3433924     
   6254866533.4049921     
   6100738944.2303190     
   5945027251.9932413     
   6968632547.7982426     
   6814303901.0275612     
   6655422281.9401312     
   6491706915.5749350     
   6323104383.4408522     
   7386813633.1693573     
   7228269012.7871923     
   7062286886.4803085     
   6888176488.6199913     
   6705744748.2018309     
   5208465052.1421881     
   5067709037.8504324     
   4927798360.5306215     
   4788772295.3596687     
   4650812385.9177113     
   5572844013.5534010     
   5414578317.1975880     
   5257175829.4907188     
   5100677178.6308565     
   4945185424.3121319     
   5945027251.9932413     
   5772697191.6961966     
   5601690641.7054529     
   5432031350.2252722     
   5263776241.9210215     
   6323104383.4408522     
   6139656847.7853870     
   5958377265.3251867     
   5779242562.7301359     
   5602273633.8798332     
   6705744748.2018309     
   6513640023.2765207     
   6324893635.8036127     
   6139394384.9379215     
   5957116574.1071482     
   4650812385.9177113     
   4510341764.7317734     
   4372242725.4919558     
   4236672629.4611692     
   4103837671.9562159     
   4945185424.3121319     
   4795001509.8145514     
   4646234279.2085600     
   4499004950.4780779     
   4353476887.1853018     
   5263776241.9210215     
   5104094920.7627859     
   4944926085.9621658     
   4786344571.0343561     
   4628462670.1838751     
   5602273633.8798332     
   5433427618.7950668     
   5264257094.2691183     
   5094785323.5368853     
   4925070714.4589453     
   5957116574.1071482     
   5779516398.2574472     
   5600831799.0700512     
   5421033074.1440248     
   5240126020.6601324     
   4103837671.9562159     
   3966300902.4507356     
   3830955501.0838027     
   3698042952.4911137     
   3567884297.8243408     
   4353476887.1853018     
   4202667273.8449979     
   4053455751.2559872     
   3906007975.9772205     
   3760558275.6566491     
   4628462670.1838751     
   4465194559.5321007     
   4303045717.1886492     
   4142113099.2139649     
   3982550955.6651292     
   4925070714.4589453     
   4749992344.7518320     
   4575660365.0035744     
   4402113395.5991621     
   4229437132.1001525     
   5240126020.6601324     
   5053720876.7742147     
   4867780608.6923018     
   4682296380.7389946     
   4497298146.9868002     
   3567884297.8243408     
   3430562339.6888390     
   3296026800.9327960     
   3164577152.2697725     
   3036602073.9154572     
   3760558275.6566491     
   3610891103.8693523     
   3463145835.0675788     
   3317538652.0527291     
   3174367582.2825727     
   3982550955.6651292     
   3821180147.3451004     
   3660950981.7007084     
   3501993700.8465409     
   3344507974.2978325     
   4229437132.1001525     
   4056967755.0486350     
   3884962003.6506109     
   3713470490.2297773     
   3542599099.5110621     
   4497298146.9868002     
   4314260388.8052540     
   4131113198.2448754     
   3947838584.6881332     
   3764460320.5245962     
   3036602073.9154572     
   2900129234.5539184     
   2766072507.4389744     
   2634775888.8152223     
   2506684520.5784326     
   3174367582.2825727     
   3026491401.2012963     
   2880446836.9875665     
   2736475516.8167958     
   2594909296.3374557     
   3344507974.2978325     
   3185882924.7752900     
   3028568653.6482887     
   2872707239.2872815     
   2718517219.6054845     
   3542599099.5110621     
   3373607490.5821600     
   3205476099.6706185     
   3038258859.3678713     
   2872073231.0794787     
   3764460320.5245962     
   3585206914.1483121     
   3406426271.9125195     
   3228098697.1338859     
   3050257927.6318550     
 </DataArray>
 <DataArray  type="Float64" Name="strain" NumberOfComponents="3" format="ascii">
  0.20348712722000820        0.0000000000000000       0.12540365771690942     
  0.18665637492040327       -2.7323401442888279E-002   7.4350344748795483E-002
  0.16982562262079837       -4.4674459388040315E-002   3.5131700666055060E-002
  0.15299487032119344       -5.2053173835456087E-002   7.7477254686881686E-003
  0.13616411802158851       -4.9459544785135617E-002  -7.8015808433051920E-003
  0.15985585691334206        0.0000000000000000        9.6448562604752430E-002
  0.15317803270606239       -2.1843742904772909E-002   6.2689953354415018E-002
  0.14650020849878273       -3.6173737553976536E-002   3.7402531403354582E-002
  0.13982238429150304       -4.2989983947610909E-002   2.0586296751571146E-002
  0.13314456008422337       -4.2292482085675959E-002   1.2241249399064680E-002
  0.12645798524084792        0.0000000000000000        7.4202423651794330E-002
  0.12656960753979696       -1.6364084366657535E-002   5.5279922877066456E-002
  0.12668122983874605       -2.7673015719912770E-002   4.1465127815519039E-002
  0.12679285213769512       -3.3926794059765703E-002   3.2758038467152084E-002
  0.12690447443664415       -3.5125419386216342E-002   2.9158654831965537E-002
  0.10329351220252583        0.0000000000000000        5.8665240858035074E-002
  0.10683109942160707       -1.0884425828542160E-002   5.2120253316749750E-002
  0.11036868664068830       -1.9172293885848998E-002   4.7319489902548369E-002
  0.11390627385976956       -2.4863604171920517E-002   4.4262950615430910E-002
  0.11744386107885080       -2.7958356686756704E-002   4.2950635455397373E-002
   9.0362437798375744E-002   0.0000000000000000        4.9837014223474682E-002
   9.3962508351492627E-002  -5.4047672904267863E-003   5.3210944673464967E-002
   9.7562578904609523E-002  -1.0671572051785226E-002   5.4965617664442634E-002
  0.10116264945772642       -1.5800414284075328E-002   5.5101033196407675E-002
  0.10476272001084333       -2.0791293987297073E-002   5.3617191269360119E-002
  0.13616411802158851       -4.9459544785135617E-002  -7.8015808433051920E-003
  0.13296038203172089       -4.2927036760117512E-002  -3.3884103930376594E-003
  0.12975664604185327       -3.8489114283440443E-002  -3.9057708714542241E-004
  0.12655291005198566       -3.6145777355104422E-002   1.1919190743717618E-003
  0.12334917406211801       -3.5897025975109437E-002   1.3590780915135325E-003
  0.13314456008422337       -4.2292482085675959E-002   1.2241249399064680E-002
  0.12891368955358384       -3.8428224213715619E-002   1.2184683850791689E-002
  0.12468281902294431       -3.5744202577273704E-002   1.1489186365350013E-002
  0.12045194849230478       -3.4240417176350166E-002   1.0154756942739849E-002
  0.11622107796166520       -3.3916868010945095E-002   8.1813955829609514E-003
  0.12690447443664415       -3.5125419386216342E-002   2.9158654831965537E-002
  0.12242287457243933       -3.3929411667313732E-002   2.5546702597974622E-002
  0.11794127470823446       -3.2999290871106902E-002   2.2072223634021643E-002
  0.11345967484402959       -3.2335056997595972E-002   1.8735217940106748E-002
  0.10897807497982476       -3.1936710046780767E-002   1.5535685516229823E-002
  0.11744386107885080       -2.7958356686756704E-002   4.2950635455397373E-002
  0.11348793708828728       -2.9430599120911841E-002   3.6697645848511082E-002
  0.10953201309772373       -3.0254379164940167E-002   3.1358534718869423E-002
  0.10557608910716021       -3.0429696818841712E-002   2.6933302066472424E-002
  0.10162016511659665       -2.9956552082616432E-002   2.3421947891320120E-002
  0.10476272001084333       -2.0791293987297073E-002   5.3617191269360119E-002
  0.10210887710112770       -2.4931786574509951E-002   4.5637513602401154E-002
   9.9455034191412092E-002  -2.7509467458773411E-002   3.9348119619893429E-002
   9.6801191281696466E-002  -2.8524336640087477E-002   3.4749009321836964E-002
   9.4147348371980868E-002  -2.7976394118452125E-002   3.1840182708231676E-002
  0.12334917406211801       -3.5897025975109437E-002   1.3590780915135325E-003
  0.12041135488398710       -3.6390902760177604E-002   6.3210662734361489E-004
  0.11747353570585618       -3.6275450327031215E-002   9.9177041344947203E-005
  0.11453571652772529       -3.5550668675670111E-002  -2.3971066648263012E-004
  0.11159789734959435       -3.4216557806094283E-002  -3.8455649613883258E-004
  0.11622107796166520       -3.3916868010945095E-002   8.1813955829609514E-003
  0.11346301162579477       -3.3989024052290095E-002   7.8243057216091233E-003
  0.11070494528992433       -3.3672354271616765E-002   7.6326796666070784E-003
  0.10794687895405390       -3.2966858668925188E-002   7.6065174179545426E-003
  0.10518881261818344       -3.1872537244215404E-002   7.7458189756517970E-003
  0.10897807497982476       -3.1936710046780767E-002   1.5535685516229823E-002
  0.10637118341439328       -3.1587145344402552E-002   1.5327973861499651E-002
  0.10376429184896185       -3.1069258216202430E-002   1.5257147941297709E-002
  0.10115740028353039       -3.0383048662180376E-002   1.5323207755624022E-002
   9.8550508718098936E-002  -2.9528516682336498E-002   1.5526153304478624E-002
  0.10162016511659665       -2.9956552082616432E-002   2.3421947891320120E-002
   9.9135870249782682E-002  -2.9185266636514998E-002   2.3143111047015087E-002
   9.6651575382968716E-002  -2.8466162160788067E-002   2.2972581865417063E-002
   9.4167280516154750E-002  -2.7799238655435619E-002   2.2910360346525761E-002
   9.1682985649340798E-002  -2.7184496120457521E-002   2.2956446490341093E-002
   9.4147348371980868E-002  -2.7976394118452125E-002   3.1840182708231676E-002
   9.1757072131962922E-002  -2.6783387928627465E-002   3.1269717278155675E-002
   8.9366795891944961E-002  -2.5863066105373665E-002   3.0778981438965000E-002
   8.6976519651927028E-002  -2.5215428648690731E-002   3.0367975190659757E-002
   8.4586243411909096E-002  -2.4840475558578656E-002   3.0036698533239703E-002
  0.11159789734959435       -3.4216557806094283E-002  -3.8455649613883258E-004
  0.10852963823290768       -3.2699489809854654E-002  -1.4937379435162046E-004
  0.10546137911622103       -3.1425836778501914E-002   1.3939877627555664E-004
  0.10239311999953433       -3.0395598712036051E-002   4.8176121574292075E-004
   9.9324860882847699E-002  -2.9608775610457216E-002   8.7771352404997227E-004
  0.10518881261818344       -3.1872537244215404E-002   7.7458189756517970E-003
  0.10220380149853567       -3.0656140020256017E-002   7.5873960427614018E-003
   9.9218790378887881E-002  -2.9584417019815970E-002   7.5418792351086422E-003
   9.6233779259240093E-002  -2.8657368242895141E-002   7.6092685526939624E-003
   9.3248768139592320E-002  -2.7874993689493643E-002   7.7895639955168350E-003
   9.8550508718098936E-002  -2.9528516682336498E-002   1.5526153304478624E-002
   9.5708061851887891E-002  -2.8612790230657409E-002   1.5072865478277964E-002
   9.2865614985676859E-002  -2.7742997261129915E-002   1.4791800033713019E-002
   9.0023168119465813E-002  -2.6919137773754175E-002   1.4682956970783805E-002
   8.7180721253254781E-002  -2.6141211768529932E-002   1.4746336289490278E-002
   9.1682985649340798E-002  -2.7184496120457521E-002   2.2956446490341093E-002
   8.9042419292964359E-002  -2.6569440441058703E-002   2.2307034512198041E-002
   8.6401852936587947E-002  -2.5901577502443915E-002   2.1889161172088615E-002
   8.3761286580211508E-002  -2.5180907304613070E-002   2.1702826470012589E-002
   8.1120720223835097E-002  -2.4407429847566206E-002   2.1748030405970068E-002
   8.4586243411909096E-002  -2.4840475558578656E-002   3.0036698533239703E-002
   8.2206873821765114E-002  -2.4526090651460095E-002   2.9289903144521692E-002
   7.9827504231621174E-002  -2.4060157743757922E-002   2.8833962650235315E-002
   7.7448134641477206E-002  -2.3442676835472048E-002   2.8668877050380168E-002
   7.5068765051333253E-002  -2.2673647926602564E-002   2.8794646344956459E-002
   9.9324860882847699E-002  -2.9608775610457216E-002   8.7771352404997227E-004
   9.6323722561658054E-002  -2.8900570421019234E-002   5.8622544608599725E-004
   9.3322584240468437E-002  -2.8106186090976079E-002   4.6226959851050631E-004
   9.0321445919278806E-002  -2.7225622620328387E-002   5.0584598132354108E-004
   8.7320307598089175E-002  -2.6258880009075281E-002   7.1695459452481014E-004
   9.3248768139592320E-002  -2.7874993689493643E-002   7.7895639955168350E-003
   9.0413287089547989E-002  -2.7138411912518923E-002   7.5738807208631242E-003
   8.7577806039503575E-002  -2.6348741464878422E-002   7.5219797581111275E-003
   8.4742324989459217E-002  -2.5505982346572253E-002   7.6338611072614554E-003
   8.1906843939414831E-002  -2.4610134557600527E-002   7.9095247683139691E-003
   8.7180721253254781E-002  -2.6141211768529932E-002   1.4746336289490278E-002
   8.4507147555869341E-002  -2.5376253404018390E-002   1.4573367348207078E-002
   8.1833573858483860E-002  -2.4591296838780551E-002   1.4560430800339454E-002
   7.9160000161098407E-002  -2.3786342072816456E-002   1.4707526645887748E-002
   7.6486426463712925E-002  -2.2961389106125996E-002   1.5014654884851708E-002
   8.1120720223835097E-002  -2.4407429847566206E-002   2.1748030405970068E-002
   7.8605303960622222E-002  -2.3614094895517912E-002   2.1584685328118094E-002
   7.6089887697409375E-002  -2.2833852212682731E-002   2.1577622725195512E-002
   7.3574471434196514E-002  -2.2066701799060600E-002   2.1726842597202551E-002
   7.1059055170983654E-002  -2.1312643654651353E-002   2.2032344944138693E-002
   7.5068765051333253E-002  -2.2673647926602564E-002   2.8794646344956459E-002
   7.2707756303806603E-002  -2.1851936387017490E-002   2.8607834660596215E-002
   7.0346747556279982E-002  -2.1076407586584807E-002   2.8573555532679359E-002
   6.7985738808753388E-002  -2.0347061525304563E-002   2.8691808961205538E-002
   6.5624730061226738E-002  -1.9663898203176766E-002   2.8962594946174758E-002
   8.7320307598089175E-002  -2.6258880009075281E-002   7.1695459452481014E-004
   8.4228849207245937E-002  -2.5265232702094353E-002   4.7082968538064707E-004
   8.1137390816402533E-002  -2.4303955144262868E-002   4.1350216636859560E-004
   7.8045932425559267E-002  -2.3375047335580962E-002   5.4497203748860024E-004
   7.4954474034715890E-002  -2.2478509276048553E-002   8.6523929874027239E-004
   8.1906843939414831E-002  -2.4610134557600527E-002   7.9095247683139691E-003
   7.9004002465756396E-002  -2.3697460936829257E-002   7.6303621910870645E-003
   7.6101160992097877E-002  -2.2804224323125094E-002   7.5396360580977373E-003
   7.3198319518439428E-002  -2.1930424716487283E-002   7.6373463693463206E-003
   7.0295478044780924E-002  -2.1076062116916594E-002   7.9234931248323703E-003
   7.6486426463712925E-002  -2.2961389106125996E-002   1.5014654884851708E-002
   7.3771840961345120E-002  -2.2129689171564548E-002   1.4715387381624812E-002
   7.1057255458977217E-002  -2.1304493501987098E-002   1.4604195376741305E-002
   6.8342669956609342E-002  -2.0485802097393938E-002   1.4681078870201120E-002
   6.5628084454241509E-002  -1.9673614957784802E-002   1.4946037862004435E-002
   7.1059055170983654E-002  -2.1312643654651353E-002   2.2032344944138693E-002
   6.8532364694012082E-002  -2.0561917406299646E-002   2.1725905256994214E-002
   6.6005674217040511E-002  -1.9804762680849269E-002   2.1607180122298973E-002
   6.3478983740068995E-002  -1.9041179478300203E-002   2.1676169540053157E-002
   6.0952293263097396E-002  -1.8271167798652871E-002   2.1932873510256218E-002
   6.5624730061226738E-002  -1.9663898203176766E-002   2.8962594946174758E-002
   6.3285573663757255E-002  -1.8994145641034660E-002   2.8661915817195460E-002
   6.0946417266287758E-002  -1.8305031859711288E-002   2.8548590294771248E-002
   5.8607260868818269E-002  -1.7596556859206903E-002   2.8622618378901871E-002
   5.6268104471348779E-002  -1.6868720639521106E-002   2.8884000069587357E-002
   7.4954474034715890E-002  -2.2478509276048553E-002   8.6523929874027239E-004
   7.1898415070241473E-002  -2.1591942459985303E-002   5.6775949602827502E-004
   6.8842356105767000E-002  -2.0692948381711984E-002   4.5797764984772948E-004
   6.5786297141292527E-002  -1.9781527041228042E-002   5.3589376019919088E-004
   6.2730238176818109E-002  -1.8857678438533587E-002   8.0150782708188206E-004
   7.0295478044780924E-002  -2.1076062116916594E-002   7.9234931248323703E-003
   6.7424986839818679E-002  -2.0227751838862551E-002   7.6253653376188169E-003
   6.4554495634856490E-002  -1.9372109196774900E-002   7.5106751128975469E-003
   6.1684004429894246E-002  -1.8509134190653864E-002   7.5794224506689351E-003
   5.8813513224932001E-002  -1.7638826820498776E-002   7.8316073509332451E-003
   6.5628084454241509E-002  -1.9673614957784802E-002   1.4946037862004435E-002
   6.2938900614752588E-002  -1.8863561217739355E-002   1.4642167192111699E-002
   6.0249716775263668E-002  -1.8051270011837484E-002   1.4517473690672716E-002
   5.7560532935774775E-002  -1.7236741340079131E-002   1.4571957357687682E-002
   5.4871349096285854E-002  -1.6419975202464132E-002   1.4805618193156150E-002
   6.0952293263097396E-002  -1.8271167798652871E-002   2.1932873510256218E-002
   5.8440156395043033E-002  -1.7499370596616382E-002   2.1618165059507172E-002
   5.5928019526988636E-002  -1.6730430826900455E-002   2.1478373383173613E-002
   5.3415882658934211E-002  -1.5964348489504787E-002   2.1513498481254792E-002
   5.0903745790879820E-002  -1.5201123584429627E-002   2.1723540353751257E-002
   5.6268104471348779E-002  -1.6868720639521106E-002   2.8884000069587357E-002
   5.3928754180690014E-002  -1.6135179975493519E-002   2.8553358939805540E-002
   5.1589403890031305E-002  -1.5409591641963261E-002   2.8393374190400195E-002
   4.9250053599372567E-002  -1.4691955638930540E-002   2.8404045821370794E-002
   4.6910703308713886E-002  -1.3982271966394955E-002   2.8585373832717698E-002
   6.2730238176818109E-002  -1.8857678438533587E-002   8.0150782708188206E-004
   5.9748385376745206E-002  -1.7943258109903937E-002   5.0360109995106761E-004
   5.6766532576672357E-002  -1.7060121591614102E-002   3.9268614204590602E-004
   5.3784679776599453E-002  -1.6208268883665257E-002   4.6876295336814588E-004
   5.0802826976526605E-002  -1.5387699986056269E-002   7.3183153391553901E-004
   5.8813513224932001E-002  -1.7638826820498776E-002   7.8316073509332451E-003
   5.6012281170528033E-002  -1.6773758540001960E-002   7.4773432466405665E-003
   5.3211049116124176E-002  -1.5926500802855070E-002   7.2973288644592738E-003
   5.0409817061720263E-002  -1.5097053609057443E-002   7.2915642043898110E-003
   4.7608585007316351E-002  -1.4285416958609964E-002   7.4600492664320672E-003
   5.4871349096285854E-002  -1.6419975202464132E-002   1.4805618193156150E-002
   5.2237995740436555E-002  -1.5604258970100648E-002   1.4408469978691996E-002
   4.9604642384587311E-002  -1.4792880014095580E-002   1.4172829439225168E-002
   4.6971289028738025E-002  -1.3985838334449514E-002   1.4098696574755286E-002
   4.4337935672888740E-002  -1.3183133931162772E-002   1.4186071385283272E-002
   5.0903745790879820E-002  -1.5201123584429627E-002   2.1723540353751257E-002
   4.8425529086470714E-002  -1.4434759400198782E-002   2.1296981296106021E-002
   4.5947312382061685E-002  -1.3659259225336319E-002   2.1019187866343877E-002
   4.3469095677652544E-002  -1.2874623059842308E-002   2.0890160064464598E-002
   4.0990878973243453E-002  -1.2080850903716245E-002   2.0909897890469098E-002
   4.6910703308713886E-002  -1.3982271966394955E-002   2.8585373832717698E-002
   4.4574881208630623E-002  -1.3265259830297360E-002   2.8142877198882477E-002
   4.2239059108547361E-002  -1.2525638436576961E-002   2.7836404145816146E-002
   3.9903237008464112E-002  -1.1763407785234357E-002   2.7665954673517720E-002
   3.7567414908380781E-002  -1.0978567876269496E-002   2.7631528781988379E-002
   9.0362437798375744E-002   0.0000000000000000        4.9837014223474682E-002
   9.3962508351492627E-002  -5.4047672904267863E-003   5.3210944673464967E-002
   9.7562578904609523E-002  -1.0671572051785226E-002   5.4965617664442634E-002
  0.10116264945772642       -1.5800414284075328E-002   5.5101033196407675E-002
  0.10476272001084333       -2.0791293987297073E-002   5.3617191269360119E-002
   8.2426040042298435E-002   0.0000000000000000        4.4785099188288185E-002
   8.4635997946870295E-002  -4.5745054037764354E-003   4.8268686486889346E-002
   8.6845955851442155E-002  -9.0378585842816883E-003   5.0591305947413075E-002
   8.9055913756014016E-002  -1.3390059541515753E-002   5.1752957569859336E-002
   9.1265871660585904E-002  -1.7631108275478639E-002   5.1753641354228122E-002
   7.4245596948194659E-002   0.0000000000000000        4.0576851192650629E-002
   7.5523731825156648E-002  -3.7442435171260854E-003   4.4143285034065505E-002
   7.6801866702118665E-002  -7.4041451167781453E-003   4.7007040658338092E-002
   7.8080001579080655E-002  -1.0979704798956181E-002   4.9168118065468412E-002
   7.9358136456042658E-002  -1.4470922563660192E-002   5.0626517255456450E-002
   6.5821108516064389E-002   0.0000000000000000        3.7212270236561998E-002
   6.6625709986351700E-002  -2.9139816304757349E-003   4.0834740314993415E-002
   6.7430311456639025E-002  -5.7704316492746032E-003   4.4212821797217736E-002
   6.8234912926926336E-002  -8.5693500563966078E-003   4.7346514683234961E-002
   6.9039514397213647E-002  -1.1310736851841750E-002   5.0235818973045056E-002
   5.7152574745907660E-002   0.0000000000000000        3.4691356320022293E-002
   5.7941932430455451E-002  -2.0837197438253845E-003   3.8343052329673104E-002
   5.8731290115003248E-002  -4.1367181817710645E-003   4.2208649364051991E-002
   5.9520647799551039E-002  -6.1589953138370349E-003   4.6288147423158954E-002
   6.0310005484098844E-002  -8.1505511400233061E-003   5.0581546506993952E-002
  0.10476272001084333       -2.0791293987297073E-002   5.3617191269360119E-002
  0.10210887710112770       -2.4931786574509951E-002   4.5637513602401154E-002
   9.9455034191412092E-002  -2.7509467458773411E-002   3.9348119619893429E-002
   9.6801191281696466E-002  -2.8524336640087477E-002   3.4749009321836964E-002
   9.4147348371980868E-002  -2.7976394118452125E-002   3.1840182708231676E-002
   9.1265871660585904E-002  -1.7631108275478639E-002   5.1753641354228122E-002
   9.0064398939397952E-002  -2.1206205125868977E-002   4.6516944960471485E-002
   8.8862926218209987E-002  -2.3560550432385412E-002   4.2494705259318880E-002
   8.7661453497022007E-002  -2.4694144195027936E-002   3.9686922250770425E-002
   8.6459980775834097E-002  -2.4606986413796599E-002   3.8093595934826023E-002
   7.9358136456042658E-002  -1.4470922563660192E-002   5.0626517255456450E-002
   7.9133206931535249E-002  -1.7480623677227990E-002   4.7790741975826570E-002
   7.8908277407027799E-002  -1.9611633405997402E-002   4.5693596396953640E-002
   7.8683347882520349E-002  -2.0863951749968416E-002   4.4335080518837625E-002
   7.8458418358012927E-002  -2.1237578709141058E-002   4.3715194341478622E-002
   6.9039514397213647E-002  -1.1310736851841750E-002   5.0235818973045056E-002
   6.9315301077539596E-002  -1.3755042228587018E-002   4.9458904648466424E-002
   6.9591087757865530E-002  -1.5662716379609407E-002   4.8944793032797633E-002
   6.9866874438191465E-002  -1.7033759304908906E-002   4.8693484126038647E-002
   7.0142661118517427E-002  -1.7868171004485525E-002   4.8704977928189445E-002
   6.0310005484098844E-002  -8.1505511400233061E-003   5.0581546506993952E-002
   6.0610681377411019E-002  -1.0029460779946032E-002   5.1521432978391075E-002
   6.0911357270723193E-002  -1.1713799353221390E-002   5.2248295166850908E-002
   6.1212033164035375E-002  -1.3203566859849369E-002   5.2762133072373388E-002
   6.1512709057347549E-002  -1.4498763299829999E-002   5.3062946694958528E-002
   9.4147348371980868E-002  -2.7976394118452125E-002   3.1840182708231676E-002
   9.1757072131962922E-002  -2.6783387928627465E-002   3.1269717278155675E-002
   8.9366795891944961E-002  -2.5863066105373665E-002   3.0778981438965000E-002
   8.6976519651927028E-002  -2.5215428648690731E-002   3.0367975190659757E-002
   8.4586243411909096E-002  -2.4840475558578656E-002   3.0036698533239703E-002
   8.6459980775834097E-002  -2.4606986413796599E-002   3.8093595934826023E-002
   8.4196008171286196E-002  -2.3963211318781867E-002   3.7065409086221503E-002
   8.1932035566738365E-002  -2.3426953140074272E-002   3.6210099917671934E-002
   7.9668062962190520E-002  -2.2998211877673928E-002   3.5527668429177255E-002
   7.7404090357642633E-002  -2.2676987531580706E-002   3.5018114620737353E-002
   7.8458418358012927E-002  -2.1237578709141058E-002   4.3715194341478622E-002
   7.6413897478104773E-002  -2.1143034708936245E-002   4.2394453524609250E-002
   7.4369376598196577E-002  -2.0990840174774896E-002   4.1339738476964316E-002
   7.2324855718288408E-002  -2.0780995106657058E-002   4.0551049198544006E-002
   7.0280334838380226E-002  -2.0513499504582727E-002   4.0028385689348030E-002
   7.0142661118517427E-002  -1.7868171004485525E-002   4.8704977928189445E-002
   6.8410740052418526E-002  -1.8322858099090608E-002   4.7256850593318876E-002
   6.6678818986319666E-002  -1.8554727209475513E-002   4.6167897116842445E-002
   6.4946897920220806E-002  -1.8563778335640227E-002   4.5438117498760040E-002
   6.3214976854121918E-002  -1.8350011477584777E-002   4.5067511739071718E-002
   6.1512709057347549E-002  -1.4498763299829999E-002   5.3062946694958528E-002
   6.0186535894227573E-002  -1.5502681489245010E-002   5.1652600292350449E-002
   5.8860362731107604E-002  -1.6118614244176113E-002   5.0694575837306022E-002
   5.7534189567987615E-002  -1.6346561564623396E-002   5.0188873329825315E-002
   5.6208016404867653E-002  -1.6186523450586826E-002   5.0135492769908335E-002
   8.4586243411909096E-002  -2.4840475558578656E-002   3.0036698533239703E-002
   8.2206873821765114E-002  -2.4526090651460095E-002   2.9289903144521692E-002
   7.9827504231621174E-002  -2.4060157743757922E-002   2.8833962650235315E-002
   7.7448134641477206E-002  -2.3442676835472048E-002   2.8668877050380168E-002
   7.5068765051333253E-002  -2.2673647926602564E-002   2.8794646344956459E-002
   7.7404090357642633E-002  -2.2676987531580706E-002   3.5018114620737353E-002
   7.5298564343079161E-002  -2.2354068655275318E-002   3.4443932436830187E-002
   7.3193038328515647E-002  -2.1920243802238566E-002   3.4126582509652552E-002
   7.1087512313952161E-002  -2.1375512972470305E-002   3.4066064839204463E-002
   6.8981986299388676E-002  -2.0719876165970735E-002   3.4262379425486045E-002
   7.0280334838380226E-002  -2.0513499504582727E-002   4.0028385689348030E-002
   6.8414629761695392E-002  -2.0182046659090506E-002   3.9586174686399377E-002
   6.6548924685010571E-002  -1.9780329860719151E-002   3.9366773302478411E-002
   6.4683219608325709E-002  -1.9308349109468576E-002   3.9370181537585203E-002
   6.2817514531640903E-002  -1.8766104405338838E-002   3.9596399391719765E-002
   6.3214976854121918E-002  -1.8350011477584777E-002   4.5067511739071718E-002
   6.1555070077613919E-002  -1.8010024662905740E-002   4.4716629893229227E-002
   5.9895163301105919E-002  -1.7640415919199778E-002   4.4554535028712643E-002
   5.8235256524597906E-002  -1.7241185246466853E-002   4.4581227145522026E-002
   5.6575349748089906E-002  -1.6812332644706988E-002   4.4796706243657267E-002
   5.6208016404867653E-002  -1.6186523450586826E-002   5.0135492769908335E-002
   5.4719885290834672E-002  -1.5838002666720918E-002   4.9835298057319843E-002
   5.3231754176801684E-002  -1.5500501977680360E-002   4.9689867688355496E-002
   5.1743623062768682E-002  -1.5174021383465056E-002   4.9699201663015148E-002
   5.0255491948735714E-002  -1.4858560884075112E-002   4.9863299981298931E-002
   7.5068765051333253E-002  -2.2673647926602564E-002   2.8794646344956459E-002
   7.2707756303806603E-002  -2.1851936387017490E-002   2.8607834660596215E-002
   7.0346747556279982E-002  -2.1076407586584807E-002   2.8573555532679359E-002
   6.7985738808753388E-002  -2.0347061525304563E-002   2.8691808961205538E-002
   6.5624730061226738E-002  -1.9663898203176766E-002   2.8962594946174758E-002
   6.8981986299388676E-002  -2.0719876165970735E-002   3.4262379425486045E-002
   6.6783256997168819E-002  -2.0019419988454454E-002   3.3973896627261052E-002
   6.4584527694948976E-002  -1.9340231045636667E-002   3.3857440163206534E-002
   6.2385798392729105E-002  -1.8682309337517085E-002   3.3913010033322449E-002
   6.0187069090509276E-002  -1.8045654864095872E-002   3.4140606237608701E-002
   6.2817514531640903E-002  -1.8766104405338838E-002   3.9596399391719765E-002
   6.0800558452455189E-002  -1.8186903589891584E-002   3.9231160984083892E-002
   5.8783602373269482E-002  -1.7604054504688552E-002   3.9057442688345961E-002
   5.6766646294083775E-002  -1.7017557149729655E-002   3.9075244504505662E-002
   5.4749690214898013E-002  -1.6427411525014951E-002   3.9284566432563395E-002
   5.6575349748089906E-002  -1.6812332644706988E-002   4.4796706243657267E-002
   5.4759660669665686E-002  -1.6354387191328673E-002   4.4379627731064887E-002
   5.2943971591241451E-002  -1.5867877963740368E-002   4.4173563108097676E-002
   5.1128282512817230E-002  -1.5352804961942228E-002   4.4178512374755535E-002
   4.9312593434392989E-002  -1.4809168185934016E-002   4.4394475531038591E-002
   5.0255491948735714E-002  -1.4858560884075112E-002   4.9863299981298931E-002
   4.8660563648800337E-002  -1.4521870792765706E-002   4.9419296868203955E-002
   4.7065635348864945E-002  -1.4131701422792298E-002   4.9205801422461642E-002
   4.5470707048929575E-002  -1.3688052774154719E-002   4.9222813644071634E-002
   4.3875778748994204E-002  -1.3190924846853080E-002   4.9470333533034261E-002
   6.5624730061226738E-002  -1.9663898203176766E-002   2.8962594946174758E-002
   6.3285573663757255E-002  -1.8994145641034660E-002   2.8661915817195460E-002
   6.0946417266287758E-002  -1.8305031859711288E-002   2.8548590294771248E-002
   5.8607260868818269E-002  -1.7596556859206903E-002   2.8622618378901871E-002
   5.6268104471348779E-002  -1.6868720639521106E-002   2.8884000069587357E-002
   6.0187069090509276E-002  -1.8045654864095872E-002   3.4140606237608701E-002
   5.8034463251084106E-002  -1.7413181802465663E-002   3.3855538970374147E-002
   5.5881857411658978E-002  -1.6767804329718833E-002   3.3756219212673119E-002
   5.3729251572233835E-002  -1.6109522445855472E-002   3.3842646964506194E-002
   5.1576645732808679E-002  -1.5438336150875753E-002   3.4114822225872726E-002
   5.4749690214898013E-002  -1.6427411525014951E-002   3.9284566432563395E-002
   5.2782028836496131E-002  -1.5832217963896458E-002   3.9008654219008621E-002
   5.0814367458094215E-002  -1.5230576799726260E-002   3.8916883417966348E-002
   4.8846706079692291E-002  -1.4622488032504150E-002   3.9009254029436724E-002
   4.6879044701290354E-002  -1.4007951662230372E-002   3.9285766053419879E-002
   4.9312593434392989E-002  -1.4809168185934016E-002   4.4394475531038591E-002
   4.7528270419993177E-002  -1.4251254125327413E-002   4.4121261563098708E-002
   4.5743947405593399E-002  -1.3693349269733607E-002   4.4030582910650540E-002
   4.3959624391193573E-002  -1.3135453619152856E-002   4.4122439573693786E-002
   4.2175301376793796E-002  -1.2577567173585005E-002   4.4396831552228774E-002
   4.3875778748994204E-002  -1.3190924846853080E-002   4.9470333533034261E-002
   4.2273188001575396E-002  -1.2670290286758229E-002   4.9193361002644875E-002
   4.0670597254156574E-002  -1.2156121739741191E-002   4.9097317690725895E-002
   3.9068006506737786E-002  -1.1648419205801442E-002   4.9182203597277360E-002
   3.7465415759318943E-002  -1.1147182684939638E-002   4.9448018722299314E-002
   5.6268104471348779E-002  -1.6868720639521106E-002   2.8884000069587357E-002
   5.3928754180690014E-002  -1.6135179975493519E-002   2.8553358939805540E-002
   5.1589403890031305E-002  -1.5409591641963261E-002   2.8393374190400195E-002
   4.9250053599372567E-002  -1.4691955638930540E-002   2.8404045821370794E-002
   4.6910703308713886E-002  -1.3982271966394955E-002   2.8585373832717698E-002
   5.1576645732808679E-002  -1.5438336150875753E-002   3.4114822225872726E-002
   4.9409964020790550E-002  -1.4761432860740553E-002   3.3775339625725542E-002
   4.7243282308772463E-002  -1.4085999991411094E-002   3.3610537802483187E-002
   4.5076600596754300E-002  -1.3412037542887462E-002   3.3620416756145993E-002
   4.2909918884736220E-002  -1.2739545515169315E-002   3.3804976486713656E-002
   4.6879044701290354E-002  -1.4007951662230372E-002   3.9285766053419879E-002
   4.4889055964441572E-002  -1.3387685745987643E-002   3.8943923892598986E-002
   4.2899067227592749E-002  -1.2762408340858983E-002   3.8780786905211542E-002
   4.0909078490743989E-002  -1.2132119446844274E-002   3.8796355091257950E-002
   3.8919089753895103E-002  -1.1496819063943647E-002   3.8990628450737877E-002
   4.2175301376793796E-002  -1.2577567173585005E-002   4.4396831552228774E-002
   4.0366030011643038E-002  -1.2013938631234594E-002   4.4059111740425594E-002
   3.8556758646492287E-002  -1.1438816690306844E-002   4.3904121498584942E-002
   3.6747487281341501E-002  -1.0852201350801224E-002   4.3931860826706567E-002
   3.4938215916190771E-002  -1.0254092612717938E-002   4.4142329724790777E-002
   3.7465415759318943E-002  -1.1147182684939638E-002   4.9448018722299314E-002
   3.5840886162394975E-002  -1.0640191516481767E-002   4.9120903169205810E-002
   3.4216356565470951E-002  -1.0115225039754733E-002   4.8980541582603426E-002
   3.2591826968546941E-002  -9.5722832547580697E-003   4.9026933962492358E-002
   3.0967297371622932E-002  -9.0113661614922291E-003   4.9260080308872189E-002
   4.6910703308713886E-002  -1.3982271966394955E-002   2.8585373832717698E-002
   4.4574881208630623E-002  -1.3265259830297360E-002   2.8142877198882477E-002
   4.2239059108547361E-002  -1.2525638436576961E-002   2.7836404145816146E-002
   3.9903237008464112E-002  -1.1763407785234357E-002   2.7665954673517720E-002
   3.7567414908380781E-002  -1.0978567876269496E-002   2.7631528781988379E-002
   4.2909918884736220E-002  -1.2739545515169315E-002   3.3804976486713656E-002
   4.0716232082418591E-002  -1.2058718989915146E-002   3.3398921199762177E-002
   3.8522545280100975E-002  -1.1359753048782825E-002   3.3141112927573463E-002
   3.6328858477783395E-002  -1.0642647691772710E-002   3.3031551670147236E-002
   3.4135171675465759E-002  -9.9074029188843671E-003   3.3070237427483828E-002
   3.8919089753895103E-002  -1.1496819063943647E-002   3.8990628450737877E-002
   3.6879761683337203E-002  -1.0852178149533098E-002   3.8616544668926014E-002
   3.4840433612779283E-002  -1.0193867660988905E-002   3.8402931335870770E-002
   3.2801105542221265E-002  -9.5218875983110341E-003   3.8349788451572192E-002
   3.0761777471663365E-002  -8.8362379614993491E-003   3.8457116016030246E-002
   3.4938215916190771E-002  -1.0254092612717938E-002   4.4142329724790777E-002
   3.3065470011386447E-002  -9.6456373091510228E-003   4.3795747606374183E-002
   3.1192724106582144E-002  -9.0279822731948768E-003   4.3621859370708116E-002
   2.9319978201777796E-002  -8.4011275048493164E-003   4.3620665017792624E-002
   2.7447232296973566E-002  -7.7650730041142202E-003   4.3792164547627688E-002
   3.0967297371622932E-002  -9.0113661614922291E-003   4.9260080308872189E-002
   2.9273357066566308E-002  -8.4390964687688363E-003   4.8936530012106294E-002
   2.7579416761509670E-002  -7.8620968854008766E-003   4.8797897032084980E-002
   2.5885476456453026E-002  -7.2803674113876074E-003   4.8844181368808359E-002
   2.4191536151396409E-002  -6.6939080467292023E-003   4.9075383022276542E-002
   5.7152574745907660E-002   0.0000000000000000        3.4691356320022293E-002
   5.7941932430455451E-002  -2.0837197438253845E-003   3.8343052329673104E-002
   5.8731290115003248E-002  -4.1367181817710645E-003   4.2208649364051991E-002
   5.9520647799551039E-002  -6.1589953138370349E-003   4.6288147423158954E-002
   6.0310005484098844E-002  -8.1505511400233061E-003   5.0581546506993952E-002
   4.8652193829898140E-002   0.0000000000000000        3.2790698553962591E-002
   4.9590196025768779E-002  -1.7092158350732779E-003   3.6965869049749835E-002
   5.0528198221639418E-002  -3.4323930695847639E-003   4.1224427543454713E-002
   5.1466200417510058E-002  -5.1695317035344510E-003   4.5566374035077219E-002
   5.2404202613380704E-002  -6.9206317369223513E-003   4.9991708524617359E-002
   4.0732163960209525E-002   0.0000000000000000        3.1286886049313942E-002
   4.1688297640592571E-002  -1.3347119263211723E-003   3.5940848325919726E-002
   4.2644431320975625E-002  -2.7280679573984615E-003   4.0547685573632683E-002
   4.3600565001358671E-002  -4.1800680932318661E-003   4.5107397792452847E-002
   4.4556698681741710E-002  -5.6907123338213886E-003   4.9619984982380169E-002
   3.3392485136841829E-002   0.0000000000000000        3.0179918806076358E-002
   3.4236237274926834E-002  -9.6020801756906658E-004   3.5267990158182744E-002
   3.5079989413011846E-002  -2.0237428452121601E-003   4.0178423454585895E-002
   3.5923741551096858E-002  -3.1906044829292800E-003   4.4911218695285762E-002
   3.6767493689181870E-002  -4.4607929307204312E-003   4.9466375880282409E-002
   2.6633157359795028E-002   0.0000000000000000        2.9469796824249835E-002
   2.7234014928771564E-002  -5.8570410881696004E-004   3.4947294546538936E-002
   2.7834872497748096E-002  -1.3194177330258586E-003   4.0116641186314327E-002
   2.8435730066724629E-002  -2.2011408726266939E-003   4.4977836743576055E-002
   2.9036587635701168E-002  -3.2308735276194702E-003   4.9530881218324052E-002
   6.0310005484098844E-002  -8.1505511400233061E-003   5.0581546506993952E-002
   6.0610681377411019E-002  -1.0029460779946032E-002   5.1521432978391075E-002
   6.0911357270723193E-002  -1.1713799353221390E-002   5.2248295166850908E-002
   6.1212033164035375E-002  -1.3203566859849369E-002   5.2762133072373388E-002
   6.1512709057347549E-002  -1.4498763299829999E-002   5.3062946694958528E-002
   5.2404202613380704E-002  -6.9206317369223513E-003   4.9991708524617359E-002
   5.2530893047147711E-002  -8.5843794037899906E-003   5.1220551358048837E-002
   5.2657583480914726E-002  -1.0059460938178931E-002   5.2314447555327340E-002
   5.2784273914681747E-002  -1.1345876340089159E-002   5.3273397116452854E-002
   5.2910964348448747E-002  -1.2443625609520705E-002   5.4097400041425367E-002
   4.4556698681741710E-002  -5.6907123338213886E-003   4.9619984982380169E-002
   4.4587481302747894E-002  -7.1392980276339477E-003   5.1131879243677375E-002
   4.4618263923754085E-002  -8.4051225231364778E-003   5.2586904515605874E-002
   4.4649046544760276E-002  -9.4881858203289520E-003   5.3985060798165757E-002
   4.4679829165766460E-002  -1.0388487919211393E-002   5.5326348091356933E-002
   3.6767493689181870E-002  -4.4607929307204312E-003   4.9466375880282409E-002
   3.6780446144211554E-002  -5.6942166514779074E-003   5.1255416635276628E-002
   3.6793398599241259E-002  -6.7507841080940165E-003   5.3065666047686491E-002
   3.6806351054270957E-002  -7.6304953005687194E-003   5.4897124117512075E-002
   3.6819303509300641E-002  -8.3333502289020759E-003   5.6749790844753317E-002
   2.9036587635701168E-002  -3.2308735276194702E-003   4.9530881218324052E-002
   2.9109787571538714E-002  -4.2491352753218567E-003   5.1591163532846623E-002
   2.9182987507376246E-002  -5.0964456930515552E-003   5.3750732151569204E-002
   2.9256187443213792E-002  -5.7728047808085223E-003   5.6009587074491815E-002
   2.9329387379051330E-002  -6.2782125385927937E-003   5.8367728301614401E-002
   6.1512709057347549E-002  -1.4498763299829999E-002   5.3062946694958528E-002
   6.0186535894227573E-002  -1.5502681489245010E-002   5.1652600292350449E-002
   5.8860362731107604E-002  -1.6118614244176113E-002   5.0694575837306022E-002
   5.7534189567987615E-002  -1.6346561564623396E-002   5.0188873329825315E-002
   5.6208016404867653E-002  -1.6186523450586826E-002   5.0135492769908335E-002
   5.2910964348448747E-002  -1.2443625609520705E-002   5.4097400041425367E-002
   5.1985094062782143E-002  -1.3293578066947646E-002   5.3353100557930591E-002
   5.1059223777115532E-002  -1.3836603032844291E-002   5.2957084881778811E-002
   5.0133353491448929E-002  -1.4072700507210456E-002   5.2909353012970020E-002
   4.9207483205782318E-002  -1.4001870490046281E-002   5.3209904951504253E-002
   4.4679829165766460E-002  -1.0388487919211393E-002   5.5326348091356933E-002
   4.4050223617332532E-002  -1.1084474644650351E-002   5.5167037584021965E-002
   4.3420618068898603E-002  -1.1554591821512410E-002   5.5251972743809281E-002
   4.2791012520464668E-002  -1.1798839449797529E-002   5.5581153570718918E-002
   4.2161406972030746E-002  -1.1817217529505750E-002   5.6154580064751013E-002
   3.6819303509300641E-002  -8.3333502289020759E-003   5.6749790844753317E-002
   3.6381924557878732E-002  -8.8753712223530422E-003   5.7094411370624647E-002
   3.5944545606456803E-002  -9.2725806101805232E-003   5.7579239423397571E-002
   3.5507166655034887E-002  -9.5249783923845761E-003   5.8204275003072244E-002
   3.5069787703612978E-002  -9.6325645689651976E-003   5.8969518109648476E-002
   2.9329387379051330E-002  -6.2782125385927937E-003   5.8367728301614401E-002
   2.8980196884420738E-002  -6.6662678000556988E-003   5.9135221917738574E-002
   2.8631006389790142E-002  -6.9905693988486662E-003   5.9938884920543722E-002
   2.8281815895159546E-002  -7.2511173349716386E-003   6.0778717310029887E-002
   2.7932625400528953E-002  -7.4479116084246733E-003   6.1654719086196991E-002
   5.6208016404867653E-002  -1.6186523450586826E-002   5.0135492769908335E-002
   5.4719885290834672E-002  -1.5838002666720918E-002   4.9835298057319843E-002
   5.3231754176801684E-002  -1.5500501977680360E-002   4.9689867688355496E-002
   5.1743623062768682E-002  -1.5174021383465056E-002   4.9699201663015148E-002
   5.0255491948735714E-002  -1.4858560884075112E-002   4.9863299981298931E-002
   4.9207483205782318E-002  -1.4001870490046281E-002   5.3209904951504253E-002
   4.7884065411644645E-002  -1.3770265757618257E-002   5.2875917102606716E-002
   4.6560647617506966E-002  -1.3524039086192846E-002   5.2716591549875791E-002
   4.5237229823369307E-002  -1.3263190475770251E-002   5.2731928293311331E-002
   4.3913812029231628E-002  -1.2987719926350172E-002   5.2921927332913371E-002
   4.2161406972030746E-002  -1.1817217529505750E-002   5.6154580064751013E-002
   4.1022600450330807E-002  -1.1702528848515525E-002   5.5812441113367056E-002
   3.9883793928630881E-002  -1.1547576194705356E-002   5.5664862410692184E-002
   3.8744987406930963E-002  -1.1352359568075263E-002   5.5711843956726188E-002
   3.7606180885231023E-002  -1.1116878968625205E-002   5.5953385751469117E-002
   3.5069787703612978E-002  -9.6325645689651976E-003   5.8969518109648476E-002
   3.4135490406893204E-002  -9.6347919394128428E-003   5.8644870089600926E-002
   3.3201193110173430E-002  -9.5711133032178822E-003   5.8534680270804704E-002
   3.2266895813453669E-002  -9.4415286603803539E-003   5.8638948653259790E-002
   3.1332598516733909E-002  -9.2460380109002788E-003   5.8957675236966323E-002
   2.7932625400528953E-002  -7.4479116084246733E-003   6.1654719086196991E-002
   2.7222735281331782E-002  -7.5670550303100770E-003   6.1373204031308234E-002
   2.6512845162134608E-002  -7.5946504117303387E-003   6.1326045130213322E-002
   2.5802955042937441E-002  -7.5306977526854134E-003   6.1513242382912087E-002
   2.5093064923740263E-002  -7.3751970531752975E-003   6.1934795789404751E-002
   5.0255491948735714E-002  -1.4858560884075112E-002   4.9863299981298931E-002
   4.8660563648800337E-002  -1.4521870792765706E-002   4.9419296868203955E-002
   4.7065635348864945E-002  -1.4131701422792298E-002   4.9205801422461642E-002
   4.5470707048929575E-002  -1.3688052774154719E-002   4.9222813644071634E-002
   4.3875778748994204E-002  -1.3190924846853080E-002   4.9470333533034261E-002
   4.3913812029231628E-002  -1.2987719926350172E-002   5.2921927332913371E-002
   4.2542566878244835E-002  -1.2684339740920425E-002   5.2552486782761171E-002
   4.1171321727258077E-002  -1.2339762222468659E-002   5.2399904863153407E-002
   3.9800076576271284E-002  -1.1953987370994575E-002   5.2464181574090267E-002
   3.8428831425284513E-002  -1.1527015186498679E-002   5.2745316915571910E-002
   3.7606180885231023E-002  -1.1116878968625205E-002   5.5953385751469117E-002
   3.6444969846384942E-002  -1.0846808689075130E-002   5.5646225818617445E-002
   3.5283758807538868E-002  -1.0547823022144964E-002   5.5542275479502454E-002
   3.4122547768692786E-002  -1.0219921967834597E-002   5.5641534734124337E-002
   3.2961336729846726E-002  -9.8631055261441947E-003   5.5944003582482887E-002
   3.1332598516733909E-002  -9.2460380109002788E-003   5.8957675236966323E-002
   3.0367772553220641E-002  -9.0092776372298136E-003   5.8700513975773257E-002
   2.9402946589707404E-002  -8.7558838218212975E-003   5.8632913271509143E-002
   2.8438120626194160E-002  -8.4858565646745640E-003   5.8754873124173830E-002
   2.7473294662680905E-002  -8.1991958657897518E-003   5.9066393533767372E-002
   2.5093064923740263E-002  -7.3751970531752975E-003   6.1934795789404751E-002
   2.4310974998751955E-002  -7.1717465853845530E-003   6.1715351254228445E-002
   2.3528885073763633E-002  -6.9639446214977002E-003   6.1671818239173032E-002
   2.2746795148775329E-002  -6.7517911615145067E-003   6.1804196744238635E-002
   2.1964705223787018E-002  -6.5352862054353089E-003   6.2112486769425268E-002
   4.3875778748994204E-002  -1.3190924846853080E-002   4.9470333533034261E-002
   4.2273188001575396E-002  -1.2670290286758229E-002   4.9193361002644875E-002
   4.0670597254156574E-002  -1.2156121739741191E-002   4.9097317690725895E-002
   3.9068006506737786E-002  -1.1648419205801442E-002   4.9182203597277360E-002
   3.7465415759318943E-002  -1.1147182684939638E-002   4.9448018722299314E-002
   3.8428831425284513E-002  -1.1527015186498679E-002   5.2745316915571910E-002
   3.7011046233357936E-002  -1.1079866398250759E-002   5.2448018281178344E-002
   3.5593261041431380E-002  -1.0633561735521241E-002   5.2339401539298627E-002
   3.4175475849504755E-002  -1.0188101198309936E-002   5.2419466689933102E-002
   3.2757690657578192E-002  -9.7434847866171292E-003   5.2688213733081524E-002
   3.2961336729846726E-002  -9.8631055261441947E-003   5.5944003582482887E-002
   3.1736109767456021E-002  -9.4894425097432483E-003   5.5632000731644399E-002
   3.0510882805065299E-002  -9.1110017313012839E-003   5.5516432447363519E-002
   2.9285655842674597E-002  -8.7277831908183726E-003   5.5597298729640338E-002
   2.8060428880283872E-002  -8.3397868882943982E-003   5.5874599578474710E-002
   2.7473294662680905E-002  -8.1991958657897518E-003   5.9066393533767372E-002
   2.6448378603869682E-002  -7.8990186212357580E-003   5.8745308354043284E-002
   2.5423462545058458E-002  -7.5884417270813305E-003   5.8628410414920333E-002
   2.4398546486247220E-002  -7.2674651833268102E-003   5.8715699716398728E-002
   2.3373630427436010E-002  -6.9360889899718892E-003   5.9007176258478448E-002
   2.1964705223787018E-002  -6.5352862054353089E-003   6.2112486769425268E-002
   2.1147852742598908E-002  -6.3085947327283232E-003   6.1787941148374853E-002
   2.0331000261410784E-002  -6.0658817228614048E-003   6.1675335441969292E-002
   1.9514147780222660E-002  -5.8071471758353102E-003   6.1774669650208613E-002
   1.8697295299034550E-002  -5.5323910916492136E-003   6.2085943773093011E-002
   3.7465415759318943E-002  -1.1147182684939638E-002   4.9448018722299314E-002
   3.5840886162394975E-002  -1.0640191516481767E-002   4.9120903169205810E-002
   3.4216356565470951E-002  -1.0115225039754733E-002   4.8980541582603426E-002
   3.2591826968546941E-002  -9.5722832547580697E-003   4.9026933962492358E-002
   3.0967297371622932E-002  -9.0113661614922291E-003   4.9260080308872189E-002
   3.2757690657578192E-002  -9.7434847866171292E-003   5.2688213733081524E-002
   3.1322009879850607E-002  -9.2920549769311134E-003   5.2389879472026807E-002
   2.9886329102122980E-002  -8.8261542457408193E-003   5.2282488882873651E-002
   2.8450648324395339E-002  -8.3457825930461846E-003   5.2366041965622140E-002
   2.7014967546667754E-002  -7.8509400188471745E-003   5.2640538720272301E-002
   2.8060428880283872E-002  -8.3397868882943982E-003   5.5874599578474710E-002
   2.6817786627163227E-002  -7.9439184373802929E-003   5.5601542222693451E-002
   2.5575144374042520E-002  -7.5370834517268920E-003   5.5523618244224360E-002
   2.4332502120921855E-002  -7.1192819313340740E-003   5.5640827643067513E-002
   2.3089859867801162E-002  -6.6905138762020644E-003   5.5953170419222792E-002
   2.3373630427436010E-002  -6.9360889899718892E-003   5.9007176258478448E-002
   2.2328216404332801E-002  -6.5957818978295835E-003   5.8755891421205721E-002
   2.1282802381229583E-002  -6.2480126577130271E-003   5.8703929666655774E-002
   2.0237388358126350E-002  -5.8927812696220761E-003   5.8851290994828540E-002
   1.9191974335023156E-002  -5.5300877335569820E-003   5.9197975405723989E-002
   1.8697295299034550E-002  -5.5323910916492136E-003   6.2085943773093011E-002
   1.7853299211359350E-002  -5.2476453582787630E-003   6.1852927067563623E-002
   1.7009303123684150E-002  -4.9589418636991345E-003   6.1823423150167700E-002
   1.6165307036008943E-002  -4.6662806079100713E-003   6.1997432020905047E-002
   1.5321310948333736E-002  -4.3696615909119552E-003   6.2374953679775691E-002
   3.0967297371622932E-002  -9.0113661614922291E-003   4.9260080308872189E-002
   2.9273357066566308E-002  -8.4390964687688363E-003   4.8936530012106294E-002
   2.7579416761509670E-002  -7.8620968854008766E-003   4.8797897032084980E-002
   2.5885476456453026E-002  -7.2803674113876074E-003   4.8844181368808359E-002
   2.4191536151396409E-002  -6.6939080467292023E-003   4.9075383022276542E-002
   2.7014967546667754E-002  -7.8509400188471745E-003   5.2640538720272301E-002
   2.5509860592527051E-002  -7.3458765542335769E-003   5.2353476978750924E-002
   2.4004753638386285E-002  -6.8348422302954848E-003   5.2259164622316889E-002
   2.2499646684245620E-002  -6.3178370470330578E-003   5.2357601650969712E-002
   2.0994539730104844E-002  -5.7948610044458171E-003   5.2648788064709628E-002
   2.3089859867801162E-002  -6.6905138762020644E-003   5.5953170419222792E-002
   2.1781418332918828E-002  -6.2526566396980954E-003   5.5703838201625583E-002
   2.0472976798036491E-002  -5.8075875751903011E-003   5.5655087437458117E-002
   1.9164535263154113E-002  -5.3553066826784214E-003   5.5806918126720041E-002
   1.7856093728271766E-002  -4.8958139621624319E-003   5.6159330269412000E-002
   1.9191974335023156E-002  -5.5300877335569820E-003   5.9197975405723989E-002
   1.8088030287741697E-002  -5.1594367251628359E-003   5.8987613680730348E-002
   1.6984086240460227E-002  -4.7803329200850134E-003   5.8985665477508942E-002
   1.5880142193178782E-002  -4.3927763183237729E-003   5.9192130796059783E-002
   1.4776198145897305E-002  -3.9967669198791023E-003   5.9607009636382269E-002
   1.5321310948333736E-002  -4.3696615909119552E-003   6.2374953679775691E-002
   1.4429696456995628E-002  -4.0662168106272989E-003   6.2204803416065269E-002
   1.3538081965657513E-002  -3.7530782649796562E-003   6.2250898742469335E-002
   1.2646467474319401E-002  -3.4302459539692458E-003   6.2513239658988376E-002
   1.1754852982981290E-002  -3.0977198775956616E-003   6.2991826165621490E-002
   2.6633157359795028E-002   0.0000000000000000        2.9469796824249835E-002
   2.7234014928771564E-002  -5.8570410881696004E-004   3.4947294546538936E-002
   2.7834872497748096E-002  -1.3194177330258586E-003   4.0116641186314327E-002
   2.8435730066724629E-002  -2.2011408726266939E-003   4.4977836743576055E-002
   2.9036587635701168E-002  -3.2308735276194702E-003   4.9530881218324052E-002
   2.0116720834571729E-002   0.0000000000000000        2.9022059891982418E-002
   2.0448911493613147E-002  -4.3927808168579743E-004   3.4314964918208263E-002
   2.0781102152654569E-002  -9.8956329991550622E-004   3.9378687207077573E-002
   2.1113292811695987E-002  -1.6508556546891281E-003   4.4213226758590324E-002
   2.1445483470737405E-002  -2.4231551460066640E-003   4.8818583572746550E-002
   1.3505715766674514E-002   0.0000000000000000        2.8702247797422153E-002
   1.3648207860937976E-002  -2.9285205455463308E-004   3.3847562506432768E-002
   1.3790699955201441E-002  -6.5970886680515387E-004   3.8842662823243987E-002
   1.3933192049464901E-002  -1.1005704367515589E-003   4.3687548747855839E-002
   1.4075684143728364E-002  -1.6154367643938512E-003   4.8382220280268319E-002
   6.8001421561033849E-003   0.0000000000000000        2.8510360540569036E-002
   6.8319040307460522E-003  -1.4642602742347046E-004   3.3545087311212439E-002
   6.8636659053887186E-003  -3.2985443369479891E-004   3.8508568034813617E-002
   6.8954277800313876E-003  -5.5028521881398968E-004   4.3400802711372581E-002
   6.9271896546740539E-003  -8.0771838278103649E-004   4.8221791340889331E-002
   2.8583429026451945E-012   0.0000000000000000        2.8446398121423071E-002
   3.0373741716216429E-012  -2.9230610987251993E-013   3.3407539332547288E-002
   3.2164028385128773E-012  -5.8444915573829803E-013   3.8376402841786457E-002
   3.3954328064467187E-012  -8.7642046397995443E-013   4.3352988649140556E-002
   3.5744636417422981E-012  -1.1682304429383450E-012   4.8337296754609599E-002
   2.9036587635701168E-002  -3.2308735276194702E-003   4.9530881218324052E-002
   2.9109787571538714E-002  -4.2491352753218567E-003   5.1591163532846623E-002
   2.9182987507376246E-002  -5.0964456930515552E-003   5.3750732151569204E-002
   2.9256187443213792E-002  -5.7728047808085223E-003   5.6009587074491815E-002
   2.9329387379051330E-002  -6.2782125385927937E-003   5.8367728301614401E-002
   2.1445483470737405E-002  -2.4231551460066640E-003   4.8818583572746550E-002
   2.1588573138737199E-002  -3.1868514568181455E-003   5.1220356566950440E-002
   2.1731662806736985E-002  -3.8223342700736155E-003   5.3662622721278835E-002
   2.1874752474736778E-002  -4.3296035857731023E-003   5.6145382035731682E-002
   2.2017842142736575E-002  -4.7086594039165777E-003   5.8668634510309035E-002
   1.4075684143728364E-002  -1.6154367643938512E-003   4.8382220280268319E-002
   1.4229870399814885E-002  -2.1245676383144334E-003   5.1082746121736848E-002
   1.4384056655901404E-002  -2.5482228470957106E-003   5.3764971979254304E-002
   1.4538242911987923E-002  -2.8864023907376819E-003   5.6428897852820736E-002
   1.4692429168074438E-002  -3.1391062692403583E-003   5.9074523742436130E-002
   6.9271896546740539E-003  -8.0771838278103649E-004   4.8221791340889331E-002
   7.0336793547717729E-003  -1.0622838198107217E-003   5.1178332197205759E-002
   7.1401690548694927E-003  -1.2741114241177952E-003   5.4057779925495618E-002
   7.2466587549672116E-003  -1.4432011957022722E-003   5.6860134525758894E-002
   7.3531484550649305E-003  -1.5695531345641337E-003   5.9585395997995637E-002
   3.5744636417422981E-012  -1.1682304429383450E-012   4.8337296754609599E-002
   3.6078601044209346E-012  -1.3070100557399655E-012   5.1507114793357255E-002
   3.6412583018230471E-012  -1.1398707498722072E-012   5.4541046560002797E-002
   3.6746564992251596E-012  -6.6684624402263415E-013   5.7439092054546254E-002
   3.7080529619037961E-012   1.1206313654810174E-013   6.0201251276987652E-002
   2.9329387379051330E-002  -6.2782125385927937E-003   5.8367728301614401E-002
   2.8980196884420738E-002  -6.6662678000556988E-003   5.9135221917738574E-002
   2.8631006389790142E-002  -6.9905693988486662E-003   5.9938884920543722E-002
   2.8281815895159546E-002  -7.2511173349716386E-003   6.0778717310029887E-002
   2.7932625400528953E-002  -7.4479116084246733E-003   6.1654719086196991E-002
   2.2017842142736575E-002  -4.7086594039165777E-003   5.8668634510309035E-002
   2.1717603093994869E-002  -4.9997008497419809E-003   5.9490826902168795E-002
   2.1417364045253174E-002  -5.2429270484872764E-003   6.0374752799125353E-002
   2.1117124996511479E-002  -5.4383380001523686E-003   6.1320412201178655E-002
   2.0816885947769773E-002  -5.5859337047374363E-003   6.2327805108328860E-002
   1.4692429168074438E-002  -3.1391062692403583E-003   5.9074523742436130E-002
   1.4466705683637454E-002  -3.3331338994282318E-003   5.9935476494441614E-002
   1.4240982199200468E-002  -3.4952846981258162E-003   6.0883726869959694E-002
   1.4015258714763477E-002  -3.6255586653331246E-003   6.1919274868990425E-002
   1.3789535230326494E-002  -3.7239558010501717E-003   6.3042120491533737E-002
   7.3531484550649305E-003  -1.5695531345641337E-003   5.9585395997995637E-002
   7.2275046533484769E-003  -1.6665669491144706E-003   6.0469170694557040E-002
   7.1018608516320164E-003  -1.7476423477644052E-003   6.1465807133046835E-002
   6.9762170499155568E-003  -1.8127793305138746E-003   6.2575305313465113E-002
   6.8505732481991023E-003  -1.8619778973629486E-003   6.3797665235811762E-002
   3.7080529619037961E-012   1.1206313654810174E-013   6.0201251276987652E-002
   3.1279380127702261E-012   1.1992316861775265E-012   6.1091909502515071E-002
   2.5478239309983941E-012   2.5969920658397427E-012   6.2120993588386714E-002
   1.9677094155456931E-012   4.3053859088981739E-012   6.3288503534602636E-002
   1.3875949000929921E-012   6.3243160708381652E-012   6.4594439341162838E-002
   2.7932625400528953E-002  -7.4479116084246733E-003   6.1654719086196991E-002
   2.7222735281331782E-002  -7.5670550303100770E-003   6.1373204031308234E-002
   2.6512845162134608E-002  -7.5946504117303387E-003   6.1326045130213322E-002
   2.5802955042937441E-002  -7.5306977526854134E-003   6.1513242382912087E-002
   2.5093064923740263E-002  -7.3751970531752975E-003   6.1934795789404751E-002
   2.0816885947769773E-002  -5.5859337047374363E-003   6.2327805108328860E-002
   2.0327131076217222E-002  -5.6752912709203893E-003   6.2200562417701437E-002
   1.9837376204664671E-002  -5.6959878073793609E-003   6.2279234068569375E-002
   1.9347621333112113E-002  -5.6480233141142479E-003   6.2563820060932779E-002
   1.8857866461559562E-002  -5.5313977911251311E-003   6.3054320394791641E-002
   1.3789535230326494E-002  -3.7239558010501717E-003   6.3042120491533737E-002
   1.3491473794120185E-002  -3.7835275115306322E-003   6.3046263154426449E-002
   1.3193412357913877E-002  -3.7973252030282720E-003   6.3227878346516192E-002
   1.2895350921707568E-002  -3.7653488755430130E-003   6.3586966067803036E-002
   1.2597289485501258E-002  -3.6875985290749091E-003   6.4123526318286897E-002
   6.8505732481991023E-003  -1.8619778973629486E-003   6.3797665235811762E-002
   6.7157634350406645E-003  -1.8917637521408820E-003   6.3910306241483403E-002
   6.5809536218822320E-003  -1.8986625986771831E-003   6.4171977964053772E-002
   6.4461438087237951E-003  -1.8826744369718268E-003   6.4582680403522857E-002
   6.3113339955653625E-003  -1.8437992670247011E-003   6.5142413559890575E-002
   1.3875949000929921E-012   6.3243160708381652E-012   6.4594439341162838E-002
  -1.0213357937161049E-012   7.2488542945947643E-012   6.4792691678872263E-002
  -3.4302664875252020E-012   5.6738190534755262E-012   6.5111532921182103E-002
  -5.8391997834195131E-012   1.5994349941705899E-012   6.5550963068092202E-002
  -8.2481278751433962E-012  -4.9745207952867077E-012   6.6110982119602701E-002
   2.5093064923740263E-002  -7.3751970531752975E-003   6.1934795789404751E-002
   2.4310974998751955E-002  -7.1717465853845530E-003   6.1715351254228445E-002
   2.3528885073763633E-002  -6.9639446214977002E-003   6.1671818239173032E-002
   2.2746795148775329E-002  -6.7517911615145067E-003   6.1804196744238635E-002
   2.1964705223787018E-002  -6.5352862054353089E-003   6.2112486769425268E-002
   1.8857866461559562E-002  -5.5313977911251311E-003   6.3054320394791641E-002
   1.8256590798242663E-002  -5.3788099427608954E-003   6.2818207645849264E-002
   1.7655315134925763E-002  -5.2229584733703843E-003   6.2767811900128770E-002
   1.7054039471608867E-002  -5.0638433829535943E-003   6.2903133157630090E-002
   1.6452763808291970E-002  -4.9014646715105081E-003   6.3224171418353292E-002
   1.2597289485501258E-002  -3.6875985290749091E-003   6.4123526318286897E-002
   1.2186633566956616E-002  -3.5858733001372101E-003   6.3869657480508699E-002
   1.1775977648411972E-002  -3.4819723252431448E-003   6.3811311129053194E-002
   1.1365321729867331E-002  -3.3758956043926803E-003   6.3948487263920342E-002
   1.0954665811322685E-002  -3.2676431375858739E-003   6.4281185885110170E-002
   6.3113339955653625E-003  -1.8437992670247011E-003   6.5142413559890575E-002
   6.1011033048938117E-003  -1.7929366575135108E-003   6.4869700758206625E-002
   5.8908726142222582E-003  -1.7409861771158948E-003   6.4802315925946083E-002
   5.6806419235507005E-003  -1.6879478258316838E-003   6.4940259063109157E-002
   5.4704112328791479E-003  -1.6338216036610731E-003   6.5283530169695708E-002
  -8.2481278751433962E-012  -4.9745207952867077E-012   6.6110982119602701E-002
   1.2054246489867637E-011  -1.4889867117062749E-011   6.5818337478943084E-002
   3.2356617385431719E-011  -2.8988630940141036E-011   6.5740826290807824E-002
   5.2658990883081014E-011  -4.7270822672862423E-011   6.5878448555196881E-002
   7.2961362646006833E-011  -6.9736438845779958E-011   6.6231204272110267E-002
   2.1964705223787018E-002  -6.5352862054353089E-003   6.2112486769425268E-002
   2.1147852742598908E-002  -6.3085947327283232E-003   6.1787941148374853E-002
   2.0331000261410784E-002  -6.0658817228614048E-003   6.1675335441969292E-002
   1.9514147780222660E-002  -5.8071471758353102E-003   6.1774669650208613E-002
   1.8697295299034550E-002  -5.5323910916492136E-003   6.2085943773093011E-002
   1.6452763808291970E-002  -4.9014646715105081E-003   6.3224171418353292E-002
   1.5845919542087937E-002  -4.7314460703925948E-003   6.2925556363909466E-002
   1.5239075275883897E-002  -4.5494113109506781E-003   6.2835017824788814E-002
   1.4632231009679860E-002  -4.3553603931847980E-003   6.2952555800991530E-002
   1.4025386743475823E-002  -4.1492933170952373E-003   6.3278170292517366E-002
   1.0954665811322685E-002  -3.2676431375858739E-003   6.4281185885110170E-002
   1.0553966360781035E-002  -3.1542974080568664E-003   6.4004496018437135E-002
   1.0153266910239385E-002  -3.0329408990396739E-003   6.3932019267765663E-002
   9.7525674596977453E-003  -2.9035736105344524E-003   6.4063755633095854E-002
   9.3518680091560918E-003  -2.7661955425411777E-003   6.4399705114427441E-002
   5.4704112328791479E-003  -1.6338216036610731E-003   6.5283530169695708E-002
   5.2719931986782076E-003  -1.5771487457210270E-003   6.5024760111957874E-002
   5.0735751644772620E-003  -1.5164704871286974E-003   6.4966339770899953E-002
   4.8751571302763147E-003  -1.4517868278841346E-003   6.5108269146521833E-002
   4.6767390960753760E-003  -1.3830977679871598E-003   6.5450548238823653E-002
   7.2961362646006833E-011  -6.9736438845779958E-011   6.6231204272110267E-002
   5.5779440094605448E-011  -8.3385381932643554E-011   6.5986348644471782E-002
   3.8597512339033635E-011  -7.5217984618625167E-011   6.5937979334191432E-002
   2.1415583716100084E-011  -4.5233605056038684E-011   6.6086096341269288E-002
   4.2336620320604368E-012   6.5669136795065697E-012   6.6430699665705306E-002
   1.8697295299034550E-002  -5.5323910916492136E-003   6.2085943773093011E-002
   1.7853299211359350E-002  -5.2476453582787630E-003   6.1852927067563623E-002
   1.7009303123684150E-002  -4.9589418636991345E-003   6.1823423150167700E-002
   1.6165307036008943E-002  -4.6662806079100713E-003   6.1997432020905047E-002
   1.5321310948333736E-002  -4.3696615909119552E-003   6.2374953679775691E-002
   1.4025386743475823E-002  -4.1492933170952373E-003   6.3278170292517366E-002
   1.3386774998288831E-002  -3.9357340041374922E-003   6.3048878000892816E-002
   1.2748163253101824E-002  -3.7192063757673643E-003   6.3026841606111633E-002
   1.2109551507914824E-002  -3.4997104319845415E-003   6.3212061108173470E-002
   1.1470939762727825E-002  -3.2772461727894608E-003   6.3604536507078313E-002
   9.3518680091560918E-003  -2.7661955425411777E-003   6.4399705114427441E-002
   8.9223837151671502E-003  -2.6238226499960271E-003   6.4173147790911017E-002
   8.4928994211782086E-003  -2.4794708878353861E-003   6.4157589472947599E-002
   8.0634151271892756E-003  -2.3331402560590152E-003   6.4353030160537145E-002
   7.6339308332003288E-003  -2.1848307546670498E-003   6.4759469853679599E-002
   4.6767390960753760E-003  -1.3830977679871598E-003   6.5450548238823653E-002
   4.4601253619943491E-003  -1.3119112958546869E-003   6.5225736437618198E-002
   4.2435116279133118E-003  -1.2397353999034286E-003   6.5215666750675610E-002
   4.0268978938322797E-003  -1.1665700801334316E-003   6.5420339177996015E-002
   3.8102841597512484E-003  -1.0924153365446526E-003   6.5839753719579064E-002
   4.2336620320604368E-012   6.5669136795065697E-012   6.6430699665705306E-002
  -6.1229604719770236E-011   5.8286764303971950E-011   6.6206643941014165E-002
  -1.2669287494104786E-010   8.8028404010564998E-011   6.6201073439295793E-002
  -1.9215614863177244E-010   9.5792134641170534E-011   6.6413988160550011E-002
  -2.5761941191415616E-010   8.1577744559524490E-011   6.6845388104777026E-002
   1.5321310948333736E-002  -4.3696615909119552E-003   6.2374953679775691E-002
   1.4429696456995628E-002  -4.0662168106272989E-003   6.2204803416065269E-002
   1.3538081965657513E-002  -3.7530782649796562E-003   6.2250898742469335E-002
   1.2646467474319401E-002  -3.4302459539692458E-003   6.2513239658988376E-002
   1.1754852982981290E-002  -3.0977198775956616E-003   6.2991826165621490E-002
   1.1470939762727825E-002  -3.2772461727894608E-003   6.3604536507078313E-002
   1.0797235374433764E-002  -3.0496625995374838E-003   6.3457895051408031E-002
   1.0123530986139696E-002  -2.8148087135841660E-003   6.3530828211711160E-002
   9.4498265978456390E-003  -2.5726845149293617E-003   6.3823335987988020E-002
   8.7761222095515401E-003  -2.3232900035734527E-003   6.4335418380238041E-002
   7.6339308332003288E-003  -2.1848307546670498E-003   6.4759469853679599E-002
   7.1814655738092273E-003  -2.0331083884475853E-003   6.4633913753387562E-002
   6.7290003144181241E-003  -1.8765391621882940E-003   6.4731261294928011E-002
   6.2765350550270287E-003  -1.7151230758895072E-003   6.5051512478300696E-002
   5.8240697956359333E-003  -1.5488601295510218E-003   6.5594667303505938E-002
   3.8102841597512484E-003  -1.0924153365446526E-003   6.5839753719579064E-002
   3.5823870551220244E-003  -1.0165541773576175E-003   6.5732859522003861E-002
   3.3544899504927860E-003  -9.3826961079266843E-004   6.5852197992119721E-002
   3.1265928458635581E-003  -8.5756163684952685E-004   6.6197769129927198E-002
   2.8986957412343306E-003  -7.7443025552875744E-004   6.6769572935425694E-002
  -2.5761941191415616E-010   8.1577744559524490E-011   6.6845388104777026E-002
  -1.8162786552533561E-010   3.3732072690639825E-011   6.6754732357256652E-002
  -1.0563631913651506E-010  -5.9396904061870259E-011   6.6893638303286596E-002
  -2.9644777951864931E-011  -1.9780976162619979E-010   6.7262105942866607E-002
   4.6346773641126049E-011  -3.8150638204115239E-010   6.7860135275997102E-002
   2.8583429026451945E-012   0.0000000000000000        2.8446398121423071E-002
   3.0373741716216429E-012  -2.9230610987251993E-013   3.3407539332547288E-002
   3.2164028385128773E-012  -5.8444915573829803E-013   3.8376402841786457E-002
   3.3954328064467187E-012  -8.7642046397995443E-013   4.3352988649140556E-002
   3.5744636417422981E-012  -1.1682304429383450E-012   4.8337296754609599E-002
  -6.8001421505046117E-003   0.0000000000000000        2.8510360539852810E-002
  -6.8319040247593957E-003   1.4642602664657976E-004   3.3545087310361155E-002
  -6.8636658990141814E-003   3.2985443228258134E-004   3.8508568033886928E-002
  -6.8954277732689653E-003   5.5028521690800736E-004   4.3400802710430134E-002
  -6.9271896475237519E-003   8.0771838052286216E-004   4.8221791339990758E-002
  -1.3505715761429473E-002   0.0000000000000000        2.8702247795726804E-002
  -1.3648207855215590E-002   2.9285205358546475E-004   3.3847562504608547E-002
  -1.3790699949001707E-002   6.5970886514961184E-004   3.8842662821410183E-002
  -1.3933192042787817E-002   1.1005704346924456E-003   4.3687548746131739E-002
  -1.4075684136573938E-002   1.6154367622139574E-003   4.8382220278773216E-002
  -2.0116720829916248E-002   0.0000000000000000        2.9022059889045059E-002
  -2.0448911488331212E-002   4.3927808052435105E-004   3.4314964915289431E-002
  -2.0781102146746173E-002   9.8956329801664408E-004   3.9378687204356215E-002
  -2.1113292805161134E-002   1.6508556524768786E-003   4.4213226756245380E-002
  -2.1445483463576099E-002   2.4231551439050495E-003   4.8818583570956940E-002
  -2.6633157355964932E-002   0.0000000000000000        2.9469796819807565E-002
  -2.7234014924106251E-002   5.8570410746323649E-004   3.4947294542403848E-002
  -2.7834872492247580E-002   1.3194177308836728E-003   4.0116641182725003E-002
  -2.8435730060388902E-002   2.2011408702613134E-003   4.4977836740771042E-002
  -2.9036587628530227E-002   3.2308735255961460E-003   4.9530881216541964E-002
   3.5744636417422981E-012  -1.1682304429383450E-012   4.8337296754609599E-002
   3.6078601044209346E-012  -1.3070100557399655E-012   5.1507114793357255E-002
   3.6412583018230471E-012  -1.1398707498722072E-012   5.4541046560002797E-002
   3.6746564992251596E-012  -6.6684624402263415E-013   5.7439092054546254E-002
   3.7080529619037961E-012   1.1206313654810174E-013   6.0201251276987652E-002
  -6.9271896475237519E-003   8.0771838052286216E-004   4.8221791339990758E-002
  -7.0336793476097519E-003   1.0622838174766994E-003   5.1178332196766325E-002
  -7.1401690476957510E-003   1.2741114221190841E-003   5.4057779925405197E-002
  -7.2466587477817476E-003   1.4432011944500150E-003   5.6860134525907345E-002
  -7.3531484478677476E-003   1.5695531344694924E-003   5.9585395998272783E-002
  -1.4075684136573938E-002   1.6154367622139574E-003   4.8382220278773216E-002
  -1.4229870392813959E-002   2.1245676362604063E-003   5.1082746120959359E-002
  -1.4384056649053982E-002   2.5482228453780524E-003   5.3764971978974181E-002
  -1.4538242905294005E-002   2.8864023895668798E-003   5.6428897852817669E-002
  -1.4692429161534031E-002   3.1391062688269147E-003   5.9074523742489837E-002
  -2.1445483463576099E-002   2.4231551439050495E-003   4.8818583570956940E-002
  -2.1588573132004768E-002   3.1868514550441110E-003   5.1220356565936327E-002
  -2.1731662800433437E-002   3.8223342686370073E-003   5.3662622720709742E-002
  -2.1874752468862103E-002   4.3296035846837567E-003   5.6145382035277219E-002
  -2.2017842137290779E-002   4.7086594031843267E-003   5.8668634509638704E-002
  -2.9036587628530227E-002   3.2308735255961460E-003   4.9530881216541964E-002
  -2.9109787565182167E-002   4.2491352738278192E-003   5.1591163531697223E-002
  -2.9182987501834116E-002   5.0964456918959743E-003   5.3750732150611907E-002
  -2.9256187438486059E-002   5.7728047798006055E-003   5.6009587073285995E-002
  -2.9329387375138002E-002   6.2782125375417525E-003   5.8367728299719493E-002
   3.7080529619037961E-012   1.1206313654810174E-013   6.0201251276987652E-002
   3.1279380127702261E-012   1.1992316861775265E-012   6.1091909502515071E-002
   2.5478239309983941E-012   2.5969920658397427E-012   6.2120993588386714E-002
   1.9677094155456931E-012   4.3053859088981739E-012   6.3288503534602636E-002
   1.3875949000929921E-012   6.3243160708381652E-012   6.4594439341162838E-002
  -7.3531484478677476E-003   1.5695531344694924E-003   5.9585395998272783E-002
  -7.2275046470769433E-003   1.6665669507436413E-003   6.0469170695302124E-002
  -7.1018608462861382E-003   1.7476423518386526E-003   6.1465807134729031E-002
  -6.9762170454953287E-003   1.8127793377544542E-003   6.2575305316553573E-002
  -6.8505732447045279E-003   1.8619779084910887E-003   6.3797665240775653E-002
  -1.4692429161534031E-002   3.1391062688269147E-003   5.9074523742489837E-002
  -1.4466705677318961E-002   3.3331339002880666E-003   5.9935476495531270E-002
  -1.4240982193103888E-002   3.4952847010802437E-003   6.0883726873023659E-002
  -1.4015258708888817E-002   3.6255586712035225E-003   6.1919274874966998E-002
  -1.3789535224673750E-002   3.7239558106578405E-003   6.3042120501361196E-002
  -2.2017842137290779E-002   4.7086594031843267E-003   5.8668634509638704E-002
  -2.1717603087598111E-002   4.9997008498324702E-003   5.9490826903202530E-002
  -2.1417364037905440E-002   5.2429270503218973E-003   6.0374752803270641E-002
  -2.1117124988212770E-002   5.4383380046525908E-003   6.1320412209842981E-002
  -2.0816885938520106E-002   5.5859337128246027E-003   6.2327805122919654E-002
  -2.9329387375138002E-002   6.2782125375417525E-003   5.8367728299719493E-002
  -2.8980196877914394E-002   6.6662677993768980E-003   5.9135221918315897E-002
  -2.8631006380690788E-002   6.9905693995634781E-003   5.9938884925469928E-002
  -2.8281815883467176E-002   7.2511173381016895E-003   6.0778717321181577E-002
  -2.7932625386243568E-002   7.4479116149913649E-003   6.1654719105450839E-002
   1.3875949000929921E-012   6.3243160708381652E-012   6.4594439341162838E-002
  -1.0213357937161049E-012   7.2488542945947643E-012   6.4792691678872263E-002
  -3.4302664875252020E-012   5.6738190534755262E-012   6.5111532921182103E-002
  -5.8391997834195131E-012   1.5994349941705899E-012   6.5550963068092202E-002
  -8.2481278751433962E-012  -4.9745207952867077E-012   6.6110982119602701E-002
  -6.8505732447045279E-003   1.8619779084910887E-003   6.3797665240775653E-002
  -6.7157634369362012E-003   1.8917637661840167E-003   6.3910306243481096E-002
  -6.5809536291678745E-003   1.8986626129687580E-003   6.4171977961940768E-002
  -6.4461438213995522E-003   1.8826744488453099E-003   6.4582680396154613E-002
  -6.3113340136312212E-003   1.8437992738136733E-003   6.5142413546122629E-002
  -1.3789535224673750E-002   3.7239558106578405E-003   6.3042120501361196E-002
  -1.3491473795574300E-002   3.7835275251192277E-003   6.3046263160653954E-002
  -1.3193412366474854E-002   3.7973252202636709E-003   6.3227878346854782E-002
  -1.2895350937375403E-002   3.7653488960912268E-003   6.3586966059963668E-002
  -1.2597289508275948E-002   3.6875985526018673E-003   6.4123526299980610E-002
  -2.0816885938520106E-002   5.5859337128246027E-003   6.2327805122919654E-002
  -2.0327131076935654E-002   5.6752912840544005E-003   6.2200562430390891E-002
  -1.9837376215351196E-002   5.6959878275586245E-003   6.2279234075924152E-002
  -1.9347621353766737E-002   5.6480233433371784E-003   6.2563820059519340E-002
  -1.8857866492182285E-002   5.5313978313900614E-003   6.3054320381176449E-002
  -2.7932625386243568E-002   7.4479116149913649E-003   6.1654719105450839E-002
  -2.7222735281020240E-002   7.5670550429896288E-003   6.1373204052691963E-002
  -2.6512845175796912E-002   7.5946504348535365E-003   6.1326045149148883E-002
  -2.5802955070573584E-002   7.5306977905830776E-003   6.1513242394821643E-002
  -2.5093064965350253E-002   7.3751971101782554E-003   6.1934795789710173E-002
  -8.2481278751433962E-012  -4.9745207952867077E-012   6.6110982119602701E-002
   1.2054246489867637E-011  -1.4889867117062749E-011   6.5818337478943084E-002
   3.2356617385431719E-011  -2.8988630940141036E-011   6.5740826290807824E-002
   5.2658990883081014E-011  -4.7270822672862423E-011   6.5878448555196881E-002
   7.2961362646006833E-011  -6.9736438845779958E-011   6.6231204272110267E-002
  -6.3113340136312212E-003   1.8437992738136733E-003   6.5142413546122629E-002
  -6.1011032829676208E-003   1.7929366519379430E-003   6.4869700730556590E-002
  -5.8908725523040143E-003   1.7409861472821170E-003   6.4802315883188646E-002
  -5.6806418216404104E-003   1.6879477598462748E-003   6.4940259004018883E-002
  -5.4704110909768004E-003   1.6338214896304271E-003   6.5283530093047160E-002
  -1.2597289508275948E-002   3.6875985526018673E-003   6.4123526299980610E-002
  -1.2186633551577333E-002   3.5858733187657532E-003   6.3869657430911414E-002
  -1.1775977594878704E-002   3.4819723235529412E-003   6.3811311045714192E-002
  -1.1365321638180072E-002   3.3758955669633984E-003   6.3948487144388846E-002
  -1.0954665681481457E-002   3.2676430489972375E-003   6.4281185726935405E-002
  -1.8857866492182285E-002   5.5313978313900614E-003   6.3054320381176449E-002
  -1.8256590793774875E-002   5.3788099855935356E-003   6.2818207580007543E-002
  -1.7655315095367444E-002   5.2229584998236996E-003   6.2767811778384391E-002
  -1.7054039396960034E-002   5.0638433740804812E-003   6.2903132976306897E-002
  -1.6452763698552614E-002   4.9014646083639923E-003   6.3224171173775046E-002
  -2.5093064965350253E-002   7.3751971101782554E-003   6.1934795789710173E-002
  -2.4310975009560268E-002   7.1717466524213597E-003   6.1715351177844963E-002
  -2.3528885053770258E-002   6.9639446760944718E-003   6.1671818081199203E-002
  -2.2746795097980263E-002   6.7517911811976368E-003   6.1804196499772854E-002
  -2.1964705142190268E-002   6.5352861677308582E-003   6.2112486433566039E-002
   7.2961362646006833E-011  -6.9736438845779958E-011   6.6231204272110267E-002
   5.5779440094605448E-011  -8.3385381932643554E-011   6.5986348644471782E-002
   3.8597512339033635E-011  -7.5217984618625167E-011   6.5937979334191432E-002
   2.1415583716100084E-011  -4.5233605056038684E-011   6.6086096341269288E-002
   4.2336620320604368E-012   6.5669136795065697E-012   6.6430699665705306E-002
  -5.4704110909768004E-003   1.6338214896304271E-003   6.5283530093047160E-002
  -5.2719930900454954E-003   1.5771485985918293E-003   6.5024760071072760E-002
  -5.0735750891141972E-003   1.5164703486877096E-003   6.4966339767966660E-002
  -4.8751570881828982E-003   1.4517867399181025E-003   6.5108269183728723E-002
  -4.6767390872515940E-003   1.3830977722831816E-003   6.5450548318359170E-002
  -1.0954665681481457E-002   3.2676430489972375E-003   6.4281185726935405E-002
  -1.0553966260926823E-002   3.1542972805689989E-003   6.4004495929943089E-002
  -1.0153266840372205E-002   3.0329407725932303E-003   6.3932019253329114E-002
  -9.7525674198175715E-003   2.9035735250700859E-003   6.4063755697093550E-002
  -9.3518679992629517E-003   2.7661955379994219E-003   6.4399705261236381E-002
  -1.6452763698552614E-002   4.9014646083639923E-003   6.3224171173775046E-002
  -1.5845919456864567E-002   4.7314459625461339E-003   6.2925556221082840E-002
  -1.5239075215176512E-002   4.5494111964988100E-003   6.2835017790279044E-002
  -1.4632230973488465E-002   4.3553603102219869E-003   6.2952555881363642E-002
  -1.4025386731800416E-002   4.1492933037155927E-003   6.3278170494336955E-002
  -2.1964705142190268E-002   6.5352861677308582E-003   6.2112486433566039E-002
  -2.1147852677858688E-002   6.3085946445233798E-003   6.1787940944491831E-002
  -2.0331000213527118E-002   6.0658816204044175E-003   6.1675335378816254E-002
  -1.9514147749195541E-002   5.8071470953738255E-003   6.1774669736539140E-002
  -1.8697295284863968E-002   5.5323910694319300E-003   6.2085944017660599E-002
   4.2336620320604368E-012   6.5669136795065697E-012   6.6430699665705306E-002
  -6.1229604719770236E-011   5.8286764303971950E-011   6.6206643941014165E-002
  -1.2669287494104786E-010   8.8028404010564998E-011   6.6201073439295793E-002
  -1.9215614863177244E-010   9.5792134641170534E-011   6.6413988160550011E-002
  -2.5761941191415616E-010   8.1577744559524490E-011   6.6845388104777026E-002
  -4.6767390872515940E-003   1.3830977722831816E-003   6.5450548318359170E-002
  -4.4601254809508231E-003   1.3119113913203639E-003   6.5225736477049129E-002
  -4.2435118746500487E-003   1.2397355425674550E-003   6.5215666756294616E-002
  -4.0268982683492700E-003   1.1665702260243854E-003   6.5420339156095533E-002
  -3.8102846620484965E-003   1.0924154416915299E-003   6.5839753676451618E-002
  -9.3518679992629517E-003   2.7661955379994219E-003   6.4399705261236381E-002
  -8.9223838236154283E-003   2.6238227243539358E-003   6.4173147857495505E-002
  -8.4928996479679067E-003   2.4794709971064019E-003   6.4157589471892873E-002
  -8.0634154723203746E-003   2.3331403562568045E-003   6.4353030104428291E-002
  -7.6339312966728634E-003   2.1848308018051488E-003   6.4759469755101801E-002
  -1.4025386731800416E-002   4.1492933037155927E-003   6.3278170494336955E-002
  -1.3386775089223427E-002   3.9357340573875216E-003   6.3048878082353252E-002
  -1.2748163446646437E-002   3.7192064516454564E-003   6.3026841586090454E-002
  -1.2109551804069446E-002   3.4997104864891394E-003   6.3212061005548492E-002
  -1.1470940161492471E-002   3.2772461619187954E-003   6.3604536340727380E-002
  -1.8697295284863968E-002   5.5323910694319300E-003   6.2085944017660599E-002
  -1.7853299277774813E-002   5.2476453904210796E-003   6.1852927151622272E-002
  -1.7009303270685658E-002   4.9589419061843582E-003   6.1823423098887387E-002
  -1.6165307263596503E-002   4.6662806167214084E-003   6.1997431859456040E-002
  -1.5321311256507347E-002   4.3696615220326085E-003   6.2374953433328162E-002
  -2.5761941191415616E-010   8.1577744559524490E-011   6.6845388104777026E-002
  -1.8162786552533561E-010   3.3732072690639825E-011   6.6754732357256652E-002
  -1.0563631913651506E-010  -5.9396904061870259E-011   6.6893638303286596E-002
  -2.9644777951864931E-011  -1.9780976162619979E-010   6.7262105942866607E-002
   4.6346773641126049E-011  -3.8150638204115239E-010   6.7860135275997102E-002
  -3.8102846620484965E-003   1.0924154416915299E-003   6.5839753676451618E-002
  -3.5823874074566928E-003   1.0165541851396287E-003   6.5732859422820589E-002
  -3.3544901528648856E-003   9.3826945194055988E-004   6.5852197832839687E-002
  -3.1265928982730775E-003   8.5756124209424717E-004   6.6197768906509344E-002
  -2.8986956436812747E-003   7.7442955560080851E-004   6.6769572643828989E-002
  -7.6339312966728634E-003   2.1848308018051488E-003   6.4759469755101801E-002
  -7.1814658933807354E-003   2.0331083365468794E-003   6.4633913563996503E-002
  -6.7290004900886005E-003   1.8765389632780100E-003   6.4731261006641408E-002
  -6.2765350867964986E-003   1.7151226819983635E-003   6.5051512083036639E-002
  -5.8240696835043515E-003   1.5488594927078880E-003   6.5594666793182377E-002
  -1.1470940161492471E-002   3.2772461619187954E-003   6.3604536340727380E-002
  -1.0797235639399974E-002   3.0496624879542827E-003   6.3457894780784257E-002
  -1.0123531117307485E-002   2.8148084746154670E-003   6.3530827824691494E-002
  -9.4498265952149812E-003   2.5726841219025926E-003   6.3823335472449019E-002
  -8.7761220731224984E-003   2.3232894298150231E-003   6.4335417724057070E-002
  -1.5321311256507347E-002   4.3696615220326085E-003   6.2374953433328162E-002
  -1.4429696645514418E-002   4.0662166393615751E-003   6.2204803073183768E-002
  -1.3538082034521511E-002   3.7530779859529934E-003   6.2250898286989736E-002
  -1.2646467423528603E-002   3.4302455618065060E-003   6.2513239074746166E-002
  -1.1754852812535674E-002   3.0977193669221581E-003   6.2991825436453208E-002
  -2.6633157355964932E-002   0.0000000000000000        2.9469796819807565E-002
  -2.7234014924106251E-002   5.8570410746323649E-004   3.4947294542403848E-002
  -2.7834872492247580E-002   1.3194177308836728E-003   4.0116641182725003E-002
  -2.8435730060388902E-002   2.2011408702613134E-003   4.4977836740771042E-002
  -2.9036587628530227E-002   3.2308735255961460E-003   4.9530881216541964E-002
  -3.3392485133942384E-002   0.0000000000000000        3.0179918800210575E-002
  -3.4236237271030749E-002   9.6020801652471448E-004   3.5267990153021241E-002
  -3.5079989408119114E-002   2.0237428434560856E-003   4.0178423450212941E-002
  -3.5923741545207478E-002   3.1906044807941099E-003   4.4911218691785673E-002
  -3.6767493682295836E-002   4.4607929285387883E-003   4.9466375877739457E-002
  -4.0732163958215460E-002   0.0000000000000000        3.1286886042450335E-002
  -4.1688297637594712E-002   1.3347119255861925E-003   3.5940848319924841E-002
  -4.2644431316973958E-002   2.7280679560284949E-003   4.0547685568436527E-002
  -4.3600564996353203E-002   4.1800680913269108E-003   4.5107397787985427E-002
  -4.4556698675732448E-002   5.6907123314814366E-003   4.9619984978571507E-002
  -4.8652193828784163E-002   0.0000000000000000        3.2790698546526845E-002
  -4.9590196023798126E-002   1.7092158346476700E-003   3.6965869043114635E-002
  -5.0528198218812104E-002   3.4323930686009042E-003   4.1224427537395796E-002
  -5.1466200413826074E-002   5.1695317018597108E-003   4.5566374029370305E-002
  -5.2404202608840052E-002   6.9206317344240788E-003   4.9991708519038155E-002
  -5.7152574745648485E-002   0.0000000000000000        3.4691356312440108E-002
  -5.7941932429641033E-002   2.0837197437091476E-003   3.8343052322590651E-002
  -5.8731290113633566E-002   4.1367181811733152E-003   4.2208649357090705E-002
  -5.9520647797626100E-002   6.1589953123925116E-003   4.6288147415940263E-002
  -6.0310005481618634E-002   8.1505511373667246E-003   5.0581546499139360E-002
  -2.9036587628530227E-002   3.2308735255961460E-003   4.9530881216541964E-002
  -2.9109787565182167E-002   4.2491352738278192E-003   5.1591163531697223E-002
  -2.9182987501834116E-002   5.0964456918959743E-003   5.3750732150611907E-002
  -2.9256187438486059E-002   5.7728047798006055E-003   5.6009587073285995E-002
  -2.9329387375138002E-002   6.2782125375417525E-003   5.8367728299719493E-002
  -3.6767493682295836E-002   4.4607929285387883E-003   4.9466375877739457E-002
  -3.6780446138406683E-002   5.6942166494637460E-003   5.1255416632900612E-002
  -3.6793398594517517E-002   6.7507841063426171E-003   5.3065666045384555E-002
  -3.6806351050628350E-002   7.6304952991753452E-003   5.4897124115191306E-002
  -3.6819303506739190E-002   8.3333502279619998E-003   5.6749790842320888E-002
  -4.4556698675732448E-002   5.6907123314814366E-003   4.9619984978571507E-002
  -4.4587481297738783E-002   7.1392980250996729E-003   5.1131879239855967E-002
  -4.4618263919745119E-002   8.4051225207892252E-003   5.2586904512026619E-002
  -4.4649046541751461E-002   9.4881858185500850E-003   5.3985060795083466E-002
  -4.4679829163757803E-002   1.0388487918382254E-002   5.5326348089026492E-002
  -5.2404202608840052E-002   6.9206317344240788E-003   4.9991708519038155E-002
  -5.2530893043178505E-002   8.5843794007355936E-003   5.1220551352563329E-002
  -5.2657583477516950E-002   1.0059460935235836E-002   5.2314447550538087E-002
  -5.2784273911855396E-002   1.1345876337924804E-002   5.3273397112962431E-002
  -5.2910964346193842E-002   1.2443625608802505E-002   5.4097400039836360E-002
  -6.0310005481618634E-002   8.1505511373667246E-003   5.0581546499139360E-002
  -6.0610681374725819E-002   1.0029460776371528E-002   5.1521432971022664E-002
  -6.0911357267832977E-002   1.1713799349682474E-002   5.2248295160918945E-002
  -6.1212033160940163E-002   1.3203566857299554E-002   5.2762133068828189E-002
  -6.1512709054047335E-002   1.4498763299222762E-002   5.3062946694750444E-002
  -2.9329387375138002E-002   6.2782125375417525E-003   5.8367728299719493E-002
  -2.8980196877914394E-002   6.6662677993768980E-003   5.9135221918315897E-002
  -2.8631006380690788E-002   6.9905693995634781E-003   5.9938884925469928E-002
  -2.8281815883467176E-002   7.2511173381016895E-003   6.0778717321181577E-002
  -2.7932625386243568E-002   7.4479116149913649E-003   6.1654719105450839E-002
  -3.6819303506739190E-002   8.3333502279619998E-003   5.6749790842320888E-002
  -3.6381924551360911E-002   8.8753712219981594E-003   5.7094411371545237E-002
  -3.5944545595982640E-002   9.2725806105794298E-003   5.7579239428521320E-002
  -3.5507166640604354E-002   9.5249783937058023E-003   5.8204275013249152E-002
  -3.5069787685226082E-002   9.6325645713773583E-003   5.8969518125728676E-002
  -4.4679829163757803E-002   1.0388487918382254E-002   5.5326348089026492E-002
  -4.4050223611030746E-002   1.1084474644619464E-002   5.5167037585072416E-002
  -4.3420618058303682E-002   1.1554591821595369E-002   5.5251972748064156E-002
  -4.2791012505576626E-002   1.1798839449310013E-002   5.5581153578001766E-002
  -4.2161406952849548E-002   1.1817217527763380E-002   5.6154580074885191E-002
  -5.2910964346193842E-002   1.2443625608802505E-002   5.4097400039836360E-002
  -5.1985094056923885E-002   1.3293578067240727E-002   5.3353100558897422E-002
  -5.1059223767653920E-002   1.3836603032611302E-002   5.2957084884098435E-002
  -5.0133353478383970E-002   1.4072700504914173E-002   5.2909353015439385E-002
  -4.9207483189114012E-002   1.4001870484149415E-002   5.3209904952920342E-002
  -6.1512709054047335E-002   1.4498763299222762E-002   5.3062946694750444E-002
  -6.0186535889040355E-002   1.5502681489862034E-002   5.1652600293020254E-002
  -5.8860362724033381E-002   1.6118614243627226E-002   5.0694575836624151E-002
  -5.7534189559026408E-002   1.6346561560518350E-002   5.0188873325562128E-002
  -5.6208016394019435E-002   1.6186523440535422E-002   5.0135492759834144E-002
  -2.7932625386243568E-002   7.4479116149913649E-003   6.1654719105450839E-002
  -2.7222735281020240E-002   7.5670550429896288E-003   6.1373204052691963E-002
  -2.6512845175796912E-002   7.5946504348535365E-003   6.1326045149148883E-002
  -2.5802955070573584E-002   7.5306977905830776E-003   6.1513242394821643E-002
  -2.5093064965350253E-002   7.3751971101782554E-003   6.1934795789710173E-002
  -3.5069787685226082E-002   9.6325645713773583E-003   5.8969518125728676E-002
  -3.4135490404835975E-002   9.6347919453177930E-003   5.8644870111209009E-002
  -3.3201193124445832E-002   9.5711133172510336E-003   5.8534680297807104E-002
  -3.2266895844055725E-002   9.4415286871769900E-003   5.8638948685522961E-002
  -3.1332598563665590E-002   9.2460380550957455E-003   5.8957675274356566E-002
  -4.2161406952849548E-002   1.1817217527763380E-002   5.6154580074885191E-002
  -4.1022600445390696E-002   1.1702528847646040E-002   5.5812441132731844E-002
  -3.9883793937931844E-002   1.1547576199648586E-002   5.5664862443598188E-002
  -3.8744987430472992E-002   1.1352359583770929E-002   5.5711844007484246E-002
  -3.7606180923014154E-002   1.1116879000013208E-002   5.5953385824390037E-002
  -4.9207483189114012E-002   1.4001870484149415E-002   5.3209904952920342E-002
  -4.7884065402684459E-002   1.3770265749974232E-002   5.2875917117260404E-002
  -4.6560647616254905E-002   1.3524039082046083E-002   5.2716591586522130E-002
  -4.5237229829825372E-002   1.3263190480364867E-002   5.2731928360705581E-002
  -4.3913812043395832E-002   1.2987719944930670E-002   5.2921927439810598E-002
  -5.6208016394019435E-002   1.6186523440535422E-002   5.0135492759834144E-002
  -5.4719885276717249E-002   1.5838002652302452E-002   4.9835298064794739E-002
  -5.3231754159415057E-002   1.5500501964443622E-002   4.9689867726578962E-002
  -5.1743623042112857E-002   1.5174021376958804E-002   4.9699201745186758E-002
  -5.0255491924810672E-002   1.4858560889848133E-002   4.9863300120618265E-002
  -2.5093064965350253E-002   7.3751971101782554E-003   6.1934795789710173E-002
  -2.4310975009560268E-002   7.1717466524213597E-003   6.1715351177844963E-002
  -2.3528885053770258E-002   6.9639446760944718E-003   6.1671818081199203E-002
  -2.2746795097980263E-002   6.7517911811976368E-003   6.1804196499772854E-002
  -2.1964705142190268E-002   6.5352861677308582E-003   6.2112486433566039E-002
  -3.1332598563665590E-002   9.2460380550957455E-003   5.8957675274356566E-002
  -3.0367772574691393E-002   9.0092776920400047E-003   5.8700513930167050E-002
  -2.9402946585717182E-002   8.7558838690425800E-003   5.8632913137126548E-002
  -2.8438120596742979E-002   8.4858565861033464E-003   5.8754872895235011E-002
  -2.7473294607768751E-002   8.1991958432224010E-003   5.9066393204492362E-002
  -3.7606180923014154E-002   1.1116879000013208E-002   5.5953385824390037E-002
  -3.6444969864926208E-002   1.0846808731658657E-002   5.5646225806504510E-002
  -3.5283758806838275E-002   1.0547823061990570E-002   5.5542275375697496E-002
  -3.4122547748750370E-002   1.0219921991009026E-002   5.5641534531968878E-002
  -3.2961336690662438E-002   9.8631055187139161E-003   5.5944003275318691E-002
  -4.3913812043395832E-002   1.2987719944930670E-002   5.2921927439810598E-002
  -4.2542566880264698E-002   1.2684339771277347E-002   5.2552486806857278E-002
  -4.1171321717133572E-002   1.2339762254938592E-002   5.2399904796911874E-002
  -3.9800076554002445E-002   1.1953987395914665E-002   5.2464181409974400E-002
  -3.8428831390871325E-002   1.1527015194205445E-002   5.2745316646044961E-002
  -5.0255491924810672E-002   1.4858560889848133E-002   4.9863300120618265E-002
  -4.8660563620706851E-002   1.4521870810895940E-002   4.9419296931225321E-002
  -4.7065635316603023E-002   1.4131701447886690E-002   4.9205801400769841E-002
  -4.5470707012499181E-002   1.3688052800820366E-002   4.9222813529251792E-002
  -4.3875778708395374E-002   1.3190924869696974E-002   4.9470333316671222E-002
  -2.1964705142190268E-002   6.5352861677308582E-003   6.2112486433566039E-002
  -2.1147852677858688E-002   6.3085946445233798E-003   6.1787940944491831E-002
  -2.0331000213527118E-002   6.0658816204044175E-003   6.1675335378816254E-002
  -1.9514147749195541E-002   5.8071470953738255E-003   6.1774669736539140E-002
  -1.8697295284863968E-002   5.5323910694319300E-003   6.2085944017660599E-002
  -2.7473294607768751E-002   8.1991958432224010E-003   5.9066393204492362E-002
  -2.6448378558760033E-002   7.8990185605658791E-003   5.8745308199121160E-002
  -2.5423462509751311E-002   7.5884416583001726E-003   5.8628410439705653E-002
  -2.4398546460742611E-002   7.2674651364246865E-003   5.8715699926245798E-002
  -2.3373630411733876E-002   6.9360889949402482E-003   5.9007176658741861E-002
  -3.2961336690662438E-002   9.8631055187139161E-003   5.5944003275318691E-002
  -3.1736109734419413E-002   9.4894424766084895E-003   5.5632000634952543E-002
  -3.0510882778176391E-002   9.1110016961957613E-003   5.5516432563099224E-002
  -2.9285655821933373E-002   8.7277831774757696E-003   5.5597299059758833E-002
  -2.8060428865690351E-002   8.3397869204485109E-003   5.5874600124931187E-002
  -3.8428831390871325E-002   1.1527015194205445E-002   5.2745316646044961E-002
  -3.7011046204836841E-002   1.1079866392651072E-002   5.2448018251985994E-002
  -3.5593261018802363E-002   1.0633561734091544E-002   5.2339401748997080E-002
  -3.4175475832767872E-002   1.0188101218526742E-002   5.2419467137078235E-002
  -3.2757690646733423E-002   9.7434848459568013E-003   5.2688214416229215E-002
  -4.3875778708395374E-002   1.3190924869696974E-002   4.9470333316671222E-002
  -4.2273187970012283E-002   1.2670290308693571E-002   4.9193361050221568E-002
  -4.0670597231629219E-002   1.2156121771987077E-002   4.9097317997399026E-002
  -3.9068006493246127E-002   1.1648419259577734E-002   4.9182204158203693E-002
  -3.7465415754863077E-002   1.1147182771465147E-002   4.9448019532635612E-002
  -1.8697295284863968E-002   5.5323910694319300E-003   6.2085944017660599E-002
  -1.7853299277774813E-002   5.2476453904210796E-003   6.1852927151622272E-002
  -1.7009303270685658E-002   4.9589419061843582E-003   6.1823423098887387E-002
  -1.6165307263596503E-002   4.6662806167214084E-003   6.1997431859456040E-002
  -1.5321311256507347E-002   4.3696615220326085E-003   6.2374953433328162E-002
  -2.3373630411733876E-002   6.9360889949402482E-003   5.9007176658741861E-002
  -2.2328216446858874E-002   6.5957819502686643E-003   5.8755891614103856E-002
  -2.1282802481983869E-002   6.2480127188327128E-003   5.8703929671734059E-002
  -2.0237388517108844E-002   5.8927813006322619E-003   5.8851290831632506E-002
  -1.9191974552233836E-002   5.5300876956673739E-003   5.9197975093799038E-002
  -2.8060428865690351E-002   8.3397869204485109E-003   5.5874600124931187E-002
  -2.6817786654064847E-002   7.9439185101162074E-003   5.5601542520155409E-002
  -2.5575144442439319E-002   7.5370835314810605E-003   5.5523618306612420E-002
  -2.4332502230813818E-002   7.1192819845428915E-003   5.5640827484302283E-002
  -2.3089860019188314E-002   6.6905138693021116E-003   5.5953170053224879E-002
  -3.2757690646733423E-002   9.7434848459568013E-003   5.2688214416229215E-002
  -3.1322009899392766E-002   9.2920550699636326E-003   5.2389879869777022E-002
  -2.9886329152052082E-002   8.8261543441294672E-003   5.2282489003522357E-002
  -2.8450648404711388E-002   8.3457826684537988E-003   5.2366041817465174E-002
  -2.7014967657370735E-002   7.8509400429368631E-003   5.2640538311605437E-002
  -3.7465415754863077E-002   1.1147182771465147E-002   4.9448019532635612E-002
  -3.5840886182842605E-002   1.0640191629811280E-002   4.9120903662968618E-002
  -3.4216356610822111E-002   1.0115225156777707E-002   4.8980541762463858E-002
  -3.2591827038801618E-002   9.5722833523643330E-003   4.9026933831121250E-002
  -3.0967297466781160E-002   9.0113662165716701E-003   4.9260079868940709E-002
  -1.5321311256507347E-002   4.3696615220326085E-003   6.2374953433328162E-002
  -1.4429696645514418E-002   4.0662166393615751E-003   6.2204803073183768E-002
  -1.3538082034521511E-002   3.7530779859529934E-003   6.2250898286989736E-002
  -1.2646467423528603E-002   3.4302455618065060E-003   6.2513239074746166E-002
  -1.1754852812535674E-002   3.0977193669221581E-003   6.2991825436453208E-002
  -1.9191974552233836E-002   5.5300876956673739E-003   5.9197975093799038E-002
  -1.8088030402461416E-002   5.1594365958844979E-003   5.8987613240451181E-002
  -1.6984086252689001E-002   4.7803326932307488E-003   5.8985664890711914E-002
  -1.5880142102916564E-002   4.3927759877056272E-003   5.9192130044581209E-002
  -1.4776197953144145E-002   3.9967664793096880E-003   5.9607008702058928E-002
  -2.3089860019188314E-002   6.6905138693021116E-003   5.5953170053224879E-002
  -2.1781418400978303E-002   6.2526565524075317E-003   5.5703837674540235E-002
  -2.0472976782768295E-002   5.8075874005083863E-003   5.5655086729122387E-002
  -1.9164535164558287E-002   5.3553064136049409E-003   5.5806917216971272E-002
  -1.7856093546348269E-002   4.8958135916969958E-003   5.6159329138086467E-002
  -2.7014967657370735E-002   7.8509400429368631E-003   5.2640538311605437E-002
  -2.5509860641065037E-002   7.3458765089303435E-003   5.2353476375450778E-002
  -2.4004753624759310E-002   6.8348421077861939E-003   5.2259163802220877E-002
  -2.2499646608453591E-002   6.3178368395042138E-003   5.2357600591915736E-002
  -2.0994539592147879E-002   5.7948607040843592E-003   5.2648786744535325E-002
  -3.0967297466781160E-002   9.0113662165716701E-003   4.9260079868940709E-002
  -2.9273357122721638E-002   8.4390964654533218E-003   4.8936529343182822E-002
  -2.7579416778662123E-002   7.8620968150636822E-003   4.8797896110007538E-002
  -2.5885476434602584E-002   7.2803672654032404E-003   4.8844180169415261E-002
  -2.4191536090543087E-002   6.6939078164718335E-003   4.9075381521405781E-002
  -5.7152574745648485E-002   0.0000000000000000        3.4691356312440108E-002
  -5.7941932429641033E-002   2.0837197437091476E-003   3.8343052322590651E-002
  -5.8731290113633566E-002   4.1367181811733152E-003   4.2208649357090705E-002
  -5.9520647797626100E-002   6.1589953123925116E-003   4.6288147415940263E-002
  -6.0310005481618634E-002   8.1505511373667246E-003   5.0581546499139360E-002
  -6.5821108516700907E-002   0.0000000000000000        3.7212270229090030E-002
  -6.6625709986792722E-002   2.9139816304999521E-003   4.0834740307620472E-002
  -6.7430311456884537E-002   5.7704316490634145E-003   4.4212821789602848E-002
  -6.8234912926976352E-002   8.5693500556903862E-003   4.7346514675037150E-002
  -6.9039514397068180E-002   1.1310736850380870E-002   5.0235818963923373E-002
  -7.4245596949833903E-002   0.0000000000000000        4.0576851185376503E-002
  -7.5523731826922583E-002   3.7442435172907566E-003   4.4143285026595355E-002
  -7.6801866704011276E-002   7.4041451169535120E-003   4.7007040650368530E-002
  -7.8080001581099970E-002   1.0979704798988264E-002   4.9168118056696047E-002
  -7.9358136458188663E-002   1.4470922563395017E-002   5.0626517245577908E-002
  -8.2426040045047444E-002   0.0000000000000000        4.4785099181299547E-002
  -8.4635997950030600E-002   4.5745054040815629E-003   4.8268686479515273E-002
  -8.6845955855013729E-002   9.0378585848436069E-003   5.0591305939387737E-002
  -8.9055913759996885E-002   1.3390059542286139E-002   5.1752957560916982E-002
  -9.1265871664980028E-002   1.7631108276409152E-002   5.1753641344102916E-002
  -9.0362437802341572E-002   0.0000000000000000        4.9837014216859141E-002
  -9.3962508356116761E-002   5.4047672908723657E-003   5.3210944666380239E-002
  -9.7562578909891950E-002   1.0671572052733709E-002   5.4965617656660505E-002
 -0.10116264946366715        1.5800414285584020E-002   5.5101033187699926E-002
 -0.10476272001744233        2.0791293989423310E-002   5.3617191259498487E-002
  -6.0310005481618634E-002   8.1505511373667246E-003   5.0581546499139360E-002
  -6.0610681374725819E-002   1.0029460776371528E-002   5.1521432971022664E-002
  -6.0911357267832977E-002   1.1713799349682474E-002   5.2248295160918945E-002
  -6.1212033160940163E-002   1.3203566857299554E-002   5.2762133068828189E-002
  -6.1512709054047335E-002   1.4498763299222762E-002   5.3062946694750444E-002
  -6.9039514397068180E-002   1.1310736850380870E-002   5.0235818963923373E-002
  -6.9315301076446650E-002   1.3755042226486781E-002   4.9458904640388240E-002
  -6.9591087755825121E-002   1.5662716377360029E-002   4.8944793026297569E-002
  -6.9866874435203563E-002   1.7033759303000641E-002   4.8693484121651351E-002
  -7.0142661114582033E-002   1.7868171003408595E-002   4.8704977926449580E-002
  -7.9358136458188663E-002   1.4470922563395017E-002   5.0626517245577908E-002
  -7.9133206932406927E-002   1.7480623676602039E-002   4.7790741967085562E-002
  -7.8908277406625205E-002   1.9611633405037618E-002   4.5693596389469127E-002
  -7.8683347880843468E-002   2.0863951748701752E-002   4.4335080512728657E-002
  -7.8458418355061732E-002   2.1237578707594452E-002   4.3715194336864077E-002
  -9.1265871664980028E-002   1.7631108276409152E-002   5.1753641344102916E-002
  -9.0064398942606635E-002   2.1206205126717292E-002   4.6516944951114574E-002
  -8.8862926220233257E-002   2.3560550432715207E-002   4.2494705250433605E-002
  -8.7661453497859851E-002   2.4694144194402867E-002   3.9686922242060038E-002
  -8.6459980775486472E-002   2.4606986411780309E-002   3.8093595925993887E-002
 -0.10476272001744233        2.0791293989423310E-002   5.3617191259498487E-002
 -0.10210887710704579        2.4931786576832551E-002   4.5637513592475303E-002
  -9.9455034196649250E-002   2.7509467460392779E-002   3.9348119609190997E-002
  -9.6801191286252738E-002   2.8524336640103960E-002   3.4749009309645598E-002
  -9.4147348375856185E-002   2.7976394115966141E-002   3.1840182693839050E-002
  -6.1512709054047335E-002   1.4498763299222762E-002   5.3062946694750444E-002
  -6.0186535889040355E-002   1.5502681489862034E-002   5.1652600293020254E-002
  -5.8860362724033381E-002   1.6118614243627226E-002   5.0694575836624151E-002
  -5.7534189559026408E-002   1.6346561560518350E-002   5.0188873325562128E-002
  -5.6208016394019435E-002   1.6186523440535422E-002   5.0135492759834144E-002
  -7.0142661114582033E-002   1.7868171003408595E-002   4.8704977926449580E-002
  -6.8410740048444330E-002   1.8322858098543816E-002   4.7256850589477643E-002
  -6.6678818982306612E-002   1.8554727208366272E-002   4.6167897109433080E-002
  -6.4946897916168894E-002   1.8563778332875942E-002   4.5438117486315911E-002
  -6.3214976850031190E-002   1.8350011472072728E-002   4.5067511720126185E-002
  -7.8458418355061732E-002   2.1237578707594452E-002   4.3715194336864077E-002
  -7.6413897476199949E-002   2.1143034707225658E-002   4.2394453516211628E-002
  -7.4369376597338166E-002   2.0990840173105315E-002   4.1339738464079887E-002
  -7.2324855718476383E-002   2.0780995105233492E-002   4.0551049180468889E-002
  -7.0280334839614628E-002   2.0513499503610103E-002   4.0028385665378655E-002
  -8.6459980775486472E-002   2.4606986411780309E-002   3.8093595925993887E-002
  -8.4196008172307296E-002   2.3963211315907465E-002   3.7065409073222186E-002
  -8.1932035569128106E-002   2.3426953137844382E-002   3.6210099900564535E-002
  -7.9668062965948902E-002   2.2998211877591049E-002   3.5527668408021018E-002
  -7.7404090362769712E-002   2.2676987535147429E-002   3.5018114595591524E-002
  -9.4147348375856185E-002   2.7976394115966141E-002   3.1840182693839050E-002
  -9.1757072136766260E-002   2.6783387924589293E-002   3.1269717260509401E-002
  -8.9366795897676349E-002   2.5863066102583411E-002   3.0778981418887130E-002
  -8.6976519658586424E-002   2.5215428649948655E-002   3.0367975168972258E-002
  -8.4586243419496498E-002   2.4840475566684811E-002   3.0036698510764820E-002
  -5.6208016394019435E-002   1.6186523440535422E-002   5.0135492759834144E-002
  -5.4719885276717249E-002   1.5838002652302452E-002   4.9835298064794739E-002
  -5.3231754159415057E-002   1.5500501964443622E-002   4.9689867726578962E-002
  -5.1743623042112857E-002   1.5174021376958804E-002   4.9699201745186758E-002
  -5.0255491924810672E-002   1.4858560889848133E-002   4.9863300120618265E-002
  -6.3214976850031190E-002   1.8350011472072728E-002   4.5067511720126185E-002
  -6.1555070060637422E-002   1.8010024655216506E-002   4.4716629893573445E-002
  -5.9895163271243619E-002   1.7640415911566888E-002   4.4554535054380257E-002
  -5.8235256481849837E-002   1.7241185241123964E-002   4.4581227202546647E-002
  -5.6575349692456034E-002   1.6812332643887679E-002   4.4796706338072576E-002
  -7.0280334839614628E-002   2.0513499503610103E-002   4.0028385665378655E-002
  -6.8414629747593284E-002   2.0182046658130531E-002   3.9586174680145109E-002
  -6.6548924655571967E-002   1.9780329858690208E-002   3.9366773312807100E-002
  -6.4683219563550637E-002   1.9308349105289127E-002   3.9370181563364567E-002
  -6.2817514471529334E-002   1.8766104397927239E-002   3.9596399431817607E-002
  -7.7404090362769712E-002   2.2676987535147429E-002   3.5018114595591524E-002
  -7.5298564337584944E-002   2.2354068661044529E-002   3.4443932424509785E-002
  -7.3193038312400122E-002   2.1920243805813502E-002   3.4126582501859487E-002
  -7.1087512287215285E-002   2.1375512969454231E-002   3.4066064827640713E-002
  -6.8981986262030504E-002   2.0719876151966791E-002   3.4262379401853373E-002
  -8.4586243419496498E-002   2.4840475566684811E-002   3.0036698510764820E-002
  -8.2206873830612259E-002   2.4526090663958625E-002   2.9289903126667460E-002
  -7.9827504241728020E-002   2.4060157752936816E-002   2.8833962621537521E-002
  -7.7448134652843781E-002   2.3442676833619426E-002   2.8668876995374924E-002
  -7.5068765063959569E-002   2.2673647906006344E-002   2.8794646248179789E-002
  -5.0255491924810672E-002   1.4858560889848133E-002   4.9863300120618265E-002
  -4.8660563620706851E-002   1.4521870810895940E-002   4.9419296931225321E-002
  -4.7065635316603023E-002   1.4131701447886690E-002   4.9205801400769841E-002
  -4.5470707012499181E-002   1.3688052800820366E-002   4.9222813529251792E-002
  -4.3875778708395374E-002   1.3190924869696974E-002   4.9470333316671222E-002
  -5.6575349692456034E-002   1.6812332643887679E-002   4.4796706338072576E-002
  -5.4759660615705974E-002   1.6354387195604350E-002   4.4379627721281761E-002
  -5.2943971538955865E-002   1.5867877972020453E-002   4.4173562990845953E-002
  -5.1128282462205757E-002   1.5352804973135712E-002   4.4178512146765256E-002
  -4.9312593385455641E-002   1.4809168198950368E-002   4.4394475189039662E-002
  -6.2817514471529334E-002   1.8766104397927239E-002   3.9596399431817607E-002
  -6.0800558394715348E-002   1.8186903580312795E-002   3.9231160896385162E-002
  -5.8783602317901334E-002   1.7604054496154108E-002   3.9057442474725507E-002
  -5.6766646241087342E-002   1.7017557145451088E-002   3.9075244166838469E-002
  -5.4749690164273349E-002   1.6427411528203817E-002   3.9284565972724284E-002
  -6.8981986262030504E-002   2.0719876151966791E-002   3.4262379401853373E-002
  -6.6783256957734946E-002   2.0019419965021167E-002   3.3973896456535799E-002
  -6.4584527653439402E-002   1.9340231020287833E-002   3.3857439852408515E-002
  -6.2385798349143859E-002   1.8682309317766391E-002   3.3913009589471660E-002
  -6.0187069044848315E-002   1.8045654857457294E-002   3.4140605667725220E-002
  -7.5068765063959569E-002   2.2673647906006344E-002   2.8794646248179789E-002
  -7.2707756304764851E-002   2.1851936349729581E-002   2.8607834401733340E-002
  -7.0346747545570104E-002   2.1076407544421569E-002   2.8573555123895047E-002
  -6.7985738786375385E-002   2.0347061490081818E-002   2.8691808414664663E-002
  -6.5624730027180667E-002   1.9663898186710660E-002   2.8962594274042297E-002
  -4.3875778708395374E-002   1.3190924869696974E-002   4.9470333316671222E-002
  -4.2273187970012283E-002   1.2670290308693571E-002   4.9193361050221568E-002
  -4.0670597231629219E-002   1.2156121771987077E-002   4.9097317997399026E-002
  -3.9068006493246127E-002   1.1648419259577734E-002   4.9182204158203693E-002
  -3.7465415754863077E-002   1.1147182771465147E-002   4.9448019532635612E-002
  -4.9312593385455641E-002   1.4809168198950368E-002   4.4394475189039662E-002
  -4.7528270382930629E-002   1.4251254142935987E-002   4.4121261489317110E-002
  -4.5743947380405554E-002   1.3693349298563758E-002   4.4030583104251356E-002
  -4.3959624377880549E-002   1.3135453665834284E-002   4.4122440033842393E-002
  -4.2175301375355488E-002   1.2577567244747012E-002   4.4396832278090159E-002
  -5.4749690164273349E-002   1.6427411528203817E-002   3.9284565972724284E-002
  -5.2782028796576716E-002   1.5832217977178306E-002   3.9008654027074353E-002
  -5.0814367428880056E-002   1.5230576825140604E-002   3.8916883497110769E-002
  -4.8846706061183430E-002   1.4622488072090833E-002   3.9009254382833647E-002
  -4.6879044693486832E-002   1.4007951718028849E-002   3.9285766684242801E-002
  -6.0187069044848315E-002   1.8045654857457294E-002   3.4140605667725220E-002
  -5.8034463210950488E-002   1.7413181811420757E-002   3.3855538663493279E-002
  -5.5881857377052681E-002   1.6767804351717479E-002   3.3756219175977334E-002
  -5.3729251543154916E-002   1.6109522478347495E-002   3.3842647205177441E-002
  -5.1576645709257039E-002   1.5438336191310784E-002   3.4114822751093427E-002
  -6.5624730027180667E-002   1.9663898186710660E-002   2.8962594274042297E-002
  -6.3285573626052083E-002   1.8994145645663013E-002   2.8661915398573823E-002
  -6.0946417224923471E-002   1.8305031878294090E-002   2.8548590140850982E-002
  -5.8607260823794860E-002   1.7596556884603976E-002   2.8622618500873692E-002
  -5.6268104422666276E-002   1.6868720664592551E-002   2.8884000478641980E-002
  -3.7465415754863077E-002   1.1147182771465147E-002   4.9448019532635612E-002
  -3.5840886182842605E-002   1.0640191629811280E-002   4.9120903662968618E-002
  -3.4216356610822111E-002   1.0115225156777707E-002   4.8980541762463858E-002
  -3.2591827038801618E-002   9.5722833523643330E-003   4.9026933831121250E-002
  -3.0967297466781160E-002   9.0113662165716701E-003   4.9260079868940709E-002
  -4.2175301375355488E-002   1.2577567244747012E-002   4.4396832278090159E-002
  -4.0366030031543702E-002   1.2013938723154732E-002   4.4059112141397433E-002
  -3.8556758687731937E-002   1.1438816788909886E-002   4.3904121579125072E-002
  -3.6747487343920179E-002   1.0852201442012651E-002   4.3931860591273103E-002
  -3.4938216000108407E-002   1.0254092682463134E-002   4.4142329177841610E-002
  -4.6879044693486832E-002   1.4007951718028849E-002   3.9285766684242801E-002
  -4.4889055972625443E-002   1.3387685816498213E-002   3.8943924199251356E-002
  -4.2899067251764116E-002   1.2762408421042232E-002   3.8780786893938601E-002
  -4.0909078530902761E-002   1.2132119531660913E-002   3.8796354768304585E-002
  -3.8919089810041455E-002   1.1496819148354570E-002   3.8990627822349425E-002
  -5.1576645709257039E-002   1.5438336191310784E-002   3.4114822751093427E-002
  -4.9409964006087860E-002   1.4761432909841540E-002   3.3775339836530471E-002
  -4.7243282302918674E-002   1.4086000053174494E-002   3.3610537706904614E-002
  -4.5076600599749460E-002   1.3412037621309148E-002   3.3620416362215758E-002
  -4.2909918896580253E-002   1.2739545614246020E-002   3.3804975802463874E-002
  -5.6268104422666276E-002   1.6868720664592551E-002   2.8884000478641980E-002
  -5.3928754131930906E-002   1.6135180003185173E-002   2.8553359053234806E-002
  -5.1589403841195536E-002   1.5409591685306742E-002   2.8393374018022999E-002
  -4.9250053550460138E-002   1.4691955710957324E-002   2.8404045373006490E-002
  -4.6910703259724795E-002   1.3982272080137526E-002   2.8585373118185375E-002
  -3.0967297466781160E-002   9.0113662165716701E-003   4.9260079868940709E-002
  -2.9273357122721638E-002   8.4390964654533218E-003   4.8936529343182822E-002
  -2.7579416778662123E-002   7.8620968150636822E-003   4.8797896110007538E-002
  -2.5885476434602584E-002   7.2803672654032404E-003   4.8844180169415261E-002
  -2.4191536090543087E-002   6.6939078164718335E-003   4.9075381521405781E-002
  -3.4938216000108407E-002   1.0254092682463134E-002   4.4142329177841610E-002
  -3.3065470078403429E-002   9.6456373425370667E-003   4.3795746836854860E-002
  -3.1192724156698499E-002   9.0279822545104998E-003   4.3621858358576154E-002
  -2.9319978234993469E-002   8.4011274183840544E-003   4.3620663743005647E-002
  -2.7447232313288578E-002   7.7650728341573938E-003   4.3792162990142991E-002
  -3.8919089810041455E-002   1.1496819148354570E-002   3.8990627822349425E-002
  -3.6879761740565759E-002   1.0852178219620728E-002   3.8616543817304602E-002
  -3.4840433671090056E-002   1.0193867693957422E-002   3.8402930245093135E-002
  -3.2801105601614380E-002   9.5218875713647833E-003   3.8349787105715030E-002
  -3.0761777532138795E-002   8.8362378518428430E-003   3.8457114399170322E-002
  -4.2909918896580253E-002   1.2739545614246020E-002   3.3804975802463874E-002
  -4.0716232109208605E-002   1.2058719096704543E-002   3.3398920284532077E-002
  -3.8522545321837028E-002   1.1359753133404236E-002   3.3141111769558862E-002
  -3.6328858534465283E-002   1.0642647724345609E-002   3.3031550257544187E-002
  -3.4135171747093809E-002   9.9074028695284033E-003   3.3070235748487817E-002
  -4.6910703259724795E-002   1.3982272080137526E-002   2.8585373118185375E-002
  -4.4574881184332005E-002   1.3265259973788301E-002   2.8142876238537118E-002
  -4.2239059108939186E-002   1.2525638572850953E-002   2.7836402931972898E-002
  -3.9903237033546368E-002   1.1763407877326246E-002   2.7665953198492396E-002
  -3.7567414958153633E-002   1.0978567887213853E-002   2.7631527038095571E-002
  -9.0362437802341572E-002   0.0000000000000000        4.9837014216859141E-002
  -9.3962508356116761E-002   5.4047672908723657E-003   5.3210944666380239E-002
  -9.7562578909891950E-002   1.0671572052733709E-002   5.4965617656660505E-002
 -0.10116264946366715        1.5800414285584020E-002   5.5101033187699926E-002
 -0.10476272001744233        2.0791293989423310E-002   5.3617191259498487E-002
 -0.10329351220753863        0.0000000000000000        5.8665240851912451E-002
 -0.10683109942752023        1.0884425829148225E-002   5.2120253310656624E-002
 -0.11036868664750181        1.9172293887135407E-002   4.7319489896228820E-002
 -0.11390627386748339        2.4863604173961541E-002   4.4262950608629059E-002
 -0.11744386108746500        2.7958356689626630E-002   4.2950635447857349E-002
 -0.12645798524646104        0.0000000000000000        7.4202423646316629E-002
 -0.12656960754658014        1.6364084367424082E-002   5.5279922872133846E-002
 -0.12668122984669927        2.7673015721537114E-002   4.1465127810847963E-002
 -0.12679285214681837        3.3926794062339068E-002   3.2758038462459026E-002
 -0.12690447444693750        3.5125419389829958E-002   2.9158654826967011E-002
 -0.15985585691910881        0.0000000000000000        9.6448562600071688E-002
 -0.15317803271329652        2.1843742905699945E-002   6.2689953350811914E-002
 -0.14650020850748430        3.6173737555938813E-002   3.7402531400517955E-002
 -0.13982238430167201        4.2989983950716584E-002   2.0586296749189804E-002
 -0.13314456009585982        4.2292482090033279E-002   1.2241249396827436E-002
 -0.20348712722548190        0.0000000000000000       0.12540365771317760     
 -0.18665637492766940        2.7323401443975798E-002   7.4350344746690847E-002
 -0.16982562262985690        4.4674459390340517E-002   3.5131700665238783E-002
 -0.15299487033204437        5.2053173839094115E-002   7.7477254688214092E-003
 -0.13616411803423187        4.9459544790236606E-002  -7.8015808425613009E-003
 -0.10476272001744233        2.0791293989423310E-002   5.3617191259498487E-002
 -0.10210887710704579        2.4931786576832551E-002   4.5637513592475303E-002
  -9.9455034196649250E-002   2.7509467460392779E-002   3.9348119609190997E-002
  -9.6801191286252738E-002   2.8524336640103960E-002   3.4749009309645598E-002
  -9.4147348375856185E-002   2.7976394115966141E-002   3.1840182693839050E-002
 -0.11744386108746500        2.7958356689626630E-002   4.2950635447857349E-002
 -0.11348793709683877        2.9430599124198362E-002   3.6697645840437824E-002
 -0.10953201310621252        3.0254379167744396E-002   3.1358534709738838E-002
 -0.10557608911558625        3.0429696820264761E-002   2.6933302055760371E-002
 -0.10162016512496000        2.9956552081759395E-002   2.3421947878502512E-002
 -0.12690447444693750        3.5125419389829958E-002   2.9158654826967011E-002
 -0.12242287458309986        3.3929411671564144E-002   2.5546702591974443E-002
 -0.11794127471926225        3.2999290875096031E-002   2.2072223626684165E-002
 -0.11345967485542462        3.2335057000425493E-002   1.8735217931096004E-002
 -0.10897807499158700        3.1936710047552691E-002   1.5535685505210069E-002
 -0.13314456009585982        4.2292482090033279E-002   1.2241249396827436E-002
 -0.12891368956582910        3.8428224218929982E-002   1.2184683847085320E-002
 -0.12468281903579849        3.5744202582447614E-002   1.1489186360026979E-002
 -0.12045194850576783        3.4240417180586333E-002   1.0154756935652560E-002
 -0.11622107797573719        3.3916868013346035E-002   8.1813955739618652E-003
 -0.13616411803423187        4.9459544790236606E-002  -7.8015808425613009E-003
 -0.13296038204502655        4.2927036766295737E-002  -3.3884103942299001E-003
 -0.12975664605582121        3.8489114289799280E-002  -3.9057709023267856E-004
 -0.12655291006661587        3.6145777360747006E-002   1.1919190694297480E-003
 -0.12334917407741056        3.5897025979139241E-002   1.3590780847578809E-003
  -9.4147348375856185E-002   2.7976394115966141E-002   3.1840182693839050E-002
  -9.1757072136766260E-002   2.6783387924589293E-002   3.1269717260509401E-002
  -8.9366795897676349E-002   2.5863066102583411E-002   3.0778981418887130E-002
  -8.6976519658586424E-002   2.5215428649948655E-002   3.0367975168972258E-002
  -8.4586243419496498E-002   2.4840475566684811E-002   3.0036698510764820E-002
 -0.10162016512496000        2.9956552081759395E-002   2.3421947878502512E-002
  -9.9135870258906370E-002   2.9185266634311910E-002   2.3143111034162153E-002
  -9.6651575392852698E-002   2.8466162160005706E-002   2.2972581852041752E-002
  -9.4167280526799069E-002   2.7799238658840781E-002   2.2910360332141493E-002
  -9.1682985660745397E-002   2.7184496130817137E-002   2.2956446474461253E-002
 -0.10897807499158700        3.1936710047552691E-002   1.5535685505210069E-002
 -0.10637118342805700        3.1587145344034520E-002   1.5327973853629275E-002
 -0.10376429186452700        3.1069258217427915E-002   1.5257147934781199E-002
 -0.10115740030099701        3.0383048667732903E-002   1.5323207748665803E-002
  -9.8550508737467027E-002   2.9528516694949589E-002   1.5526153295283084E-002
 -0.11622107797573719        3.3916868013346035E-002   8.1813955739618652E-003
 -0.11346301164421821        3.3989024053757082E-002   7.8243057189110246E-003
 -0.11070494531269917        3.3672354274850193E-002   7.6326796671054792E-003
 -0.10794687898118017        3.2966858676625112E-002   7.6065174185451275E-003
 -0.10518881264966118        3.1872537259081964E-002   7.7458189732302150E-003
 -0.12334917407741056        3.5897025979139241E-002   1.3590780847578809E-003
 -0.12041135490738991        3.6390902763479727E-002   6.3210663000717870E-004
 -0.11747353573736928        3.6275450332272474E-002   9.9177049014534391E-005
 -0.11453571656734865        3.5550668685517206E-002  -2.3971065822039547E-004
 -0.11159789739732801        3.4216557823214366E-002  -3.8455649169710782E-004
  -8.4586243419496498E-002   2.4840475566684811E-002   3.0036698510764820E-002
  -8.2206873830612259E-002   2.4526090663958625E-002   2.9289903126667460E-002
  -7.9827504241728020E-002   2.4060157752936816E-002   2.8833962621537521E-002
  -7.7448134652843781E-002   2.3442676833619426E-002   2.8668876995374924E-002
  -7.5068765063959569E-002   2.2673647906006344E-002   2.8794646248179789E-002
  -9.1682985660745397E-002   2.7184496130817137E-002   2.2956446474461253E-002
  -8.9042419315361415E-002   2.6569440456220964E-002   2.2307034495132536E-002
  -8.6401852969977350E-002   2.5901577515338184E-002   2.1889161149836099E-002
  -8.3761286624593326E-002   2.5180907308168920E-002   2.1702826438571823E-002
  -8.1120720279209330E-002   2.4407429834713112E-002   2.1748030361339751E-002
  -9.8550508737467027E-002   2.9528516694949589E-002   1.5526153295283084E-002
  -9.5708061880518364E-002   2.8612790248483379E-002   1.5072865462732281E-002
  -9.2865615023569714E-002   2.7742997277739583E-002   1.4791800019278375E-002
  -9.0023168166621065E-002   2.6919137782718528E-002   1.4682956964921513E-002
  -8.7180721309672429E-002   2.6141211763419880E-002   1.4746336299661600E-002
 -0.10518881264966118        3.1872537259081964E-002   7.7458189732302150E-003
 -0.10220380152608313        3.0656140040745673E-002   7.5873960294662850E-003
  -9.9218790402505086E-002   2.9584417040140941E-002   7.5418792298642982E-003
  -9.6233779278927067E-002   2.8657368257268105E-002   7.6092685744239275E-003
  -9.3248768155349007E-002   2.7874993692126759E-002   7.7895640631453836E-003
 -0.11159789739732801        3.4216557823214366E-002  -3.8455649169710782E-004
 -0.10852963825205575        3.2699489833008050E-002  -1.4937380466512051E-004
 -0.10546137910678349        3.1425836802542267E-002   1.3939878159359431E-004
 -0.10239311996151121        3.0395598731817651E-002   4.8176126707901237E-004
  -9.9324860816238980E-002   2.9608775620833472E-002   8.7771365179084571E-004
  -7.5068765063959569E-002   2.2673647906006344E-002   2.8794646248179789E-002
  -7.2707756304764851E-002   2.1851936349729581E-002   2.8607834401733340E-002
  -7.0346747545570104E-002   2.1076407544421569E-002   2.8573555123895047E-002
  -6.7985738786375385E-002   2.0347061490081818E-002   2.8691808414664663E-002
  -6.5624730027180667E-002   1.9663898186710660E-002   2.8962594274042297E-002
  -8.1120720279209330E-002   2.4407429834713112E-002   2.1748030361339751E-002
  -7.8605303999210008E-002   2.3614094868533123E-002   2.1584685167779935E-002
  -7.6089887719210741E-002   2.2833852183191533E-002   2.1577622447221202E-002
  -7.3574471439211420E-002   2.2066701778688198E-002   2.1726842199663612E-002
  -7.1059055159212167E-002   2.1312643655023111E-002   2.2032344425107070E-002
  -8.7180721309672429E-002   2.6141211763419880E-002   1.4746336299661600E-002
  -8.4507147604475460E-002   2.5376253387336727E-002   1.4573367288858129E-002
  -8.1833573899278533E-002   2.4591296821961560E-002   1.4560430655448736E-002
  -7.9160000194081565E-002   2.3786342067294582E-002   1.4707526399433613E-002
  -7.6486426488884623E-002   2.2961389123335563E-002   1.5014654520812853E-002
  -9.3248768155349007E-002   2.7874993692126759E-002   7.7895640631453836E-003
  -9.0413287120561223E-002   2.7138411906140272E-002   7.5738807649679135E-003
  -8.7577806085773535E-002   2.6348741460731722E-002   7.5219797485778315E-003
  -8.4742325050985737E-002   2.5505982355900850E-002   7.6338610139752077E-003
  -8.1906844016198063E-002   2.4610134591648125E-002   7.9095245611597517E-003
  -9.9324860816238980E-002   2.9608775620833472E-002   8.7771365179084571E-004
  -9.6323722547467350E-002   2.8900570424943817E-002   5.8622559610926883E-004
  -9.3322584278695692E-002   2.8106186099501648E-002   4.6226972660821930E-004
  -9.0321446009924075E-002   2.7225622644507310E-002   5.0584604328759650E-004
  -8.7320307741152403E-002   2.6258880059960577E-002   7.1695454614750798E-004
  -6.5624730027180667E-002   1.9663898186710660E-002   2.8962594274042297E-002
  -6.3285573626052083E-002   1.8994145645663013E-002   2.8661915398573823E-002
  -6.0946417224923471E-002   1.8305031878294090E-002   2.8548590140850982E-002
  -5.8607260823794860E-002   1.7596556884603976E-002   2.8622618500873692E-002
  -5.6268104422666276E-002   1.6868720664592551E-002   2.8884000478641980E-002
  -7.1059055159212167E-002   2.1312643655023111E-002   2.2032344425107070E-002
  -6.8532364667783702E-002   2.0561917426649617E-002   2.1725904966263837E-002
  -6.6005674176355111E-002   1.9804762708021090E-002   2.1607180070274817E-002
  -6.3478983684926577E-002   1.9041179499137285E-002   2.1676169737139962E-002
  -6.0952293193498042E-002   1.8271167799998711E-002   2.1932873966859612E-002
  -7.6486426488884623E-002   2.2961389123335563E-002   1.5014654520812853E-002
  -7.3771840962047530E-002   2.2129689207636236E-002   1.4715387214661008E-002
  -7.1057255435210381E-002   2.1304493537747972E-002   1.4604195416472017E-002
  -6.8342669908373246E-002   2.0485802113670813E-002   1.4681079126245795E-002
  -6.5628084381536139E-002   1.9673614935404871E-002   1.4946038343982809E-002
  -8.1906844016198063E-002   2.4610134591648125E-002   7.9095245611597517E-003
  -7.9004002508843665E-002   2.3697460988622708E-002   7.6303621437654248E-003
  -7.6101161001489281E-002   2.2804224367474941E-002   7.5396361794427495E-003
  -7.3198319494134856E-002   2.1930424728204067E-002   7.6373466681915391E-003
  -7.0295477986780486E-002   2.1076062070810975E-002   7.9234936100119856E-003
  -8.7320307741152403E-002   2.6258880059960577E-002   7.1695454614750798E-004
  -8.4228849308172093E-002   2.5265232769609458E-002   4.7082975357709556E-004
  -8.1137390875191784E-002   2.4303955197201882E-002   4.1350235918666267E-004
  -7.8045932442211446E-002   2.3375047342737355E-002   5.4497236297656321E-004
  -7.4954474009231165E-002   2.2478509206217079E-002   8.6523976494690125E-004
  -5.6268104422666276E-002   1.6868720664592551E-002   2.8884000478641980E-002
  -5.3928754131930906E-002   1.6135180003185173E-002   2.8553359053234806E-002
  -5.1589403841195536E-002   1.5409591685306742E-002   2.8393374018022999E-002
  -4.9250053550460138E-002   1.4691955710957324E-002   2.8404045373006490E-002
  -4.6910703259724795E-002   1.3982272080137526E-002   2.8585373118185375E-002
  -6.0952293193498042E-002   1.8271167799998711E-002   2.1932873966859612E-002
  -5.8440156307829602E-002   1.7499370579790952E-002   2.1618165224806973E-002
  -5.5928019422160996E-002   1.6730430807699800E-002   2.1478373282425370E-002
  -5.3415882536492550E-002   1.5964348483725809E-002   2.1513498139714878E-002
  -5.0903745650823951E-002   1.5201123607868572E-002   2.1723539796675184E-002
  -6.5628084381536139E-002   1.9673614935404871E-002   1.4946038343982809E-002
  -6.2938900491458782E-002   1.8863561156396494E-002   1.4642167389872576E-002
  -6.0249716601381439E-002   1.8051269930092977E-002   1.4517473644909080E-002
  -5.7560532711304048E-002   1.7236741256494131E-002   1.4571957109092131E-002
  -5.4871348821226670E-002   1.6419975135599812E-002   1.4805617782422051E-002
  -7.0295477986780486E-002   2.1076062070810975E-002   7.9234936100119856E-003
  -6.7424986682818655E-002   2.0227751733002459E-002   7.6253655484319512E-003
  -6.4554495378856699E-002   1.9372109052486205E-002   7.5106751054738654E-003
  -6.1684004074894792E-002   1.8509134029262478E-002   7.5794222811387249E-003
  -5.8813512770932927E-002   1.7638826663330956E-002   7.8316070754255070E-003
  -7.4954474009231165E-002   2.2478509206217079E-002   8.6523976494690125E-004
  -7.1898414881909067E-002   2.1591942309607870E-002   5.6775970048444924E-004
  -6.8842355754586915E-002   2.0692948174879017E-002   4.5797766412020158E-004
  -6.5786296627264790E-002   1.9781526802030720E-002   5.3589365585408888E-004
  -6.2730237499942665E-002   1.8857678191062321E-002   8.0150767568587522E-004
  -4.6910703259724795E-002   1.3982272080137526E-002   2.8585373118185375E-002
  -4.4574881184332005E-002   1.3265259973788301E-002   2.8142876238537118E-002
  -4.2239059108939186E-002   1.2525638572850953E-002   2.7836402931972898E-002
  -3.9903237033546368E-002   1.1763407877326246E-002   2.7665953198492396E-002
  -3.7567414958153633E-002   1.0978567887213853E-002   2.7631527038095571E-002
  -5.0903745650823951E-002   1.5201123607868572E-002   2.1723539796675184E-002
  -4.8425528987151495E-002   1.4434759458727103E-002   2.1296980508283020E-002
  -4.5947312323478956E-002   1.3659259314900182E-002   2.1019186823366398E-002
  -4.3469095659806341E-002   1.2874623176387764E-002   2.0890158741925305E-002
  -4.0990878996134017E-002   1.2080851043189789E-002   2.0909896263960226E-002
  -5.4871348821226670E-002   1.6419975135599812E-002   1.4805617782422051E-002
  -5.2237995538882601E-002   1.5604258943665988E-002   1.4408469385187778E-002
  -4.9604642256538489E-002   1.4792880056949016E-002   1.4172828621821072E-002
  -4.6971288974194420E-002   1.3985838475449168E-002   1.4098695492321889E-002
  -4.4337935691850322E-002   1.3183134199165725E-002   1.4186069996690143E-002
  -5.8813512770932927E-002   1.7638826663330956E-002   7.8316070754255070E-003
  -5.6012280839525440E-002   1.6773758428605165E-002   7.4773428692516512E-003
  -5.3211048908117890E-002   1.5926500798998159E-002   7.2973283273370191E-003
  -5.0409816976710313E-002   1.5097053774510517E-002   7.2915634496817519E-003
  -4.7608585045302861E-002   1.4285417355141716E-002   7.4600482362857934E-003
  -6.2730237499942665E-002   1.8857678191062321E-002   8.0150767568587522E-004
  -5.9748384889079964E-002   1.7943257913544008E-002   5.0360096047419312E-004
  -5.6766532278217097E-002   1.7060121541047468E-002   3.9268593991403922E-004
  -5.3784679667354257E-002   1.6208269073571910E-002   4.6876261400488617E-004
  -5.0802827056491529E-002   1.5387700511117597E-002   7.3183098274709479E-004
 </DataArray>
 </PointData>
 </Piece>
 <Piece  NumberOfPoints="          1600 "  NumberOfCells="         1024 ">
 <Points>
 <DataArray  type="Float64" NumberOfComponents="3"  format="ascii" >
  0.50000000000000000        0.0000000000000000        0.0000000000000000     
  0.53125000000000000        0.0000000000000000        0.0000000000000000     
  0.56250000000000000        0.0000000000000000        0.0000000000000000     
  0.59375000000000000        0.0000000000000000        0.0000000000000000     
  0.62500000000000000        0.0000000000000000        0.0000000000000000     
  0.50000000000000000        3.1250000000000000E-002   0.0000000000000000     
  0.53125000000000000        3.1250000000000000E-002   0.0000000000000000     
  0.56250000000000000        3.1250000000000000E-002   0.0000000000000000     
  0.59375000000000000        3.1250000000000000E-002   0.0000000000000000     
  0.62500000000000000        3.1250000000000000E-002   0.0000000000000000     
  0.50000000000000000        6.2500000000000000E-002   0.0000000000000000     
  0.53125000000000000        6.2500000000000000E-002   0.0000000000000000     
  0.56250000000000000        6.2500000000000000E-002   0.0000000000000000     
  0.59375000000000000        6.2500000000000000E-002   0.0000000000000000     
  0.62500000000000000        6.2500000000000000E-002   0.0000000000000000     
  0.50000000000000000        9.3750000000000000E-002   0.0000000000000000     
  0.53125000000000000        9.3750000000000000E-002   0.0000000000000000     
  0.56250000000000000        9.3750000000000000E-002   0.0000000000000000     
  0.59375000000000000        9.3750000000000000E-002   0.0000000000000000     
  0.62500000000000000        9.3750000000000000E-002   0.0000000000000000     
  0.50000000000000000       0.12500000000000000        0.0000000000000000     
  0.53125000000000000       0.12500000000000000        0.0000000000000000     
  0.56250000000000000       0.12500000000000000        0.0000000000000000     
  0.59375000000000000       0.12500000000000000        0.0000000000000000     
  0.62500000000000000       0.12500000000000000        0.0000000000000000     
  0.62500000000000000        0.0000000000000000        0.0000000000000000     
  0.65625000000000000        0.0000000000000000        0.0000000000000000     
  0.68750000000000000        0.0000000000000000        0.0000000000000000     
  0.71875000000000000        0.0000000000000000        0.0000000000000000     
  0.75000000000000000        0.0000000000000000        0.0000000000000000     
  0.62500000000000000        3.1250000000000000E-002   0.0000000000000000     
  0.65625000000000000        3.1250000000000000E-002   0.0000000000000000     
  0.68750000000000000        3.1250000000000000E-002   0.0000000000000000     
  0.71875000000000000        3.1250000000000000E-002   0.0000000000000000     
  0.75000000000000000        3.1250000000000000E-002   0.0000000000000000     
  0.62500000000000000        6.2500000000000000E-002   0.0000000000000000     
  0.65625000000000000        6.2500000000000000E-002   0.0000000000000000     
  0.68750000000000000        6.2500000000000000E-002   0.0000000000000000     
  0.71875000000000000        6.2500000000000000E-002   0.0000000000000000     
  0.75000000000000000        6.2500000000000000E-002   0.0000000000000000     
  0.62500000000000000        9.3750000000000000E-002   0.0000000000000000     
  0.65625000000000000        9.3750000000000000E-002   0.0000000000000000     
  0.68750000000000000        9.3750000000000000E-002   0.0000000000000000     
  0.71875000000000000        9.3750000000000000E-002   0.0000000000000000     
  0.75000000000000000        9.3750000000000000E-002   0.0000000000000000     
  0.62500000000000000       0.12500000000000000        0.0000000000000000     
  0.65625000000000000       0.12500000000000000        0.0000000000000000     
  0.68750000000000000       0.12500000000000000        0.0000000000000000     
  0.71875000000000000       0.12500000000000000        0.0000000000000000     
  0.75000000000000000       0.12500000000000000        0.0000000000000000     
  0.75000000000000000        0.0000000000000000        0.0000000000000000     
  0.78125000000000000        0.0000000000000000        0.0000000000000000     
  0.81250000000000000        0.0000000000000000        0.0000000000000000     
  0.84375000000000000        0.0000000000000000        0.0000000000000000     
  0.87500000000000000        0.0000000000000000        0.0000000000000000     
  0.75000000000000000        3.1250000000000000E-002   0.0000000000000000     
  0.78125000000000000        3.1250000000000000E-002   0.0000000000000000     
  0.81250000000000000        3.1250000000000000E-002   0.0000000000000000     
  0.84375000000000000        3.1250000000000000E-002   0.0000000000000000     
  0.87500000000000000        3.1250000000000000E-002   0.0000000000000000     
  0.75000000000000000        6.2500000000000000E-002   0.0000000000000000     
  0.78125000000000000        6.2500000000000000E-002   0.0000000000000000     
  0.81250000000000000        6.2500000000000000E-002   0.0000000000000000     
  0.84375000000000000        6.2500000000000000E-002   0.0000000000000000     
  0.87500000000000000        6.2500000000000000E-002   0.0000000000000000     
  0.75000000000000000        9.3750000000000000E-002   0.0000000000000000     
  0.78125000000000000        9.3750000000000000E-002   0.0000000000000000     
  0.81250000000000000        9.3750000000000000E-002   0.0000000000000000     
  0.84375000000000000        9.3750000000000000E-002   0.0000000000000000     
  0.87500000000000000        9.3750000000000000E-002   0.0000000000000000     
  0.75000000000000000       0.12500000000000000        0.0000000000000000     
  0.78125000000000000       0.12500000000000000        0.0000000000000000     
  0.81250000000000000       0.12500000000000000        0.0000000000000000     
  0.84375000000000000       0.12500000000000000        0.0000000000000000     
  0.87500000000000000       0.12500000000000000        0.0000000000000000     
  0.87500000000000000        0.0000000000000000        0.0000000000000000     
  0.90625000000000000        0.0000000000000000        0.0000000000000000     
  0.93750000000000000        0.0000000000000000        0.0000000000000000     
  0.96875000000000000        0.0000000000000000        0.0000000000000000     
   1.0000000000000000        0.0000000000000000        0.0000000000000000     
  0.87500000000000000        3.1250000000000000E-002   0.0000000000000000     
  0.90625000000000000        3.1250000000000000E-002   0.0000000000000000     
  0.93750000000000000        3.1250000000000000E-002   0.0000000000000000     
  0.96875000000000000        3.1250000000000000E-002   0.0000000000000000     
   1.0000000000000000        3.1250000000000000E-002   0.0000000000000000     
  0.87500000000000000        6.2500000000000000E-002   0.0000000000000000     
  0.90625000000000000        6.2500000000000000E-002   0.0000000000000000     
  0.93750000000000000        6.2500000000000000E-002   0.0000000000000000     
  0.96875000000000000        6.2500000000000000E-002   0.0000000000000000     
   1.0000000000000000        6.2500000000000000E-002   0.0000000000000000     
  0.87500000000000000        9.3750000000000000E-002   0.0000000000000000     
  0.90625000000000000        9.3750000000000000E-002   0.0000000000000000     
  0.93750000000000000        9.3750000000000000E-002   0.0000000000000000     
  0.96875000000000000        9.3750000000000000E-002   0.0000000000000000     
   1.0000000000000000        9.3750000000000000E-002   0.0000000000000000     
  0.87500000000000000       0.12500000000000000        0.0000000000000000     
  0.90625000000000000       0.12500000000000000        0.0000000000000000     
  0.93750000000000000       0.12500000000000000        0.0000000000000000     
  0.96875000000000000       0.12500000000000000        0.0000000000000000     
   1.0000000000000000       0.12500000000000000        0.0000000000000000     
   1.0000000000000000        0.0000000000000000        0.0000000000000000     
   1.0312500000000000        0.0000000000000000        0.0000000000000000     
   1.0625000000000000        0.0000000000000000        0.0000000000000000     
   1.0937500000000000        0.0000000000000000        0.0000000000000000     
   1.1250000000000000        0.0000000000000000        0.0000000000000000     
   1.0000000000000000        3.1250000000000000E-002   0.0000000000000000     
   1.0312500000000000        3.1250000000000000E-002   0.0000000000000000     
   1.0625000000000000        3.1250000000000000E-002   0.0000000000000000     
   1.0937500000000000        3.1250000000000000E-002   0.0000000000000000     
   1.1250000000000000        3.1250000000000000E-002   0.0000000000000000     
   1.0000000000000000        6.2500000000000000E-002   0.0000000000000000     
   1.0312500000000000        6.2500000000000000E-002   0.0000000000000000     
   1.0625000000000000        6.2500000000000000E-002   0.0000000000000000     
   1.0937500000000000        6.2500000000000000E-002   0.0000000000000000     
   1.1250000000000000        6.2500000000000000E-002   0.0000000000000000     
   1.0000000000000000        9.3750000000000000E-002   0.0000000000000000     
   1.0312500000000000        9.3750000000000000E-002   0.0000000000000000     
   1.0625000000000000        9.3750000000000000E-002   0.0000000000000000     
   1.0937500000000000        9.3750000000000000E-002   0.0000000000000000     
   1.1250000000000000        9.3750000000000000E-002   0.0000000000000000     
   1.0000000000000000       0.12500000000000000        0.0000000000000000     
   1.0312500000000000       0.12500000000000000        0.0000000000000000     
   1.0625000000000000       0.12500000000000000        0.0000000000000000     
   1.0937500000000000       0.12500000000000000        0.0000000000000000     
   1.1250000000000000       0.12500000000000000        0.0000000000000000     
   1.1250000000000000        0.0000000000000000        0.0000000000000000     
   1.1562500000000000        0.0000000000000000        0.0000000000000000     
   1.1875000000000000        0.0000000000000000        0.0000000000000000     
   1.2187500000000000        0.0000000000000000        0.0000000000000000     
   1.2500000000000000        0.0000000000000000        0.0000000000000000     
   1.1250000000000000        3.1250000000000000E-002   0.0000000000000000     
   1.1562500000000000        3.1250000000000000E-002   0.0000000000000000     
   1.1875000000000000        3.1250000000000000E-002   0.0000000000000000     
   1.2187500000000000        3.1250000000000000E-002   0.0000000000000000     
   1.2500000000000000        3.1250000000000000E-002   0.0000000000000000     
   1.1250000000000000        6.2500000000000000E-002   0.0000000000000000     
   1.1562500000000000        6.2500000000000000E-002   0.0000000000000000     
   1.1875000000000000        6.2500000000000000E-002   0.0000000000000000     
   1.2187500000000000        6.2500000000000000E-002   0.0000000000000000     
   1.2500000000000000        6.2500000000000000E-002   0.0000000000000000     
   1.1250000000000000        9.3750000000000000E-002   0.0000000000000000     
   1.1562500000000000        9.3750000000000000E-002   0.0000000000000000     
   1.1875000000000000        9.3750000000000000E-002   0.0000000000000000     
   1.2187500000000000        9.3750000000000000E-002   0.0000000000000000     
   1.2500000000000000        9.3750000000000000E-002   0.0000000000000000     
   1.1250000000000000       0.12500000000000000        0.0000000000000000     
   1.1562500000000000       0.12500000000000000        0.0000000000000000     
   1.1875000000000000       0.12500000000000000        0.0000000000000000     
   1.2187500000000000       0.12500000000000000        0.0000000000000000     
   1.2500000000000000       0.12500000000000000        0.0000000000000000     
   1.2500000000000000        0.0000000000000000        0.0000000000000000     
   1.2812500000000000        0.0000000000000000        0.0000000000000000     
   1.3125000000000000        0.0000000000000000        0.0000000000000000     
   1.3437500000000000        0.0000000000000000        0.0000000000000000     
   1.3750000000000000        0.0000000000000000        0.0000000000000000     
   1.2500000000000000        3.1250000000000000E-002   0.0000000000000000     
   1.2812500000000000        3.1250000000000000E-002   0.0000000000000000     
   1.3125000000000000        3.1250000000000000E-002   0.0000000000000000     
   1.3437500000000000        3.1250000000000000E-002   0.0000000000000000     
   1.3750000000000000        3.1250000000000000E-002   0.0000000000000000     
   1.2500000000000000        6.2500000000000000E-002   0.0000000000000000     
   1.2812500000000000        6.2500000000000000E-002   0.0000000000000000     
   1.3125000000000000        6.2500000000000000E-002   0.0000000000000000     
   1.3437500000000000        6.2500000000000000E-002   0.0000000000000000     
   1.3750000000000000        6.2500000000000000E-002   0.0000000000000000     
   1.2500000000000000        9.3750000000000000E-002   0.0000000000000000     
   1.2812500000000000        9.3750000000000000E-002   0.0000000000000000     
   1.3125000000000000        9.3750000000000000E-002   0.0000000000000000     
   1.3437500000000000        9.3750000000000000E-002   0.0000000000000000     
   1.3750000000000000        9.3750000000000000E-002   0.0000000000000000     
   1.2500000000000000       0.12500000000000000        0.0000000000000000     
   1.2812500000000000       0.12500000000000000        0.0000000000000000     
   1.3125000000000000       0.12500000000000000        0.0000000000000000     
   1.3437500000000000       0.12500000000000000        0.0000000000000000     
   1.3750000000000000       0.12500000000000000        0.0000000000000000     
   1.3750000000000000        0.0000000000000000        0.0000000000000000     
   1.4062500000000000        0.0000000000000000        0.0000000000000000     
   1.4375000000000000        0.0000000000000000        0.0000000000000000     
   1.4687500000000000        0.0000000000000000        0.0000000000000000     
   1.5000000000000000        0.0000000000000000        0.0000000000000000     
   1.3750000000000000        3.1250000000000000E-002   0.0000000000000000     
   1.4062500000000000        3.1250000000000000E-002   0.0000000000000000     
   1.4375000000000000        3.1250000000000000E-002   0.0000000000000000     
   1.4687500000000000        3.1250000000000000E-002   0.0000000000000000     
   1.5000000000000000        3.1250000000000000E-002   0.0000000000000000     
   1.3750000000000000        6.2500000000000000E-002   0.0000000000000000     
   1.4062500000000000        6.2500000000000000E-002   0.0000000000000000     
   1.4375000000000000        6.2500000000000000E-002   0.0000000000000000     
   1.4687500000000000        6.2500000000000000E-002   0.0000000000000000     
   1.5000000000000000        6.2500000000000000E-002   0.0000000000000000     
   1.3750000000000000        9.3750000000000000E-002   0.0000000000000000     
   1.4062500000000000        9.3750000000000000E-002   0.0000000000000000     
   1.4375000000000000        9.3750000000000000E-002   0.0000000000000000     
   1.4687500000000000        9.3750000000000000E-002   0.0000000000000000     
   1.5000000000000000        9.3750000000000000E-002   0.0000000000000000     
   1.3750000000000000       0.12500000000000000        0.0000000000000000     
   1.4062500000000000       0.12500000000000000        0.0000000000000000     
   1.4375000000000000       0.12500000000000000        0.0000000000000000     
   1.4687500000000000       0.12500000000000000        0.0000000000000000     
   1.5000000000000000       0.12500000000000000        0.0000000000000000     
  0.50000000000000000       0.12500000000000000        0.0000000000000000     
  0.53125000000000000       0.12500000000000000        0.0000000000000000     
  0.56250000000000000       0.12500000000000000        0.0000000000000000     
  0.59375000000000000       0.12500000000000000        0.0000000000000000     
  0.62500000000000000       0.12500000000000000        0.0000000000000000     
  0.50000000000000000       0.15625000000000000        0.0000000000000000     
  0.53125000000000000       0.15625000000000000        0.0000000000000000     
  0.56250000000000000       0.15625000000000000        0.0000000000000000     
  0.59375000000000000       0.15625000000000000        0.0000000000000000     
  0.62500000000000000       0.15625000000000000        0.0000000000000000     
  0.50000000000000000       0.18750000000000000        0.0000000000000000     
  0.53125000000000000       0.18750000000000000        0.0000000000000000     
  0.56250000000000000       0.18750000000000000        0.0000000000000000     
  0.59375000000000000       0.18750000000000000        0.0000000000000000     
  0.62500000000000000       0.18750000000000000        0.0000000000000000     
  0.50000000000000000       0.21875000000000000        0.0000000000000000     
  0.53125000000000000       0.21875000000000000        0.0000000000000000     
  0.56250000000000000       0.21875000000000000        0.0000000000000000     
  0.59375000000000000       0.21875000000000000        0.0000000000000000     
  0.62500000000000000       0.21875000000000000        0.0000000000000000     
  0.50000000000000000       0.25000000000000000        0.0000000000000000     
  0.53125000000000000       0.25000000000000000        0.0000000000000000     
  0.56250000000000000       0.25000000000000000        0.0000000000000000     
  0.59375000000000000       0.25000000000000000        0.0000000000000000     
  0.62500000000000000       0.25000000000000000        0.0000000000000000     
  0.62500000000000000       0.12500000000000000        0.0000000000000000     
  0.65625000000000000       0.12500000000000000        0.0000000000000000     
  0.68750000000000000       0.12500000000000000        0.0000000000000000     
  0.71875000000000000       0.12500000000000000        0.0000000000000000     
  0.75000000000000000       0.12500000000000000        0.0000000000000000     
  0.62500000000000000       0.15625000000000000        0.0000000000000000     
  0.65625000000000000       0.15625000000000000        0.0000000000000000     
  0.68750000000000000       0.15625000000000000        0.0000000000000000     
  0.71875000000000000       0.15625000000000000        0.0000000000000000     
  0.75000000000000000       0.15625000000000000        0.0000000000000000     
  0.62500000000000000       0.18750000000000000        0.0000000000000000     
  0.65625000000000000       0.18750000000000000        0.0000000000000000     
  0.68750000000000000       0.18750000000000000        0.0000000000000000     
  0.71875000000000000       0.18750000000000000        0.0000000000000000     
  0.75000000000000000       0.18750000000000000        0.0000000000000000     
  0.62500000000000000       0.21875000000000000        0.0000000000000000     
  0.65625000000000000       0.21875000000000000        0.0000000000000000     
  0.68750000000000000       0.21875000000000000        0.0000000000000000     
  0.71875000000000000       0.21875000000000000        0.0000000000000000     
  0.75000000000000000       0.21875000000000000        0.0000000000000000     
  0.62500000000000000       0.25000000000000000        0.0000000000000000     
  0.65625000000000000       0.25000000000000000        0.0000000000000000     
  0.68750000000000000       0.25000000000000000        0.0000000000000000     
  0.71875000000000000       0.25000000000000000        0.0000000000000000     
  0.75000000000000000       0.25000000000000000        0.0000000000000000     
  0.75000000000000000       0.12500000000000000        0.0000000000000000     
  0.78125000000000000       0.12500000000000000        0.0000000000000000     
  0.81250000000000000       0.12500000000000000        0.0000000000000000     
  0.84375000000000000       0.12500000000000000        0.0000000000000000     
  0.87500000000000000       0.12500000000000000        0.0000000000000000     
  0.75000000000000000       0.15625000000000000        0.0000000000000000     
  0.78125000000000000       0.15625000000000000        0.0000000000000000     
  0.81250000000000000       0.15625000000000000        0.0000000000000000     
  0.84375000000000000       0.15625000000000000        0.0000000000000000     
  0.87500000000000000       0.15625000000000000        0.0000000000000000     
  0.75000000000000000       0.18750000000000000        0.0000000000000000     
  0.78125000000000000       0.18750000000000000        0.0000000000000000     
  0.81250000000000000       0.18750000000000000        0.0000000000000000     
  0.84375000000000000       0.18750000000000000        0.0000000000000000     
  0.87500000000000000       0.18750000000000000        0.0000000000000000     
  0.75000000000000000       0.21875000000000000        0.0000000000000000     
  0.78125000000000000       0.21875000000000000        0.0000000000000000     
  0.81250000000000000       0.21875000000000000        0.0000000000000000     
  0.84375000000000000       0.21875000000000000        0.0000000000000000     
  0.87500000000000000       0.21875000000000000        0.0000000000000000     
  0.75000000000000000       0.25000000000000000        0.0000000000000000     
  0.78125000000000000       0.25000000000000000        0.0000000000000000     
  0.81250000000000000       0.25000000000000000        0.0000000000000000     
  0.84375000000000000       0.25000000000000000        0.0000000000000000     
  0.87500000000000000       0.25000000000000000        0.0000000000000000     
  0.87500000000000000       0.12500000000000000        0.0000000000000000     
  0.90625000000000000       0.12500000000000000        0.0000000000000000     
  0.93750000000000000       0.12500000000000000        0.0000000000000000     
  0.96875000000000000       0.12500000000000000        0.0000000000000000     
   1.0000000000000000       0.12500000000000000        0.0000000000000000     
  0.87500000000000000       0.15625000000000000        0.0000000000000000     
  0.90625000000000000       0.15625000000000000        0.0000000000000000     
  0.93750000000000000       0.15625000000000000        0.0000000000000000     
  0.96875000000000000       0.15625000000000000        0.0000000000000000     
   1.0000000000000000       0.15625000000000000        0.0000000000000000     
  0.87500000000000000       0.18750000000000000        0.0000000000000000     
  0.90625000000000000       0.18750000000000000        0.0000000000000000     
  0.93750000000000000       0.18750000000000000        0.0000000000000000     
  0.96875000000000000       0.18750000000000000        0.0000000000000000     
   1.0000000000000000       0.18750000000000000        0.0000000000000000     
  0.87500000000000000       0.21875000000000000        0.0000000000000000     
  0.90625000000000000       0.21875000000000000        0.0000000000000000     
  0.93750000000000000       0.21875000000000000        0.0000000000000000     
  0.96875000000000000       0.21875000000000000        0.0000000000000000     
   1.0000000000000000       0.21875000000000000        0.0000000000000000     
  0.87500000000000000       0.25000000000000000        0.0000000000000000     
  0.90625000000000000       0.25000000000000000        0.0000000000000000     
  0.93750000000000000       0.25000000000000000        0.0000000000000000     
  0.96875000000000000       0.25000000000000000        0.0000000000000000     
   1.0000000000000000       0.25000000000000000        0.0000000000000000     
   1.0000000000000000       0.12500000000000000        0.0000000000000000     
   1.0312500000000000       0.12500000000000000        0.0000000000000000     
   1.0625000000000000       0.12500000000000000        0.0000000000000000     
   1.0937500000000000       0.12500000000000000        0.0000000000000000     
   1.1250000000000000       0.12500000000000000        0.0000000000000000     
   1.0000000000000000       0.15625000000000000        0.0000000000000000     
   1.0312500000000000       0.15625000000000000        0.0000000000000000     
   1.0625000000000000       0.15625000000000000        0.0000000000000000     
   1.0937500000000000       0.15625000000000000        0.0000000000000000     
   1.1250000000000000       0.15625000000000000        0.0000000000000000     
   1.0000000000000000       0.18750000000000000        0.0000000000000000     
   1.0312500000000000       0.18750000000000000        0.0000000000000000     
   1.0625000000000000       0.18750000000000000        0.0000000000000000     
   1.0937500000000000       0.18750000000000000        0.0000000000000000     
   1.1250000000000000       0.18750000000000000        0.0000000000000000     
   1.0000000000000000       0.21875000000000000        0.0000000000000000     
   1.0312500000000000       0.21875000000000000        0.0000000000000000     
   1.0625000000000000       0.21875000000000000        0.0000000000000000     
   1.0937500000000000       0.21875000000000000        0.0000000000000000     
   1.1250000000000000       0.21875000000000000        0.0000000000000000     
   1.0000000000000000       0.25000000000000000        0.0000000000000000     
   1.0312500000000000       0.25000000000000000        0.0000000000000000     
   1.0625000000000000       0.25000000000000000        0.0000000000000000     
   1.0937500000000000       0.25000000000000000        0.0000000000000000     
   1.1250000000000000       0.25000000000000000        0.0000000000000000     
   1.1250000000000000       0.12500000000000000        0.0000000000000000     
   1.1562500000000000       0.12500000000000000        0.0000000000000000     
   1.1875000000000000       0.12500000000000000        0.0000000000000000     
   1.2187500000000000       0.12500000000000000        0.0000000000000000     
   1.2500000000000000       0.12500000000000000        0.0000000000000000     
   1.1250000000000000       0.15625000000000000        0.0000000000000000     
   1.1562500000000000       0.15625000000000000        0.0000000000000000     
   1.1875000000000000       0.15625000000000000        0.0000000000000000     
   1.2187500000000000       0.15625000000000000        0.0000000000000000     
   1.2500000000000000       0.15625000000000000        0.0000000000000000     
   1.1250000000000000       0.18750000000000000        0.0000000000000000     
   1.1562500000000000       0.18750000000000000        0.0000000000000000     
   1.1875000000000000       0.18750000000000000        0.0000000000000000     
   1.2187500000000000       0.18750000000000000        0.0000000000000000     
   1.2500000000000000       0.18750000000000000        0.0000000000000000     
   1.1250000000000000       0.21875000000000000        0.0000000000000000     
   1.1562500000000000       0.21875000000000000        0.0000000000000000     
   1.1875000000000000       0.21875000000000000        0.0000000000000000     
   1.2187500000000000       0.21875000000000000        0.0000000000000000     
   1.2500000000000000       0.21875000000000000        0.0000000000000000     
   1.1250000000000000       0.25000000000000000        0.0000000000000000     
   1.1562500000000000       0.25000000000000000        0.0000000000000000     
   1.1875000000000000       0.25000000000000000        0.0000000000000000     
   1.2187500000000000       0.25000000000000000        0.0000000000000000     
   1.2500000000000000       0.25000000000000000        0.0000000000000000     
   1.2500000000000000       0.12500000000000000        0.0000000000000000     
   1.2812500000000000       0.12500000000000000        0.0000000000000000     
   1.3125000000000000       0.12500000000000000        0.0000000000000000     
   1.3437500000000000       0.12500000000000000        0.0000000000000000     
   1.3750000000000000       0.12500000000000000        0.0000000000000000     
   1.2500000000000000       0.15625000000000000        0.0000000000000000     
   1.2812500000000000       0.15625000000000000        0.0000000000000000     
   1.3125000000000000       0.15625000000000000        0.0000000000000000     
   1.3437500000000000       0.15625000000000000        0.0000000000000000     
   1.3750000000000000       0.15625000000000000        0.0000000000000000     
   1.2500000000000000       0.18750000000000000        0.0000000000000000     
   1.2812500000000000       0.18750000000000000        0.0000000000000000     
   1.3125000000000000       0.18750000000000000        0.0000000000000000     
   1.3437500000000000       0.18750000000000000        0.0000000000000000     
   1.3750000000000000       0.18750000000000000        0.0000000000000000     
   1.2500000000000000       0.21875000000000000        0.0000000000000000     
   1.2812500000000000       0.21875000000000000        0.0000000000000000     
   1.3125000000000000       0.21875000000000000        0.0000000000000000     
   1.3437500000000000       0.21875000000000000        0.0000000000000000     
   1.3750000000000000       0.21875000000000000        0.0000000000000000     
   1.2500000000000000       0.25000000000000000        0.0000000000000000     
   1.2812500000000000       0.25000000000000000        0.0000000000000000     
   1.3125000000000000       0.25000000000000000        0.0000000000000000     
   1.3437500000000000       0.25000000000000000        0.0000000000000000     
   1.3750000000000000       0.25000000000000000        0.0000000000000000     
   1.3750000000000000       0.12500000000000000        0.0000000000000000     
   1.4062500000000000       0.12500000000000000        0.0000000000000000     
   1.4375000000000000       0.12500000000000000        0.0000000000000000     
   1.4687500000000000       0.12500000000000000        0.0000000000000000     
   1.5000000000000000       0.12500000000000000        0.0000000000000000     
   1.3750000000000000       0.15625000000000000        0.0000000000000000     
   1.4062500000000000       0.15625000000000000        0.0000000000000000     
   1.4375000000000000       0.15625000000000000        0.0000000000000000     
   1.4687500000000000       0.15625000000000000        0.0000000000000000     
   1.5000000000000000       0.15625000000000000        0.0000000000000000     
   1.3750000000000000       0.18750000000000000        0.0000000000000000     
   1.4062500000000000       0.18750000000000000        0.0000000000000000     
   1.4375000000000000       0.18750000000000000        0.0000000000000000     
   1.4687500000000000       0.18750000000000000        0.0000000000000000     
   1.5000000000000000       0.18750000000000000        0.0000000000000000     
   1.3750000000000000       0.21875000000000000        0.0000000000000000     
   1.4062500000000000       0.21875000000000000        0.0000000000000000     
   1.4375000000000000       0.21875000000000000        0.0000000000000000     
   1.4687500000000000       0.21875000000000000        0.0000000000000000     
   1.5000000000000000       0.21875000000000000        0.0000000000000000     
   1.3750000000000000       0.25000000000000000        0.0000000000000000     
   1.4062500000000000       0.25000000000000000        0.0000000000000000     
   1.4375000000000000       0.25000000000000000        0.0000000000000000     
   1.4687500000000000       0.25000000000000000        0.0000000000000000     
   1.5000000000000000       0.25000000000000000        0.0000000000000000     
  0.50000000000000000       0.25000000000000000        0.0000000000000000     
  0.53125000000000000       0.25000000000000000        0.0000000000000000     
  0.56250000000000000       0.25000000000000000        0.0000000000000000     
  0.59375000000000000       0.25000000000000000        0.0000000000000000     
  0.62500000000000000       0.25000000000000000        0.0000000000000000     
  0.50000000000000000       0.28125000000000000        0.0000000000000000     
  0.53125000000000000       0.28125000000000000        0.0000000000000000     
  0.56250000000000000       0.28125000000000000        0.0000000000000000     
  0.59375000000000000       0.28125000000000000        0.0000000000000000     
  0.62500000000000000       0.28125000000000000        0.0000000000000000     
  0.50000000000000000       0.31250000000000000        0.0000000000000000     
  0.53125000000000000       0.31250000000000000        0.0000000000000000     
  0.56250000000000000       0.31250000000000000        0.0000000000000000     
  0.59375000000000000       0.31250000000000000        0.0000000000000000     
  0.62500000000000000       0.31250000000000000        0.0000000000000000     
  0.50000000000000000       0.34375000000000000        0.0000000000000000     
  0.53125000000000000       0.34375000000000000        0.0000000000000000     
  0.56250000000000000       0.34375000000000000        0.0000000000000000     
  0.59375000000000000       0.34375000000000000        0.0000000000000000     
  0.62500000000000000       0.34375000000000000        0.0000000000000000     
  0.50000000000000000       0.37500000000000000        0.0000000000000000     
  0.53125000000000000       0.37500000000000000        0.0000000000000000     
  0.56250000000000000       0.37500000000000000        0.0000000000000000     
  0.59375000000000000       0.37500000000000000        0.0000000000000000     
  0.62500000000000000       0.37500000000000000        0.0000000000000000     
  0.62500000000000000       0.25000000000000000        0.0000000000000000     
  0.65625000000000000       0.25000000000000000        0.0000000000000000     
  0.68750000000000000       0.25000000000000000        0.0000000000000000     
  0.71875000000000000       0.25000000000000000        0.0000000000000000     
  0.75000000000000000       0.25000000000000000        0.0000000000000000     
  0.62500000000000000       0.28125000000000000        0.0000000000000000     
  0.65625000000000000       0.28125000000000000        0.0000000000000000     
  0.68750000000000000       0.28125000000000000        0.0000000000000000     
  0.71875000000000000       0.28125000000000000        0.0000000000000000     
  0.75000000000000000       0.28125000000000000        0.0000000000000000     
  0.62500000000000000       0.31250000000000000        0.0000000000000000     
  0.65625000000000000       0.31250000000000000        0.0000000000000000     
  0.68750000000000000       0.31250000000000000        0.0000000000000000     
  0.71875000000000000       0.31250000000000000        0.0000000000000000     
  0.75000000000000000       0.31250000000000000        0.0000000000000000     
  0.62500000000000000       0.34375000000000000        0.0000000000000000     
  0.65625000000000000       0.34375000000000000        0.0000000000000000     
  0.68750000000000000       0.34375000000000000        0.0000000000000000     
  0.71875000000000000       0.34375000000000000        0.0000000000000000     
  0.75000000000000000       0.34375000000000000        0.0000000000000000     
  0.62500000000000000       0.37500000000000000        0.0000000000000000     
  0.65625000000000000       0.37500000000000000        0.0000000000000000     
  0.68750000000000000       0.37500000000000000        0.0000000000000000     
  0.71875000000000000       0.37500000000000000        0.0000000000000000     
  0.75000000000000000       0.37500000000000000        0.0000000000000000     
  0.75000000000000000       0.25000000000000000        0.0000000000000000     
  0.78125000000000000       0.25000000000000000        0.0000000000000000     
  0.81250000000000000       0.25000000000000000        0.0000000000000000     
  0.84375000000000000       0.25000000000000000        0.0000000000000000     
  0.87500000000000000       0.25000000000000000        0.0000000000000000     
  0.75000000000000000       0.28125000000000000        0.0000000000000000     
  0.78125000000000000       0.28125000000000000        0.0000000000000000     
  0.81250000000000000       0.28125000000000000        0.0000000000000000     
  0.84375000000000000       0.28125000000000000        0.0000000000000000     
  0.87500000000000000       0.28125000000000000        0.0000000000000000     
  0.75000000000000000       0.31250000000000000        0.0000000000000000     
  0.78125000000000000       0.31250000000000000        0.0000000000000000     
  0.81250000000000000       0.31250000000000000        0.0000000000000000     
  0.84375000000000000       0.31250000000000000        0.0000000000000000     
  0.87500000000000000       0.31250000000000000        0.0000000000000000     
  0.75000000000000000       0.34375000000000000        0.0000000000000000     
  0.78125000000000000       0.34375000000000000        0.0000000000000000     
  0.81250000000000000       0.34375000000000000        0.0000000000000000     
  0.84375000000000000       0.34375000000000000        0.0000000000000000     
  0.87500000000000000       0.34375000000000000        0.0000000000000000     
  0.75000000000000000       0.37500000000000000        0.0000000000000000     
  0.78125000000000000       0.37500000000000000        0.0000000000000000     
  0.81250000000000000       0.37500000000000000        0.0000000000000000     
  0.84375000000000000       0.37500000000000000        0.0000000000000000     
  0.87500000000000000       0.37500000000000000        0.0000000000000000     
  0.87500000000000000       0.25000000000000000        0.0000000000000000     
  0.90625000000000000       0.25000000000000000        0.0000000000000000     
  0.93750000000000000       0.25000000000000000        0.0000000000000000     
  0.96875000000000000       0.25000000000000000        0.0000000000000000     
   1.0000000000000000       0.25000000000000000        0.0000000000000000     
  0.87500000000000000       0.28125000000000000        0.0000000000000000     
  0.90625000000000000       0.28125000000000000        0.0000000000000000     
  0.93750000000000000       0.28125000000000000        0.0000000000000000     
  0.96875000000000000       0.28125000000000000        0.0000000000000000     
   1.0000000000000000       0.28125000000000000        0.0000000000000000     
  0.87500000000000000       0.31250000000000000        0.0000000000000000     
  0.90625000000000000       0.31250000000000000        0.0000000000000000     
  0.93750000000000000       0.31250000000000000        0.0000000000000000     
  0.96875000000000000       0.31250000000000000        0.0000000000000000     
   1.0000000000000000       0.31250000000000000        0.0000000000000000     
  0.87500000000000000       0.34375000000000000        0.0000000000000000     
  0.90625000000000000       0.34375000000000000        0.0000000000000000     
  0.93750000000000000       0.34375000000000000        0.0000000000000000     
  0.96875000000000000       0.34375000000000000        0.0000000000000000     
   1.0000000000000000       0.34375000000000000        0.0000000000000000     
  0.87500000000000000       0.37500000000000000        0.0000000000000000     
  0.90625000000000000       0.37500000000000000        0.0000000000000000     
  0.93750000000000000       0.37500000000000000        0.0000000000000000     
  0.96875000000000000       0.37500000000000000        0.0000000000000000     
   1.0000000000000000       0.37500000000000000        0.0000000000000000     
   1.0000000000000000       0.25000000000000000        0.0000000000000000     
   1.0312500000000000       0.25000000000000000        0.0000000000000000     
   1.0625000000000000       0.25000000000000000        0.0000000000000000     
   1.0937500000000000       0.25000000000000000        0.0000000000000000     
   1.1250000000000000       0.25000000000000000        0.0000000000000000     
   1.0000000000000000       0.28125000000000000        0.0000000000000000     
   1.0312500000000000       0.28125000000000000        0.0000000000000000     
   1.0625000000000000       0.28125000000000000        0.0000000000000000     
   1.0937500000000000       0.28125000000000000        0.0000000000000000     
   1.1250000000000000       0.28125000000000000        0.0000000000000000     
   1.0000000000000000       0.31250000000000000        0.0000000000000000     
   1.0312500000000000       0.31250000000000000        0.0000000000000000     
   1.0625000000000000       0.31250000000000000        0.0000000000000000     
   1.0937500000000000       0.31250000000000000        0.0000000000000000     
   1.1250000000000000       0.31250000000000000        0.0000000000000000     
   1.0000000000000000       0.34375000000000000        0.0000000000000000     
   1.0312500000000000       0.34375000000000000        0.0000000000000000     
   1.0625000000000000       0.34375000000000000        0.0000000000000000     
   1.0937500000000000       0.34375000000000000        0.0000000000000000     
   1.1250000000000000       0.34375000000000000        0.0000000000000000     
   1.0000000000000000       0.37500000000000000        0.0000000000000000     
   1.0312500000000000       0.37500000000000000        0.0000000000000000     
   1.0625000000000000       0.37500000000000000        0.0000000000000000     
   1.0937500000000000       0.37500000000000000        0.0000000000000000     
   1.1250000000000000       0.37500000000000000        0.0000000000000000     
   1.1250000000000000       0.25000000000000000        0.0000000000000000     
   1.1562500000000000       0.25000000000000000        0.0000000000000000     
   1.1875000000000000       0.25000000000000000        0.0000000000000000     
   1.2187500000000000       0.25000000000000000        0.0000000000000000     
   1.2500000000000000       0.25000000000000000        0.0000000000000000     
   1.1250000000000000       0.28125000000000000        0.0000000000000000     
   1.1562500000000000       0.28125000000000000        0.0000000000000000     
   1.1875000000000000       0.28125000000000000        0.0000000000000000     
   1.2187500000000000       0.28125000000000000        0.0000000000000000     
   1.2500000000000000       0.28125000000000000        0.0000000000000000     
   1.1250000000000000       0.31250000000000000        0.0000000000000000     
   1.1562500000000000       0.31250000000000000        0.0000000000000000     
   1.1875000000000000       0.31250000000000000        0.0000000000000000     
   1.2187500000000000       0.31250000000000000        0.0000000000000000     
   1.2500000000000000       0.31250000000000000        0.0000000000000000     
   1.1250000000000000       0.34375000000000000        0.0000000000000000     
   1.1562500000000000       0.34375000000000000        0.0000000000000000     
   1.1875000000000000       0.34375000000000000        0.0000000000000000     
   1.2187500000000000       0.34375000000000000        0.0000000000000000     
   1.2500000000000000       0.34375000000000000        0.0000000000000000     
   1.1250000000000000       0.37500000000000000        0.0000000000000000     
   1.1562500000000000       0.37500000000000000        0.0000000000000000     
   1.1875000000000000       0.37500000000000000        0.0000000000000000     
   1.2187500000000000       0.37500000000000000        0.0000000000000000     
   1.2500000000000000       0.37500000000000000        0.0000000000000000     
   1.2500000000000000       0.25000000000000000        0.0000000000000000     
   1.2812500000000000       0.25000000000000000        0.0000000000000000     
   1.3125000000000000       0.25000000000000000        0.0000000000000000     
   1.3437500000000000       0.25000000000000000        0.0000000000000000     
   1.3750000000000000       0.25000000000000000        0.0000000000000000     
   1.2500000000000000       0.28125000000000000        0.0000000000000000     
   1.2812500000000000       0.28125000000000000        0.0000000000000000     
   1.3125000000000000       0.28125000000000000        0.0000000000000000     
   1.3437500000000000       0.28125000000000000        0.0000000000000000     
   1.3750000000000000       0.28125000000000000        0.0000000000000000     
   1.2500000000000000       0.31250000000000000        0.0000000000000000     
   1.2812500000000000       0.31250000000000000        0.0000000000000000     
   1.3125000000000000       0.31250000000000000        0.0000000000000000     
   1.3437500000000000       0.31250000000000000        0.0000000000000000     
   1.3750000000000000       0.31250000000000000        0.0000000000000000     
   1.2500000000000000       0.34375000000000000        0.0000000000000000     
   1.2812500000000000       0.34375000000000000        0.0000000000000000     
   1.3125000000000000       0.34375000000000000        0.0000000000000000     
   1.3437500000000000       0.34375000000000000        0.0000000000000000     
   1.3750000000000000       0.34375000000000000        0.0000000000000000     
   1.2500000000000000       0.37500000000000000        0.0000000000000000     
   1.2812500000000000       0.37500000000000000        0.0000000000000000     
   1.3125000000000000       0.37500000000000000        0.0000000000000000     
   1.3437500000000000       0.37500000000000000        0.0000000000000000     
   1.3750000000000000       0.37500000000000000        0.0000000000000000     
   1.3750000000000000       0.25000000000000000        0.0000000000000000     
   1.4062500000000000       0.25000000000000000        0.0000000000000000     
   1.4375000000000000       0.25000000000000000        0.0000000000000000     
   1.4687500000000000       0.25000000000000000        0.0000000000000000     
   1.5000000000000000       0.25000000000000000        0.0000000000000000     
   1.3750000000000000       0.28125000000000000        0.0000000000000000     
   1.4062500000000000       0.28125000000000000        0.0000000000000000     
   1.4375000000000000       0.28125000000000000        0.0000000000000000     
   1.4687500000000000       0.28125000000000000        0.0000000000000000     
   1.5000000000000000       0.28125000000000000        0.0000000000000000     
   1.3750000000000000       0.31250000000000000        0.0000000000000000     
   1.4062500000000000       0.31250000000000000        0.0000000000000000     
   1.4375000000000000       0.31250000000000000        0.0000000000000000     
   1.4687500000000000       0.31250000000000000        0.0000000000000000     
   1.5000000000000000       0.31250000000000000        0.0000000000000000     
   1.3750000000000000       0.34375000000000000        0.0000000000000000     
   1.4062500000000000       0.34375000000000000        0.0000000000000000     
   1.4375000000000000       0.34375000000000000        0.0000000000000000     
   1.4687500000000000       0.34375000000000000        0.0000000000000000     
   1.5000000000000000       0.34375000000000000        0.0000000000000000     
   1.3750000000000000       0.37500000000000000        0.0000000000000000     
   1.4062500000000000       0.37500000000000000        0.0000000000000000     
   1.4375000000000000       0.37500000000000000        0.0000000000000000     
   1.4687500000000000       0.37500000000000000        0.0000000000000000     
   1.5000000000000000       0.37500000000000000        0.0000000000000000     
  0.50000000000000000       0.37500000000000000        0.0000000000000000     
  0.53125000000000000       0.37500000000000000        0.0000000000000000     
  0.56250000000000000       0.37500000000000000        0.0000000000000000     
  0.59375000000000000       0.37500000000000000        0.0000000000000000     
  0.62500000000000000       0.37500000000000000        0.0000000000000000     
  0.50000000000000000       0.40625000000000000        0.0000000000000000     
  0.53125000000000000       0.40625000000000000        0.0000000000000000     
  0.56250000000000000       0.40625000000000000        0.0000000000000000     
  0.59375000000000000       0.40625000000000000        0.0000000000000000     
  0.62500000000000000       0.40625000000000000        0.0000000000000000     
  0.50000000000000000       0.43750000000000000        0.0000000000000000     
  0.53125000000000000       0.43750000000000000        0.0000000000000000     
  0.56250000000000000       0.43750000000000000        0.0000000000000000     
  0.59375000000000000       0.43750000000000000        0.0000000000000000     
  0.62500000000000000       0.43750000000000000        0.0000000000000000     
  0.50000000000000000       0.46875000000000000        0.0000000000000000     
  0.53125000000000000       0.46875000000000000        0.0000000000000000     
  0.56250000000000000       0.46875000000000000        0.0000000000000000     
  0.59375000000000000       0.46875000000000000        0.0000000000000000     
  0.62500000000000000       0.46875000000000000        0.0000000000000000     
  0.50000000000000000       0.50000000000000000        0.0000000000000000     
  0.53125000000000000       0.50000000000000000        0.0000000000000000     
  0.56250000000000000       0.50000000000000000        0.0000000000000000     
  0.59375000000000000       0.50000000000000000        0.0000000000000000     
  0.62500000000000000       0.50000000000000000        0.0000000000000000     
  0.62500000000000000       0.37500000000000000        0.0000000000000000     
  0.65625000000000000       0.37500000000000000        0.0000000000000000     
  0.68750000000000000       0.37500000000000000        0.0000000000000000     
  0.71875000000000000       0.37500000000000000        0.0000000000000000     
  0.75000000000000000       0.37500000000000000        0.0000000000000000     
  0.62500000000000000       0.40625000000000000        0.0000000000000000     
  0.65625000000000000       0.40625000000000000        0.0000000000000000     
  0.68750000000000000       0.40625000000000000        0.0000000000000000     
  0.71875000000000000       0.40625000000000000        0.0000000000000000     
  0.75000000000000000       0.40625000000000000        0.0000000000000000     
  0.62500000000000000       0.43750000000000000        0.0000000000000000     
  0.65625000000000000       0.43750000000000000        0.0000000000000000     
  0.68750000000000000       0.43750000000000000        0.0000000000000000     
  0.71875000000000000       0.43750000000000000        0.0000000000000000     
  0.75000000000000000       0.43750000000000000        0.0000000000000000     
  0.62500000000000000       0.46875000000000000        0.0000000000000000     
  0.65625000000000000       0.46875000000000000        0.0000000000000000     
  0.68750000000000000       0.46875000000000000        0.0000000000000000     
  0.71875000000000000       0.46875000000000000        0.0000000000000000     
  0.75000000000000000       0.46875000000000000        0.0000000000000000     
  0.62500000000000000       0.50000000000000000        0.0000000000000000     
  0.65625000000000000       0.50000000000000000        0.0000000000000000     
  0.68750000000000000       0.50000000000000000        0.0000000000000000     
  0.71875000000000000       0.50000000000000000        0.0000000000000000     
  0.75000000000000000       0.50000000000000000        0.0000000000000000     
  0.75000000000000000       0.37500000000000000        0.0000000000000000     
  0.78125000000000000       0.37500000000000000        0.0000000000000000     
  0.81250000000000000       0.37500000000000000        0.0000000000000000     
  0.84375000000000000       0.37500000000000000        0.0000000000000000     
  0.87500000000000000       0.37500000000000000        0.0000000000000000     
  0.75000000000000000       0.40625000000000000        0.0000000000000000     
  0.78125000000000000       0.40625000000000000        0.0000000000000000     
  0.81250000000000000       0.40625000000000000        0.0000000000000000     
  0.84375000000000000       0.40625000000000000        0.0000000000000000     
  0.87500000000000000       0.40625000000000000        0.0000000000000000     
  0.75000000000000000       0.43750000000000000        0.0000000000000000     
  0.78125000000000000       0.43750000000000000        0.0000000000000000     
  0.81250000000000000       0.43750000000000000        0.0000000000000000     
  0.84375000000000000       0.43750000000000000        0.0000000000000000     
  0.87500000000000000       0.43750000000000000        0.0000000000000000     
  0.75000000000000000       0.46875000000000000        0.0000000000000000     
  0.78125000000000000       0.46875000000000000        0.0000000000000000     
  0.81250000000000000       0.46875000000000000        0.0000000000000000     
  0.84375000000000000       0.46875000000000000        0.0000000000000000     
  0.87500000000000000       0.46875000000000000        0.0000000000000000     
  0.75000000000000000       0.50000000000000000        0.0000000000000000     
  0.78125000000000000       0.50000000000000000        0.0000000000000000     
  0.81250000000000000       0.50000000000000000        0.0000000000000000     
  0.84375000000000000       0.50000000000000000        0.0000000000000000     
  0.87500000000000000       0.50000000000000000        0.0000000000000000     
  0.87500000000000000       0.37500000000000000        0.0000000000000000     
  0.90625000000000000       0.37500000000000000        0.0000000000000000     
  0.93750000000000000       0.37500000000000000        0.0000000000000000     
  0.96875000000000000       0.37500000000000000        0.0000000000000000     
   1.0000000000000000       0.37500000000000000        0.0000000000000000     
  0.87500000000000000       0.40625000000000000        0.0000000000000000     
  0.90625000000000000       0.40625000000000000        0.0000000000000000     
  0.93750000000000000       0.40625000000000000        0.0000000000000000     
  0.96875000000000000       0.40625000000000000        0.0000000000000000     
   1.0000000000000000       0.40625000000000000        0.0000000000000000     
  0.87500000000000000       0.43750000000000000        0.0000000000000000     
  0.90625000000000000       0.43750000000000000        0.0000000000000000     
  0.93750000000000000       0.43750000000000000        0.0000000000000000     
  0.96875000000000000       0.43750000000000000        0.0000000000000000     
   1.0000000000000000       0.43750000000000000        0.0000000000000000     
  0.87500000000000000       0.46875000000000000        0.0000000000000000     
  0.90625000000000000       0.46875000000000000        0.0000000000000000     
  0.93750000000000000       0.46875000000000000        0.0000000000000000     
  0.96875000000000000       0.46875000000000000        0.0000000000000000     
   1.0000000000000000       0.46875000000000000        0.0000000000000000     
  0.87500000000000000       0.50000000000000000        0.0000000000000000     
  0.90625000000000000       0.50000000000000000        0.0000000000000000     
  0.93750000000000000       0.50000000000000000        0.0000000000000000     
  0.96875000000000000       0.50000000000000000        0.0000000000000000     
   1.0000000000000000       0.50000000000000000        0.0000000000000000     
   1.0000000000000000       0.37500000000000000        0.0000000000000000     
   1.0312500000000000       0.37500000000000000        0.0000000000000000     
   1.0625000000000000       0.37500000000000000        0.0000000000000000     
   1.0937500000000000       0.37500000000000000        0.0000000000000000     
   1.1250000000000000       0.37500000000000000        0.0000000000000000     
   1.0000000000000000       0.40625000000000000        0.0000000000000000     
   1.0312500000000000       0.40625000000000000        0.0000000000000000     
   1.0625000000000000       0.40625000000000000        0.0000000000000000     
   1.0937500000000000       0.40625000000000000        0.0000000000000000     
   1.1250000000000000       0.40625000000000000        0.0000000000000000     
   1.0000000000000000       0.43750000000000000        0.0000000000000000     
   1.0312500000000000       0.43750000000000000        0.0000000000000000     
   1.0625000000000000       0.43750000000000000        0.0000000000000000     
   1.0937500000000000       0.43750000000000000        0.0000000000000000     
   1.1250000000000000       0.43750000000000000        0.0000000000000000     
   1.0000000000000000       0.46875000000000000        0.0000000000000000     
   1.0312500000000000       0.46875000000000000        0.0000000000000000     
   1.0625000000000000       0.46875000000000000        0.0000000000000000     
   1.0937500000000000       0.46875000000000000        0.0000000000000000     
   1.1250000000000000       0.46875000000000000        0.0000000000000000     
   1.0000000000000000       0.50000000000000000        0.0000000000000000     
   1.0312500000000000       0.50000000000000000        0.0000000000000000     
   1.0625000000000000       0.50000000000000000        0.0000000000000000     
   1.0937500000000000       0.50000000000000000        0.0000000000000000     
   1.1250000000000000       0.50000000000000000        0.0000000000000000     
   1.1250000000000000       0.37500000000000000        0.0000000000000000     
   1.1562500000000000       0.37500000000000000        0.0000000000000000     
   1.1875000000000000       0.37500000000000000        0.0000000000000000     
   1.2187500000000000       0.37500000000000000        0.0000000000000000     
   1.2500000000000000       0.37500000000000000        0.0000000000000000     
   1.1250000000000000       0.40625000000000000        0.0000000000000000     
   1.1562500000000000       0.40625000000000000        0.0000000000000000     
   1.1875000000000000       0.40625000000000000        0.0000000000000000     
   1.2187500000000000       0.40625000000000000        0.0000000000000000     
   1.2500000000000000       0.40625000000000000        0.0000000000000000     
   1.1250000000000000       0.43750000000000000        0.0000000000000000     
   1.1562500000000000       0.43750000000000000        0.0000000000000000     
   1.1875000000000000       0.43750000000000000        0.0000000000000000     
   1.2187500000000000       0.43750000000000000        0.0000000000000000     
   1.2500000000000000       0.43750000000000000        0.0000000000000000     
   1.1250000000000000       0.46875000000000000        0.0000000000000000     
   1.1562500000000000       0.46875000000000000        0.0000000000000000     
   1.1875000000000000       0.46875000000000000        0.0000000000000000     
   1.2187500000000000       0.46875000000000000        0.0000000000000000     
   1.2500000000000000       0.46875000000000000        0.0000000000000000     
   1.1250000000000000       0.50000000000000000        0.0000000000000000     
   1.1562500000000000       0.50000000000000000        0.0000000000000000     
   1.1875000000000000       0.50000000000000000        0.0000000000000000     
   1.2187500000000000       0.50000000000000000        0.0000000000000000     
   1.2500000000000000       0.50000000000000000        0.0000000000000000     
   1.2500000000000000       0.37500000000000000        0.0000000000000000     
   1.2812500000000000       0.37500000000000000        0.0000000000000000     
   1.3125000000000000       0.37500000000000000        0.0000000000000000     
   1.3437500000000000       0.37500000000000000        0.0000000000000000     
   1.3750000000000000       0.37500000000000000        0.0000000000000000     
   1.2500000000000000       0.40625000000000000        0.0000000000000000     
   1.2812500000000000       0.40625000000000000        0.0000000000000000     
   1.3125000000000000       0.40625000000000000        0.0000000000000000     
   1.3437500000000000       0.40625000000000000        0.0000000000000000     
   1.3750000000000000       0.40625000000000000        0.0000000000000000     
   1.2500000000000000       0.43750000000000000        0.0000000000000000     
   1.2812500000000000       0.43750000000000000        0.0000000000000000     
   1.3125000000000000       0.43750000000000000        0.0000000000000000     
   1.3437500000000000       0.43750000000000000        0.0000000000000000     
   1.3750000000000000       0.43750000000000000        0.0000000000000000     
   1.2500000000000000       0.46875000000000000        0.0000000000000000     
   1.2812500000000000       0.46875000000000000        0.0000000000000000     
   1.3125000000000000       0.46875000000000000        0.0000000000000000     
   1.3437500000000000       0.46875000000000000        0.0000000000000000     
   1.3750000000000000       0.46875000000000000        0.0000000000000000     
   1.2500000000000000       0.50000000000000000        0.0000000000000000     
   1.2812500000000000       0.50000000000000000        0.0000000000000000     
   1.3125000000000000       0.50000000000000000        0.0000000000000000     
   1.3437500000000000       0.50000000000000000        0.0000000000000000     
   1.3750000000000000       0.50000000000000000        0.0000000000000000     
   1.3750000000000000       0.37500000000000000        0.0000000000000000     
   1.4062500000000000       0.37500000000000000        0.0000000000000000     
   1.4375000000000000       0.37500000000000000        0.0000000000000000     
   1.4687500000000000       0.37500000000000000        0.0000000000000000     
   1.5000000000000000       0.37500000000000000        0.0000000000000000     
   1.3750000000000000       0.40625000000000000        0.0000000000000000     
   1.4062500000000000       0.40625000000000000        0.0000000000000000     
   1.4375000000000000       0.40625000000000000        0.0000000000000000     
   1.4687500000000000       0.40625000000000000        0.0000000000000000     
   1.5000000000000000       0.40625000000000000        0.0000000000000000     
   1.3750000000000000       0.43750000000000000        0.0000000000000000     
   1.4062500000000000       0.43750000000000000        0.0000000000000000     
   1.4375000000000000       0.43750000000000000        0.0000000000000000     
   1.4687500000000000       0.43750000000000000        0.0000000000000000     
   1.5000000000000000       0.43750000000000000        0.0000000000000000     
   1.3750000000000000       0.46875000000000000        0.0000000000000000     
   1.4062500000000000       0.46875000000000000        0.0000000000000000     
   1.4375000000000000       0.46875000000000000        0.0000000000000000     
   1.4687500000000000       0.46875000000000000        0.0000000000000000     
   1.5000000000000000       0.46875000000000000        0.0000000000000000     
   1.3750000000000000       0.50000000000000000        0.0000000000000000     
   1.4062500000000000       0.50000000000000000        0.0000000000000000     
   1.4375000000000000       0.50000000000000000        0.0000000000000000     
   1.4687500000000000       0.50000000000000000        0.0000000000000000     
   1.5000000000000000       0.50000000000000000        0.0000000000000000     
  0.50000000000000000       0.50000000000000000        0.0000000000000000     
  0.53125000000000000       0.50000000000000000        0.0000000000000000     
  0.56250000000000000       0.50000000000000000        0.0000000000000000     
  0.59375000000000000       0.50000000000000000        0.0000000000000000     
  0.62500000000000000       0.50000000000000000        0.0000000000000000     
  0.50000000000000000       0.53125000000000000        0.0000000000000000     
  0.53125000000000000       0.53125000000000000        0.0000000000000000     
  0.56250000000000000       0.53125000000000000        0.0000000000000000     
  0.59375000000000000       0.53125000000000000        0.0000000000000000     
  0.62500000000000000       0.53125000000000000        0.0000000000000000     
  0.50000000000000000       0.56250000000000000        0.0000000000000000     
  0.53125000000000000       0.56250000000000000        0.0000000000000000     
  0.56250000000000000       0.56250000000000000        0.0000000000000000     
  0.59375000000000000       0.56250000000000000        0.0000000000000000     
  0.62500000000000000       0.56250000000000000        0.0000000000000000     
  0.50000000000000000       0.59375000000000000        0.0000000000000000     
  0.53125000000000000       0.59375000000000000        0.0000000000000000     
  0.56250000000000000       0.59375000000000000        0.0000000000000000     
  0.59375000000000000       0.59375000000000000        0.0000000000000000     
  0.62500000000000000       0.59375000000000000        0.0000000000000000     
  0.50000000000000000       0.62500000000000000        0.0000000000000000     
  0.53125000000000000       0.62500000000000000        0.0000000000000000     
  0.56250000000000000       0.62500000000000000        0.0000000000000000     
  0.59375000000000000       0.62500000000000000        0.0000000000000000     
  0.62500000000000000       0.62500000000000000        0.0000000000000000     
  0.62500000000000000       0.50000000000000000        0.0000000000000000     
  0.65625000000000000       0.50000000000000000        0.0000000000000000     
  0.68750000000000000       0.50000000000000000        0.0000000000000000     
  0.71875000000000000       0.50000000000000000        0.0000000000000000     
  0.75000000000000000       0.50000000000000000        0.0000000000000000     
  0.62500000000000000       0.53125000000000000        0.0000000000000000     
  0.65625000000000000       0.53125000000000000        0.0000000000000000     
  0.68750000000000000       0.53125000000000000        0.0000000000000000     
  0.71875000000000000       0.53125000000000000        0.0000000000000000     
  0.75000000000000000       0.53125000000000000        0.0000000000000000     
  0.62500000000000000       0.56250000000000000        0.0000000000000000     
  0.65625000000000000       0.56250000000000000        0.0000000000000000     
  0.68750000000000000       0.56250000000000000        0.0000000000000000     
  0.71875000000000000       0.56250000000000000        0.0000000000000000     
  0.75000000000000000       0.56250000000000000        0.0000000000000000     
  0.62500000000000000       0.59375000000000000        0.0000000000000000     
  0.65625000000000000       0.59375000000000000        0.0000000000000000     
  0.68750000000000000       0.59375000000000000        0.0000000000000000     
  0.71875000000000000       0.59375000000000000        0.0000000000000000     
  0.75000000000000000       0.59375000000000000        0.0000000000000000     
  0.62500000000000000       0.62500000000000000        0.0000000000000000     
  0.65625000000000000       0.62500000000000000        0.0000000000000000     
  0.68750000000000000       0.62500000000000000        0.0000000000000000     
  0.71875000000000000       0.62500000000000000        0.0000000000000000     
  0.75000000000000000       0.62500000000000000        0.0000000000000000     
  0.75000000000000000       0.50000000000000000        0.0000000000000000     
  0.78125000000000000       0.50000000000000000        0.0000000000000000     
  0.81250000000000000       0.50000000000000000        0.0000000000000000     
  0.84375000000000000       0.50000000000000000        0.0000000000000000     
  0.87500000000000000       0.50000000000000000        0.0000000000000000     
  0.75000000000000000       0.53125000000000000        0.0000000000000000     
  0.78125000000000000       0.53125000000000000        0.0000000000000000     
  0.81250000000000000       0.53125000000000000        0.0000000000000000     
  0.84375000000000000       0.53125000000000000        0.0000000000000000     
  0.87500000000000000       0.53125000000000000        0.0000000000000000     
  0.75000000000000000       0.56250000000000000        0.0000000000000000     
  0.78125000000000000       0.56250000000000000        0.0000000000000000     
  0.81250000000000000       0.56250000000000000        0.0000000000000000     
  0.84375000000000000       0.56250000000000000        0.0000000000000000     
  0.87500000000000000       0.56250000000000000        0.0000000000000000     
  0.75000000000000000       0.59375000000000000        0.0000000000000000     
  0.78125000000000000       0.59375000000000000        0.0000000000000000     
  0.81250000000000000       0.59375000000000000        0.0000000000000000     
  0.84375000000000000       0.59375000000000000        0.0000000000000000     
  0.87500000000000000       0.59375000000000000        0.0000000000000000     
  0.75000000000000000       0.62500000000000000        0.0000000000000000     
  0.78125000000000000       0.62500000000000000        0.0000000000000000     
  0.81250000000000000       0.62500000000000000        0.0000000000000000     
  0.84375000000000000       0.62500000000000000        0.0000000000000000     
  0.87500000000000000       0.62500000000000000        0.0000000000000000     
  0.87500000000000000       0.50000000000000000        0.0000000000000000     
  0.90625000000000000       0.50000000000000000        0.0000000000000000     
  0.93750000000000000       0.50000000000000000        0.0000000000000000     
  0.96875000000000000       0.50000000000000000        0.0000000000000000     
   1.0000000000000000       0.50000000000000000        0.0000000000000000     
  0.87500000000000000       0.53125000000000000        0.0000000000000000     
  0.90625000000000000       0.53125000000000000        0.0000000000000000     
  0.93750000000000000       0.53125000000000000        0.0000000000000000     
  0.96875000000000000       0.53125000000000000        0.0000000000000000     
   1.0000000000000000       0.53125000000000000        0.0000000000000000     
  0.87500000000000000       0.56250000000000000        0.0000000000000000     
  0.90625000000000000       0.56250000000000000        0.0000000000000000     
  0.93750000000000000       0.56250000000000000        0.0000000000000000     
  0.96875000000000000       0.56250000000000000        0.0000000000000000     
   1.0000000000000000       0.56250000000000000        0.0000000000000000     
  0.87500000000000000       0.59375000000000000        0.0000000000000000     
  0.90625000000000000       0.59375000000000000        0.0000000000000000     
  0.93750000000000000       0.59375000000000000        0.0000000000000000     
  0.96875000000000000       0.59375000000000000        0.0000000000000000     
   1.0000000000000000       0.59375000000000000        0.0000000000000000     
  0.87500000000000000       0.62500000000000000        0.0000000000000000     
  0.90625000000000000       0.62500000000000000        0.0000000000000000     
  0.93750000000000000       0.62500000000000000        0.0000000000000000     
  0.96875000000000000       0.62500000000000000        0.0000000000000000     
   1.0000000000000000       0.62500000000000000        0.0000000000000000     
   1.0000000000000000       0.50000000000000000        0.0000000000000000     
   1.0312500000000000       0.50000000000000000        0.0000000000000000     
   1.0625000000000000       0.50000000000000000        0.0000000000000000     
   1.0937500000000000       0.50000000000000000        0.0000000000000000     
   1.1250000000000000       0.50000000000000000        0.0000000000000000     
   1.0000000000000000       0.53125000000000000        0.0000000000000000     
   1.0312500000000000       0.53125000000000000        0.0000000000000000     
   1.0625000000000000       0.53125000000000000        0.0000000000000000     
   1.0937500000000000       0.53125000000000000        0.0000000000000000     
   1.1250000000000000       0.53125000000000000        0.0000000000000000     
   1.0000000000000000       0.56250000000000000        0.0000000000000000     
   1.0312500000000000       0.56250000000000000        0.0000000000000000     
   1.0625000000000000       0.56250000000000000        0.0000000000000000     
   1.0937500000000000       0.56250000000000000        0.0000000000000000     
   1.1250000000000000       0.56250000000000000        0.0000000000000000     
   1.0000000000000000       0.59375000000000000        0.0000000000000000     
   1.0312500000000000       0.59375000000000000        0.0000000000000000     
   1.0625000000000000       0.59375000000000000        0.0000000000000000     
   1.0937500000000000       0.59375000000000000        0.0000000000000000     
   1.1250000000000000       0.59375000000000000        0.0000000000000000     
   1.0000000000000000       0.62500000000000000        0.0000000000000000     
   1.0312500000000000       0.62500000000000000        0.0000000000000000     
   1.0625000000000000       0.62500000000000000        0.0000000000000000     
   1.0937500000000000       0.62500000000000000        0.0000000000000000     
   1.1250000000000000       0.62500000000000000        0.0000000000000000     
   1.1250000000000000       0.50000000000000000        0.0000000000000000     
   1.1562500000000000       0.50000000000000000        0.0000000000000000     
   1.1875000000000000       0.50000000000000000        0.0000000000000000     
   1.2187500000000000       0.50000000000000000        0.0000000000000000     
   1.2500000000000000       0.50000000000000000        0.0000000000000000     
   1.1250000000000000       0.53125000000000000        0.0000000000000000     
   1.1562500000000000       0.53125000000000000        0.0000000000000000     
   1.1875000000000000       0.53125000000000000        0.0000000000000000     
   1.2187500000000000       0.53125000000000000        0.0000000000000000     
   1.2500000000000000       0.53125000000000000        0.0000000000000000     
   1.1250000000000000       0.56250000000000000        0.0000000000000000     
   1.1562500000000000       0.56250000000000000        0.0000000000000000     
   1.1875000000000000       0.56250000000000000        0.0000000000000000     
   1.2187500000000000       0.56250000000000000        0.0000000000000000     
   1.2500000000000000       0.56250000000000000        0.0000000000000000     
   1.1250000000000000       0.59375000000000000        0.0000000000000000     
   1.1562500000000000       0.59375000000000000        0.0000000000000000     
   1.1875000000000000       0.59375000000000000        0.0000000000000000     
   1.2187500000000000       0.59375000000000000        0.0000000000000000     
   1.2500000000000000       0.59375000000000000        0.0000000000000000     
   1.1250000000000000       0.62500000000000000        0.0000000000000000     
   1.1562500000000000       0.62500000000000000        0.0000000000000000     
   1.1875000000000000       0.62500000000000000        0.0000000000000000     
   1.2187500000000000       0.62500000000000000        0.0000000000000000     
   1.2500000000000000       0.62500000000000000        0.0000000000000000     
   1.2500000000000000       0.50000000000000000        0.0000000000000000     
   1.2812500000000000       0.50000000000000000        0.0000000000000000     
   1.3125000000000000       0.50000000000000000        0.0000000000000000     
   1.3437500000000000       0.50000000000000000        0.0000000000000000     
   1.3750000000000000       0.50000000000000000        0.0000000000000000     
   1.2500000000000000       0.53125000000000000        0.0000000000000000     
   1.2812500000000000       0.53125000000000000        0.0000000000000000     
   1.3125000000000000       0.53125000000000000        0.0000000000000000     
   1.3437500000000000       0.53125000000000000        0.0000000000000000     
   1.3750000000000000       0.53125000000000000        0.0000000000000000     
   1.2500000000000000       0.56250000000000000        0.0000000000000000     
   1.2812500000000000       0.56250000000000000        0.0000000000000000     
   1.3125000000000000       0.56250000000000000        0.0000000000000000     
   1.3437500000000000       0.56250000000000000        0.0000000000000000     
   1.3750000000000000       0.56250000000000000        0.0000000000000000     
   1.2500000000000000       0.59375000000000000        0.0000000000000000     
   1.2812500000000000       0.59375000000000000        0.0000000000000000     
   1.3125000000000000       0.59375000000000000        0.0000000000000000     
   1.3437500000000000       0.59375000000000000        0.0000000000000000     
   1.3750000000000000       0.59375000000000000        0.0000000000000000     
   1.2500000000000000       0.62500000000000000        0.0000000000000000     
   1.2812500000000000       0.62500000000000000        0.0000000000000000     
   1.3125000000000000       0.62500000000000000        0.0000000000000000     
   1.3437500000000000       0.62500000000000000        0.0000000000000000     
   1.3750000000000000       0.62500000000000000        0.0000000000000000     
   1.3750000000000000       0.50000000000000000        0.0000000000000000     
   1.4062500000000000       0.50000000000000000        0.0000000000000000     
   1.4375000000000000       0.50000000000000000        0.0000000000000000     
   1.4687500000000000       0.50000000000000000        0.0000000000000000     
   1.5000000000000000       0.50000000000000000        0.0000000000000000     
   1.3750000000000000       0.53125000000000000        0.0000000000000000     
   1.4062500000000000       0.53125000000000000        0.0000000000000000     
   1.4375000000000000       0.53125000000000000        0.0000000000000000     
   1.4687500000000000       0.53125000000000000        0.0000000000000000     
   1.5000000000000000       0.53125000000000000        0.0000000000000000     
   1.3750000000000000       0.56250000000000000        0.0000000000000000     
   1.4062500000000000       0.56250000000000000        0.0000000000000000     
   1.4375000000000000       0.56250000000000000        0.0000000000000000     
   1.4687500000000000       0.56250000000000000        0.0000000000000000     
   1.5000000000000000       0.56250000000000000        0.0000000000000000     
   1.3750000000000000       0.59375000000000000        0.0000000000000000     
   1.4062500000000000       0.59375000000000000        0.0000000000000000     
   1.4375000000000000       0.59375000000000000        0.0000000000000000     
   1.4687500000000000       0.59375000000000000        0.0000000000000000     
   1.5000000000000000       0.59375000000000000        0.0000000000000000     
   1.3750000000000000       0.62500000000000000        0.0000000000000000     
   1.4062500000000000       0.62500000000000000        0.0000000000000000     
   1.4375000000000000       0.62500000000000000        0.0000000000000000     
   1.4687500000000000       0.62500000000000000        0.0000000000000000     
   1.5000000000000000       0.62500000000000000        0.0000000000000000     
  0.50000000000000000       0.62500000000000000        0.0000000000000000     
  0.53125000000000000       0.62500000000000000        0.0000000000000000     
  0.56250000000000000       0.62500000000000000        0.0000000000000000     
  0.59375000000000000       0.62500000000000000        0.0000000000000000     
  0.62500000000000000       0.62500000000000000        0.0000000000000000     
  0.50000000000000000       0.65625000000000000        0.0000000000000000     
  0.53125000000000000       0.65625000000000000        0.0000000000000000     
  0.56250000000000000       0.65625000000000000        0.0000000000000000     
  0.59375000000000000       0.65625000000000000        0.0000000000000000     
  0.62500000000000000       0.65625000000000000        0.0000000000000000     
  0.50000000000000000       0.68750000000000000        0.0000000000000000     
  0.53125000000000000       0.68750000000000000        0.0000000000000000     
  0.56250000000000000       0.68750000000000000        0.0000000000000000     
  0.59375000000000000       0.68750000000000000        0.0000000000000000     
  0.62500000000000000       0.68750000000000000        0.0000000000000000     
  0.50000000000000000       0.71875000000000000        0.0000000000000000     
  0.53125000000000000       0.71875000000000000        0.0000000000000000     
  0.56250000000000000       0.71875000000000000        0.0000000000000000     
  0.59375000000000000       0.71875000000000000        0.0000000000000000     
  0.62500000000000000       0.71875000000000000        0.0000000000000000     
  0.50000000000000000       0.75000000000000000        0.0000000000000000     
  0.53125000000000000       0.75000000000000000        0.0000000000000000     
  0.56250000000000000       0.75000000000000000        0.0000000000000000     
  0.59375000000000000       0.75000000000000000        0.0000000000000000     
  0.62500000000000000       0.75000000000000000        0.0000000000000000     
  0.62500000000000000       0.62500000000000000        0.0000000000000000     
  0.65625000000000000       0.62500000000000000        0.0000000000000000     
  0.68750000000000000       0.62500000000000000        0.0000000000000000     
  0.71875000000000000       0.62500000000000000        0.0000000000000000     
  0.75000000000000000       0.62500000000000000        0.0000000000000000     
  0.62500000000000000       0.65625000000000000        0.0000000000000000     
  0.65625000000000000       0.65625000000000000        0.0000000000000000     
  0.68750000000000000       0.65625000000000000        0.0000000000000000     
  0.71875000000000000       0.65625000000000000        0.0000000000000000     
  0.75000000000000000       0.65625000000000000        0.0000000000000000     
  0.62500000000000000       0.68750000000000000        0.0000000000000000     
  0.65625000000000000       0.68750000000000000        0.0000000000000000     
  0.68750000000000000       0.68750000000000000        0.0000000000000000     
  0.71875000000000000       0.68750000000000000        0.0000000000000000     
  0.75000000000000000       0.68750000000000000        0.0000000000000000     
  0.62500000000000000       0.71875000000000000        0.0000000000000000     
  0.65625000000000000       0.71875000000000000        0.0000000000000000     
  0.68750000000000000       0.71875000000000000        0.0000000000000000     
  0.71875000000000000       0.71875000000000000        0.0000000000000000     
  0.75000000000000000       0.71875000000000000        0.0000000000000000     
  0.62500000000000000       0.75000000000000000        0.0000000000000000     
  0.65625000000000000       0.75000000000000000        0.0000000000000000     
  0.68750000000000000       0.75000000000000000        0.0000000000000000     
  0.71875000000000000       0.75000000000000000        0.0000000000000000     
  0.75000000000000000       0.75000000000000000        0.0000000000000000     
  0.75000000000000000       0.62500000000000000        0.0000000000000000     
  0.78125000000000000       0.62500000000000000        0.0000000000000000     
  0.81250000000000000       0.62500000000000000        0.0000000000000000     
  0.84375000000000000       0.62500000000000000        0.0000000000000000     
  0.87500000000000000       0.62500000000000000        0.0000000000000000     
  0.75000000000000000       0.65625000000000000        0.0000000000000000     
  0.78125000000000000       0.65625000000000000        0.0000000000000000     
  0.81250000000000000       0.65625000000000000        0.0000000000000000     
  0.84375000000000000       0.65625000000000000        0.0000000000000000     
  0.87500000000000000       0.65625000000000000        0.0000000000000000     
  0.75000000000000000       0.68750000000000000        0.0000000000000000     
  0.78125000000000000       0.68750000000000000        0.0000000000000000     
  0.81250000000000000       0.68750000000000000        0.0000000000000000     
  0.84375000000000000       0.68750000000000000        0.0000000000000000     
  0.87500000000000000       0.68750000000000000        0.0000000000000000     
  0.75000000000000000       0.71875000000000000        0.0000000000000000     
  0.78125000000000000       0.71875000000000000        0.0000000000000000     
  0.81250000000000000       0.71875000000000000        0.0000000000000000     
  0.84375000000000000       0.71875000000000000        0.0000000000000000     
  0.87500000000000000       0.71875000000000000        0.0000000000000000     
  0.75000000000000000       0.75000000000000000        0.0000000000000000     
  0.78125000000000000       0.75000000000000000        0.0000000000000000     
  0.81250000000000000       0.75000000000000000        0.0000000000000000     
  0.84375000000000000       0.75000000000000000        0.0000000000000000     
  0.87500000000000000       0.75000000000000000        0.0000000000000000     
  0.87500000000000000       0.62500000000000000        0.0000000000000000     
  0.90625000000000000       0.62500000000000000        0.0000000000000000     
  0.93750000000000000       0.62500000000000000        0.0000000000000000     
  0.96875000000000000       0.62500000000000000        0.0000000000000000     
   1.0000000000000000       0.62500000000000000        0.0000000000000000     
  0.87500000000000000       0.65625000000000000        0.0000000000000000     
  0.90625000000000000       0.65625000000000000        0.0000000000000000     
  0.93750000000000000       0.65625000000000000        0.0000000000000000     
  0.96875000000000000       0.65625000000000000        0.0000000000000000     
   1.0000000000000000       0.65625000000000000        0.0000000000000000     
  0.87500000000000000       0.68750000000000000        0.0000000000000000     
  0.90625000000000000       0.68750000000000000        0.0000000000000000     
  0.93750000000000000       0.68750000000000000        0.0000000000000000     
  0.96875000000000000       0.68750000000000000        0.0000000000000000     
   1.0000000000000000       0.68750000000000000        0.0000000000000000     
  0.87500000000000000       0.71875000000000000        0.0000000000000000     
  0.90625000000000000       0.71875000000000000        0.0000000000000000     
  0.93750000000000000       0.71875000000000000        0.0000000000000000     
  0.96875000000000000       0.71875000000000000        0.0000000000000000     
   1.0000000000000000       0.71875000000000000        0.0000000000000000     
  0.87500000000000000       0.75000000000000000        0.0000000000000000     
  0.90625000000000000       0.75000000000000000        0.0000000000000000     
  0.93750000000000000       0.75000000000000000        0.0000000000000000     
  0.96875000000000000       0.75000000000000000        0.0000000000000000     
   1.0000000000000000       0.75000000000000000        0.0000000000000000     
   1.0000000000000000       0.62500000000000000        0.0000000000000000     
   1.0312500000000000       0.62500000000000000        0.0000000000000000     
   1.0625000000000000       0.62500000000000000        0.0000000000000000     
   1.0937500000000000       0.62500000000000000        0.0000000000000000     
   1.1250000000000000       0.62500000000000000        0.0000000000000000     
   1.0000000000000000       0.65625000000000000        0.0000000000000000     
   1.0312500000000000       0.65625000000000000        0.0000000000000000     
   1.0625000000000000       0.65625000000000000        0.0000000000000000     
   1.0937500000000000       0.65625000000000000        0.0000000000000000     
   1.1250000000000000       0.65625000000000000        0.0000000000000000     
   1.0000000000000000       0.68750000000000000        0.0000000000000000     
   1.0312500000000000       0.68750000000000000        0.0000000000000000     
   1.0625000000000000       0.68750000000000000        0.0000000000000000     
   1.0937500000000000       0.68750000000000000        0.0000000000000000     
   1.1250000000000000       0.68750000000000000        0.0000000000000000     
   1.0000000000000000       0.71875000000000000        0.0000000000000000     
   1.0312500000000000       0.71875000000000000        0.0000000000000000     
   1.0625000000000000       0.71875000000000000        0.0000000000000000     
   1.0937500000000000       0.71875000000000000        0.0000000000000000     
   1.1250000000000000       0.71875000000000000        0.0000000000000000     
   1.0000000000000000       0.75000000000000000        0.0000000000000000     
   1.0312500000000000       0.75000000000000000        0.0000000000000000     
   1.0625000000000000       0.75000000000000000        0.0000000000000000     
   1.0937500000000000       0.75000000000000000        0.0000000000000000     
   1.1250000000000000       0.75000000000000000        0.0000000000000000     
   1.1250000000000000       0.62500000000000000        0.0000000000000000     
   1.1562500000000000       0.62500000000000000        0.0000000000000000     
   1.1875000000000000       0.62500000000000000        0.0000000000000000     
   1.2187500000000000       0.62500000000000000        0.0000000000000000     
   1.2500000000000000       0.62500000000000000        0.0000000000000000     
   1.1250000000000000       0.65625000000000000        0.0000000000000000     
   1.1562500000000000       0.65625000000000000        0.0000000000000000     
   1.1875000000000000       0.65625000000000000        0.0000000000000000     
   1.2187500000000000       0.65625000000000000        0.0000000000000000     
   1.2500000000000000       0.65625000000000000        0.0000000000000000     
   1.1250000000000000       0.68750000000000000        0.0000000000000000     
   1.1562500000000000       0.68750000000000000        0.0000000000000000     
   1.1875000000000000       0.68750000000000000        0.0000000000000000     
   1.2187500000000000       0.68750000000000000        0.0000000000000000     
   1.2500000000000000       0.68750000000000000        0.0000000000000000     
   1.1250000000000000       0.71875000000000000        0.0000000000000000     
   1.1562500000000000       0.71875000000000000        0.0000000000000000     
   1.1875000000000000       0.71875000000000000        0.0000000000000000     
   1.2187500000000000       0.71875000000000000        0.0000000000000000     
   1.2500000000000000       0.71875000000000000        0.0000000000000000     
   1.1250000000000000       0.75000000000000000        0.0000000000000000     
   1.1562500000000000       0.75000000000000000        0.0000000000000000     
   1.1875000000000000       0.75000000000000000        0.0000000000000000     
   1.2187500000000000       0.75000000000000000        0.0000000000000000     
   1.2500000000000000       0.75000000000000000        0.0000000000000000     
   1.2500000000000000       0.62500000000000000        0.0000000000000000     
   1.2812500000000000       0.62500000000000000        0.0000000000000000     
   1.3125000000000000       0.62500000000000000        0.0000000000000000     
   1.3437500000000000       0.62500000000000000        0.0000000000000000     
   1.3750000000000000       0.62500000000000000        0.0000000000000000     
   1.2500000000000000       0.65625000000000000        0.0000000000000000     
   1.2812500000000000       0.65625000000000000        0.0000000000000000     
   1.3125000000000000       0.65625000000000000        0.0000000000000000     
   1.3437500000000000       0.65625000000000000        0.0000000000000000     
   1.3750000000000000       0.65625000000000000        0.0000000000000000     
   1.2500000000000000       0.68750000000000000        0.0000000000000000     
   1.2812500000000000       0.68750000000000000        0.0000000000000000     
   1.3125000000000000       0.68750000000000000        0.0000000000000000     
   1.3437500000000000       0.68750000000000000        0.0000000000000000     
   1.3750000000000000       0.68750000000000000        0.0000000000000000     
   1.2500000000000000       0.71875000000000000        0.0000000000000000     
   1.2812500000000000       0.71875000000000000        0.0000000000000000     
   1.3125000000000000       0.71875000000000000        0.0000000000000000     
   1.3437500000000000       0.71875000000000000        0.0000000000000000     
   1.3750000000000000       0.71875000000000000        0.0000000000000000     
   1.2500000000000000       0.75000000000000000        0.0000000000000000     
   1.2812500000000000       0.75000000000000000        0.0000000000000000     
   1.3125000000000000       0.75000000000000000        0.0000000000000000     
   1.3437500000000000       0.75000000000000000        0.0000000000000000     
   1.3750000000000000       0.75000000000000000        0.0000000000000000     
   1.3750000000000000       0.62500000000000000        0.0000000000000000     
   1.4062500000000000       0.62500000000000000        0.0000000000000000     
   1.4375000000000000       0.62500000000000000        0.0000000000000000     
   1.4687500000000000       0.62500000000000000        0.0000000000000000     
   1.5000000000000000       0.62500000000000000        0.0000000000000000     
   1.3750000000000000       0.65625000000000000        0.0000000000000000     
   1.4062500000000000       0.65625000000000000        0.0000000000000000     
   1.4375000000000000       0.65625000000000000        0.0000000000000000     
   1.4687500000000000       0.65625000000000000        0.0000000000000000     
   1.5000000000000000       0.65625000000000000        0.0000000000000000     
   1.3750000000000000       0.68750000000000000        0.0000000000000000     
   1.4062500000000000       0.68750000000000000        0.0000000000000000     
   1.4375000000000000       0.68750000000000000        0.0000000000000000     
   1.4687500000000000       0.68750000000000000        0.0000000000000000     
   1.5000000000000000       0.68750000000000000        0.0000000000000000     
   1.3750000000000000       0.71875000000000000        0.0000000000000000     
   1.4062500000000000       0.71875000000000000        0.0000000000000000     
   1.4375000000000000       0.71875000000000000        0.0000000000000000     
   1.4687500000000000       0.71875000000000000        0.0000000000000000     
   1.5000000000000000       0.71875000000000000        0.0000000000000000     
   1.3750000000000000       0.75000000000000000        0.0000000000000000     
   1.4062500000000000       0.75000000000000000        0.0000000000000000     
   1.4375000000000000       0.75000000000000000        0.0000000000000000     
   1.4687500000000000       0.75000000000000000        0.0000000000000000     
   1.5000000000000000       0.75000000000000000        0.0000000000000000     
  0.50000000000000000       0.75000000000000000        0.0000000000000000     
  0.53125000000000000       0.75000000000000000        0.0000000000000000     
  0.56250000000000000       0.75000000000000000        0.0000000000000000     
  0.59375000000000000       0.75000000000000000        0.0000000000000000     
  0.62500000000000000       0.75000000000000000        0.0000000000000000     
  0.50000000000000000       0.78125000000000000        0.0000000000000000     
  0.53125000000000000       0.78125000000000000        0.0000000000000000     
  0.56250000000000000       0.78125000000000000        0.0000000000000000     
  0.59375000000000000       0.78125000000000000        0.0000000000000000     
  0.62500000000000000       0.78125000000000000        0.0000000000000000     
  0.50000000000000000       0.81250000000000000        0.0000000000000000     
  0.53125000000000000       0.81250000000000000        0.0000000000000000     
  0.56250000000000000       0.81250000000000000        0.0000000000000000     
  0.59375000000000000       0.81250000000000000        0.0000000000000000     
  0.62500000000000000       0.81250000000000000        0.0000000000000000     
  0.50000000000000000       0.84375000000000000        0.0000000000000000     
  0.53125000000000000       0.84375000000000000        0.0000000000000000     
  0.56250000000000000       0.84375000000000000        0.0000000000000000     
  0.59375000000000000       0.84375000000000000        0.0000000000000000     
  0.62500000000000000       0.84375000000000000        0.0000000000000000     
  0.50000000000000000       0.87500000000000000        0.0000000000000000     
  0.53125000000000000       0.87500000000000000        0.0000000000000000     
  0.56250000000000000       0.87500000000000000        0.0000000000000000     
  0.59375000000000000       0.87500000000000000        0.0000000000000000     
  0.62500000000000000       0.87500000000000000        0.0000000000000000     
  0.62500000000000000       0.75000000000000000        0.0000000000000000     
  0.65625000000000000       0.75000000000000000        0.0000000000000000     
  0.68750000000000000       0.75000000000000000        0.0000000000000000     
  0.71875000000000000       0.75000000000000000        0.0000000000000000     
  0.75000000000000000       0.75000000000000000        0.0000000000000000     
  0.62500000000000000       0.78125000000000000        0.0000000000000000     
  0.65625000000000000       0.78125000000000000        0.0000000000000000     
  0.68750000000000000       0.78125000000000000        0.0000000000000000     
  0.71875000000000000       0.78125000000000000        0.0000000000000000     
  0.75000000000000000       0.78125000000000000        0.0000000000000000     
  0.62500000000000000       0.81250000000000000        0.0000000000000000     
  0.65625000000000000       0.81250000000000000        0.0000000000000000     
  0.68750000000000000       0.81250000000000000        0.0000000000000000     
  0.71875000000000000       0.81250000000000000        0.0000000000000000     
  0.75000000000000000       0.81250000000000000        0.0000000000000000     
  0.62500000000000000       0.84375000000000000        0.0000000000000000     
  0.65625000000000000       0.84375000000000000        0.0000000000000000     
  0.68750000000000000       0.84375000000000000        0.0000000000000000     
  0.71875000000000000       0.84375000000000000        0.0000000000000000     
  0.75000000000000000       0.84375000000000000        0.0000000000000000     
  0.62500000000000000       0.87500000000000000        0.0000000000000000     
  0.65625000000000000       0.87500000000000000        0.0000000000000000     
  0.68750000000000000       0.87500000000000000        0.0000000000000000     
  0.71875000000000000       0.87500000000000000        0.0000000000000000     
  0.75000000000000000       0.87500000000000000        0.0000000000000000     
  0.75000000000000000       0.75000000000000000        0.0000000000000000     
  0.78125000000000000       0.75000000000000000        0.0000000000000000     
  0.81250000000000000       0.75000000000000000        0.0000000000000000     
  0.84375000000000000       0.75000000000000000        0.0000000000000000     
  0.87500000000000000       0.75000000000000000        0.0000000000000000     
  0.75000000000000000       0.78125000000000000        0.0000000000000000     
  0.78125000000000000       0.78125000000000000        0.0000000000000000     
  0.81250000000000000       0.78125000000000000        0.0000000000000000     
  0.84375000000000000       0.78125000000000000        0.0000000000000000     
  0.87500000000000000       0.78125000000000000        0.0000000000000000     
  0.75000000000000000       0.81250000000000000        0.0000000000000000     
  0.78125000000000000       0.81250000000000000        0.0000000000000000     
  0.81250000000000000       0.81250000000000000        0.0000000000000000     
  0.84375000000000000       0.81250000000000000        0.0000000000000000     
  0.87500000000000000       0.81250000000000000        0.0000000000000000     
  0.75000000000000000       0.84375000000000000        0.0000000000000000     
  0.78125000000000000       0.84375000000000000        0.0000000000000000     
  0.81250000000000000       0.84375000000000000        0.0000000000000000     
  0.84375000000000000       0.84375000000000000        0.0000000000000000     
  0.87500000000000000       0.84375000000000000        0.0000000000000000     
  0.75000000000000000       0.87500000000000000        0.0000000000000000     
  0.78125000000000000       0.87500000000000000        0.0000000000000000     
  0.81250000000000000       0.87500000000000000        0.0000000000000000     
  0.84375000000000000       0.87500000000000000        0.0000000000000000     
  0.87500000000000000       0.87500000000000000        0.0000000000000000     
  0.87500000000000000       0.75000000000000000        0.0000000000000000     
  0.90625000000000000       0.75000000000000000        0.0000000000000000     
  0.93750000000000000       0.75000000000000000        0.0000000000000000     
  0.96875000000000000       0.75000000000000000        0.0000000000000000     
   1.0000000000000000       0.75000000000000000        0.0000000000000000     
  0.87500000000000000       0.78125000000000000        0.0000000000000000     
  0.90625000000000000       0.78125000000000000        0.0000000000000000     
  0.93750000000000000       0.78125000000000000        0.0000000000000000     
  0.96875000000000000       0.78125000000000000        0.0000000000000000     
   1.0000000000000000       0.78125000000000000        0.0000000000000000     
  0.87500000000000000       0.81250000000000000        0.0000000000000000     
  0.90625000000000000       0.81250000000000000        0.0000000000000000     
  0.93750000000000000       0.81250000000000000        0.0000000000000000     
  0.96875000000000000       0.81250000000000000        0.0000000000000000     
   1.0000000000000000       0.81250000000000000        0.0000000000000000     
  0.87500000000000000       0.84375000000000000        0.0000000000000000     
  0.90625000000000000       0.84375000000000000        0.0000000000000000     
  0.93750000000000000       0.84375000000000000        0.0000000000000000     
  0.96875000000000000       0.84375000000000000        0.0000000000000000     
   1.0000000000000000       0.84375000000000000        0.0000000000000000     
  0.87500000000000000       0.87500000000000000        0.0000000000000000     
  0.90625000000000000       0.87500000000000000        0.0000000000000000     
  0.93750000000000000       0.87500000000000000        0.0000000000000000     
  0.96875000000000000       0.87500000000000000        0.0000000000000000     
   1.0000000000000000       0.87500000000000000        0.0000000000000000     
   1.0000000000000000       0.75000000000000000        0.0000000000000000     
   1.0312500000000000       0.75000000000000000        0.0000000000000000     
   1.0625000000000000       0.75000000000000000        0.0000000000000000     
   1.0937500000000000       0.75000000000000000        0.0000000000000000     
   1.1250000000000000       0.75000000000000000        0.0000000000000000     
   1.0000000000000000       0.78125000000000000        0.0000000000000000     
   1.0312500000000000       0.78125000000000000        0.0000000000000000     
   1.0625000000000000       0.78125000000000000        0.0000000000000000     
   1.0937500000000000       0.78125000000000000        0.0000000000000000     
   1.1250000000000000       0.78125000000000000        0.0000000000000000     
   1.0000000000000000       0.81250000000000000        0.0000000000000000     
   1.0312500000000000       0.81250000000000000        0.0000000000000000     
   1.0625000000000000       0.81250000000000000        0.0000000000000000     
   1.0937500000000000       0.81250000000000000        0.0000000000000000     
   1.1250000000000000       0.81250000000000000        0.0000000000000000     
   1.0000000000000000       0.84375000000000000        0.0000000000000000     
   1.0312500000000000       0.84375000000000000        0.0000000000000000     
   1.0625000000000000       0.84375000000000000        0.0000000000000000     
   1.0937500000000000       0.84375000000000000        0.0000000000000000     
   1.1250000000000000       0.84375000000000000        0.0000000000000000     
   1.0000000000000000       0.87500000000000000        0.0000000000000000     
   1.0312500000000000       0.87500000000000000        0.0000000000000000     
   1.0625000000000000       0.87500000000000000        0.0000000000000000     
   1.0937500000000000       0.87500000000000000        0.0000000000000000     
   1.1250000000000000       0.87500000000000000        0.0000000000000000     
   1.1250000000000000       0.75000000000000000        0.0000000000000000     
   1.1562500000000000       0.75000000000000000        0.0000000000000000     
   1.1875000000000000       0.75000000000000000        0.0000000000000000     
   1.2187500000000000       0.75000000000000000        0.0000000000000000     
   1.2500000000000000       0.75000000000000000        0.0000000000000000     
   1.1250000000000000       0.78125000000000000        0.0000000000000000     
   1.1562500000000000       0.78125000000000000        0.0000000000000000     
   1.1875000000000000       0.78125000000000000        0.0000000000000000     
   1.2187500000000000       0.78125000000000000        0.0000000000000000     
   1.2500000000000000       0.78125000000000000        0.0000000000000000     
   1.1250000000000000       0.81250000000000000        0.0000000000000000     
   1.1562500000000000       0.81250000000000000        0.0000000000000000     
   1.1875000000000000       0.81250000000000000        0.0000000000000000     
   1.2187500000000000       0.81250000000000000        0.0000000000000000     
   1.2500000000000000       0.81250000000000000        0.0000000000000000     
   1.1250000000000000       0.84375000000000000        0.0000000000000000     
   1.1562500000000000       0.84375000000000000        0.0000000000000000     
   1.1875000000000000       0.84375000000000000        0.0000000000000000     
   1.2187500000000000       0.84375000000000000        0.0000000000000000     
   1.2500000000000000       0.84375000000000000        0.0000000000000000     
   1.1250000000000000       0.87500000000000000        0.0000000000000000     
   1.1562500000000000       0.87500000000000000        0.0000000000000000     
   1.1875000000000000       0.87500000000000000        0.0000000000000000     
   1.2187500000000000       0.87500000000000000        0.0000000000000000     
   1.2500000000000000       0.87500000000000000        0.0000000000000000     
   1.2500000000000000       0.75000000000000000        0.0000000000000000     
   1.2812500000000000       0.75000000000000000        0.0000000000000000     
   1.3125000000000000       0.75000000000000000        0.0000000000000000     
   1.3437500000000000       0.75000000000000000        0.0000000000000000     
   1.3750000000000000       0.75000000000000000        0.0000000000000000     
   1.2500000000000000       0.78125000000000000        0.0000000000000000     
   1.2812500000000000       0.78125000000000000        0.0000000000000000     
   1.3125000000000000       0.78125000000000000        0.0000000000000000     
   1.3437500000000000       0.78125000000000000        0.0000000000000000     
   1.3750000000000000       0.78125000000000000        0.0000000000000000     
   1.2500000000000000       0.81250000000000000        0.0000000000000000     
   1.2812500000000000       0.81250000000000000        0.0000000000000000     
   1.3125000000000000       0.81250000000000000        0.0000000000000000     
   1.3437500000000000       0.81250000000000000        0.0000000000000000     
   1.3750000000000000       0.81250000000000000        0.0000000000000000     
   1.2500000000000000       0.84375000000000000        0.0000000000000000     
   1.2812500000000000       0.84375000000000000        0.0000000000000000     
   1.3125000000000000       0.84375000000000000        0.0000000000000000     
   1.3437500000000000       0.84375000000000000        0.0000000000000000     
   1.3750000000000000       0.84375000000000000        0.0000000000000000     
   1.2500000000000000       0.87500000000000000        0.0000000000000000     
   1.2812500000000000       0.87500000000000000        0.0000000000000000     
   1.3125000000000000       0.87500000000000000        0.0000000000000000     
   1.3437500000000000       0.87500000000000000        0.0000000000000000     
   1.3750000000000000       0.87500000000000000        0.0000000000000000     
   1.3750000000000000       0.75000000000000000        0.0000000000000000     
   1.4062500000000000       0.75000000000000000        0.0000000000000000     
   1.4375000000000000       0.75000000000000000        0.0000000000000000     
   1.4687500000000000       0.75000000000000000        0.0000000000000000     
   1.5000000000000000       0.75000000000000000        0.0000000000000000     
   1.3750000000000000       0.78125000000000000        0.0000000000000000     
   1.4062500000000000       0.78125000000000000        0.0000000000000000     
   1.4375000000000000       0.78125000000000000        0.0000000000000000     
   1.4687500000000000       0.78125000000000000        0.0000000000000000     
   1.5000000000000000       0.78125000000000000        0.0000000000000000     
   1.3750000000000000       0.81250000000000000        0.0000000000000000     
   1.4062500000000000       0.81250000000000000        0.0000000000000000     
   1.4375000000000000       0.81250000000000000        0.0000000000000000     
   1.4687500000000000       0.81250000000000000        0.0000000000000000     
   1.5000000000000000       0.81250000000000000        0.0000000000000000     
   1.3750000000000000       0.84375000000000000        0.0000000000000000     
   1.4062500000000000       0.84375000000000000        0.0000000000000000     
   1.4375000000000000       0.84375000000000000        0.0000000000000000     
   1.4687500000000000       0.84375000000000000        0.0000000000000000     
   1.5000000000000000       0.84375000000000000        0.0000000000000000     
   1.3750000000000000       0.87500000000000000        0.0000000000000000     
   1.4062500000000000       0.87500000000000000        0.0000000000000000     
   1.4375000000000000       0.87500000000000000        0.0000000000000000     
   1.4687500000000000       0.87500000000000000        0.0000000000000000     
   1.5000000000000000       0.87500000000000000        0.0000000000000000     
  0.50000000000000000       0.87500000000000000        0.0000000000000000     
  0.53125000000000000       0.87500000000000000        0.0000000000000000     
  0.56250000000000000       0.87500000000000000        0.0000000000000000     
  0.59375000000000000       0.87500000000000000        0.0000000000000000     
  0.62500000000000000       0.87500000000000000        0.0000000000000000     
  0.50000000000000000       0.90625000000000000        0.0000000000000000     
  0.53125000000000000       0.90625000000000000        0.0000000000000000     
  0.56250000000000000       0.90625000000000000        0.0000000000000000     
  0.59375000000000000       0.90625000000000000        0.0000000000000000     
  0.62500000000000000       0.90625000000000000        0.0000000000000000     
  0.50000000000000000       0.93750000000000000        0.0000000000000000     
  0.53125000000000000       0.93750000000000000        0.0000000000000000     
  0.56250000000000000       0.93750000000000000        0.0000000000000000     
  0.59375000000000000       0.93750000000000000        0.0000000000000000     
  0.62500000000000000       0.93750000000000000        0.0000000000000000     
  0.50000000000000000       0.96875000000000000        0.0000000000000000     
  0.53125000000000000       0.96875000000000000        0.0000000000000000     
  0.56250000000000000       0.96875000000000000        0.0000000000000000     
  0.59375000000000000       0.96875000000000000        0.0000000000000000     
  0.62500000000000000       0.96875000000000000        0.0000000000000000     
  0.50000000000000000        1.0000000000000000        0.0000000000000000     
  0.53125000000000000        1.0000000000000000        0.0000000000000000     
  0.56250000000000000        1.0000000000000000        0.0000000000000000     
  0.59375000000000000        1.0000000000000000        0.0000000000000000     
  0.62500000000000000        1.0000000000000000        0.0000000000000000     
  0.62500000000000000       0.87500000000000000        0.0000000000000000     
  0.65625000000000000       0.87500000000000000        0.0000000000000000     
  0.68750000000000000       0.87500000000000000        0.0000000000000000     
  0.71875000000000000       0.87500000000000000        0.0000000000000000     
  0.75000000000000000       0.87500000000000000        0.0000000000000000     
  0.62500000000000000       0.90625000000000000        0.0000000000000000     
  0.65625000000000000       0.90625000000000000        0.0000000000000000     
  0.68750000000000000       0.90625000000000000        0.0000000000000000     
  0.71875000000000000       0.90625000000000000        0.0000000000000000     
  0.75000000000000000       0.90625000000000000        0.0000000000000000     
  0.62500000000000000       0.93750000000000000        0.0000000000000000     
  0.65625000000000000       0.93750000000000000        0.0000000000000000     
  0.68750000000000000       0.93750000000000000        0.0000000000000000     
  0.71875000000000000       0.93750000000000000        0.0000000000000000     
  0.75000000000000000       0.93750000000000000        0.0000000000000000     
  0.62500000000000000       0.96875000000000000        0.0000000000000000     
  0.65625000000000000       0.96875000000000000        0.0000000000000000     
  0.68750000000000000       0.96875000000000000        0.0000000000000000     
  0.71875000000000000       0.96875000000000000        0.0000000000000000     
  0.75000000000000000       0.96875000000000000        0.0000000000000000     
  0.62500000000000000        1.0000000000000000        0.0000000000000000     
  0.65625000000000000        1.0000000000000000        0.0000000000000000     
  0.68750000000000000        1.0000000000000000        0.0000000000000000     
  0.71875000000000000        1.0000000000000000        0.0000000000000000     
  0.75000000000000000        1.0000000000000000        0.0000000000000000     
  0.75000000000000000       0.87500000000000000        0.0000000000000000     
  0.78125000000000000       0.87500000000000000        0.0000000000000000     
  0.81250000000000000       0.87500000000000000        0.0000000000000000     
  0.84375000000000000       0.87500000000000000        0.0000000000000000     
  0.87500000000000000       0.87500000000000000        0.0000000000000000     
  0.75000000000000000       0.90625000000000000        0.0000000000000000     
  0.78125000000000000       0.90625000000000000        0.0000000000000000     
  0.81250000000000000       0.90625000000000000        0.0000000000000000     
  0.84375000000000000       0.90625000000000000        0.0000000000000000     
  0.87500000000000000       0.90625000000000000        0.0000000000000000     
  0.75000000000000000       0.93750000000000000        0.0000000000000000     
  0.78125000000000000       0.93750000000000000        0.0000000000000000     
  0.81250000000000000       0.93750000000000000        0.0000000000000000     
  0.84375000000000000       0.93750000000000000        0.0000000000000000     
  0.87500000000000000       0.93750000000000000        0.0000000000000000     
  0.75000000000000000       0.96875000000000000        0.0000000000000000     
  0.78125000000000000       0.96875000000000000        0.0000000000000000     
  0.81250000000000000       0.96875000000000000        0.0000000000000000     
  0.84375000000000000       0.96875000000000000        0.0000000000000000     
  0.87500000000000000       0.96875000000000000        0.0000000000000000     
  0.75000000000000000        1.0000000000000000        0.0000000000000000     
  0.78125000000000000        1.0000000000000000        0.0000000000000000     
  0.81250000000000000        1.0000000000000000        0.0000000000000000     
  0.84375000000000000        1.0000000000000000        0.0000000000000000     
  0.87500000000000000        1.0000000000000000        0.0000000000000000     
  0.87500000000000000       0.87500000000000000        0.0000000000000000     
  0.90625000000000000       0.87500000000000000        0.0000000000000000     
  0.93750000000000000       0.87500000000000000        0.0000000000000000     
  0.96875000000000000       0.87500000000000000        0.0000000000000000     
   1.0000000000000000       0.87500000000000000        0.0000000000000000     
  0.87500000000000000       0.90625000000000000        0.0000000000000000     
  0.90625000000000000       0.90625000000000000        0.0000000000000000     
  0.93750000000000000       0.90625000000000000        0.0000000000000000     
  0.96875000000000000       0.90625000000000000        0.0000000000000000     
   1.0000000000000000       0.90625000000000000        0.0000000000000000     
  0.87500000000000000       0.93750000000000000        0.0000000000000000     
  0.90625000000000000       0.93750000000000000        0.0000000000000000     
  0.93750000000000000       0.93750000000000000        0.0000000000000000     
  0.96875000000000000       0.93750000000000000        0.0000000000000000     
   1.0000000000000000       0.93750000000000000        0.0000000000000000     
  0.87500000000000000       0.96875000000000000        0.0000000000000000     
  0.90625000000000000       0.96875000000000000        0.0000000000000000     
  0.93750000000000000       0.96875000000000000        0.0000000000000000     
  0.96875000000000000       0.96875000000000000        0.0000000000000000     
   1.0000000000000000       0.96875000000000000        0.0000000000000000     
  0.87500000000000000        1.0000000000000000        0.0000000000000000     
  0.90625000000000000        1.0000000000000000        0.0000000000000000     
  0.93750000000000000        1.0000000000000000        0.0000000000000000     
  0.96875000000000000        1.0000000000000000        0.0000000000000000     
   1.0000000000000000        1.0000000000000000        0.0000000000000000     
   1.0000000000000000       0.87500000000000000        0.0000000000000000     
   1.0312500000000000       0.87500000000000000        0.0000000000000000     
   1.0625000000000000       0.87500000000000000        0.0000000000000000     
   1.0937500000000000       0.87500000000000000        0.0000000000000000     
   1.1250000000000000       0.87500000000000000        0.0000000000000000     
   1.0000000000000000       0.90625000000000000        0.0000000000000000     
   1.0312500000000000       0.90625000000000000        0.0000000000000000     
   1.0625000000000000       0.90625000000000000        0.0000000000000000     
   1.0937500000000000       0.90625000000000000        0.0000000000000000     
   1.1250000000000000       0.90625000000000000        0.0000000000000000     
   1.0000000000000000       0.93750000000000000        0.0000000000000000     
   1.0312500000000000       0.93750000000000000        0.0000000000000000     
   1.0625000000000000       0.93750000000000000        0.0000000000000000     
   1.0937500000000000       0.93750000000000000        0.0000000000000000     
   1.1250000000000000       0.93750000000000000        0.0000000000000000     
   1.0000000000000000       0.96875000000000000        0.0000000000000000     
   1.0312500000000000       0.96875000000000000        0.0000000000000000     
   1.0625000000000000       0.96875000000000000        0.0000000000000000     
   1.0937500000000000       0.96875000000000000        0.0000000000000000     
   1.1250000000000000       0.96875000000000000        0.0000000000000000     
   1.0000000000000000        1.0000000000000000        0.0000000000000000     
   1.0312500000000000        1.0000000000000000        0.0000000000000000     
   1.0625000000000000        1.0000000000000000        0.0000000000000000     
   1.0937500000000000        1.0000000000000000        0.0000000000000000     
   1.1250000000000000        1.0000000000000000        0.0000000000000000     
   1.1250000000000000       0.87500000000000000        0.0000000000000000     
   1.1562500000000000       0.87500000000000000        0.0000000000000000     
   1.1875000000000000       0.87500000000000000        0.0000000000000000     
   1.2187500000000000       0.87500000000000000        0.0000000000000000     
   1.2500000000000000       0.87500000000000000        0.0000000000000000     
   1.1250000000000000       0.90625000000000000        0.0000000000000000     
   1.1562500000000000       0.90625000000000000        0.0000000000000000     
   1.1875000000000000       0.90625000000000000        0.0000000000000000     
   1.2187500000000000       0.90625000000000000        0.0000000000000000     
   1.2500000000000000       0.90625000000000000        0.0000000000000000     
   1.1250000000000000       0.93750000000000000        0.0000000000000000     
   1.1562500000000000       0.93750000000000000        0.0000000000000000     
   1.1875000000000000       0.93750000000000000        0.0000000000000000     
   1.2187500000000000       0.93750000000000000        0.0000000000000000     
   1.2500000000000000       0.93750000000000000        0.0000000000000000     
   1.1250000000000000       0.96875000000000000        0.0000000000000000     
   1.1562500000000000       0.96875000000000000        0.0000000000000000     
   1.1875000000000000       0.96875000000000000        0.0000000000000000     
   1.2187500000000000       0.96875000000000000        0.0000000000000000     
   1.2500000000000000       0.96875000000000000        0.0000000000000000     
   1.1250000000000000        1.0000000000000000        0.0000000000000000     
   1.1562500000000000        1.0000000000000000        0.0000000000000000     
   1.1875000000000000        1.0000000000000000        0.0000000000000000     
   1.2187500000000000        1.0000000000000000        0.0000000000000000     
   1.2500000000000000        1.0000000000000000        0.0000000000000000     
   1.2500000000000000       0.87500000000000000        0.0000000000000000     
   1.2812500000000000       0.87500000000000000        0.0000000000000000     
   1.3125000000000000       0.87500000000000000        0.0000000000000000     
   1.3437500000000000       0.87500000000000000        0.0000000000000000     
   1.3750000000000000       0.87500000000000000        0.0000000000000000     
   1.2500000000000000       0.90625000000000000        0.0000000000000000     
   1.2812500000000000       0.90625000000000000        0.0000000000000000     
   1.3125000000000000       0.90625000000000000        0.0000000000000000     
   1.3437500000000000       0.90625000000000000        0.0000000000000000     
   1.3750000000000000       0.90625000000000000        0.0000000000000000     
   1.2500000000000000       0.93750000000000000        0.0000000000000000     
   1.2812500000000000       0.93750000000000000        0.0000000000000000     
   1.3125000000000000       0.93750000000000000        0.0000000000000000     
   1.3437500000000000       0.93750000000000000        0.0000000000000000     
   1.3750000000000000       0.93750000000000000        0.0000000000000000     
   1.2500000000000000       0.96875000000000000        0.0000000000000000     
   1.2812500000000000       0.96875000000000000        0.0000000000000000     
   1.3125000000000000       0.96875000000000000        0.0000000000000000     
   1.3437500000000000       0.96875000000000000        0.0000000000000000     
   1.3750000000000000       0.96875000000000000        0.0000000000000000     
   1.2500000000000000        1.0000000000000000        0.0000000000000000     
   1.2812500000000000        1.0000000000000000        0.0000000000000000     
   1.3125000000000000        1.0000000000000000        0.0000000000000000     
   1.3437500000000000        1.0000000000000000        0.0000000000000000     
   1.3750000000000000        1.0000000000000000        0.0000000000000000     
   1.3750000000000000       0.87500000000000000        0.0000000000000000     
   1.4062500000000000       0.87500000000000000        0.0000000000000000     
   1.4375000000000000       0.87500000000000000        0.0000000000000000     
   1.4687500000000000       0.87500000000000000        0.0000000000000000     
   1.5000000000000000       0.87500000000000000        0.0000000000000000     
   1.3750000000000000       0.90625000000000000        0.0000000000000000     
   1.4062500000000000       0.90625000000000000        0.0000000000000000     
   1.4375000000000000       0.90625000000000000        0.0000000000000000     
   1.4687500000000000       0.90625000000000000        0.0000000000000000     
   1.5000000000000000       0.90625000000000000        0.0000000000000000     
   1.3750000000000000       0.93750000000000000        0.0000000000000000     
   1.4062500000000000       0.93750000000000000        0.0000000000000000     
   1.4375000000000000       0.93750000000000000        0.0000000000000000     
   1.4687500000000000       0.93750000000000000        0.0000000000000000     
   1.5000000000000000       0.93750000000000000        0.0000000000000000     
   1.3750000000000000       0.96875000000000000        0.0000000000000000     
   1.4062500000000000       0.96875000000000000        0.0000000000000000     
   1.4375000000000000       0.96875000000000000        0.0000000000000000     
   1.4687500000000000       0.96875000000000000        0.0000000000000000     
   1.5000000000000000       0.96875000000000000        0.0000000000000000     
   1.3750000000000000        1.0000000000000000        0.0000000000000000     
   1.4062500000000000        1.0000000000000000        0.0000000000000000     
   1.4375000000000000        1.0000000000000000        0.0000000000000000     
   1.4687500000000000        1.0000000000000000        0.0000000000000000     
   1.5000000000000000        1.0000000000000000        0.0000000000000000     
 </DataArray>
 </Points>
 <Cells>
 <DataArray  type="Int32"  Name="connectivity"  format="ascii">
           0           1           6           5
           1           2           7           6
           2           3           8           7
           3           4           9           8
           5           6          11          10
           6           7          12          11
           7           8          13          12
           8           9          14          13
          10          11          16          15
          11          12          17          16
          12          13          18          17
          13          14          19          18
          15          16          21          20
          16          17          22          21
          17          18          23          22
          18          19          24          23
          25          26          31          30
          26          27          32          31
          27          28          33          32
          28          29          34          33
          30          31          36          35
          31          32          37          36
          32          33          38          37
          33          34          39          38
          35          36          41          40
          36          37          42          41
          37          38          43          42
          38          39          44          43
          40          41          46          45
          41          42          47          46
          42          43          48          47
          43          44          49          48
          50          51          56          55
          51          52          57          56
          52          53          58          57
          53          54          59          58
          55          56          61          60
          56          57          62          61
          57          58          63          62
          58          59          64          63
          60          61          66          65
          61          62          67          66
          62          63          68          67
          63          64          69          68
          65          66          71          70
          66          67          72          71
          67          68          73          72
          68          69          74          73
          75          76          81          80
          76          77          82          81
          77          78          83          82
          78          79          84          83
          80          81          86          85
          81          82          87          86
          82          83          88          87
          83          84          89          88
          85          86          91          90
          86          87          92          91
          87          88          93          92
          88          89          94          93
          90          91          96          95
          91          92          97          96
          92          93          98          97
          93          94          99          98
         100         101         106         105
         101         102         107         106
         102         103         108         107
         103         104         109         108
         105         106         111         110
         106         107         112         111
         107         108         113         112
         108         109         114         113
         110         111         116         115
         111         112         117         116
         112         113         118         117
         113         114         119         118
         115         116         121         120
         116         117         122         121
         117         118         123         122
         118         119         124         123
         125         126         131         130
         126         127         132         131
         127         128         133         132
         128         129         134         133
         130         131         136         135
         131         132         137         136
         132         133         138         137
         133         134         139         138
         135         136         141         140
         136         137         142         141
         137         138         143         142
         138         139         144         143
         140         141         146         145
         141         142         147         146
         142         143         148         147
         143         144         149         148
         150         151         156         155
         151         152         157         156
         152         153         158         157
         153         154         159         158
         155         156         161         160
         156         157         162         161
         157         158         163         162
         158         159         164         163
         160         161         166         165
         161         162         167         166
         162         163         168         167
         163         164         169         168
         165         166         171         170
         166         167         172         171
         167         168         173         172
         168         169         174         173
         175         176         181         180
         176         177         182         181
         177         178         183         182
         178         179         184         183
         180         181         186         185
         181         182         187         186
         182         183         188         187
         183         184         189         188
         185         186         191         190
         186         187         192         191
         187         188         193         192
         188         189         194         193
         190         191         196         195
         191         192         197         196
         192         193         198         197
         193         194         199         198
         200         201         206         205
         201         202         207         206
         202         203         208         207
         203         204         209         208
         205         206         211         210
         206         207         212         211
         207         208         213         212
         208         209         214         213
         210         211         216         215
         211         212         217         216
         212         213         218         217
         213         214         219         218
         215         216         221         220
         216         217         222         221
         217         218         223         222
         218         219         224         223
         225         226         231         230
         226         227         232         231
         227         228         233         232
         228         229         234         233
         230         231         236         235
         231         232         237         236
         232         233         238         237
         233         234         239         238
         235         236         241         240
         236         237         242         241
         237         238         243         242
         238         239         244         243
         240         241         246         245
         241         242         247         246
         242         243         248         247
         243         244         249         248
         250         251         256         255
         251         252         257         256
         252         253         258         257
         253         254         259         258
         255         256         261         260
         256         257         262         261
         257         258         263         262
         258         259         264         263
         260         261         266         265
         261         262         267         266
         262         263         268         267
         263         264         269         268
         265         266         271         270
         266         267         272         271
         267         268         273         272
         268         269         274         273
         275         276         281         280
         276         277         282         281
         277         278         283         282
         278         279         284         283
         280         281         286         285
         281         282         287         286
         282         283         288         287
         283         284         289         288
         285         286         291         290
         286         287         292         291
         287         288         293         292
         288         289         294         293
         290         291         296         295
         291         292         297         296
         292         293         298         297
         293         294         299         298
         300         301         306         305
         301         302         307         306
         302         303         308         307
         303         304         309         308
         305         306         311         310
         306         307         312         311
         307         308         313         312
         308         309         314         313
         310         311         316         315
         311         312         317         316
         312         313         318         317
         313         314         319         318
         315         316         321         320
         316         317         322         321
         317         318         323         322
         318         319         324         323
         325         326         331         330
         326         327         332         331
         327         328         333         332
         328         329         334         333
         330         331         336         335
         331         332         337         336
         332         333         338         337
         333         334         339         338
         335         336         341         340
         336         337         342         341
         337         338         343         342
         338         339         344         343
         340         341         346         345
         341         342         347         346
         342         343         348         347
         343         344         349         348
         350         351         356         355
         351         352         357         356
         352         353         358         357
         353         354         359         358
         355         356         361         360
         356         357         362         361
         357         358         363         362
         358         359         364         363
         360         361         366         365
         361         362         367         366
         362         363         368         367
         363         364         369         368
         365         366         371         370
         366         367         372         371
         367         368         373         372
         368         369         374         373
         375         376         381         380
         376         377         382         381
         377         378         383         382
         378         379         384         383
         380         381         386         385
         381         382         387         386
         382         383         388         387
         383         384         389         388
         385         386         391         390
         386         387         392         391
         387         388         393         392
         388         389         394         393
         390         391         396         395
         391         392         397         396
         392         393         398         397
         393         394         399         398
         400         401         406         405
         401         402         407         406
         402         403         408         407
         403         404         409         408
         405         406         411         410
         406         407         412         411
         407         408         413         412
         408         409         414         413
         410         411         416         415
         411         412         417         416
         412         413         418         417
         413         414         419         418
         415         416         421         420
         416         417         422         421
         417         418         423         422
         418         419         424         423
         425         426         431         430
         426         427         432         431
         427         428         433         432
         428         429         434         433
         430         431         436         435
         431         432         437         436
         432         433         438         437
         433         434         439         438
         435         436         441         440
         436         437         442         441
         437         438         443         442
         438         439         444         443
         440         441         446         445
         441         442         447         446
         442         443         448         447
         443         444         449         448
         450         451         456         455
         451         452         457         456
         452         453         458         457
         453         454         459         458
         455         456         461         460
         456         457         462         461
         457         458         463         462
         458         459         464         463
         460         461         466         465
         461         462         467         466
         462         463         468         467
         463         464         469         468
         465         466         471         470
         466         467         472         471
         467         468         473         472
         468         469         474         473
         475         476         481         480
         476         477         482         481
         477         478         483         482
         478         479         484         483
         480         481         486         485
         481         482         487         486
         482         483         488         487
         483         484         489         488
         485         486         491         490
         486         487         492         491
         487         488         493         492
         488         489         494         493
         490         491         496         495
         491         492         497         496
         492         493         498         497
         493         494         499         498
         500         501         506         505
         501         502         507         506
         502         503         508         507
         503         504         509         508
         505         506         511         510
         506         507         512         511
         507         508         513         512
         508         509         514         513
         510         511         516         515
         511         512         517         516
         512         513         518         517
         513         514         519         518
         515         516         521         520
         516         517         522         521
         517         518         523         522
         518         519         524         523
         525         526         531         530
         526         527         532         531
         527         528         533         532
         528         529         534         533
         530         531         536         535
         531         532         537         536
         532         533         538         537
         533         534         539         538
         535         536         541         540
         536         537         542         541
         537         538         543         542
         538         539         544         543
         540         541         546         545
         541         542         547         546
         542         543         548         547
         543         544         549         548
         550         551         556         555
         551         552         557         556
         552         553         558         557
         553         554         559         558
         555         556         561         560
         556         557         562         561
         557         558         563         562
         558         559         564         563
         560         561         566         565
         561         562         567         566
         562         563         568         567
         563         564         569         568
         565         566         571         570
         566         567         572         571
         567         568         573         572
         568         569         574         573
         575         576         581         580
         576         577         582         581
         577         578         583         582
         578         579         584         583
         580         581         586         585
         581         582         587         586
         582         583         588         587
         583         584         589         588
         585         586         591         590
         586         587         592         591
         587         588         593         592
         588         589         594         593
         590         591         596         595
         591         592         597         596
         592         593         598         597
         593         594         599         598
         600         601         606         605
         601         602         607         606
         602         603         608         607
         603         604         609         608
         605         606         611         610
         606         607         612         611
         607         608         613         612
         608         609         614         613
         610         611         616         615
         611         612         617         616
         612         613         618         617
         613         614         619         618
         615         616         621         620
         616         617         622         621
         617         618         623         622
         618         619         624         623
         625         626         631         630
         626         627         632         631
         627         628         633         632
         628         629         634         633
         630         631         636         635
         631         632         637         636
         632         633         638         637
         633         634         639         638
         635         636         641         640
         636         637         642         641
         637         638         643         642
         638         639         644         643
         640         641         646         645
         641         642         647         646
         642         643         648         647
         643         644         649         648
         650         651         656         655
         651         652         657         656
         652         653         658         657
         653         654         659         658
         655         656         661         660
         656         657         662         661
         657         658         663         662
         658         659         664         663
         660         661         666         665
         661         662         667         666
         662         663         668         667
         663         664         669         668
         665         666         671         670
         666         667         672         671
         667         668         673         672
         668         669         674         673
         675         676         681         680
         676         677         682         681
         677         678         683         682
         678         679         684         683
         680         681         686         685
         681         682         687         686
         682         683         688         687
         683         684         689         688
         685         686         691         690
         686         687         692         691
         687         688         693         692
         688         689         694         693
         690         691         696         695
         691         692         697         696
         692         693         698         697
         693         694         699         698
         700         701         706         705
         701         702         707         706
         702         703         708         707
         703         704         709         708
         705         706         711         710
         706         707         712         711
         707         708         713         712
         708         709         714         713
         710         711         716         715
         711         712         717         716
         712         713         718         717
         713         714         719         718
         715         716         721         720
         716         717         722         721
         717         718         723         722
         718         719         724         723
         725         726         731         730
         726         727         732         731
         727         728         733         732
         728         729         734         733
         730         731         736         735
         731         732         737         736
         732         733         738         737
         733         734         739         738
         735         736         741         740
         736         737         742         741
         737         738         743         742
         738         739         744         743
         740         741         746         745
         741         742         747         746
         742         743         748         747
         743         744         749         748
         750         751         756         755
         751         752         757         756
         752         753         758         757
         753         754         759         758
         755         756         761         760
         756         757         762         761
         757         758         763         762
         758         759         764         763
         760         761         766         765
         761         762         767         766
         762         763         768         767
         763         764         769         768
         765         766         771         770
         766         767         772         771
         767         768         773         772
         768         769         774         773
         775         776         781         780
         776         777         782         781
         777         778         783         782
         778         779         784         783
         780         781         786         785
         781         782         787         786
         782         783         788         787
         783         784         789         788
         785         786         791         790
         786         787         792         791
         787         788         793         792
         788         789         794         793
         790         791         796         795
         791         792         797         796
         792         793         798         797
         793         794         799         798
         800         801         806         805
         801         802         807         806
         802         803         808         807
         803         804         809         808
         805         806         811         810
         806         807         812         811
         807         808         813         812
         808         809         814         813
         810         811         816         815
         811         812         817         816
         812         813         818         817
         813         814         819         818
         815         816         821         820
         816         817         822         821
         817         818         823         822
         818         819         824         823
         825         826         831         830
         826         827         832         831
         827         828         833         832
         828         829         834         833
         830         831         836         835
         831         832         837         836
         832         833         838         837
         833         834         839         838
         835         836         841         840
         836         837         842         841
         837         838         843         842
         838         839         844         843
         840         841         846         845
         841         842         847         846
         842         843         848         847
         843         844         849         848
         850         851         856         855
         851         852         857         856
         852         853         858         857
         853         854         859         858
         855         856         861         860
         856         857         862         861
         857         858         863         862
         858         859         864         863
         860         861         866         865
         861         862         867         866
         862         863         868         867
         863         864         869         868
         865         866         871         870
         866         867         872         871
         867         868         873         872
         868         869         874         873
         875         876         881         880
         876         877         882         881
         877         878         883         882
         878         879         884         883
         880         881         886         885
         881         882         887         886
         882         883         888         887
         883         884         889         888
         885         886         891         890
         886         887         892         891
         887         888         893         892
         888         889         894         893
         890         891         896         895
         891         892         897         896
         892         893         898         897
         893         894         899         898
         900         901         906         905
         901         902         907         906
         902         903         908         907
         903         904         909         908
         905         906         911         910
         906         907         912         911
         907         908         913         912
         908         909         914         913
         910         911         916         915
         911         912         917         916
         912         913         918         917
         913         914         919         918
         915         916         921         920
         916         917         922         921
         917         918         923         922
         918         919         924         923
         925         926         931         930
         926         927         932         931
         927         928         933         932
         928         929         934         933
         930         931         936         935
         931         932         937         936
         932         933         938         937
         933         934         939         938
         935         936         941         940
         936         937         942         941
         937         938         943         942
         938         939         944         943
         940         941         946         945
         941         942         947         946
         942         943         948         947
         943         944         949         948
         950         951         956         955
         951         952         957         956
         952         953         958         957
         953         954         959         958
         955         956         961         960
         956         957         962         961
         957         958         963         962
         958         959         964         963
         960         961         966         965
         961         962         967         966
         962         963         968         967
         963         964         969         968
         965         966         971         970
         966         967         972         971
         967         968         973         972
         968         969         974         973
         975         976         981         980
         976         977         982         981
         977         978         983         982
         978         979         984         983
         980         981         986         985
         981         982         987         986
         982         983         988         987
         983         984         989         988
         985         986         991         990
         986         987         992         991
         987         988         993         992
         988         989         994         993
         990         991         996         995
         991         992         997         996
         992         993         998         997
         993         994         999         998
        1000        1001        1006        1005
        1001        1002        1007        1006
        1002        1003        1008        1007
        1003        1004        1009        1008
        1005        1006        1011        1010
        1006        1007        1012        1011
        1007        1008        1013        1012
        1008        1009        1014        1013
        1010        1011        1016        1015
        1011        1012        1017        1016
        1012        1013        1018        1017
        1013        1014        1019        1018
        1015        1016        1021        1020
        1016        1017        1022        1021
        1017        1018        1023        1022
        1018        1019        1024        1023
        1025        1026        1031        1030
        1026        1027        1032        1031
        1027        1028        1033        1032
        1028        1029        1034        1033
        1030        1031        1036        1035
        1031        1032        1037        1036
        1032        1033        1038        1037
        1033        1034        1039        1038
        1035        1036        1041        1040
        1036        1037        1042        1041
        1037        1038        1043        1042
        1038        1039        1044        1043
        1040        1041        1046        1045
        1041        1042        1047        1046
        1042        1043        1048        1047
        1043        1044        1049        1048
        1050        1051        1056        1055
        1051        1052        1057        1056
        1052        1053        1058        1057
        1053        1054        1059        1058
        1055        1056        1061        1060
        1056        1057        1062        1061
        1057        1058        1063        1062
        1058        1059        1064        1063
        1060        1061        1066        1065
        1061        1062        1067        1066
        1062        1063        1068        1067
        1063        1064        1069        1068
        1065        1066        1071        1070
        1066        1067        1072        1071
        1067        1068        1073        1072
        1068        1069        1074        1073
        1075        1076        1081        1080
        1076        1077        1082        1081
        1077        1078        1083        1082
        1078        1079        1084        1083
        1080        1081        1086        1085
        1081        1082        1087        1086
        1082        1083        1088        1087
        1083        1084        1089        1088
        1085        1086        1091        1090
        1086        1087        1092        1091
        1087        1088        1093        1092
        1088        1089        1094        1093
        1090        1091        1096        1095
        1091        1092        1097        1096
        1092        1093        1098        1097
        1093        1094        1099        1098
        1100        1101        1106        1105
        1101        1102        1107        1106
        1102        1103        1108        1107
        1103        1104        1109        1108
        1105        1106        1111        1110
        1106        1107        1112        1111
        1107        1108        1113        1112
        1108        1109        1114        1113
        1110        1111        1116        1115
        1111        1112        1117        1116
        1112        1113        1118        1117
        1113        1114        1119        1118
        1115        1116        1121        1120
        1116        1117        1122        1121
        1117        1118        1123        1122
        1118        1119        1124        1123
        1125        1126        1131        1130
        1126        1127        1132        1131
        1127        1128        1133        1132
        1128        1129        1134        1133
        1130        1131        1136        1135
        1131        1132        1137        1136
        1132        1133        1138        1137
        1133        1134        1139        1138
        1135        1136        1141        1140
        1136        1137        1142        1141
        1137        1138        1143        1142
        1138        1139        1144        1143
        1140        1141        1146        1145
        1141        1142        1147        1146
        1142        1143        1148        1147
        1143        1144        1149        1148
        1150        1151        1156        1155
        1151        1152        1157        1156
        1152        1153        1158        1157
        1153        1154        1159        1158
        1155        1156        1161        1160
        1156        1157        1162        1161
        1157        1158        1163        1162
        1158        1159        1164        1163
        1160        1161        1166        1165
        1161        1162        1167        1166
        1162        1163        1168        1167
        1163        1164        1169        1168
        1165        1166        1171        1170
        1166        1167        1172        1171
        1167        1168        1173        1172
        1168        1169        1174        1173
        1175        1176        1181        1180
        1176        1177        1182        1181
        1177        1178        1183        1182
        1178        1179        1184        1183
        1180        1181        1186        1185
        1181        1182        1187        1186
        1182        1183        1188        1187
        1183        1184        1189        1188
        1185        1186        1191        1190
        1186        1187        1192        1191
        1187        1188        1193        1192
        1188        1189        1194        1193
        1190        1191        1196        1195
        1191        1192        1197        1196
        1192        1193        1198        1197
        1193        1194        1199        1198
        1200        1201        1206        1205
        1201        1202        1207        1206
        1202        1203        1208        1207
        1203        1204        1209        1208
        1205        1206        1211        1210
        1206        1207        1212        1211
        1207        1208        1213        1212
        1208        1209        1214        1213
        1210        1211        1216        1215
        1211        1212        1217        1216
        1212        1213        1218        1217
        1213        1214        1219        1218
        1215        1216        1221        1220
        1216        1217        1222        1221
        1217        1218        1223        1222
        1218        1219        1224        1223
        1225        1226        1231        1230
        1226        1227        1232        1231
        1227        1228        1233        1232
        1228        1229        1234        1233
        1230        1231        1236        1235
        1231        1232        1237        1236
        1232        1233        1238        1237
        1233        1234        1239        1238
        1235        1236        1241        1240
        1236        1237        1242        1241
        1237        1238        1243        1242
        1238        1239        1244        1243
        1240        1241        1246        1245
        1241        1242        1247        1246
        1242        1243        1248        1247
        1243        1244        1249        1248
        1250        1251        1256        1255
        1251        1252        1257        1256
        1252        1253        1258        1257
        1253        1254        1259        1258
        1255        1256        1261        1260
        1256        1257        1262        1261
        1257        1258        1263        1262
        1258        1259        1264        1263
        1260        1261        1266        1265
        1261        1262        1267        1266
        1262        1263        1268        1267
        1263        1264        1269        1268
        1265        1266        1271        1270
        1266        1267        1272        1271
        1267        1268        1273        1272
        1268        1269        1274        1273
        1275        1276        1281        1280
        1276        1277        1282        1281
        1277        1278        1283        1282
        1278        1279        1284        1283
        1280        1281        1286        1285
        1281        1282        1287        1286
        1282        1283        1288        1287
        1283        1284        1289        1288
        1285        1286        1291        1290
        1286        1287        1292        1291
        1287        1288        1293        1292
        1288        1289        1294        1293
        1290        1291        1296        1295
        1291        1292        1297        1296
        1292        1293        1298        1297
        1293        1294        1299        1298
        1300        1301        1306        1305
        1301        1302        1307        1306
        1302        1303        1308        1307
        1303        1304        1309        1308
        1305        1306        1311        1310
        1306        1307        1312        1311
        1307        1308        1313        1312
        1308        1309        1314        1313
        1310        1311        1316        1315
        1311        1312        1317        1316
        1312        1313        1318        1317
        1313        1314        1319        1318
        1315        1316        1321        1320
        1316        1317        1322        1321
        1317        1318        1323        1322
        1318        1319        1324        1323
        1325        1326        1331        1330
        1326        1327        1332        1331
        1327        1328        1333        1332
        1328        1329        1334        1333
        1330        1331        1336        1335
        1331        1332        1337        1336
        1332        1333        1338        1337
        1333        1334        1339        1338
        1335        1336        1341        1340
        1336        1337        1342        1341
        1337        1338        1343        1342
        1338        1339        1344        1343
        1340        1341        1346        1345
        1341        1342        1347        1346
        1342        1343        1348        1347
        1343        1344        1349        1348
        1350        1351        1356        1355
        1351        1352        1357        1356
        1352        1353        1358        1357
        1353        1354        1359        1358
        1355        1356        1361        1360
        1356        1357        1362        1361
        1357        1358        1363        1362
        1358        1359        1364        1363
        1360        1361        1366        1365
        1361        1362        1367        1366
        1362        1363        1368        1367
        1363        1364        1369        1368
        1365        1366        1371        1370
        1366        1367        1372        1371
        1367        1368        1373        1372
        1368        1369        1374        1373
        1375        1376        1381        1380
        1376        1377        1382        1381
        1377        1378        1383        1382
        1378        1379        1384        1383
        1380        1381        1386        1385
        1381        1382        1387        1386
        1382        1383        1388        1387
        1383        1384        1389        1388
        1385        1386        1391        1390
        1386        1387        1392        1391
        1387        1388        1393        1392
        1388        1389        1394        1393
        1390        1391        1396        1395
        1391        1392        1397        1396
        1392        1393        1398        1397
        1393        1394        1399        1398
        1400        1401        1406        1405
        1401        1402        1407        1406
        1402        1403        1408        1407
        1403        1404        1409        1408
        1405        1406        1411        1410
        1406        1407        1412        1411
        1407        1408        1413        1412
        1408        1409        1414        1413
        1410        1411        1416        1415
        1411        1412        1417        1416
        1412        1413        1418        1417
        1413        1414        1419        1418
        1415        1416        1421        1420
        1416        1417        1422        1421
        1417        1418        1423        1422
        1418        1419        1424        1423
        1425        1426        1431        1430
        1426        1427        1432        1431
        1427        1428        1433        1432
        1428        1429        1434        1433
        1430        1431        1436        1435
        1431        1432        1437        1436
        1432        1433        1438        1437
        1433        1434        1439        1438
        1435        1436        1441        1440
        1436        1437        1442        1441
        1437        1438        1443        1442
        1438        1439        1444        1443
        1440        1441        1446        1445
        1441        1442        1447        1446
        1442        1443        1448        1447
        1443        1444        1449        1448
        1450        1451        1456        1455
        1451        1452        1457        1456
        1452        1453        1458        1457
        1453        1454        1459        1458
        1455        1456        1461        1460
        1456        1457        1462        1461
        1457        1458        1463        1462
        1458        1459        1464        1463
        1460        1461        1466        1465
        1461        1462        1467        1466
        1462        1463        1468        1467
        1463        1464        1469        1468
        1465        1466        1471        1470
        1466        1467        1472        1471
        1467        1468        1473        1472
        1468        1469        1474        1473
        1475        1476        1481        1480
        1476        1477        1482        1481
        1477        1478        1483        1482
        1478        1479        1484        1483
        1480        1481        1486        1485
        1481        1482        1487        1486
        1482        1483        1488        1487
        1483        1484        1489        1488
        1485        1486        1491        1490
        1486        1487        1492        1491
        1487        1488        1493        1492
        1488        1489        1494        1493
        1490        1491        1496        1495
        1491        1492        1497        1496
        1492        1493        1498        1497
        1493        1494        1499        1498
        1500        1501        1506        1505
        1501        1502        1507        1506
        1502        1503        1508        1507
        1503        1504        1509        1508
        1505        1506        1511        1510
        1506        1507        1512        1511
        1507        1508        1513        1512
        1508        1509        1514        1513
        1510        1511        1516        1515
        1511        1512        1517        1516
        1512        1513        1518        1517
        1513        1514        1519        1518
        1515        1516        1521        1520
        1516        1517        1522        1521
        1517        1518        1523        1522
        1518        1519        1524        1523
        1525        1526        1531        1530
        1526        1527        1532        1531
        1527        1528        1533        1532
        1528        1529        1534        1533
        1530        1531        1536        1535
        1531        1532        1537        1536
        1532        1533        1538        1537
        1533        1534        1539        1538
        1535        1536        1541        1540
        1536        1537        1542        1541
        1537        1538        1543        1542
        1538        1539        1544        1543
        1540        1541        1546        1545
        1541        1542        1547        1546
        1542        1543        1548        1547
        1543        1544        1549        1548
        1550        1551        1556        1555
        1551        1552        1557        1556
        1552        1553        1558        1557
        1553        1554        1559        1558
        1555        1556        1561        1560
        1556        1557        1562        1561
        1557        1558        1563        1562
        1558        1559        1564        1563
        1560        1561        1566        1565
        1561        1562        1567        1566
        1562        1563        1568        1567
        1563        1564        1569        1568
        1565        1566        1571        1570
        1566        1567        1572        1571
        1567        1568        1573        1572
        1568        1569        1574        1573
        1575        1576        1581        1580
        1576        1577        1582        1581
        1577        1578        1583        1582
        1578        1579        1584        1583
        1580        1581        1586        1585
        1581        1582        1587        1586
        1582        1583        1588        1587
        1583        1584        1589        1588
        1585        1586        1591        1590
        1586        1587        1592        1591
        1587        1588        1593        1592
        1588        1589        1594        1593
        1590        1591        1596        1595
        1591        1592        1597        1596
        1592        1593        1598        1597
        1593        1594        1599        1598
 </DataArray>
 <DataArray  type="Int32"  Name="offsets"  format="ascii"> 
           4
           8
          12
          16
          20
          24
          28
          32
          36
          40
          44
          48
          52
          56
          60
          64
          68
          72
          76
          80
          84
          88
          92
          96
         100
         104
         108
         112
         116
         120
         124
         128
         132
         136
         140
         144
         148
         152
         156
         160
         164
         168
         172
         176
         180
         184
         188
         192
         196
         200
         204
         208
         212
         216
         220
         224
         228
         232
         236
         240
         244
         248
         252
         256
         260
         264
         268
         272
         276
         280
         284
         288
         292
         296
         300
         304
         308
         312
         316
         320
         324
         328
         332
         336
         340
         344
         348
         352
         356
         360
         364
         368
         372
         376
         380
         384
         388
         392
         396
         400
         404
         408
         412
         416
         420
         424
         428
         432
         436
         440
         444
         448
         452
         456
         460
         464
         468
         472
         476
         480
         484
         488
         492
         496
         500
         504
         508
         512
         516
         520
         524
         528
         532
         536
         540
         544
         548
         552
         556
         560
         564
         568
         572
         576
         580
         584
         588
         592
         596
         600
         604
         608
         612
         616
         620
         624
         628
         632
         636
         640
         644
         648
         652
         656
         660
         664
         668
         672
         676
         680
         684
         688
         692
         696
         700
         704
         708
         712
         716
         720
         724
         728
         732
         736
         740
         744
         748
         752
         756
         760
         764
         768
         772
         776
         780
         784
         788
         792
         796
         800
         804
         808
         812
         816
         820
         824
         828
         832
         836
         840
         844
         848
         852
         856
         860
         864
         868
         872
         876
         880
         884
         888
         892
         896
         900
         904
         908
         912
         916
         920
         924
         928
         932
         936
         940
         944
         948
         952
         956
         960
         964
         968
         972
         976
         980
         984
         988
         992
         996
        1000
        1004
        1008
        1012
        1016
        1020
        1024
        1028
        1032
        1036
        1040
        1044
        1048
        1052
        1056
        1060
        1064
        1068
        1072
        1076
        1080
        1084
        1088
        1092
        1096
        1100
        1104
        1108
        1112
        1116
        1120
        1124
        1128
        1132
        1136
        1140
        1144
        1148
        1152
        1156
        1160
        1164
        1168
        1172
        1176
        1180
        1184
        1188
        1192
        1196
        1200
        1204
        1208
        1212
        1216
        1220
        1224
        1228
        1232
        1236
        1240
        1244
        1248
        1252
        1256
        1260
        1264
        1268
        1272
        1276
        1280
        1284
        1288
        1292
        1296
        1300
        1304
        1308
        1312
        1316
        1320
        1324
        1328
        1332
        1336
        1340
        1344
        1348
        1352
        1356
        1360
        1364
        1368
        1372
        1376
        1380
        1384
        1388
        1392
        1396
        1400
        1404
        1408
        1412
        1416
        1420
        1424
        1428
        1432
        1436
        1440
        1444
        1448
        1452
        1456
        1460
        1464
        1468
        1472
        1476
        1480
        1484
        1488
        1492
        1496
        1500
        1504
        1508
        1512
        1516
        1520
        1524
        1528
        1532
        1536
        1540
        1544
        1548
        1552
        1556
        1560
        1564
        1568
        1572
        1576
        1580
        1584
        1588
        1592
        1596
        1600
        1604
        1608
        1612
        1616
        1620
        1624
        1628
        1632
        1636
        1640
        1644
        1648
        1652
        1656
        1660
        1664
        1668
        1672
        1676
        1680
        1684
        1688
        1692
        1696
        1700
        1704
        1708
        1712
        1716
        1720
        1724
        1728
        1732
        1736
        1740
        1744
        1748
        1752
        1756
        1760
        1764
        1768
        1772
        1776
        1780
        1784
        1788
        1792
        1796
        1800
        1804
        1808
        1812
        1816
        1820
        1824
        1828
        1832
        1836
        1840
        1844
        1848
        1852
        1856
        1860
        1864
        1868
        1872
        1876
        1880
        1884
        1888
        1892
        1896
        1900
        1904
        1908
        1912
        1916
        1920
        1924
        1928
        1932
        1936
        1940
        1944
        1948
        1952
        1956
        1960
        1964
        1968
        1972
        1976
        1980
        1984
        1988
        1992
        1996
        2000
        2004
        2008
        2012
        2016
        2020
        2024
        2028
        2032
        2036
        2040
        2044
        2048
        2052
        2056
        2060
        2064
        2068
        2072
        2076
        2080
        2084
        2088
        2092
        2096
        2100
        2104
        2108
        2112
        2116
        2120
        2124
        2128
        2132
        2136
        2140
        2144
        2148
        2152
        2156
        2160
        2164
        2168
        2172
        2176
        2180
        2184
        2188
        2192
        2196
        2200
        2204
        2208
        2212
        2216
        2220
        2224
        2228
        2232
        2236
        2240
        2244
        2248
        2252
        2256
        2260
        2264
        2268
        2272
        2276
        2280
        2284
        2288
        2292
        2296
        2300
        2304
        2308
        2312
        2316
        2320
        2324
        2328
        2332
        2336
        2340
        2344
        2348
        2352
        2356
        2360
        2364
        2368
        2372
        2376
        2380
        2384
        2388
        2392
        2396
        2400
        2404
        2408
        2412
        2416
        2420
        2424
        2428
        2432
        2436
        2440
        2444
        2448
        2452
        2456
        2460
        2464
        2468
        2472
        2476
        2480
        2484
        2488
        2492
        2496
        2500
        2504
        2508
        2512
        2516
        2520
        2524
        2528
        2532
        2536
        2540
        2544
        2548
        2552
        2556
        2560
        2564
        2568
        2572
        2576
        2580
        2584
        2588
        2592
        2596
        2600
        2604
        2608
        2612
        2616
        2620
        2624
        2628
        2632
        2636
        2640
        2644
        2648
        2652
        2656
        2660
        2664
        2668
        2672
        2676
        2680
        2684
        2688
        2692
        2696
        2700
        2704
        2708
        2712
        2716
        2720
        2724
        2728
        2732
        2736
        2740
        2744
        2748
        2752
        2756
        2760
        2764
        2768
        2772
        2776
        2780
        2784
        2788
        2792
        2796
        2800
        2804
        2808
        2812
        2816
        2820
        2824
        2828
        2832
        2836
        2840
        2844
        2848
        2852
        2856
        2860
        2864
        2868
        2872
        2876
        2880
        2884
        2888
        2892
        2896
        2900
        2904
        2908
        2912
        2916
        2920
        2924
        2928
        2932
        2936
        2940
        2944
        2948
        2952
        2956
        2960
        2964
        2968
        2972
        2976
        2980
        2984
        2988
        2992
        2996
        3000
        3004
        3008
        3012
        3016
        3020
        3024
        3028
        3032
        3036
        3040
        3044
        3048
        3052
        3056
        3060
        3064
        3068
        3072
        3076
        3080
        3084
        3088
        3092
        3096
        3100
        3104
        3108
        3112
        3116
        3120
        3124
        3128
        3132
        3136
        3140
        3144
        3148
        3152
        3156
        3160
        3164
        3168
        3172
        3176
        3180
        3184
        3188
        3192
        3196
        3200
        3204
        3208
        3212
        3216
        3220
        3224
        3228
        3232
        3236
        3240
        3244
        3248
        3252
        3256
        3260
        3264
        3268
        3272
        3276
        3280
        3284
        3288
        3292
        3296
        3300
        3304
        3308
        3312
        3316
        3320
        3324
        3328
        3332
        3336
        3340
        3344
        3348
        3352
        3356
        3360
        3364
        3368
        3372
        3376
        3380
        3384
        3388
        3392
        3396
        3400
        3404
        3408
        3412
        3416
        3420
        3424
        3428
        3432
        3436
        3440
        3444
        3448
        3452
        3456
        3460
        3464
        3468
        3472
        3476
        3480
        3484
        3488
        3492
        3496
        3500
        3504
        3508
        3512
        3516
        3520
        3524
        3528
        3532
        3536
        3540
        3544
        3548
        3552
        3556
        3560
        3564
        3568
        3572
        3576
        3580
        3584
        3588
        3592
        3596
        3600
        3604
        3608
        3612
        3616
        3620
        3624
        3628
        3632
        3636
        3640
        3644
        3648
        3652
        3656
        3660
        3664
        3668
        3672
        3676
        3680
        3684
        3688
        3692
        3696
        3700
        3704
        3708
        3712
        3716
        3720
        3724
        3728
        3732
        3736
        3740
        3744
        3748
        3752
        3756
        3760
        3764
        3768
        3772
        3776
        3780
        3784
        3788
        3792
        3796
        3800
        3804
        3808
        3812
        3816
        3820
        3824
        3828
        3832
        3836
        3840
        3844
        3848
        3852
        3856
        3860
        3864
        3868
        3872
        3876
        3880
        3884
        3888
        3892
        3896
        3900
        3904
        3908
        3912
        3916
        3920
        3924
        3928
        3932
        3936
        3940
        3944
        3948
        3952
        3956
        3960
        3964
        3968
        3972
        3976
        3980
        3984
        3988
        3992
        3996
        4000
        4004
        4008
        4012
        4016
        4020
        4024
        4028
        4032
        4036
        4040
        4044
        4048
        4052
        4056
        4060
        4064
        4068
        4072
        4076
        4080
        4084
        4088
        4092
        4096
 </DataArray>
 <DataArray  type="UInt8"  Name="types"  format="ascii">
 9
 9
 9
 9
 9
 9
 9
 9
 9
 9
 9
 9
 9
 9
 9
 9
 9
 9
 9
 9
 9
 9
 9
 9
 9
 9
 9
 9
 9
 9
 9
 9
 9
 9
 9
 9
 9
 9
 9
 9
 9
 9
 9
 9
 9
 9
 9
 9
 9
 9
 9
 9
 9
 9
 9
 9
 9
 9
 9
 9
 9
 9
 9
 9
 9
 9
 9
 9
 9
 9
 9
 9
 9
 9
 9
 9
 9
 9
 9
 9
 9
 9
 9
 9
 9
 9
 9
 9
 9
 9
 9
 9
 9
 9
 9
 9
 9
 9
 9
 9
 9
 9
 9
 9
 9
 9
 9
 9
 9
 9
 9
 9
 9
 9
 9
 9
 9
 9
 9
 9
 9
 9
 9
 9
 9
 9
 9
 9
 9
 9
 9
 9
 9
 9
 9
 9
 9
 9
 9
 9
 9
 9
 9
 9
 9
 9
 9
 9
 9
 9
 9
 9
 9
 9
 9
 9
 9
 9
 9
 9
 9
 9
 9
 9
 9
 9
 9
 9
 9
 9
 9
 9
 9
 9
 9
 9
 9
 9
 9
 9
 9
 9
 9
 9
 9
 9
 9
 9
 9
 9
 9
 9
 9
 9
 9
 9
 9
 9
 9
 9
 9
 9
 9
 9
 9
 9
 9
 9
 9
 9
 9
 9
 9
 9
 9
 9
 9
 9
 9
 9
 9
 9
 9
 9
 9
 9
 9
 9
 9
 9
 9
 9
 9
 9
 9
 9
 9
 9
 9
 9
 9
 9
 9
 9
 9
 9
 9
 9
 9
 9
 9
 9
 9
 9
 9
 9
 9
 9
 9
 9
 9
 9
 9
 9
 9
 9
 9
 9
 9
 9
 9
 9
 9
 9
 9
 9
 9
 9
 9
 9
 9
 9
 9
 9
 9
 9
 9
 9
 9
 9
 9
 9
 9
 9
 9
 9
 9
 9
 9
 9
 9
 9
 9
 9
 9
 9
 9
 9
 9
 9
 9
 9
 9
 9
 9
 9
 9
 9
 9
 9
 9
 9
 9
 9
 9
 9
 9
 9
 9
 9
 9
 9
 9
 9
 9
 9
 9
 9
 9
 9
 9
 9
 9
 9
 9
 9
 9
 9
 9
 9
 9
 9
 9
 9
 9
 9
 9
 9
 9
 9
 9
 9
 9
 9
 9
 9
 9
 9
 9
 9
 9
 9
 9
 9
 9
 9
 9
 9
 9
 9
 9
 9
 9
 9
 9
 9
 9
 9
 9
 9
 9
 9
 9
 9
 9
 9
 9
 9
 9
 9
 9
 9
 9
 9
 9
 9
 9
 9
 9
 9
 9
 9
 9
 9
 9
 9
 9
 9
 9
 9
 9
 9
 9
 9
 9
 9
 9
 9
 9
 9
 9
 9
 9
 9
 9
 9
 9
 9
 9
 9
 9
 9
 9
 9
 9
 9
 9
 9
 9
 9
 9
 9
 9
 9
 9
 9
 9
 9
 9
 9
 9
 9
 9
 9
 9
 9
 9
 9
 9
 9
 9
 9
 9
 9
 9
 9
 9
 9
 9
 9
 9
 9
 9
 9
 9
 9
 9
 9
 9
 9
 9
 9
 9
 9
 9
 9
 9
 9
 9
 9
 9
 9
 9
 9
 9
 9
 9
 9
 9
 9
 9
 9
 9
 9
 9
 9
 9
 9
 9
 9
 9
 9
 9
 9
 9
 9
 9
 9
 9
 9
 9
 9
 9
 9
 9
 9
 9
 9
 9
 9
 9
 9
 9
 9
 9
 9
 9
 9
 9
 9
 9
 9
 9
 9
 9
 9
 9
 9
 9
 9
 9
 9
 9
 9
 9
 9
 9
 9
 9
 9
 9
 9
 9
 9
 9
 9
 9
 9
 9
 9
 9
 9
 9
 9
 9
 9
 9
 9
 9
 9
 9
 9
 9
 9
 9
 9
 9
 9
 9
 9
 9
 9
 9
 9
 9
 9
 9
 9
 9
 9
 9
 9
 9
 9
 9
 9
 9
 9
 9
 9
 9
 9
 9
 9
 9
 9
 9
 9
 9
 9
 9
 9
 9
 9
 9
 9
 9
 9
 9
 9
 9
 9
 9
 9
 9
 9
 9
 9
 9
 9
 9
 9
 9
 9
 9
 9
 9
 9
 9
 9
 9
 9
 9
 9
 9
 9
 9
 9
 9
 9
 9
 9
 9
 9
 9
 9
 9
 9
 9
 9
 9
 9
 9
 9
 9
 9
 9
 9
 9
 9
 9
 9
 9
 9
 9
 9
 9
 9
 9
 9
 9
 9
 9
 9
 9
 9
 9
 9
 9
 9
 9
 9
 9
 9
 9
 9
 9
 9
 9
 9
 9
 9
 9
 9
 9
 9
 9
 9
 9
 9
 9
 9
 9
 9
 9
 9
 9
 9
 9
 9
 9
 9
 9
 9
 9
 9
 9
 9
 9
 9
 9
 9
 9
 9
 9
 9
 9
 9
 9
 9
 9
 9
 9
 9
 9
 9
 9
 9
 9
 9
 9
 9
 9
 9
 9
 9
 9
 9
 9
 9
 9
 9
 9
 9
 9
 9
 9
 9
 9
 9
 9
 9
 9
 9
 9
 9
 9
 9
 9
 9
 9
 9
 9
 9
 9
 9
 9
 9
 9
 9
 9
 9
 9
 9
 9
 9
 9
 9
 9
 9
 9
 9
 9
 9
 9
 9
 9
 9
 9
 9
 9
 9
 9
 9
 9
 9
 9
 9
 9
 9
 9
 9
 9
 9
 9
 9
 9
 9
 9
 9
 9
 9
 9
 9
 9
 9
 9
 9
 9
 9
 9
 9
 9
 9
 9
 9
 9
 9
 9
 9
 9
 9
 9
 9
 9
 9
 9
 9
 9
 9
 9
 9
 9
 9
 9
 9
 9
 9
 9
 9
 9
 9
 9
 9
 9
 9
 9
 9
 9
 9
 9
 9
 9
 9
 9
 9
 9
 9
 9
 9
 9
 9
 9
 9
 9
 9
 9
 9
 9
 9
 9
 9
 9
 9
 9
 9
 9
 9
 9
 9
 9
 9
 9
 9
 9
 9
 9
 9
 9
 9
 9
 9
 9
 9
 9
 9
 9
 9
 9
 9
 9
 9
 9
 9
 9
 9
 9
 9
 9
 9
 9
 9
 9
 9
 9
 9
 9
 9
 9
 9
 9
 9
 9
 9
 9
 9
 9
 9
 9
 9
 9
 9
 9
 9
 9
 9
 9
 9
 9
 9
 9
 9
 9
 9
 9
 9
 9
 9
 9
 9
 9
 9
 9
 9
 9
 9
 9
 9
 9
 9
 9
 9
 9
 9
 9
 9
 9
 9
 9
 9
 9
 9
 9
 9
 </DataArray>
 </Cells> 
 <PointData>
 <DataArray  type="Float64" Name="disp" NumberOfComponents="3" format="ascii">
   6.5314648166242384E-002   6.2785510263259889E-002   0.0000000000000000     
   6.8371656955648161E-002   6.8175635444802443E-002   0.0000000000000000     
   7.1334880362308173E-002   7.3744037095969550E-002   0.0000000000000000     
   7.4204318386222379E-002   7.9490715216761210E-002   0.0000000000000000     
   7.6979971027390820E-002   8.5415669807177408E-002   0.0000000000000000     
   6.0138345527579358E-002   6.1887327612478421E-002   0.0000000000000000     
   6.3008064990801874E-002   6.7300026846150579E-002   0.0000000000000000     
   6.5789175759163793E-002   7.2893178856725249E-002   0.0000000000000000     
   6.8481677832665122E-002   7.8666783644202459E-002   0.0000000000000000     
   7.1085571211305890E-002   8.4620841208582209E-002   0.0000000000000000     
   5.5156551469792064E-002   6.1043325239938426E-002   0.0000000000000000     
   5.7839174393125151E-002   6.6479485540205122E-002   0.0000000000000000     
   6.0438248156527388E-002   7.2097240764754170E-002   0.0000000000000000     
   6.2953772759998791E-002   7.7896590913585528E-002   0.0000000000000000     
   6.5385748203539359E-002   8.3877535986699239E-002   0.0000000000000000     
   5.0369265992880483E-002   6.0253503145639868E-002   0.0000000000000000     
   5.2864985162618006E-002   6.5714011526966098E-002   0.0000000000000000     
   5.5282097554398960E-002   7.1356222820056270E-002   0.0000000000000000     
   5.7620603168223386E-002   7.7180137024910445E-002   0.0000000000000000     
   5.9880502004091223E-002   8.3185754141528526E-002   0.0000000000000000     
   4.5776489096844647E-002   5.9517861329582783E-002   0.0000000000000000     
   4.8085497299280432E-002   6.5003604806433468E-002   0.0000000000000000     
   5.0320723952778507E-002   7.0670125022631577E-002   0.0000000000000000     
   5.2482169057338872E-002   7.6517421978177111E-002   0.0000000000000000     
   5.4569832612961507E-002   8.2545495673070068E-002   0.0000000000000000     
   7.6979971027390820E-002   8.5415669807177408E-002   0.0000000000000000     
   7.9660426853756655E-002   9.1508973021485931E-002   0.0000000000000000     
   8.2244274433263098E-002   9.7760697013954526E-002   0.0000000000000000     
   8.4731513765910121E-002  0.10417084178458316        0.0000000000000000     
   8.7122144851697739E-002  0.11073940733337190        0.0000000000000000     
   7.1085571211305890E-002   8.4620841208582209E-002   0.0000000000000000     
   7.3599803303119229E-002   9.0743930795716118E-002   0.0000000000000000     
   7.6023321516138331E-002   9.7024631651455875E-002   0.0000000000000000     
   7.8356125850363181E-002  0.10346294377580149        0.0000000000000000     
   8.0598216305793807E-002  0.11005886716875296        0.0000000000000000     
   6.5385748203539359E-002   8.3877535986699239E-002   0.0000000000000000     
   6.7733533657701947E-002   9.0027881480952643E-002   0.0000000000000000     
   6.9996488293039436E-002   9.6335432893203177E-002   0.0000000000000000     
   7.2174612109551825E-002  0.10280019022345079        0.0000000000000000     
   7.4267905107239116E-002  0.10942215347169550        0.0000000000000000     
   5.9880502004091223E-002   8.3185754141528526E-002   0.0000000000000000     
   6.2061617917504822E-002   8.9360825077195546E-002   0.0000000000000000     
   6.4163774763966425E-002   9.5693100739196360E-002   0.0000000000000000     
   6.6186972543476011E-002  0.10218258112753104        0.0000000000000000     
   6.8131211256033622E-002  0.10882926624219950        0.0000000000000000     
   5.4569832612961507E-002   8.2545495673070068E-002   0.0000000000000000     
   5.6584056082527832E-002   8.8742761584444732E-002   0.0000000000000000     
   5.8525180928919257E-002   9.5097635189435453E-002   0.0000000000000000     
   6.0393207152135767E-002  0.10161011648804219        0.0000000000000000     
   6.2188134752177368E-002  0.10828020548026497        0.0000000000000000     
   8.7122144851697739E-002  0.11073940733337190        0.0000000000000000     
   8.9416720973706870E-002  0.11745379999063485        0.0000000000000000     
   9.1615795415018408E-002  0.12430142608668612        0.0000000000000000     
   9.3719368175632367E-002  0.13128228562152577        0.0000000000000000     
   9.5727439255548746E-002  0.13839637859515375        0.0000000000000000     
   8.0598216305793807E-002  0.11005886716875296        0.0000000000000000     
   8.2750098435554448E-002  0.11680036727297059        0.0000000000000000     
   8.4812277792769411E-002  0.12367540953111468        0.0000000000000000     
   8.6784754377438669E-002  0.13068399394318528        0.0000000000000000     
   8.8667528189562222E-002  0.13782612050918230        0.0000000000000000     
   7.4267905107239116E-002  0.10942215347169550        0.0000000000000000     
   7.6276764208366821E-002  0.11618956551003531        0.0000000000000000     
   7.8201586335200482E-002  0.12309066921056824        0.0000000000000000     
   8.0042371487740113E-002  0.13012546457329430        0.0000000000000000     
   8.1799119665985687E-002  0.13729395159821342        0.0000000000000000     
   6.8131211256033622E-002  0.10882926624219950        0.0000000000000000     
   6.9996718292143933E-002  0.11562139470182903        0.0000000000000000     
   7.1783721042311635E-002  0.12254720512504681        0.0000000000000000     
   7.3492219506536713E-002  0.12960669751185286        0.0000000000000000     
   7.5122213684819167E-002  0.13679987186224712        0.0000000000000000     
   6.2188134752177368E-002  0.10828020548026497        0.0000000000000000     
   6.3909960686885800E-002  0.11509585484835172        0.0000000000000000     
   6.5558681914102843E-002  0.12204501727455036        0.0000000000000000     
   6.7134298433828454E-002  0.12912769275886091        0.0000000000000000     
   6.8636810246062663E-002  0.13634388130128336        0.0000000000000000     
   9.5727439255548746E-002  0.13839637859515375        0.0000000000000000     
   9.7641167963401235E-002  0.14563197249387846        0.0000000000000000     
   9.9461713607823521E-002  0.15297733480400832        0.0000000000000000     
  0.10118907618881559       0.16043246552554327        0.0000000000000000     
  0.10282325570637746       0.16799736465848336        0.0000000000000000     
   8.8667528189562222E-002  0.13782612050918230        0.0000000000000000     
   9.0461681328161223E-002  0.14508951891686561        0.0000000000000000     
   9.2168295892256807E-002  0.15246191885399496        0.0000000000000000     
   9.3787371881848977E-002  0.15994332032057032        0.0000000000000000     
   9.5318909296937746E-002  0.16753372331659169        0.0000000000000000     
   8.1799119665985687E-002  0.13729395159821342        0.0000000000000000     
   8.3472703203740117E-002  0.14458361226319819        0.0000000000000000     
   8.5063994434806264E-002  0.15198192854612114        0.0000000000000000     
   8.6572993359184114E-002  0.15948890044698222        0.0000000000000000     
   8.7999699976873680E-002  0.16710452796578146        0.0000000000000000     
   7.5122213684819167E-002  0.13679987186224712        0.0000000000000000     
   7.6674233590137933E-002  0.14411425253287627        0.0000000000000000     
   7.8148809235471864E-002  0.15153736388038691        0.0000000000000000     
   7.9545940620820960E-002  0.15906920590477905        0.0000000000000000     
   8.0865627746185290E-002  0.16670977860605263        0.0000000000000000     
   6.8636810246062663E-002  0.13634388130128336        0.0000000000000000     
   7.0066272487354642E-002  0.14368143972589978        0.0000000000000000     
   7.1422740294253620E-002  0.15112822485679223        0.0000000000000000     
   7.2706213666759584E-002  0.15868423669396076        0.0000000000000000     
   7.3916692604872547E-002  0.16634947523740526        0.0000000000000000     
  0.10282325570637746       0.16799736465848336        0.0000000000000000     
  0.10436821927282025       0.17566207638473069        0.0000000000000000     
  0.10582793400045508       0.18341664488618734        0.0000000000000000     
  0.10720239988928193       0.19126107016285337        0.0000000000000000     
  0.10849161693930082       0.19919535221472873        0.0000000000000000     
   9.5318909296937746E-002  0.16753372331659169        0.0000000000000000     
   9.6765004928317480E-002  0.17522384916626399        0.0000000000000000     
   9.8127755566782632E-002  0.18300441919379204        0.0000000000000000     
   9.9407161212333159E-002  0.19087543339917593        0.0000000000000000     
  0.10060322186496908       0.19883689178241559        0.0000000000000000     
   8.7999699976873680E-002  0.16710452796578146        0.0000000000000000     
   8.9344821519366041E-002  0.17481978715646626        0.0000000000000000     
   9.0609065218152346E-002  0.18262565407298412        0.0000000000000000     
   9.1792431073232511E-002  0.19052212871533505        0.0000000000000000     
   9.2894919084606606E-002  0.19850921108351904        0.0000000000000000     
   8.0865627746185290E-002  0.16670977860605263        0.0000000000000000     
   8.2107669045965961E-002  0.17444989035533756        0.0000000000000000     
   8.3271862954564180E-002  0.18228034952376362        0.0000000000000000     
   8.4358209471980028E-002  0.19020115611133082        0.0000000000000000     
   8.5366708598213409E-002  0.19821231011803911        0.0000000000000000     
   7.3916692604872547E-002  0.16634947523740526        0.0000000000000000     
   7.5053547508117172E-002  0.17411415876287784        0.0000000000000000     
   7.6116148776018230E-002  0.18196850554613048        0.0000000000000000     
   7.7104496408575668E-002  0.18991251558716310        0.0000000000000000     
   7.8018590405789512E-002  0.19794618888597584        0.0000000000000000     
  0.10849161693930082       0.19919535221472873        0.0000000000000000     
  0.10970038809793614       0.20721530325694984        0.0000000000000000     
  0.11083351631261232       0.21531673550465300        0.0000000000000000     
  0.11189100158332936       0.22349964895783825        0.0000000000000000     
  0.11287284391008723       0.23176404361650557        0.0000000000000000     
  0.10060322186496908       0.19883689178241559        0.0000000000000000     
  0.10172091574792308       0.20688225660910389        0.0000000000000000     
  0.10276522108442782       0.21500499014483374        0.0000000000000000     
  0.10373613787448333       0.22320509238960512        0.0000000000000000     
  0.10463366611808959       0.23148256334341805        0.0000000000000000     
   9.2894919084606606E-002  0.19850921108351904        0.0000000000000000     
   9.3920841241202174E-002  0.20657908303988332        0.0000000000000000     
   9.4874509531946774E-002  0.21472392644677524        0.0000000000000000     
   9.5755923956840433E-002  0.22294374130419473        0.0000000000000000     
   9.6565084515883151E-002  0.23123852761214178        0.0000000000000000     
   8.5366708598213409E-002  0.19821231011803911        0.0000000000000000     
   8.6300164577773453E-002  0.20630578254928816        0.0000000000000000     
   8.7161381655169221E-002  0.21447354441047745        0.0000000000000000     
   8.7950359830400712E-002  0.22271559570160704        0.0000000000000000     
   8.8667099103467914E-002  0.23103193642267680        0.0000000000000000     
   7.8018590405789512E-002  0.19794618888597584        0.0000000000000000     
   7.8858885757636943E-002  0.20606235513731833        0.0000000000000000     
   7.9625837454095141E-002  0.21425384403594036        0.0000000000000000     
   8.0319445495164135E-002  0.22252065558184198        0.0000000000000000     
   8.0939709880843896E-002  0.23086278977502311        0.0000000000000000     
  0.11287284391008723       0.23176404361650557        0.0000000000000000     
  0.11380738947888377       0.24012667338196145        0.0000000000000000     
  0.11472298447571680       0.24860429215551230        0.0000000000000000     
  0.11561962890058627       0.25719689993715822        0.0000000000000000     
  0.11649732275349224       0.26590449672689909        0.0000000000000000     
  0.10463366611808959       0.23148256334341805        0.0000000000000000     
  0.10546295509274897       0.23986100256977405        0.0000000000000000     
  0.10622915407596385       0.24836400963217453        0.0000000000000000     
  0.10693226306773421       0.25699158453061960        0.0000000000000000     
  0.10757228206806005       0.26574372726510925        0.0000000000000000     
   9.6565084515883151E-002  0.23123852761214178        0.0000000000000000     
   9.7292924566632979E-002  0.23963480765412781        0.0000000000000000     
   9.7930377466648025E-002  0.24815910371366409        0.0000000000000000     
   9.8477443215928259E-002  0.25681141579075062        0.0000000000000000     
   9.8934121814473683E-002  0.26559174388538742        0.0000000000000000     
   8.8667099103467914E-002  0.23103193642267680        0.0000000000000000     
   8.9297297900535810E-002  0.23944808863502287        0.0000000000000000     
   8.9826654647769302E-002  0.24798957439998101        0.0000000000000000     
   9.0255169345168432E-002  0.25665639371755122        0.0000000000000000     
   9.0582841992733171E-002  0.26544854658773365        0.0000000000000000     
   8.0939709880843896E-002  0.23086278977502311        0.0000000000000000     
   8.1476075094457409E-002  0.23930084551245911        0.0000000000000000     
   8.1917985619327685E-002  0.24785542169112523        0.0000000000000000     
   8.2265441455454710E-002  0.25652651831102147        0.0000000000000000     
   8.2518442602838471E-002  0.26531413537214787        0.0000000000000000     
  0.11649732275349224       0.26590449672689909        0.0000000000000000     
  0.11729635789780010       0.27489157538224046        0.0000000000000000     
  0.11795702619687534       0.28432262876068787        0.0000000000000000     
  0.11847932765071792       0.29419765686224131        0.0000000000000000     
  0.11886326225932785       0.30451665968690078        0.0000000000000000     
  0.10757228206806005       0.26574372726510925        0.0000000000000000     
  0.10813020433497897       0.27475252557103569        0.0000000000000000     
  0.10858702312652858       0.28415006718379121        0.0000000000000000     
  0.10894273844270889       0.29393635210337588        0.0000000000000000     
  0.10919735028351990       0.30411138032978957        0.0000000000000000     
   9.8934121814473683E-002  0.26559174388538742        0.0000000000000000     
   9.9311420833133893E-002  0.27459836064880755        0.0000000000000000     
   9.9620347842758417E-002  0.28392953873224402        0.0000000000000000     
   9.9860902843347282E-002  0.29358527813569690        0.0000000000000000     
  0.10003308583490050       0.30356557885916619        0.0000000000000000     
   9.0582841992733171E-002  0.26544854658773365        0.0000000000000000     
   9.0840007392264874E-002  0.27442908061555599        0.0000000000000000     
   9.1057000345564826E-002  0.28366104340604631        0.0000000000000000     
   9.1233820852633110E-002  0.29314443495920456        0.0000000000000000     
   9.1370468913469630E-002  0.30287925527503068        0.0000000000000000     
   8.2518442602838471E-002  0.26531413537214787        0.0000000000000000     
   8.2715964012371884E-002  0.27424468547128117        0.0000000000000000     
   8.2896980634947839E-002  0.28334458120519807        0.0000000000000000     
   8.3061492470566323E-002  0.29261382257389873        0.0000000000000000     
   8.3209499519227348E-002  0.30205240957738294        0.0000000000000000     
   4.5776489096844647E-002   5.9517861329582783E-002   0.0000000000000000     
   4.8085497299280432E-002   6.5003604806433468E-002   0.0000000000000000     
   5.0320723952778507E-002   7.0670125022631577E-002   0.0000000000000000     
   5.2482169057338872E-002   7.6517421978177111E-002   0.0000000000000000     
   5.4569832612961507E-002   8.2545495673070068E-002   0.0000000000000000     
   4.1354244421137713E-002   5.8839837364646638E-002   0.0000000000000000     
   4.3475576389661562E-002   6.4349364810552895E-002   0.0000000000000000     
   4.5528198051620963E-002   7.0038615054876019E-002   0.0000000000000000     
   4.7512109407015946E-002   7.5907588097616052E-002   0.0000000000000000     
   4.9427310455846481E-002   8.1956283938772953E-002   0.0000000000000000     
   3.7078555605212907E-002   5.8222868823710930E-002   0.0000000000000000     
   3.9010088020310502E-002   6.3752390971269973E-002   0.0000000000000000     
   4.0878590550881298E-002   6.9461360599185548E-002   0.0000000000000000     
   4.2684063196925269E-002   7.5349777707457669E-002   0.0000000000000000     
   4.4426505958442442E-002   8.1417642296086307E-002   0.0000000000000000     
   3.2949422649070220E-002   5.7666955706775665E-002   0.0000000000000000     
   3.4689032191227265E-002   6.3212683288584717E-002   0.0000000000000000     
   3.6371901450559491E-002   6.8938361655560138E-002   0.0000000000000000     
   3.7998030427066856E-002   7.4843990807701946E-002   0.0000000000000000     
   3.9567419120749389E-002   8.0929570745010115E-002   0.0000000000000000     
   2.8966845552709647E-002   5.7172098013840850E-002   0.0000000000000000     
   3.0512408902411858E-002   6.2730241762497127E-002   0.0000000000000000     
   3.2008130750655547E-002   6.8469618223999801E-002   0.0000000000000000     
   3.3454011097440700E-002   7.4390227398348913E-002   0.0000000000000000     
   3.4850049942767324E-002   8.0492069285544407E-002   0.0000000000000000     
   5.4569832612961507E-002   8.2545495673070068E-002   0.0000000000000000     
   5.6584056082527832E-002   8.8742761584444732E-002   0.0000000000000000     
   5.8525180928919257E-002   9.5097635189435453E-002   0.0000000000000000     
   6.0393207152135767E-002  0.10161011648804219        0.0000000000000000     
   6.2188134752177368E-002  0.10828020548026497        0.0000000000000000     
   4.9427310455846481E-002   8.1956283938772953E-002   0.0000000000000000     
   5.1274521887798880E-002   8.8173897104809773E-002   0.0000000000000000     
   5.3054464392559474E-002   9.4549622122189494E-002   0.0000000000000000     
   5.4767137970128228E-002  0.10108345899091215        0.0000000000000000     
   5.6412542620505143E-002  0.10777540771097771        0.0000000000000000     
   4.4426505958442442E-002   8.1417642296086307E-002   0.0000000000000000     
   4.6106689068345842E-002   8.7654437740400076E-002   0.0000000000000000     
   4.7725382759548546E-002   9.4049647415727522E-002   0.0000000000000000     
   4.9282587032050525E-002  0.10060327132206866        0.0000000000000000     
   5.0778301885851800E-002  0.10731530945942351        0.0000000000000000     
   3.9567419120749389E-002   8.0929570745010115E-002   0.0000000000000000     
   4.1080557624168713E-002   8.7184383491215656E-002   0.0000000000000000     
   4.2537936029886467E-002   9.3597711070049563E-002   0.0000000000000000     
   4.3939554337902677E-002  0.10016955348151178        0.0000000000000000     
   4.5285412548217309E-002  0.10689991072560234        0.0000000000000000     
   3.4850049942767324E-002   8.0492069285544407E-002   0.0000000000000000     
   3.6196127555267486E-002   8.6763734357256553E-002   0.0000000000000000     
   3.7492124203573264E-002   9.3193813085155564E-002   0.0000000000000000     
   3.8738039887684664E-002   9.9782305469241481E-002   0.0000000000000000     
   3.9933874607601672E-002  0.10652921150951426        0.0000000000000000     
   6.2188134752177368E-002  0.10828020548026497        0.0000000000000000     
   6.3909960686885800E-002  0.11509585484835172        0.0000000000000000     
   6.5558681914102843E-002  0.12204501727455036        0.0000000000000000     
   6.7134298433828454E-002  0.12912769275886091        0.0000000000000000     
   6.8636810246062663E-002  0.13634388130128336        0.0000000000000000     
   5.6412542620505143E-002  0.10777540771097771        0.0000000000000000     
   5.7990458404843882E-002  0.11461309527111523        0.0000000000000000     
   5.9500665384298004E-002  0.12158414866005371        0.0000000000000000     
   6.0943163558867523E-002  0.12868856787779320        0.0000000000000000     
   6.2317952928552467E-002  0.13592635292433361        0.0000000000000000     
   5.0778301885851800E-002  0.10731530945942351        0.0000000000000000     
   5.2212178458269566E-002  0.11417326529163138        0.0000000000000000     
   5.3583867886621020E-002  0.12116464228253163        0.0000000000000000     
   5.4893370170906154E-002  0.12828944043212429        0.0000000000000000     
   5.6140685311124983E-002  0.13554765974040933        0.0000000000000000     
   4.5285412548217309E-002  0.10689991072560234        0.0000000000000000     
   4.6575120847162872E-002  0.11377636490990019        0.0000000000000000     
   4.7808289421071876E-002  0.12078649814198415        0.0000000000000000     
   4.8984918269944298E-002  0.12793031042185429        0.0000000000000000     
   5.0105007393780168E-002  0.13520780174951053        0.0000000000000000     
   3.9933874607601672E-002  0.10652921150951426        0.0000000000000000     
   4.1079285571523801E-002  0.11342239412592162        0.0000000000000000     
   4.2173929987650578E-002  0.12044971623841123        0.0000000000000000     
   4.3217807855981977E-002  0.12761117784698309        0.0000000000000000     
   4.4210919176518024E-002  0.13490677895163722        0.0000000000000000     
   6.8636810246062663E-002  0.13634388130128336        0.0000000000000000     
   7.0066272487354642E-002  0.14368143972589978        0.0000000000000000     
   7.1422740294253620E-002  0.15112822485679223        0.0000000000000000     
   7.2706213666759584E-002  0.15868423669396076        0.0000000000000000     
   7.3916692604872547E-002  0.16634947523740526        0.0000000000000000     
   6.2317952928552467E-002  0.13592635292433361        0.0000000000000000     
   6.3624611534327413E-002  0.14328575257710108        0.0000000000000000     
   6.4862717417166926E-002  0.15075501561352167        0.0000000000000000     
   6.6032270577071034E-002  0.15833414203359536        0.0000000000000000     
   6.7133271014039722E-002  0.16602313183732220        0.0000000000000000     
   5.6140685311124983E-002  0.13554765974040933        0.0000000000000000     
   5.7325042369993369E-002  0.14292776982131256        0.0000000000000000     
   5.8445670410227170E-002  0.15041824028875980        0.0000000000000000     
   5.9502569431826406E-002  0.15801907114275099        0.0000000000000000     
   6.0495739434791071E-002  0.16573026238328628        0.0000000000000000     
   5.0105007393780168E-002  0.13520780174951053        0.0000000000000000     
   5.1167564994352495E-002  0.14260749145853424        0.0000000000000000     
   5.2171599273434344E-002  0.15011789888250665        0.0000000000000000     
   5.3117110231025721E-002  0.15773902402142773        0.0000000000000000     
   5.4004097867126601E-002  0.16547086687529752        0.0000000000000000     
   4.4210919176518024E-002  0.13490677895163722        0.0000000000000000     
   4.5152179407404819E-002  0.14232491748876605        0.0000000000000000     
   4.6040504006788455E-002  0.14985399139476216        0.0000000000000000     
   4.6875892974668945E-002  0.15749400066962543        0.0000000000000000     
   4.7658346311046290E-002  0.16524494531335598        0.0000000000000000     
   7.3916692604872547E-002  0.16634947523740526        0.0000000000000000     
   7.5053547508117172E-002  0.17411415876287784        0.0000000000000000     
   7.6116148776018230E-002  0.18196850554613048        0.0000000000000000     
   7.7104496408575668E-002  0.18991251558716310        0.0000000000000000     
   7.8018590405789512E-002  0.19794618888597584        0.0000000000000000     
   6.7133271014039722E-002  0.16602313183732220        0.0000000000000000     
   6.8164901139769474E-002  0.17381151091985564        0.0000000000000000     
   6.9126343365956772E-002  0.18168880517634917        0.0000000000000000     
   7.0017597692601644E-002  0.18965501460680284        0.0000000000000000     
   7.0838664119704048E-002  0.19771013921121669        0.0000000000000000     
   6.0495739434791071E-002  0.16573026238328628        0.0000000000000000     
   6.1424174174872538E-002  0.17354086536703936        0.0000000000000000     
   6.2286867407822209E-002  0.18143993145068421        0.0000000000000000     
   6.3083819133640071E-002  0.18942746063422081        0.0000000000000000     
   6.3815029352326136E-002  0.19750345291764915        0.0000000000000000     
   5.4004097867126601E-002  0.16547086687529752        0.0000000000000000     
   5.4831366613426399E-002  0.17330222210442914        0.0000000000000000     
   5.5597720901614543E-002  0.18122188436913564        0.0000000000000000     
   5.6303160731691025E-002  0.18922985366941703        0.0000000000000000     
   5.6947686103655824E-002  0.19732613000527327        0.0000000000000000     
   4.7658346311046290E-002  0.16524494531335598        0.0000000000000000     
   4.8386478455431044E-002  0.17309558113202486        0.0000000000000000     
   4.9058903847333760E-002  0.18103466393170337        0.0000000000000000     
   4.9675622486754445E-002  0.18906219371239144        0.0000000000000000     
   5.0236634373693079E-002  0.19717817047408909        0.0000000000000000     
   7.8018590405789512E-002  0.19794618888597584        0.0000000000000000     
   7.8858885757636943E-002  0.20606235513731833        0.0000000000000000     
   7.9625837454095141E-002  0.21425384403594036        0.0000000000000000     
   8.0319445495164135E-002  0.22252065558184198        0.0000000000000000     
   8.0939709880843896E-002  0.23086278977502311        0.0000000000000000     
   7.0838664119704048E-002  0.19771013921121669        0.0000000000000000     
   7.1587734754613747E-002  0.20584797922351902        0.0000000000000000     
   7.2263001704680474E-002  0.21406233487763834        0.0000000000000000     
   7.2864464969904230E-002  0.22235320617357465        0.0000000000000000     
   7.3392124550285043E-002  0.23072059311132795        0.0000000000000000     
   6.3815029352326136E-002  0.19750345291764915        0.0000000000000000     
   6.4477441542524966E-002  0.20566183322743536        0.0000000000000000     
   6.5067999182881114E-002  0.21389652649004570        0.0000000000000000     
   6.5586702273394568E-002  0.22220753270548010        0.0000000000000000     
   6.6033550814065353E-002  0.23059485187373857        0.0000000000000000     
   5.6947686103655824E-002  0.19732613000527327        0.0000000000000000     
   5.7528006121370621E-002  0.20550391714906743        0.0000000000000000     
   5.8040829888697049E-002  0.21375641887316246        0.0000000000000000     
   5.8486157405635113E-002  0.22208363517755833        0.0000000000000000     
   5.8863988672184814E-002  0.23048556606225504        0.0000000000000000     
   5.0236634373693079E-002  0.19717817047408909        0.0000000000000000     
   5.0739428491150693E-002  0.20537423098841515        0.0000000000000000     
   5.1181493822128291E-002  0.21364201202698854        0.0000000000000000     
   5.1562830366625872E-002  0.22198151358980928        0.0000000000000000     
   5.1883438124643438E-002  0.23039273567687732        0.0000000000000000     
   8.0939709880843896E-002  0.23086278977502311        0.0000000000000000     
   8.1476075094457409E-002  0.23930084551245911        0.0000000000000000     
   8.1917985619327685E-002  0.24785542169112523        0.0000000000000000     
   8.2265441455454710E-002  0.25652651831102147        0.0000000000000000     
   8.2518442602838471E-002  0.26531413537214787        0.0000000000000000     
   7.3392124550285043E-002  0.23072059311132795        0.0000000000000000     
   7.3842772346695063E-002  0.23917811715590750        0.0000000000000000     
   7.4213200260006482E-002  0.24773939977232259        0.0000000000000000     
   7.4503408290219314E-002  0.25640444096057324        0.0000000000000000     
   7.4713396437333532E-002  0.26517324072065951        0.0000000000000000     
   6.6033550814065353E-002  0.23059485187373857        0.0000000000000000     
   6.6410905855545987E-002  0.23906494243483892        0.0000000000000000     
   6.6721128448489028E-002  0.24762426282879896        0.0000000000000000     
   6.6964218592894462E-002  0.25627281305561866        0.0000000000000000     
   6.7140176288762288E-002  0.26501059311529801        0.0000000000000000     
   5.8863988672184814E-002  0.23048556606225504        0.0000000000000000     
   5.9180475621010212E-002  0.23896132134925344        0.0000000000000000     
   5.9441770184775318E-002  0.24751001086055424        0.0000000000000000     
   5.9647872363480153E-002  0.25613163459615762        0.0000000000000000     
   5.9798782157124711E-002  0.26482619255606332        0.0000000000000000     
   5.1883438124643438E-002  0.23039273567687732        0.0000000000000000     
   5.2151481643087687E-002  0.23886725389915098        0.0000000000000000     
   5.2375125468865337E-002  0.24739664386758853        0.0000000000000000     
   5.2554369601976375E-002  0.25598090558219011        0.0000000000000000     
   5.2689214042420815E-002  0.26462003904295545        0.0000000000000000     
   8.2518442602838471E-002  0.26531413537214787        0.0000000000000000     
   8.2715964012371884E-002  0.27424468547128117        0.0000000000000000     
   8.2896980634947839E-002  0.28334458120519807        0.0000000000000000     
   8.3061492470566323E-002  0.29261382257389873        0.0000000000000000     
   8.3209499519227348E-002  0.30205240957738294        0.0000000000000000     
   7.4713396437333532E-002  0.26517324072065951        0.0000000000000000     
   7.4884101696150868E-002  0.27403948052898591        0.0000000000000000     
   7.5056461061472957E-002  0.28299684186195700        0.0000000000000000     
   7.5230474533299799E-002  0.29204532471957284        0.0000000000000000     
   7.5406142111631436E-002  0.30118492910183348        0.0000000000000000     
   6.7140176288762288E-002  0.26501059311529801        0.0000000000000000     
   6.7289231446297657E-002  0.27380777110167331        0.0000000000000000     
   6.7451613975705677E-002  0.28263451510858084        0.0000000000000000     
   6.7627323876986403E-002  0.29149082513602054        0.0000000000000000     
   6.7816361150139795E-002  0.30037670118399262        0.0000000000000000     
   5.9798782157124711E-002  0.26482619255606332        0.0000000000000000     
   5.9931353262812265E-002  0.27354955718934343        0.0000000000000000     
   6.0082439377646062E-002  0.28225760094506952        0.0000000000000000     
   6.0252040501626102E-002  0.29095032382324193        0.0000000000000000     
   6.0440156634752391E-002  0.29962772582386038        0.0000000000000000     
   5.2689214042420815E-002  0.26462003904295545        0.0000000000000000     
   5.2810467145694692E-002  0.27326483879199603        0.0000000000000000     
   5.2948937267294063E-002  0.28186609937142310        0.0000000000000000     
   5.3104624407218914E-002  0.29042382078123669        0.0000000000000000     
   5.3277528565469259E-002  0.29893800302143675        0.0000000000000000     
   2.8966845552709647E-002   5.7172098013840850E-002   0.0000000000000000     
   3.0512408902411858E-002   6.2730241762497127E-002   0.0000000000000000     
   3.2008130750655547E-002   6.8469618223999801E-002   0.0000000000000000     
   3.3454011097440700E-002   7.4390227398348913E-002   0.0000000000000000     
   3.4850049942767324E-002   8.0492069285544407E-002   0.0000000000000000     
   2.5100706709205726E-002   5.6736999914398234E-002   0.0000000000000000     
   2.6451587589937826E-002   6.2305144733732630E-002   0.0000000000000000     
   2.7759617072994715E-002   6.8056001598130481E-002   0.0000000000000000     
   2.9024795158376384E-002   7.3989570507591806E-002   0.0000000000000000     
   3.0247121846082838E-002   8.0105851462116601E-002   0.0000000000000000     
   2.1320888511632989E-002   5.6360365577939629E-002   0.0000000000000000     
   2.2477937689878755E-002   6.1937470543016661E-002   0.0000000000000000     
   2.3598699039402260E-002   6.7698383071578105E-002   0.0000000000000000     
   2.4683172560203519E-002   7.3643103163623935E-002   0.0000000000000000     
   2.5731358252282528E-002   7.9771630819154157E-002   0.0000000000000000     
   1.7627390959991437E-002   5.6042195004464994E-002   0.0000000000000000     
   1.8591459202234629E-002   6.1627219190349226E-002   0.0000000000000000     
   1.9525376649878190E-002   6.7396762644342662E-002   0.0000000000000000     
   2.0429143302922108E-002   7.3350825366445285E-002   0.0000000000000000     
   2.1302759161366397E-002   7.9489407356657105E-002   0.0000000000000000     
   1.4020214054281069E-002   5.5782488193974369E-002   0.0000000000000000     
   1.4792152127005459E-002   6.1374390675730334E-002   0.0000000000000000     
   1.5539649904422487E-002   6.7151140316424163E-002   0.0000000000000000     
   1.6262707386532144E-002   7.3112737116055856E-002   0.0000000000000000     
   1.6961324573334442E-002   7.9259181074625415E-002   0.0000000000000000     
   3.4850049942767324E-002   8.0492069285544407E-002   0.0000000000000000     
   3.6196127555267486E-002   8.6763734357256553E-002   0.0000000000000000     
   3.7492124203573264E-002   9.3193813085155564E-002   0.0000000000000000     
   3.8738039887684664E-002   9.9782305469241481E-002   0.0000000000000000     
   3.9933874607601672E-002  0.10652921150951426        0.0000000000000000     
   3.0247121846082838E-002   8.0105851462116601E-002   0.0000000000000000     
   3.1425869940408094E-002   8.6392638155514567E-002   0.0000000000000000     
   3.2560312245646192E-002   9.2837724281595438E-002   0.0000000000000000     
   3.3650448761797118E-002   9.9441109840359129E-002   0.0000000000000000     
   3.4696279488860879E-002  0.10620279483180575        0.0000000000000000     
   2.5731358252282528E-002   7.9771630819154157E-002   0.0000000000000000     
   2.6742255858356462E-002   8.6071242702981554E-002   0.0000000000000000     
   2.7714865121142504E-002   9.2529215479918894E-002   0.0000000000000000     
   2.8649186040640658E-002   9.9145549149966164E-002   0.0000000000000000     
   2.9545218616850909E-002  0.10592024371312338        0.0000000000000000     
   2.1302759161366397E-002   7.9489407356657105E-002   0.0000000000000000     
   2.2145285309112583E-002   8.5799547999657541E-002   0.0000000000000000     
   2.2955782830062211E-002   9.2268286680126016E-002   0.0000000000000000     
   2.3734251724215269E-002   9.8895623398062529E-002   0.0000000000000000     
   2.4480691991571775E-002  0.10568155815346708        0.0000000000000000     
   1.6961324573334442E-002   7.9259181074625415E-002   0.0000000000000000     
   1.7634958292676466E-002   8.5577554045542500E-002   0.0000000000000000     
   1.8283065372405309E-002   9.2054937882216775E-002   0.0000000000000000     
   1.8905645812520973E-002   9.8691332584648267E-002   0.0000000000000000     
   1.9502699613023457E-002  0.10548673815283693        0.0000000000000000     
   3.9933874607601672E-002  0.10652921150951426        0.0000000000000000     
   4.1079285571523801E-002  0.11342239412592162        0.0000000000000000     
   4.2173929987650578E-002  0.12044971623841123        0.0000000000000000     
   4.3217807855981977E-002  0.12761117784698309        0.0000000000000000     
   4.4210919176518024E-002  0.13490677895163722        0.0000000000000000     
   3.4696279488860879E-002  0.10620279483180575        0.0000000000000000     
   3.5697524808217806E-002  0.11311095277379955        0.0000000000000000     
   3.6653905101248239E-002  0.12015375718420478        0.0000000000000000     
   3.7565420367952171E-002  0.12733120806302142        0.0000000000000000     
   3.8432070608329608E-002  0.13464330541024952        0.0000000000000000     
   2.9545218616850909E-002  0.10592024371312338        0.0000000000000000     
   3.0402690734110338E-002  0.11284164068763779        0.0000000000000000     
   3.1221330276755981E-002  0.11989808159175662        0.0000000000000000     
   3.2001137244787863E-002  0.12708956642547992        0.0000000000000000     
   3.2742111638205951E-002  0.13441609518880768        0.0000000000000000     
   2.4480691991571775E-002  0.10568155815346708        0.0000000000000000     
   2.5194783349201392E-002  0.11261445786743630        0.0000000000000000     
   2.5876205514173811E-002  0.11968268946106680        0.0000000000000000     
   2.6524958486489031E-002  0.12688625293435857        0.0000000000000000     
   2.7141042266147053E-002  0.13422514828731155        0.0000000000000000     
   1.9502699613023457E-002  0.10548673815283693        0.0000000000000000     
   2.0073802653490971E-002  0.11242940431319516        0.0000000000000000     
   2.0618530813501717E-002  0.11950758079213530        0.0000000000000000     
   2.1136884093055697E-002  0.12672126758965735        0.0000000000000000     
   2.1628862492152914E-002  0.13407046470576134        0.0000000000000000     
   4.4210919176518024E-002  0.13490677895163722        0.0000000000000000     
   4.5152179407404819E-002  0.14232491748876605        0.0000000000000000     
   4.6040504006788455E-002  0.14985399139476216        0.0000000000000000     
   4.6875892974668945E-002  0.15749400066962543        0.0000000000000000     
   4.7658346311046290E-002  0.16524494531335598        0.0000000000000000     
   3.8432070608329608E-002  0.13464330541024952        0.0000000000000000     
   3.9252771049052698E-002  0.14207827727871192        0.0000000000000000     
   4.0026436916793605E-002  0.14962435172123140        0.0000000000000000     
   4.0753068211552328E-002  0.15728152873780801        0.0000000000000000     
   4.1432664933328846E-002  0.16504980832844174        0.0000000000000000     
   3.2742111638205951E-002  0.13441609518880768        0.0000000000000000     
   3.3443225359198539E-002  0.14186580019507558        0.0000000000000000     
   3.4103450309953903E-002  0.14942681375761946        0.0000000000000000     
   3.4722786490472030E-002  0.15709913587643931        0.0000000000000000     
   3.5301233900752925E-002  0.16488276655153505        0.0000000000000000     
   2.7141042266147053E-002  0.13422514828731155        0.0000000000000000     
   2.7723542337842338E-002  0.14168748623785710        0.0000000000000000     
   2.8271544186269346E-002  0.14926137750392635        0.0000000000000000     
   2.8785047811428082E-002  0.15694682208551924        0.0000000000000000     
   2.9264053213318542E-002  0.16474381998263590        0.0000000000000000     
   2.1628862492152914E-002  0.13407046470576134        0.0000000000000000     
   2.2093721984984088E-002  0.14154333540705644        0.0000000000000000     
   2.2530718545739938E-002  0.14912804296015203        0.0000000000000000     
   2.2939852174420471E-002  0.15682458736504795        0.0000000000000000     
   2.3321122871025685E-002  0.16463296862174431        0.0000000000000000     
   4.7658346311046290E-002  0.16524494531335598        0.0000000000000000     
   4.8386478455431044E-002  0.17309558113202486        0.0000000000000000     
   4.9058903847333760E-002  0.18103466393170337        0.0000000000000000     
   4.9675622486754445E-002  0.18906219371239144        0.0000000000000000     
   5.0236634373693079E-002  0.19717817047408909        0.0000000000000000     
   4.1432664933328846E-002  0.16504980832844174        0.0000000000000000     
   4.2063712976516059E-002  0.17291795355476725        0.0000000000000000     
   4.2644698235506831E-002  0.18087472747841918        0.0000000000000000     
   4.3175620710301170E-002  0.18892013009939765        0.0000000000000000     
   4.3656480400899075E-002  0.19705416141770252        0.0000000000000000     
   3.5301233900752925E-002  0.16488276655153505        0.0000000000000000     
   3.5837273452311018E-002  0.17276635047759689        0.0000000000000000     
   3.6329386056660723E-002  0.18073853234931492        0.0000000000000000     
   3.6777571713802047E-002  0.18879931216668919        0.0000000000000000     
   3.7181830423734991E-002  0.19694868992971959        0.0000000000000000     
   2.9264053213318542E-002  0.16474381998263590        0.0000000000000000     
   2.9707159882815921E-002  0.17264077190051380        0.0000000000000000     
   3.0112967310795428E-002  0.18062607854439053        0.0000000000000000     
   3.0481475497257052E-002  0.18869973991426608        0.0000000000000000     
   3.0812684442200811E-002  0.19686175601014039        0.0000000000000000     
   2.3321122871025685E-002  0.16463296862174431        0.0000000000000000     
   2.3673372268030780E-002  0.17254121782351800        0.0000000000000000     
   2.3995441997910951E-002  0.18053736606364598        0.0000000000000000     
   2.4287332060666203E-002  0.18862141334212826        0.0000000000000000     
   2.4549042456296535E-002  0.19679335965896480        0.0000000000000000     
   5.0236634373693079E-002  0.19717817047408909        0.0000000000000000     
   5.0739428491150693E-002  0.20537423098841515        0.0000000000000000     
   5.1181493822128291E-002  0.21364201202698854        0.0000000000000000     
   5.1562830366625872E-002  0.22198151358980928        0.0000000000000000     
   5.1883438124643438E-002  0.23039273567687732        0.0000000000000000     
   4.3656480400899075E-002  0.19705416141770252        0.0000000000000000     
   4.4085919755987156E-002  0.20526653718569071        0.0000000000000000     
   4.4462581224252028E-002  0.21354697315571913        0.0000000000000000     
   4.4786464805693683E-002  0.22189546932778781        0.0000000000000000     
   4.5057570500312123E-002  0.23031202570189671        0.0000000000000000     
   3.7181830423734991E-002  0.19694868992971959        0.0000000000000000     
   3.7541691020001974E-002  0.20517459818110631        0.0000000000000000     
   3.7856682336145440E-002  0.21346496946354937        0.0000000000000000     
   3.8126804372165368E-002  0.22181980377704874        0.0000000000000000     
   3.8352057128061778E-002  0.23023910112160451        0.0000000000000000     
   3.0812684442200811E-002  0.19686175601014039        0.0000000000000000     
   3.1106742283195144E-002  0.20509841397466197        0.0000000000000000     
   3.1363797157808522E-002  0.21339600095047917        0.0000000000000000     
   3.1583849066040948E-002  0.22175451693759207        0.0000000000000000     
   3.1766898007892418E-002  0.23017396193600065        0.0000000000000000     
   2.4549042456296535E-002  0.19679335965896480        0.0000000000000000     
   2.4781073545566652E-002  0.20503798456635761        0.0000000000000000     
   2.4983925689241276E-002  0.21334006761650859        0.0000000000000000     
   2.5157598887320401E-002  0.22169960880941780        0.0000000000000000     
   2.5302093139804031E-002  0.23011660814508517        0.0000000000000000     
   5.1883438124643438E-002  0.23039273567687732        0.0000000000000000     
   5.2151481643087687E-002  0.23886725389915098        0.0000000000000000     
   5.2375125468865337E-002  0.24739664386758853        0.0000000000000000     
   5.2554369601976375E-002  0.25598090558219011        0.0000000000000000     
   5.2689214042420815E-002  0.26462003904295545        0.0000000000000000     
   4.5057570500312123E-002  0.23031202570189671        0.0000000000000000     
   4.5284789401098549E-002  0.23878130408389703        0.0000000000000000     
   4.5477012601044205E-002  0.24728796627964000        0.0000000000000000     
   4.5634240100149055E-002  0.25583201228912567        0.0000000000000000     
   4.5756471898413115E-002  0.26441344211235390        0.0000000000000000     
   3.8352057128061778E-002  0.23023910112160451        0.0000000000000000     
   3.8541264374362914E-002  0.23870203590285699        0.0000000000000000     
   3.8703249881597013E-002  0.24718778252644680        0.0000000000000000     
   3.8838013649764073E-002  0.25569634099237387        0.0000000000000000     
   3.8945555678864111E-002  0.26422771130063816        0.0000000000000000     
   3.1766898007892418E-002  0.23017396193600065        0.0000000000000000     
   3.1920906562880755E-002  0.23862944935603092        0.0000000000000000     
   3.2053837310523761E-002  0.24709609260800894        0.0000000000000000     
   3.2165690250821444E-002  0.25557389169193467        0.0000000000000000     
   3.2256465383773809E-002  0.26406284660780821        0.0000000000000000     
   2.5302093139804031E-002  0.23011660814508517        0.0000000000000000     
   2.5423715966652077E-002  0.23856354444341873        0.0000000000000000     
   2.5528774887824453E-002  0.24701289652432640        0.0000000000000000     
   2.5617269903321162E-002  0.25546466438780813        0.0000000000000000     
   2.5689201013142204E-002  0.26391884803386412        0.0000000000000000     
   5.2689214042420815E-002  0.26462003904295545        0.0000000000000000     
   5.2810467145694692E-002  0.27326483879199603        0.0000000000000000     
   5.2948937267294063E-002  0.28186609937142310        0.0000000000000000     
   5.3104624407218914E-002  0.29042382078123669        0.0000000000000000     
   5.3277528565469259E-002  0.29893800302143675        0.0000000000000000     
   4.5756471898413115E-002  0.26441344211235390        0.0000000000000000     
   4.5867817501332890E-002  0.27298232840543624        0.0000000000000000     
   4.5992386414404896E-002  0.28148874382448413        0.0000000000000000     
   4.6130178637629124E-002  0.28993268836949737        0.0000000000000000     
   4.6281194171005575E-002  0.29831416204047612        0.0000000000000000     
   3.8945555678864111E-002  0.26422771130063816        0.0000000000000000     
   3.9044648736114781E-002  0.27273073852546886        0.0000000000000000     
   3.9154065588733737E-002  0.28115426774109475        0.0000000000000000     
   3.9273806236720984E-002  0.28949829894751605        0.0000000000000000     
   3.9403870680076530E-002  0.29776283214473270        0.0000000000000000     
   3.2256465383773809E-002  0.26406284660780821        0.0000000000000000     
   3.2340960850040353E-002  0.27251006915209369        0.0000000000000000     
   3.2433974790280588E-002  0.28086267112125524        0.0000000000000000     
   3.2535507204494517E-002  0.28912065251529290        0.0000000000000000     
   3.2645558092682138E-002  0.29728401333420662        0.0000000000000000     
   2.5689201013142204E-002  0.26391884803386412        0.0000000000000000     
   2.5756753843109624E-002  0.27232032028531095        0.0000000000000000     
   2.5832114019045456E-002  0.28061395396496547        0.0000000000000000     
   2.5915281540949714E-002  0.28879974907282774        0.0000000000000000     
   2.6006256408822388E-002  0.29687770560889770        0.0000000000000000     
   1.4020214054281069E-002   5.5782488193974369E-002   0.0000000000000000     
   1.4792152127005459E-002   6.1374390675730334E-002   0.0000000000000000     
   1.5539649904422487E-002   6.7151140316424163E-002   0.0000000000000000     
   1.6262707386532144E-002   7.3112737116055856E-002   0.0000000000000000     
   1.6961324573334442E-002   7.9259181074625415E-002   0.0000000000000000     
   1.0470938239103549E-002   5.5580822631508250E-002   0.0000000000000000     
   1.1050851592609929E-002   6.1178288217510583E-002   0.0000000000000000     
   1.1611975093073408E-002   6.6960719948398265E-002   0.0000000000000000     
   1.2154308740493990E-002   7.2928117824171260E-002   0.0000000000000000     
   1.2677852534871668E-002   7.9080481844829589E-002   0.0000000000000000     
   6.9511439590605462E-003   5.5436775802107173E-002   0.0000000000000000     
   7.3383927274667197E-003   6.1038215034040624E-002   0.0000000000000000     
   7.7128085058692014E-003   6.6824705400840595E-002   0.0000000000000000     
   8.0743912942679887E-003   7.2796246902507106E-002   0.0000000000000000     
   8.4231410926630858E-003   7.8952839539040115E-002   0.0000000000000000     
   3.4608312141520591E-003   5.5350347705771137E-002   0.0000000000000000     
   3.6547755315758353E-003   6.0954171125320422E-002   0.0000000000000000     
   3.8421501428098658E-003   6.6743096673751168E-002   0.0000000000000000     
   4.0229550478541503E-003   7.2717124351063353E-002   0.0000000000000000     
   4.1971902467086890E-003   7.8876254157256992E-002   0.0000000000000000     
   4.3780899044998378E-012   5.5321538342500143E-002   0.0000000000000000     
   4.9372741138531406E-012   6.0926156491350011E-002   0.0000000000000000     
   3.8954024467879877E-012   6.6715893767129983E-002   0.0000000000000000     
   1.2524708375462323E-012   7.2690750169840071E-002   0.0000000000000000     
  -2.9915174070554995E-012   7.8850725699480234E-002   0.0000000000000000     
   1.6961324573334442E-002   7.9259181074625415E-002   0.0000000000000000     
   1.7634958292676466E-002   8.5577554045542500E-002   0.0000000000000000     
   1.8283065372405309E-002   9.2054937882216775E-002   0.0000000000000000     
   1.8905645812520973E-002   9.8691332584648267E-002   0.0000000000000000     
   1.9502699613023457E-002  0.10548673815283693        0.0000000000000000     
   1.2677852534871668E-002   7.9080481844829589E-002   0.0000000000000000     
   1.3182519461404869E-002   8.5405053414009419E-002   0.0000000000000000     
   1.3668222505292007E-002   9.1889073935346871E-002   0.0000000000000000     
   1.4134961666533087E-002   9.8532543408841974E-002   0.0000000000000000     
   1.4582736945128100E-002  0.10533546183449471        0.0000000000000000     
   8.4231410926630858E-003   7.8952839539040115E-002   0.0000000000000000     
   8.7592134676545697E-003   8.5281838678431227E-002   0.0000000000000000     
   9.0827639858425194E-003   9.1770599688671947E-002   0.0000000000000000     
   9.3937926472269385E-003   9.8419122569762318E-002   0.0000000000000000     
   9.6922994518078270E-003  0.10522740732170233        0.0000000000000000     
   4.1971902467086890E-003   7.8876254157256992E-002   0.0000000000000000     
   4.3650403114255613E-003   8.5207909838807952E-002   0.0000000000000000     
   4.5266898140568432E-003   9.1699515142192031E-002   0.0000000000000000     
   4.6821387546025365E-003   9.8351070067409299E-002   0.0000000000000000     
   4.8313871330626377E-003  0.10516257461445967        0.0000000000000000     
  -2.9915174070554995E-012   7.8850725699480234E-002   0.0000000000000000     
  -7.2821523117161391E-012   8.5183266895139553E-002   0.0000000000000000     
  -1.0065022545881902E-011   9.1675820295907137E-002   0.0000000000000000     
  -1.1340126849167763E-011   9.8328385901782889E-002   0.0000000000000000     
  -1.1107465641702063E-011  0.10514096371276688        0.0000000000000000     
   1.9502699613023457E-002  0.10548673815283693        0.0000000000000000     
   2.0073802653490971E-002  0.11242940431319516        0.0000000000000000     
   2.0618530813501717E-002  0.11950758079213530        0.0000000000000000     
   2.1136884093055697E-002  0.12672126758965735        0.0000000000000000     
   2.1628862492152914E-002  0.13407046470576134        0.0000000000000000     
   1.4582736945128100E-002  0.10533546183449471        0.0000000000000000     
   1.5011051973696553E-002  0.11228591400702485        0.0000000000000000     
   1.5419410384857947E-002  0.11937198472115208        0.0000000000000000     
   1.5807812178612279E-002  0.12659367397687646        0.0000000000000000     
   1.6176257354959547E-002  0.13395098177419790        0.0000000000000000     
   9.6922994518078270E-003  0.10522740732170233        0.0000000000000000     
   9.9778346365356155E-003  0.11218342093103591        0.0000000000000000     
   1.0249948438360735E-002  0.11927513038430713        0.0000000000000000     
   1.0508640857283189E-002  0.12650253568151593        0.0000000000000000     
   1.0753911893302973E-002  0.13386563682266239        0.0000000000000000     
   4.8313871330626377E-003  0.10516257461445967        0.0000000000000000     
   4.9741506420081533E-003  0.11212192508522836        0.0000000000000000     
   5.1101449740100831E-003  0.11921701778160042        0.0000000000000000     
   5.2393701290684280E-003  0.12644785270357589        0.0000000000000000     
   5.3618261071831869E-003  0.13381442985115471        0.0000000000000000     
  -1.1107465641702063E-011  0.10514096371276688        0.0000000000000000     
  -9.8858289176301239E-012  0.11210142646960219        0.0000000000000000     
  -8.1940077552994373E-012  0.11919764691303197        0.0000000000000000     
  -6.0320011247179395E-012  0.12642962504305622        0.0000000000000000     
  -3.3998099474574772E-012  0.13379736085967492        0.0000000000000000     
   2.1628862492152914E-002  0.13407046470576134        0.0000000000000000     
   2.2093721984984088E-002  0.14154333540705644        0.0000000000000000     
   2.2530718545739938E-002  0.14912804296015203        0.0000000000000000     
   2.2939852174420471E-002  0.15682458736504795        0.0000000000000000     
   2.3321122871025685E-002  0.16463296862174431        0.0000000000000000     
   1.6176257354959547E-002  0.13395098177419790        0.0000000000000000     
   1.6524197596906199E-002  0.14143214979780547        0.0000000000000000     
   1.6851084587458678E-002  0.14902541973238800        0.0000000000000000     
   1.7156918326616977E-002  0.15673079157794559        0.0000000000000000     
   1.7441698814381103E-002  0.16454826533447814        0.0000000000000000     
   1.0753911893302973E-002  0.13386563682266239        0.0000000000000000     
   1.0985402469891095E-002  0.14135273150523583        0.0000000000000000     
   1.1202753510518566E-002  0.14895211742672582        0.0000000000000000     
   1.1405965015185381E-002  0.15666379458713228        0.0000000000000000     
   1.1595036983891541E-002  0.16448776298645523        0.0000000000000000     
   5.3618261071831869E-003  0.13381442985115471        0.0000000000000000     
   5.4773366039387742E-003  0.14130508052934770        0.0000000000000000     
   5.5857253149196049E-003  0.14890813604316550        0.0000000000000000     
   5.6869922401256790E-003  0.15662359639260820        0.0000000000000000     
   5.7811373795569956E-003  0.16445146157767568        0.0000000000000000     
  -3.3998099474574772E-012  0.13379736085967492        0.0000000000000000     
  -9.5076659219206494E-013  0.14128919687014091        0.0000000000000000     
   6.6179462084037244E-013  0.14889347558170699        0.0000000000000000     
   1.4378735290095090E-012  0.15661019699437317        0.0000000000000000     
   1.3774675844402395E-012  0.16443936110813942        0.0000000000000000     
   2.3321122871025685E-002  0.16463296862174431        0.0000000000000000     
   2.3673372268030780E-002  0.17254121782351800        0.0000000000000000     
   2.3995441997910951E-002  0.18053736606364598        0.0000000000000000     
   2.4287332060666203E-002  0.18862141334212826        0.0000000000000000     
   2.4549042456296535E-002  0.19679335965896480        0.0000000000000000     
   1.7441698814381103E-002  0.16454826533447814        0.0000000000000000     
   1.7704568023266806E-002  0.17246549372495582        0.0000000000000000     
   1.7944667925789824E-002  0.18047012947234864        0.0000000000000000     
   1.8161998521950176E-002  0.18856217257665664        0.0000000000000000     
   1.8356559811747847E-002  0.19674162303787987        0.0000000000000000     
   1.1595036983891541E-002  0.16448776298645523        0.0000000000000000     
   1.1769404563835221E-002  0.17241140508317346        0.0000000000000000     
   1.1928502902214594E-002  0.18042210333576578        0.0000000000000000     
   1.2072331999029665E-002  0.18851985774423205        0.0000000000000000     
   1.2200891854280430E-002  0.19670466830857242        0.0000000000000000     
   5.7811373795569956E-003  0.16445146157767568        0.0000000000000000     
   5.8678818897360280E-003  0.17237895189817107        0.0000000000000000     
   5.9469469271852538E-003  0.18039328765389737        0.0000000000000000     
   6.0183324919046719E-003  0.18849446884485452        0.0000000000000000     
   6.0820385838942790E-003  0.19668249547104258        0.0000000000000000     
   1.3774675844402395E-012  0.16443936110813942        0.0000000000000000     
   9.6922947098732060E-013  0.17236813416994856        0.0000000000000000     
   7.0180515045203951E-013  0.18038368242674344        0.0000000000000000     
   5.7519359284233240E-013  0.18848600587852399        0.0000000000000000     
   5.8939702077265288E-013  0.19667510452529025        0.0000000000000000     
   2.4549042456296535E-002  0.19679335965896480        0.0000000000000000     
   2.4781073545566652E-002  0.20503798456635761        0.0000000000000000     
   2.4983925689241276E-002  0.21334006761650859        0.0000000000000000     
   2.5157598887320401E-002  0.22169960880941780        0.0000000000000000     
   2.5302093139804031E-002  0.23011660814508517        0.0000000000000000     
   1.8356559811747847E-002  0.19674162303787987        0.0000000000000000     
   1.8528984895480750E-002  0.20499200155828604        0.0000000000000000     
   1.8679906873446797E-002  0.21329682884014292        0.0000000000000000     
   1.8809325745645984E-002  0.22165610488345061        0.0000000000000000     
   1.8917241512078315E-002  0.23006982968820902        0.0000000000000000     
   1.2200891854280430E-002  0.19670466830857242        0.0000000000000000     
   1.2314776421301672E-002  0.20495915655253991        0.0000000000000000     
   1.2414579653428175E-002  0.21326594399988746        0.0000000000000000     
   1.2500301550659940E-002  0.22162503065061520        0.0000000000000000     
   1.2571942112996969E-002  0.23003641650472303        0.0000000000000000     
   6.0820385838942790E-003  0.19668249547104258        0.0000000000000000     
   6.1384481230294134E-003  0.20493944954911922        0.0000000000000000     
   6.1879440291854092E-003  0.21324741309574222        0.0000000000000000     
   6.2305263023622673E-003  0.22160638611091157        0.0000000000000000     
   6.2661949425599859E-003  0.23001636859462726        0.0000000000000000     
   5.8939702077265288E-013  0.19667510452529025        0.0000000000000000     
   6.6397820401575824E-013  0.20493288054802400        0.0000000000000000     
   7.1850186390831627E-013  0.21324123612770715        0.0000000000000000     
   7.5296653677739411E-013  0.22160017126433973        0.0000000000000000     
   7.6737444523744536E-013  0.23000968595792165        0.0000000000000000     
   2.5302093139804031E-002  0.23011660814508517        0.0000000000000000     
   2.5423715966652077E-002  0.23856354444341873        0.0000000000000000     
   2.5528774887824453E-002  0.24701289652432640        0.0000000000000000     
   2.5617269903321162E-002  0.25546466438780813        0.0000000000000000     
   2.5689201013142204E-002  0.26391884803386412        0.0000000000000000     
   1.8917241512078315E-002  0.23006982968820902        0.0000000000000000     
   1.9008028477333211E-002  0.23850880085985082        0.0000000000000000     
   1.9086060946000103E-002  0.24694381600380857        0.0000000000000000     
   1.9151338918078985E-002  0.25537487512008233        0.0000000000000000     
   1.9203862393569856E-002  0.26380197820867224        0.0000000000000000     
   1.2571942112996969E-002  0.23003641650472303        0.0000000000000000     
   1.2632179986580483E-002  0.23846969830015746        0.0000000000000000     
   1.2683693817551711E-002  0.24689447277486495        0.0000000000000000     
   1.2726483605910655E-002  0.25531073992884545        0.0000000000000000     
   1.2760549351657317E-002  0.26371849976209910        0.0000000000000000     
   6.2661949425599859E-003  0.23001636859462726        0.0000000000000000     
   6.2961704943938863E-003  0.23844623676433874        0.0000000000000000     
   6.3216735024792872E-003  0.24686486683749548        0.0000000000000000     
   6.3427039668161860E-003  0.25527225881409743        0.0000000000000000     
   6.3592618874045853E-003  0.26366841269414465        0.0000000000000000     
   7.6737444523744536E-013  0.23000968595792165        0.0000000000000000     
   7.7342472704078347E-013  0.23843841625239454        0.0000000000000000     
   7.8282530197731903E-013  0.24685499819170009        0.0000000000000000     
   7.9557001719972320E-013  0.25525943177583826        0.0000000000000000     
   8.1166367030260922E-013  0.26365171700480905        0.0000000000000000     
   2.5689201013142204E-002  0.26391884803386412        0.0000000000000000     
   2.5756753843109624E-002  0.27232032028531095        0.0000000000000000     
   2.5832114019045456E-002  0.28061395396496547        0.0000000000000000     
   2.5915281540949714E-002  0.28879974907282774        0.0000000000000000     
   2.6006256408822388E-002  0.29687770560889770        0.0000000000000000     
   1.9203862393569856E-002  0.26380197820867224        0.0000000000000000     
   1.9253606802447972E-002  0.27216781774850513        0.0000000000000000     
   1.9310547574688589E-002  0.28041508621850819        0.0000000000000000     
   1.9374684710291700E-002  0.28854378361868149        0.0000000000000000     
   1.9446018209257312E-002  0.29655390994902486        0.0000000000000000     
   1.2760549351657317E-002  0.26371849976209910        0.0000000000000000     
   1.2793098815180808E-002  0.27205888736506090        0.0000000000000000     
   1.2831339756870237E-002  0.28027303782816615        0.0000000000000000     
   1.2875272176725617E-002  0.28836095115141475        0.0000000000000000     
   1.2924896074746939E-002  0.29632262733480680        0.0000000000000000     
   6.3592618874045853E-003  0.26366841269414465        0.0000000000000000     
   6.3752298813081155E-003  0.27199352913497826        0.0000000000000000     
   6.3944905655904062E-003  0.28018780879393923        0.0000000000000000     
   6.4170439402514616E-003  0.28825125167102761        0.0000000000000000     
   6.4428900052912758E-003  0.29618385776624345        0.0000000000000000     
   8.1166367030260922E-013  0.26365171700480905        0.0000000000000000     
   8.2990450449293984E-013  0.27197174305825716        0.0000000000000000     
   8.4909336506289179E-013  0.28015939911582755        0.0000000000000000     
   8.6922981833159607E-013  0.28821468517752008        0.0000000000000000     
   8.9031473166079067E-013  0.29613760124333488        0.0000000000000000     
   4.3780899044998378E-012   5.5321538342500143E-002   0.0000000000000000     
   4.9372741138531406E-012   6.0926156491350011E-002   0.0000000000000000     
   3.8954024467879877E-012   6.6715893767129983E-002   0.0000000000000000     
   1.2524708375462323E-012   7.2690750169840071E-002   0.0000000000000000     
  -2.9915174070554995E-012   7.8850725699480234E-002   0.0000000000000000     
  -3.4608312046755713E-003   5.5350347705851774E-002   0.0000000000000000     
  -3.6547755207007775E-003   6.0954171127598149E-002   0.0000000000000000     
  -3.8421501338296599E-003   6.6743096677982616E-002   0.0000000000000000     
  -4.0229550440622156E-003   7.2717124357005170E-002   0.0000000000000000     
  -4.1971902513984471E-003   7.8876254164665788E-002   0.0000000000000000     
  -6.9511439474231312E-003   5.5436775789383615E-002   0.0000000000000000     
  -7.3383927135901384E-003   6.1038215029533611E-002   0.0000000000000000     
  -7.7128084933207868E-003   6.6824705403314616E-002   0.0000000000000000     
  -8.0743912866150774E-003   7.2796246910726642E-002   0.0000000000000000     
  -8.4231410934730126E-003   7.8952839551769655E-002   0.0000000000000000     
  -1.0470938223864591E-002   5.5580822593095693E-002   0.0000000000000000     
  -1.1050851573730806E-002   6.1178288197156400E-002   0.0000000000000000     
  -1.1611975074577983E-002   6.6960719943125982E-002   0.0000000000000000     
  -1.2154308726406117E-002   7.2928117831004446E-002   0.0000000000000000     
  -1.2677852529215213E-002   7.9080481860791793E-002   0.0000000000000000     
  -1.4020214033999948E-002   5.5782488116987966E-002   0.0000000000000000     
  -1.4792152101122783E-002   6.1374390630466520E-002   0.0000000000000000     
  -1.5539649877601248E-002   6.7151140297416742E-002   0.0000000000000000     
  -1.6262707363435332E-002   7.3112737117838666E-002   0.0000000000000000     
  -1.6961324558625049E-002   7.9259181091732231E-002   0.0000000000000000     
  -2.9915174070554995E-012   7.8850725699480234E-002   0.0000000000000000     
  -7.2821523117161391E-012   8.5183266895139553E-002   0.0000000000000000     
  -1.0065022545881902E-011   9.1675820295907137E-002   0.0000000000000000     
  -1.1340126849167763E-011   9.8328385901782889E-002   0.0000000000000000     
  -1.1107465641702063E-011  0.10514096371276688        0.0000000000000000     
  -4.1971902513984471E-003   7.8876254164665788E-002   0.0000000000000000     
  -4.3650403247529742E-003   8.5207909846915217E-002   0.0000000000000000     
  -4.5266898330404174E-003   9.1699515149704147E-002   0.0000000000000000     
  -4.6821387762607785E-003   9.8351070073032565E-002   0.0000000000000000     
  -4.8313871544140548E-003  0.10516257461690051        0.0000000000000000     
  -8.4231410934730126E-003   7.8952839551769655E-002   0.0000000000000000     
  -8.7592134772713093E-003   8.5281838693624032E-002   0.0000000000000000     
  -9.0827640013866878E-003   9.1770599703470082E-002   0.0000000000000000     
  -9.3937926658191513E-003   9.8419122581307833E-002   0.0000000000000000     
  -9.6922994705686966E-003  0.10522740732713728        0.0000000000000000     
  -1.2677852529215213E-002   7.9080481860791793E-002   0.0000000000000000     
  -1.3182519464837153E-002   8.5405053435265957E-002   0.0000000000000000     
  -1.3668222515103832E-002   9.1889073957204928E-002   0.0000000000000000     
  -1.4134961680015247E-002   9.8532543426608638E-002   0.0000000000000000     
  -1.4582736959571393E-002  0.10533546184347717        0.0000000000000000     
  -1.6961324558625049E-002   7.9259181091732231E-002   0.0000000000000000     
  -1.7634958287450514E-002   8.5577554071841033E-002   0.0000000000000000     
  -1.8283065374191852E-002   9.2054937910908644E-002   0.0000000000000000     
  -1.8905645818849060E-002   9.8691332608935034E-002   0.0000000000000000     
  -1.9502699621422148E-002  0.10548673816592018        0.0000000000000000     
  -1.1107465641702063E-011  0.10514096371276688        0.0000000000000000     
  -9.8858289176301239E-012  0.11210142646960219        0.0000000000000000     
  -8.1940077552994373E-012  0.11919764691303197        0.0000000000000000     
  -6.0320011247179395E-012  0.12642962504305622        0.0000000000000000     
  -3.3998099474574772E-012  0.13379736085967492        0.0000000000000000     
  -4.8313871544140548E-003  0.10516257461690051        0.0000000000000000     
  -4.9741506610884384E-003  0.11212192508447938        0.0000000000000000     
  -5.1101449898721301E-003  0.11921701777894067        0.0000000000000000     
  -5.2393701407651254E-003  0.12644785270028439        0.0000000000000000     
  -5.3618261137674227E-003  0.13381442984851044        0.0000000000000000     
  -9.6922994705686966E-003  0.10522740732713728        0.0000000000000000     
  -9.9778346535417829E-003  0.11218342093018197        0.0000000000000000     
  -1.0249948452644875E-002  0.11927513037966543        0.0000000000000000     
  -1.0508640867877965E-002  0.12650253567558770        0.0000000000000000     
  -1.0753911899241058E-002  0.13386563681794875        0.0000000000000000     
  -1.4582736959571393E-002  0.10533546184347717        0.0000000000000000     
  -1.5011051987245864E-002  0.11228591400670988        0.0000000000000000     
  -1.5419410396512241E-002  0.11937198471520623        0.0000000000000000     
  -1.5807812187370530E-002  0.12659367396896620        0.0000000000000000     
  -1.6176257359820721E-002  0.13395098176798984        0.0000000000000000     
  -1.9502699621422148E-002  0.10548673816592018        0.0000000000000000     
  -2.0073802662200681E-002  0.11242940431406319        0.0000000000000000     
  -2.0618530821474232E-002  0.11950758078556312        0.0000000000000000     
  -2.1136884099242807E-002  0.12672126758041991        0.0000000000000000     
  -2.1628862495506405E-002  0.13407046469863365        0.0000000000000000     
  -3.3998099474574772E-012  0.13379736085967492        0.0000000000000000     
  -9.5076659219206494E-013  0.14128919687014091        0.0000000000000000     
   6.6179462084037244E-013  0.14889347558170699        0.0000000000000000     
   1.4378735290095090E-012  0.15661019699437317        0.0000000000000000     
   1.3774675844402395E-012  0.16443936110813942        0.0000000000000000     
  -5.3618261137674227E-003  0.13381442984851044        0.0000000000000000     
  -5.4773366057521674E-003  0.14130508052784763        0.0000000000000000     
  -5.5857253135924998E-003  0.14890813604252456        0.0000000000000000     
  -5.6869922372884173E-003  0.15662359639254123        0.0000000000000000     
  -5.7811373768399312E-003  0.16445146157789758        0.0000000000000000     
  -1.0753911899241058E-002  0.13386563681794875        0.0000000000000000     
  -1.0985402471440069E-002  0.14135273150269989        0.0000000000000000     
  -1.1202753509180909E-002  0.14895211742579237        0.0000000000000000     
  -1.1405965012463583E-002  0.15666379458722618        0.0000000000000000     
  -1.1595036981288087E-002  0.16448776298700130        0.0000000000000000     
  -1.6176257359820721E-002  0.13395098176798984        0.0000000000000000     
  -1.6524197598014476E-002  0.14143214979469770        0.0000000000000000     
  -1.6851084586103435E-002  0.14902541973151043        0.0000000000000000     
  -1.7156918324087611E-002  0.15673079157842812        0.0000000000000000     
  -1.7441698811967006E-002  0.16454826533545058        0.0000000000000000     
  -2.1628862495506405E-002  0.13407046469863365        0.0000000000000000     
  -2.2093721985475375E-002  0.14154333540384104        0.0000000000000000     
  -2.2530718544360080E-002  0.14912804295967877        0.0000000000000000     
  -2.2939852172160515E-002  0.15682458736614691        0.0000000000000000     
  -2.3321122868876682E-002  0.16463296862324545        0.0000000000000000     
   1.3774675844402395E-012  0.16443936110813942        0.0000000000000000     
   9.6922947098732060E-013  0.17236813416994856        0.0000000000000000     
   7.0180515045203951E-013  0.18038368242674344        0.0000000000000000     
   5.7519359284233240E-013  0.18848600587852399        0.0000000000000000     
   5.8939702077265288E-013  0.19667510452529025        0.0000000000000000     
  -5.7811373768399312E-003  0.16445146157789758        0.0000000000000000     
  -5.8678818878157525E-003  0.17237895189850391        0.0000000000000000     
  -5.9469469257846181E-003  0.18039328765427046        0.0000000000000000     
  -6.0183324907465202E-003  0.18849446884519711        0.0000000000000000     
  -6.0820385827014632E-003  0.19668249547128394        0.0000000000000000     
  -1.1595036981288087E-002  0.16448776298700130        0.0000000000000000     
  -1.1769404561969494E-002  0.17241140508383512        0.0000000000000000     
  -1.1928502900822873E-002  0.18042210333644484        0.0000000000000000     
  -1.2072331997848225E-002  0.18851985774483054        0.0000000000000000     
  -1.2200891853045544E-002  0.19670466830899216        0.0000000000000000     
  -1.7441698811967006E-002  0.16454826533545058        0.0000000000000000     
  -1.7704568021491996E-002  0.17246549372594211        0.0000000000000000     
  -1.7944667924412971E-002  0.18047012947326671        0.0000000000000000     
  -1.8161998520729920E-002  0.18856217257742428        0.0000000000000000     
  -1.8356559810442853E-002  0.19674162303841497        0.0000000000000000     
  -2.3321122868876682E-002  0.16463296862324545        0.0000000000000000     
  -2.3673372266383254E-002  0.17254121782482493        0.0000000000000000     
  -2.3995441996554893E-002  0.18053736606473589        0.0000000000000000     
  -2.4287332059391604E-002  0.18862141334297836        0.0000000000000000     
  -2.4549042454893380E-002  0.19679335965955230        0.0000000000000000     
   5.8939702077265288E-013  0.19667510452529025        0.0000000000000000     
   6.6397820401575824E-013  0.20493288054802400        0.0000000000000000     
   7.1850186390831627E-013  0.21324123612770715        0.0000000000000000     
   7.5296653677739411E-013  0.22160017126433973        0.0000000000000000     
   7.6737444523744536E-013  0.23000968595792165        0.0000000000000000     
  -6.0820385827014632E-003  0.19668249547128394        0.0000000000000000     
  -6.1384481216841084E-003  0.20493944954924204        0.0000000000000000     
  -6.1879440277291262E-003  0.21324741309578252        0.0000000000000000     
  -6.2305263008365147E-003  0.22160638611090541        0.0000000000000000     
  -6.2661949410062704E-003  0.23001636859461067        0.0000000000000000     
  -1.2200891853045544E-002  0.19670466830899216        0.0000000000000000     
  -1.2314776419904328E-002  0.20495915655276106        0.0000000000000000     
  -1.2414579651914054E-002  0.21326594399996843        0.0000000000000000     
  -1.2500301549074729E-002  0.22162503065061431        0.0000000000000000     
  -1.2571942111386344E-002  0.23003641650469869        0.0000000000000000     
  -1.8356559810442853E-002  0.19674162303841497        0.0000000000000000     
  -1.8528984893996670E-002  0.20499200155858108        0.0000000000000000     
  -1.8679906871836280E-002  0.21329682884026485        0.0000000000000000     
  -1.8809325743961672E-002  0.22165610488346646        0.0000000000000000     
  -1.8917241510372853E-002  0.23006982968818579        0.0000000000000000     
  -2.4549042454893380E-002  0.19679335965955230        0.0000000000000000     
  -2.4781073543961148E-002  0.20503798456670203        0.0000000000000000     
  -2.4983925687495800E-002  0.21334006761667190        0.0000000000000000     
  -2.5157598885497352E-002  0.22169960880946185        0.0000000000000000     
  -2.5302093137965796E-002  0.23011660814507190        0.0000000000000000     
   7.6737444523744536E-013  0.23000968595792165        0.0000000000000000     
   7.7342472704078347E-013  0.23843841625239454        0.0000000000000000     
   7.8282530197731903E-013  0.24685499819170009        0.0000000000000000     
   7.9557001719972320E-013  0.25525943177583826        0.0000000000000000     
   8.1166367030260922E-013  0.26365171700480905        0.0000000000000000     
  -6.2661949410062704E-003  0.23001636859461067        0.0000000000000000     
  -6.2961704928293583E-003  0.23844623676432553        0.0000000000000000     
  -6.3216735008967398E-003  0.24686486683747721        0.0000000000000000     
  -6.3427039652084105E-003  0.25527225881406579        0.0000000000000000     
  -6.3592618857643765E-003  0.26366841269409114        0.0000000000000000     
  -1.2571942111386344E-002  0.23003641650469869        0.0000000000000000     
  -1.2632179984962924E-002  0.23846969830013218        0.0000000000000000     
  -1.2683693815918471E-002  0.24689447277482524        0.0000000000000000     
  -1.2726483604252983E-002  0.25531073992877784        0.0000000000000000     
  -1.2760549349966469E-002  0.26371849976199019        0.0000000000000000     
  -1.8917241510372853E-002  0.23006982968818579        0.0000000000000000     
  -1.9008028475627270E-002  0.23850880085981443        0.0000000000000000     
  -1.9086060944282369E-002  0.24694381600374404        0.0000000000000000     
  -1.9151338916338148E-002  0.25537487511997464        0.0000000000000000     
  -1.9203862391794602E-002  0.26380197820850604        0.0000000000000000     
  -2.5302093137965796E-002  0.23011660814507190        0.0000000000000000     
  -2.5423715964822402E-002  0.23856354444337238        0.0000000000000000     
  -2.5528774885988436E-002  0.24701289652423375        0.0000000000000000     
  -2.5617269901463898E-002  0.25546466438765586        0.0000000000000000     
  -2.5689201011248792E-002  0.26391884803363885        0.0000000000000000     
   8.1166367030260922E-013  0.26365171700480905        0.0000000000000000     
   8.2990450449293984E-013  0.27197174305825716        0.0000000000000000     
   8.4909336506289179E-013  0.28015939911582755        0.0000000000000000     
   8.6922981833159607E-013  0.28821468517752008        0.0000000000000000     
   8.9031473166079067E-013  0.29613760124333488        0.0000000000000000     
  -6.3592618857643765E-003  0.26366841269409114        0.0000000000000000     
  -6.3752298796310976E-003  0.27199352913489855        0.0000000000000000     
  -6.3944905638750309E-003  0.28018780879383315        0.0000000000000000     
  -6.4170439384961800E-003  0.28825125167089488        0.0000000000000000     
  -6.4428900034945395E-003  0.29618385776608386        0.0000000000000000     
  -1.2760549349966469E-002  0.26371849976199019        0.0000000000000000     
  -1.2793098813452157E-002  0.27205888736490325        0.0000000000000000     
  -1.2831339755103291E-002  0.28027303782795804        0.0000000000000000     
  -1.2875272174919867E-002  0.28836095115115473        0.0000000000000000     
  -1.2924896072901886E-002  0.29632262733449333        0.0000000000000000     
  -1.9203862391794602E-002  0.26380197820850604        0.0000000000000000     
  -1.9253606800633274E-002  0.27216781774827115        0.0000000000000000     
  -1.9310547572835682E-002  0.28041508621820233        0.0000000000000000     
  -1.9374684708401837E-002  0.28854378361829969        0.0000000000000000     
  -1.9446018207331727E-002  0.29655390994856323        0.0000000000000000     
  -2.5689201011248792E-002  0.26391884803363885        0.0000000000000000     
  -2.5756753841174453E-002  0.27232032028500242        0.0000000000000000     
  -2.5832114017072218E-002  0.28061395396456601        0.0000000000000000     
  -2.5915281538942084E-002  0.28879974907232969        0.0000000000000000     
  -2.6006256406784060E-002  0.29687770560829357        0.0000000000000000     
  -1.4020214033999948E-002   5.5782488116987966E-002   0.0000000000000000     
  -1.4792152101122783E-002   6.1374390630466520E-002   0.0000000000000000     
  -1.5539649877601248E-002   6.7151140297416742E-002   0.0000000000000000     
  -1.6262707363435332E-002   7.3112737117838666E-002   0.0000000000000000     
  -1.6961324558625049E-002   7.9259181091732231E-002   0.0000000000000000     
  -1.7627390937874986E-002   5.6042194889811624E-002   0.0000000000000000     
  -1.8591459172963152E-002   6.1627219119685724E-002   0.0000000000000000     
  -1.9525376618407152E-002   6.7396762610189814E-002   0.0000000000000000     
  -2.0429143274207001E-002   7.3350825361323924E-002   0.0000000000000000     
  -2.1302759140362695E-002   7.9489407373088017E-002   0.0000000000000000     
  -2.1320888495535480E-002   5.6360365440317792E-002   0.0000000000000000     
  -2.2477937666448986E-002   6.1937470455035760E-002   0.0000000000000000     
  -2.3598699013012293E-002   6.7698383025448172E-002   0.0000000000000000     
  -2.4683172535225402E-002   7.3643103151555006E-002   0.0000000000000000     
  -2.5731358233088312E-002   7.9771630833356255E-002   0.0000000000000000     
  -2.5100706706981439E-002   5.6736999768506484E-002   0.0000000000000000     
  -2.6451587581580303E-002   6.2305144636516659E-002   0.0000000000000000     
  -2.7759617061416671E-002   6.8056001543191788E-002   0.0000000000000000     
  -2.9024795146490538E-002   7.3989570488531872E-002   0.0000000000000000     
  -3.0247121836801921E-002   8.0105851472536904E-002   0.0000000000000000     
  -2.8966845572212858E-002   5.7172097874377693E-002   0.0000000000000000     
  -3.0512408918357083E-002   6.2730241664128383E-002   0.0000000000000000     
  -3.2008130763620267E-002   6.8469618163420676E-002   0.0000000000000000     
  -3.3454011108002404E-002   7.4390227372254536E-002   0.0000000000000000     
  -3.4850049951503502E-002   8.0492069290629992E-002   0.0000000000000000     
  -1.6961324558625049E-002   7.9259181091732231E-002   0.0000000000000000     
  -1.7634958287450514E-002   8.5577554071841033E-002   0.0000000000000000     
  -1.8283065374191852E-002   9.2054937910908644E-002   0.0000000000000000     
  -1.8905645818849060E-002   9.8691332608935034E-002   0.0000000000000000     
  -1.9502699621422148E-002  0.10548673816592018        0.0000000000000000     
  -2.1302759140362695E-002   7.9489407373088017E-002   0.0000000000000000     
  -2.2145285297251276E-002   8.5799548029464559E-002   0.0000000000000000     
  -2.2955782825249814E-002   9.2268286714435890E-002   0.0000000000000000     
  -2.3734251724358293E-002   9.8895623428002052E-002   0.0000000000000000     
  -2.4480691994576736E-002  0.10568155817016303        0.0000000000000000     
  -2.5731358233088312E-002   7.9771630833356255E-002   0.0000000000000000     
  -2.6742255846379334E-002   8.6071242734251749E-002   0.0000000000000000     
  -2.7714865114876776E-002   9.2529215517641289E-002   0.0000000000000000     
  -2.8649186038580642E-002   9.9145549183524806E-002   0.0000000000000000     
  -2.9545218617490925E-002  0.10592024373190238        0.0000000000000000     
  -3.0247121836801921E-002   8.0105851472536904E-002   0.0000000000000000     
  -3.1425869934834691E-002   8.6392638186202630E-002   0.0000000000000000     
  -3.2560312243072757E-002   9.2837724320524770E-002   0.0000000000000000     
  -3.3650448761516093E-002   9.9441109875503308E-002   0.0000000000000000     
  -3.4696279490164732E-002  0.10620279485113825        0.0000000000000000     
  -3.4850049951503502E-002   8.0492069290629992E-002   0.0000000000000000     
  -3.6196127562617343E-002   8.6763734385317204E-002   0.0000000000000000     
  -3.7492124209837732E-002   9.3193813123086375E-002   0.0000000000000000     
  -3.8738039893164669E-002   9.9782305503937546E-002   0.0000000000000000     
  -3.9933874612598140E-002  0.10652921152787065        0.0000000000000000     
  -1.9502699621422148E-002  0.10548673816592018        0.0000000000000000     
  -2.0073802662200681E-002  0.11242940431406319        0.0000000000000000     
  -2.0618530821474232E-002  0.11950758078556312        0.0000000000000000     
  -2.1136884099242807E-002  0.12672126758041991        0.0000000000000000     
  -2.1628862495506405E-002  0.13407046469863365        0.0000000000000000     
  -2.4480691994576736E-002  0.10568155817016303        0.0000000000000000     
  -2.5194783353499218E-002  0.11261445786933655        0.0000000000000000     
  -2.5876205518719848E-002  0.11968268945394034        0.0000000000000000     
  -2.6524958490238629E-002  0.12688625292397440        0.0000000000000000     
  -2.7141042268055561E-002  0.13422514827943871        0.0000000000000000     
  -2.9545218617490925E-002  0.10592024373190238        0.0000000000000000     
  -3.0402690736234462E-002  0.11284164068962463        0.0000000000000000     
  -3.1221330279438096E-002  0.11989808158354223        0.0000000000000000     
  -3.2001137247101824E-002  0.12708956641365521        0.0000000000000000     
  -3.2742111639225642E-002  0.13441609517996350        0.0000000000000000     
  -3.4696279490164732E-002  0.10620279485113825        0.0000000000000000     
  -3.5697524810406431E-002  0.11311095277492747        0.0000000000000000     
  -3.6653905103628981E-002  0.12015375717436884        0.0000000000000000     
  -3.7565420369832382E-002  0.12733120804946235        0.0000000000000000     
  -3.8432070609016641E-002  0.13464330540020800        0.0000000000000000     
  -3.9933874612598140E-002  0.10652921152787065        0.0000000000000000     
  -4.1079285576015104E-002  0.11342239412524505        0.0000000000000000     
  -4.2173929991292491E-002  0.12044971622642012        0.0000000000000000     
  -4.3217807858430310E-002  0.12761117783139583        0.0000000000000000     
  -4.4210919177428573E-002  0.13490677894017222        0.0000000000000000     
  -2.1628862495506405E-002  0.13407046469863365        0.0000000000000000     
  -2.2093721985475375E-002  0.14154333540384104        0.0000000000000000     
  -2.2530718544360080E-002  0.14912804295967877        0.0000000000000000     
  -2.2939852172160515E-002  0.15682458736614691        0.0000000000000000     
  -2.3321122868876682E-002  0.16463296862324545        0.0000000000000000     
  -2.7141042268055561E-002  0.13422514827943871        0.0000000000000000     
  -2.7723542337737654E-002  0.14168748623464877        0.0000000000000000     
  -2.8271544184851928E-002  0.14926137750392005        0.0000000000000000     
  -2.8785047809398383E-002  0.15694682208725250        0.0000000000000000     
  -2.9264053211377015E-002  0.16474381998464613        0.0000000000000000     
  -3.2742111639225642E-002  0.13441609517996350        0.0000000000000000     
  -3.3443225358716189E-002  0.14186580019163986        0.0000000000000000     
  -3.4103450308480068E-002  0.14942681375785685        0.0000000000000000     
  -3.4722786488517308E-002  0.15709913587861460        0.0000000000000000     
  -3.5301233898827895E-002  0.16488276655391301        0.0000000000000000     
  -3.8432070609016641E-002  0.13464330540020800        0.0000000000000000     
  -3.9252771048410948E-002  0.14207827727481415        0.0000000000000000     
  -4.0026436915244497E-002  0.14962435172148925        0.0000000000000000     
  -4.0753068209517282E-002  0.15728152874023321        0.0000000000000000     
  -4.1432664931229303E-002  0.16504980833104602        0.0000000000000000     
  -4.4210919177428573E-002  0.13490677894017222        0.0000000000000000     
  -4.5152179406821966E-002  0.14232491748417181        0.0000000000000000     
  -4.6040504005145221E-002  0.14985399139481717        0.0000000000000000     
  -4.6875892972398310E-002  0.15749400067210831        0.0000000000000000     
  -4.7658346308581269E-002  0.16524494531604517        0.0000000000000000     
  -2.3321122868876682E-002  0.16463296862324545        0.0000000000000000     
  -2.3673372266383254E-002  0.17254121782482493        0.0000000000000000     
  -2.3995441996554893E-002  0.18053736606473589        0.0000000000000000     
  -2.4287332059391604E-002  0.18862141334297836        0.0000000000000000     
  -2.4549042454893380E-002  0.19679335965955230        0.0000000000000000     
  -2.9264053211377015E-002  0.16474381998464613        0.0000000000000000     
  -2.9707159881227116E-002  0.17264077190209545        0.0000000000000000     
  -3.0112967309387974E-002  0.18062607854559481        0.0000000000000000     
  -3.0481475495859587E-002  0.18869973991514435        0.0000000000000000     
  -3.0812684440641953E-002  0.19686175601074388        0.0000000000000000     
  -3.5301233898827895E-002  0.16488276655391301        0.0000000000000000     
  -3.5837273450607436E-002  0.17276635047936562        0.0000000000000000     
  -3.6329386055051524E-002  0.18073853235058593        0.0000000000000000     
  -3.6777571712160173E-002  0.18879931216757384        0.0000000000000000     
  -3.7181830421933376E-002  0.19694868993032946        0.0000000000000000     
  -4.1432664931229303E-002  0.16504980833104602        0.0000000000000000     
  -4.2063712974524187E-002  0.17291795355663539        0.0000000000000000     
  -4.2644698233545532E-002  0.18087472747970904        0.0000000000000000     
  -4.3175620708293359E-002  0.18892013010026695        0.0000000000000000     
  -4.3656480398767648E-002  0.19705416141830909        0.0000000000000000     
  -4.7658346308581269E-002  0.16524494531604517        0.0000000000000000     
  -4.8386478452977395E-002  0.17309558113390489        0.0000000000000000     
  -4.9058903844870029E-002  0.18103466393296433        0.0000000000000000     
  -4.9675622484259156E-002  0.18906219371322364        0.0000000000000000     
  -5.0236634371144784E-002  0.19717817047468270        0.0000000000000000     
  -2.4549042454893380E-002  0.19679335965955230        0.0000000000000000     
  -2.4781073543961148E-002  0.20503798456670203        0.0000000000000000     
  -2.4983925687495800E-002  0.21334006761667190        0.0000000000000000     
  -2.5157598885497352E-002  0.22169960880946185        0.0000000000000000     
  -2.5302093137965796E-002  0.23011660814507190        0.0000000000000000     
  -3.0812684440641953E-002  0.19686175601074388        0.0000000000000000     
  -3.1106742281423263E-002  0.20509841397504100        0.0000000000000000     
  -3.1363797155891708E-002  0.21339600095068315        0.0000000000000000     
  -3.1583849064047285E-002  0.22175451693767032        0.0000000000000000     
  -3.1766898005889992E-002  0.23017396193600251        0.0000000000000000     
  -3.7181830421933376E-002  0.19694868993032946        0.0000000000000000     
  -3.7541691018008541E-002  0.20517459818151493        0.0000000000000000     
  -3.7856682334023083E-002  0.21346496946379240        0.0000000000000000     
  -3.8126804369977001E-002  0.22181980377716179        0.0000000000000000     
  -3.8352057125870274E-002  0.23023910112162321        0.0000000000000000     
  -4.3656480398767648E-002  0.19705416141830909        0.0000000000000000     
  -4.4085919753716979E-002  0.20526653718612384        0.0000000000000000     
  -4.4462581221889931E-002  0.21354697315599955        0.0000000000000000     
  -4.4786464803286477E-002  0.22189546932793625        0.0000000000000000     
  -4.5057570497906645E-002  0.23031202570193396        0.0000000000000000     
  -5.0236634371144784E-002  0.19717817047468270        0.0000000000000000     
  -5.0739428488548587E-002  0.20537423098886770        0.0000000000000000     
  -5.1181493819492246E-002  0.21364201202730465        0.0000000000000000     
  -5.1562830363975742E-002  0.22198151358999368        0.0000000000000000     
  -5.1883438121999088E-002  0.23039273567693469        0.0000000000000000     
  -2.5302093137965796E-002  0.23011660814507190        0.0000000000000000     
  -2.5423715964822402E-002  0.23856354444337238        0.0000000000000000     
  -2.5528774885988436E-002  0.24701289652423375        0.0000000000000000     
  -2.5617269901463898E-002  0.25546466438765586        0.0000000000000000     
  -2.5689201011248792E-002  0.26391884803363885        0.0000000000000000     
  -3.1766898005889992E-002  0.23017396193600251        0.0000000000000000     
  -3.1920906560894809E-002  0.23862944935597624        0.0000000000000000     
  -3.2053837308536698E-002  0.24709609260788801        0.0000000000000000     
  -3.2165690248815673E-002  0.25557389169173783        0.0000000000000000     
  -3.2256465381731728E-002  0.26406284660752571        0.0000000000000000     
  -3.8352057125870274E-002  0.23023910112162321        0.0000000000000000     
  -3.8541264372190985E-002  0.23870203590279629        0.0000000000000000     
  -3.8703249879427193E-002  0.24718778252630072        0.0000000000000000     
  -3.8838013647578905E-002  0.25569634099213651        0.0000000000000000     
  -3.8945555676646107E-002  0.26422771130030359        0.0000000000000000     
  -4.5057570497906645E-002  0.23031202570193396        0.0000000000000000     
  -4.5284789398710952E-002  0.23878130408383250        0.0000000000000000     
  -4.5477012598659938E-002  0.24728796627947175        0.0000000000000000     
  -4.5634240097753596E-002  0.25583201228885183        0.0000000000000000     
  -4.5756471895991947E-002  0.26441344211197254        0.0000000000000000     
  -5.1883438121999088E-002  0.23039273567693469        0.0000000000000000     
  -5.2151481640454675E-002  0.23886725389908486        0.0000000000000000     
  -5.2375125466234899E-002  0.24739664386740123        0.0000000000000000     
  -5.2554369599339748E-002  0.25598090558188380        0.0000000000000000     
  -5.2689214039769228E-002  0.26462003904253262        0.0000000000000000     
  -2.5689201011248792E-002  0.26391884803363885        0.0000000000000000     
  -2.5756753841174453E-002  0.27232032028500242        0.0000000000000000     
  -2.5832114017072218E-002  0.28061395396456601        0.0000000000000000     
  -2.5915281538942084E-002  0.28879974907232969        0.0000000000000000     
  -2.6006256406784060E-002  0.29687770560829357        0.0000000000000000     
  -3.2256465381731728E-002  0.26406284660752571        0.0000000000000000     
  -3.2340960847955944E-002  0.27251006915171494        0.0000000000000000     
  -3.2433974788159396E-002  0.28086267112076879        0.0000000000000000     
  -3.2535507202342100E-002  0.28912065251468727        0.0000000000000000     
  -3.2645558090504047E-002  0.29728401333347043        0.0000000000000000     
  -3.8945555676646107E-002  0.26422771130030359        0.0000000000000000     
  -3.9044648733857996E-002  0.27273073852502672        0.0000000000000000     
  -3.9154065586443736E-002  0.28115426774053037        0.0000000000000000     
  -3.9273806234403352E-002  0.28949829894681489        0.0000000000000000     
  -3.9403870677736826E-002  0.29776283214387989        0.0000000000000000     
  -4.5756471895991947E-002  0.26441344211197254        0.0000000000000000     
  -4.5867817498880616E-002  0.27298232840493769        0.0000000000000000     
  -4.5992386411925254E-002  0.28148874382385108        0.0000000000000000     
  -4.6130178635125849E-002  0.28993268836871239        0.0000000000000000     
  -4.6281194168482420E-002  0.29831416203952194        0.0000000000000000     
  -5.2689214039769228E-002  0.26462003904253262        0.0000000000000000     
  -5.2810467143023801E-002  0.27326483879144803        0.0000000000000000     
  -5.2948937264603924E-002  0.28186609937073048        0.0000000000000000     
  -5.3104624404509596E-002  0.29042382078037998        0.0000000000000000     
  -5.3277528562740817E-002  0.29893800302039647        0.0000000000000000     
  -2.8966845572212858E-002   5.7172097874377693E-002   0.0000000000000000     
  -3.0512408918357083E-002   6.2730241664128383E-002   0.0000000000000000     
  -3.2008130763620267E-002   6.8469618163420676E-002   0.0000000000000000     
  -3.3454011108002404E-002   7.4390227372254536E-002   0.0000000000000000     
  -3.4850049951503502E-002   8.0492069290629992E-002   0.0000000000000000     
  -3.2949422684430615E-002   5.7666955579980292E-002   0.0000000000000000     
  -3.4689032225997680E-002   6.3212683193730343E-002   0.0000000000000000     
  -3.6371901483191776E-002   6.8938361592550207E-002   0.0000000000000000     
  -3.7998030456012882E-002   7.4843990776439911E-002   0.0000000000000000     
  -3.9567419144461005E-002   8.0929570745399415E-002   0.0000000000000000     
  -3.7078555636835597E-002   5.8222868707363158E-002   0.0000000000000000     
  -3.9010088053720450E-002   6.3752390881181911E-002   0.0000000000000000     
  -4.0878590583699859E-002   6.9461360536995823E-002   0.0000000000000000     
  -4.2684063226773830E-002   7.5349777674804913E-002   0.0000000000000000     
  -4.4426505982942351E-002   8.1417642294609113E-002   0.0000000000000000     
  -4.1354244429427804E-002   5.8839837256526292E-002   0.0000000000000000     
  -4.3475576401525377E-002   6.4349364726483074E-002   0.0000000000000000     
  -4.5528198065144521E-002   7.0038614996757495E-002   0.0000000000000000     
  -4.7512109420285248E-002   7.5907588067349499E-002   0.0000000000000000     
  -4.9427310466947552E-002   8.1956283938259128E-002   0.0000000000000000     
  -4.5776489062207243E-002   5.9517861227469687E-002   0.0000000000000000     
  -4.8085497269412462E-002   6.5003604729633874E-002   0.0000000000000000     
  -5.0320723927525769E-002   7.0670124971835210E-002   0.0000000000000000     
  -5.2482169036547142E-002   7.6517421954073711E-002   0.0000000000000000     
  -5.4569832596476603E-002   8.2545495676349404E-002   0.0000000000000000     
  -3.4850049951503502E-002   8.0492069290629992E-002   0.0000000000000000     
  -3.6196127562617343E-002   8.6763734385317204E-002   0.0000000000000000     
  -3.7492124209837732E-002   9.3193813123086375E-002   0.0000000000000000     
  -3.8738039893164669E-002   9.9782305503937546E-002   0.0000000000000000     
  -3.9933874612598140E-002  0.10652921152787065        0.0000000000000000     
  -3.9567419144461005E-002   8.0929570745399415E-002   0.0000000000000000     
  -4.1080557642399811E-002   8.7184383516323752E-002   0.0000000000000000     
  -4.2537936043692999E-002   9.3597711106107970E-002   0.0000000000000000     
  -4.3939554348340543E-002  0.10016955351475204        0.0000000000000000     
  -4.5285412556342455E-002  0.10689991074225598        0.0000000000000000     
  -4.4426505982942351E-002   8.1417642294609113E-002   0.0000000000000000     
  -4.6106689086854627E-002   8.7654437763950585E-002   0.0000000000000000     
  -4.7725382773159811E-002   9.4049647450371338E-002   0.0000000000000000     
  -4.9282587041857943E-002  0.10060327135387137        0.0000000000000000     
  -5.0778301892948990E-002  0.10731530947445070        0.0000000000000000     
  -4.9427310466947552E-002   8.1956283938259128E-002   0.0000000000000000     
  -5.1274521895981751E-002   8.8173897128197648E-002   0.0000000000000000     
  -5.3054464398238195E-002   9.4549622155876478E-002   0.0000000000000000     
  -5.4767137973716844E-002  0.10108345902129551        0.0000000000000000     
  -5.6412542622417718E-002  0.10777540772445482        0.0000000000000000     
  -5.4569832596476603E-002   8.2545495676349404E-002   0.0000000000000000     
  -5.6584056069781244E-002   8.8742761609065024E-002   0.0000000000000000     
  -5.8525180918928117E-002   9.5097635222623364E-002   0.0000000000000000     
  -6.0393207143917264E-002  0.10161011651702448        0.0000000000000000     
  -6.2188134744748678E-002  0.10828020549226830        0.0000000000000000     
  -3.9933874612598140E-002  0.10652921152787065        0.0000000000000000     
  -4.1079285576015104E-002  0.11342239412524505        0.0000000000000000     
  -4.2173929991292491E-002  0.12044971622642012        0.0000000000000000     
  -4.3217807858430310E-002  0.12761117783139583        0.0000000000000000     
  -4.4210919177428573E-002  0.13490677894017222        0.0000000000000000     
  -4.5285412556342455E-002  0.10689991074225598        0.0000000000000000     
  -4.6575120853495966E-002  0.11377636490710165        0.0000000000000000     
  -4.7808289425598338E-002  0.12078649812777083        0.0000000000000000     
  -4.8984918272649523E-002  0.12793031040426361        0.0000000000000000     
  -5.0105007394649556E-002  0.13520780173657995        0.0000000000000000     
  -5.0778301892948990E-002  0.10731530947445070        0.0000000000000000     
  -5.2212178463284555E-002  0.11417326528702146        0.0000000000000000     
  -5.3583867889716190E-002  0.12116464226649572        0.0000000000000000     
  -5.4893370172243917E-002  0.12828944041287357        0.0000000000000000     
  -5.6140685310867737E-002  0.13554765972615496        0.0000000000000000     
  -5.6412542622417718E-002  0.10777540772445482        0.0000000000000000     
  -5.7990458405380814E-002  0.11461309526500453        0.0000000000000000     
  -5.9500665383646074E-002  0.12158414864259484        0.0000000000000000     
  -6.0943163557213499E-002  0.12868856785722577        0.0000000000000000     
  -6.2317952926083102E-002  0.13592635290889724        0.0000000000000000     
  -6.2188134744748678E-002  0.10828020549226830        0.0000000000000000     
  -6.3909960679784758E-002  0.11509585484105087        0.0000000000000000     
  -6.5558681907387964E-002  0.12204501725606813        0.0000000000000000     
  -6.7134298427558262E-002  0.12912769273732014        0.0000000000000000     
  -6.8636810240295679E-002  0.13634388128480682        0.0000000000000000     
  -4.4210919177428573E-002  0.13490677894017222        0.0000000000000000     
  -4.5152179406821966E-002  0.14232491748417181        0.0000000000000000     
  -4.6040504005145221E-002  0.14985399139481717        0.0000000000000000     
  -4.6875892972398310E-002  0.15749400067210831        0.0000000000000000     
  -4.7658346308581269E-002  0.16524494531604517        0.0000000000000000     
  -5.0105007394649556E-002  0.13520780173657995        0.0000000000000000     
  -5.1167564993601089E-002  0.14260749145308593        0.0000000000000000     
  -5.2171599271506781E-002  0.15011789888214772        0.0000000000000000     
  -5.3117110228366633E-002  0.15773902402376525        0.0000000000000000     
  -5.4004097864180631E-002  0.16547086687793849        0.0000000000000000     
  -5.6140685310867737E-002  0.13554765972615496        0.0000000000000000     
  -5.7325042368400164E-002  0.14292776981492974        0.0000000000000000     
  -5.8445670407653728E-002  0.15041824028778783        0.0000000000000000     
  -5.9502569428628423E-002  0.15801907114472927        0.0000000000000000     
  -6.0495739431324275E-002  0.16573026238575397        0.0000000000000000     
  -6.2317952926083102E-002  0.13592635290889724        0.0000000000000000     
  -6.3624611531219191E-002  0.14328575256970325        0.0000000000000000     
  -6.4862717413586082E-002  0.15075501561173765        0.0000000000000000     
  -6.6032270573183727E-002  0.15833414203500043        0.0000000000000000     
  -6.7133271010012166E-002  0.16602313183949161        0.0000000000000000     
  -6.8636810240295679E-002  0.13634388128480682        0.0000000000000000     
  -7.0066272482058170E-002  0.14368143971740641        0.0000000000000000     
  -7.1422740289303802E-002  0.15112822485399702        0.0000000000000000     
  -7.2706213662032518E-002  0.15868423669457868        0.0000000000000000     
  -7.3916692600244346E-002  0.16634947523915139        0.0000000000000000     
  -4.7658346308581269E-002  0.16524494531604517        0.0000000000000000     
  -4.8386478452977395E-002  0.17309558113390489        0.0000000000000000     
  -4.9058903844870029E-002  0.18103466393296433        0.0000000000000000     
  -4.9675622484259156E-002  0.18906219371322364        0.0000000000000000     
  -5.0236634371144784E-002  0.19717817047468270        0.0000000000000000     
  -5.4004097864180631E-002  0.16547086687793849        0.0000000000000000     
  -5.4831366610429241E-002  0.17330222210627322        0.0000000000000000     
  -5.5597720898592884E-002  0.18122188437037492        0.0000000000000000     
  -5.6303160728671559E-002  0.18922985367024375        0.0000000000000000     
  -5.6947686100665272E-002  0.19732613000587956        0.0000000000000000     
  -6.0495739431324275E-002  0.16573026238575397        0.0000000000000000     
  -6.1424174171341911E-002  0.17354086536883967        0.0000000000000000     
  -6.2286867404282020E-002  0.18143993145196413        0.0000000000000000     
  -6.3083819130144603E-002  0.18942746063512719        0.0000000000000000     
  -6.3815029348929644E-002  0.19750345291832899        0.0000000000000000     
  -6.7133271010012166E-002  0.16602313183949161        0.0000000000000000     
  -6.8164901135715425E-002  0.17381151092160438        0.0000000000000000     
  -6.9126343361937431E-002  0.18168880517773187        0.0000000000000000     
  -7.0017597688678268E-002  0.18965501460787410        0.0000000000000000     
  -7.0838664115937866E-002  0.19771013921203098        0.0000000000000000     
  -7.3916692600244346E-002  0.16634947523915139        0.0000000000000000     
  -7.5053547503549728E-002  0.17411415876456721        0.0000000000000000     
  -7.6116148771559117E-002  0.18196850554767816        0.0000000000000000     
  -7.7104496404272541E-002  0.18991251558848427        0.0000000000000000     
  -7.8018590401689972E-002  0.19794618888698556        0.0000000000000000     
  -5.0236634371144784E-002  0.19717817047468270        0.0000000000000000     
  -5.0739428488548587E-002  0.20537423098886770        0.0000000000000000     
  -5.1181493819492246E-002  0.21364201202730465        0.0000000000000000     
  -5.1562830363975742E-002  0.22198151358999368        0.0000000000000000     
  -5.1883438121999088E-002  0.23039273567693469        0.0000000000000000     
  -5.6947686100665272E-002  0.19732613000587956        0.0000000000000000     
  -5.7528006118417650E-002  0.20550391714954719        0.0000000000000000     
  -5.8040829885772256E-002  0.21375641887351124        0.0000000000000000     
  -5.8486157402729118E-002  0.22208363517777180        0.0000000000000000     
  -5.8863988669288228E-002  0.23048556606232884        0.0000000000000000     
  -6.3815029348929644E-002  0.19750345291832899        0.0000000000000000     
  -6.4477441539238414E-002  0.20566183322796303        0.0000000000000000     
  -6.5067999179672167E-002  0.21389652649042282        0.0000000000000000     
  -6.5586702270230932E-002  0.22220753270570825        0.0000000000000000     
  -6.6033550810914665E-002  0.23059485187381956        0.0000000000000000     
  -7.0838664115937866E-002  0.19771013921203098        0.0000000000000000     
  -7.1587734751010920E-002  0.20584797922411524        0.0000000000000000     
  -7.2263001701192014E-002  0.21406233487803930        0.0000000000000000     
  -7.2864464966481177E-002  0.22235320617380319        0.0000000000000000     
  -7.3392124546878393E-002  0.23072059311140689        0.0000000000000000     
  -7.8018590401689972E-002  0.19794618888698556        0.0000000000000000     
  -7.8858885753735147E-002  0.20606235513800381        0.0000000000000000     
  -7.9625837450331777E-002  0.21425384403636072        0.0000000000000000     
  -8.0319445491479860E-002  0.22252065558205644        0.0000000000000000     
  -8.0939709877179425E-002  0.23086278977509089        0.0000000000000000     
  -5.1883438121999088E-002  0.23039273567693469        0.0000000000000000     
  -5.2151481640454675E-002  0.23886725389908486        0.0000000000000000     
  -5.2375125466234899E-002  0.24739664386740123        0.0000000000000000     
  -5.2554369599339748E-002  0.25598090558188380        0.0000000000000000     
  -5.2689214039769228E-002  0.26462003904253262        0.0000000000000000     
  -5.8863988669288228E-002  0.23048556606232884        0.0000000000000000     
  -5.9180475618117220E-002  0.23896132134918763        0.0000000000000000     
  -5.9441770181883700E-002  0.24751001086035362        0.0000000000000000     
  -5.9647872360587689E-002  0.25613163459582672        0.0000000000000000     
  -5.9798782154229159E-002  0.26482619255560702        0.0000000000000000     
  -6.6033550810914665E-002  0.23059485187381956        0.0000000000000000     
  -6.6410905852393620E-002  0.23906494243477514        0.0000000000000000     
  -6.6721128445337979E-002  0.24762426282859359        0.0000000000000000     
  -6.6964218589747757E-002  0.25627281305527494        0.0000000000000000     
  -6.7140176285622938E-002  0.26501059311481917        0.0000000000000000     
  -7.3392124546878393E-002  0.23072059311140689        0.0000000000000000     
  -7.3842772343283847E-002  0.23917811715584728        0.0000000000000000     
  -7.4213200256597694E-002  0.24773939977212106        0.0000000000000000     
  -7.4503408286819936E-002  0.25640444096022824        0.0000000000000000     
  -7.4713396433950544E-002  0.26517324072016901        0.0000000000000000     
  -8.0939709877179425E-002  0.23086278977509089        0.0000000000000000     
  -8.1476075090787928E-002  0.23930084551240408        0.0000000000000000     
  -8.1917985615662881E-002  0.24785542169093605        0.0000000000000000     
  -8.2265441451804228E-002  0.25652651831068685        0.0000000000000000     
  -8.2518442599212011E-002  0.26531413537165655        0.0000000000000000     
  -5.2689214039769228E-002  0.26462003904253262        0.0000000000000000     
  -5.2810467143023801E-002  0.27326483879144803        0.0000000000000000     
  -5.2948937264603924E-002  0.28186609937073048        0.0000000000000000     
  -5.3104624404509596E-002  0.29042382078037998        0.0000000000000000     
  -5.3277528562740817E-002  0.29893800302039647        0.0000000000000000     
  -5.9798782154229159E-002  0.26482619255560702        0.0000000000000000     
  -5.9931353259910433E-002  0.27354955718875390        0.0000000000000000     
  -6.0082439374733836E-002  0.28225760094432661        0.0000000000000000     
  -6.0252040498699352E-002  0.29095032382232516        0.0000000000000000     
  -6.0440156631806970E-002  0.29962772582274966        0.0000000000000000     
  -6.7140176285622938E-002  0.26501059311481917        0.0000000000000000     
  -6.7289231443163414E-002  0.27380777110105148        0.0000000000000000     
  -6.7451613972569061E-002  0.28263451510779697        0.0000000000000000     
  -6.7627323873839865E-002  0.29149082513505564        0.0000000000000000     
  -6.7816361146975854E-002  0.30037670118282750        0.0000000000000000     
  -7.4713396433950544E-002  0.26517324072016901        0.0000000000000000     
  -7.4884101692782729E-002  0.27403948052834087        0.0000000000000000     
  -7.5056461058109591E-002  0.28299684186114171        0.0000000000000000     
  -7.5230474529931188E-002  0.29204532471857136        0.0000000000000000     
  -7.5406142108247462E-002  0.30118492910063005        0.0000000000000000     
  -8.2518442599212011E-002  0.26531413537165655        0.0000000000000000     
  -8.2715964008768378E-002  0.27424468547062208        0.0000000000000000     
  -8.2896980631355477E-002  0.28334458120436073        0.0000000000000000     
  -8.3061492466973280E-002  0.29261382257287244        0.0000000000000000     
  -8.3209499515621815E-002  0.30205240957615720        0.0000000000000000     
  -4.5776489062207243E-002   5.9517861227469687E-002   0.0000000000000000     
  -4.8085497269412462E-002   6.5003604729633874E-002   0.0000000000000000     
  -5.0320723927525769E-002   7.0670124971835210E-002   0.0000000000000000     
  -5.2482169036547142E-002   7.6517421954073711E-002   0.0000000000000000     
  -5.4569832596476603E-002   8.2545495676349404E-002   0.0000000000000000     
  -5.0369265922161267E-002   6.0253503044523607E-002   0.0000000000000000     
  -5.2864985096618022E-002   6.5714011455318244E-002   0.0000000000000000     
  -5.5282097494654764E-002   7.1356222776387229E-002   0.0000000000000000     
  -5.7620603116271478E-002   7.7180137007730562E-002   0.0000000000000000     
  -5.9880501961468192E-002   8.3185754149348271E-002   0.0000000000000000     
  -5.5156551396277280E-002   6.1043325132018329E-002   0.0000000000000000     
  -5.7839174322378360E-002   6.6479485468220231E-002   0.0000000000000000     
  -6.0438248090342685E-002   7.2097240724571798E-002   0.0000000000000000     
  -6.2953772700170219E-002   7.7896590901073079E-002   0.0000000000000000     
  -6.5385748151861017E-002   8.3877535997723990E-002   0.0000000000000000     
  -6.0138345484555253E-002   6.1887327489953847E-002   0.0000000000000000     
  -6.3008064946693476E-002   6.7300026768339821E-002   0.0000000000000000     
  -6.5789175714589532E-002   7.2893178816388904E-002   0.0000000000000000     
  -6.8481677788243392E-002   7.8666783634101206E-002   0.0000000000000000     
  -7.1085571167655043E-002   8.4620841221476631E-002   0.0000000000000000     
  -6.5314648186995200E-002   6.2785510118330168E-002   0.0000000000000000     
  -6.8371656969563377E-002   6.8175635355676972E-002   0.0000000000000000     
  -7.1334880367395298E-002   7.3744037051838573E-002   0.0000000000000000     
  -7.4204318380490950E-002   7.9490715206814971E-002   0.0000000000000000     
  -7.6979971008850318E-002   8.5415669820606166E-002   0.0000000000000000     
  -5.4569832596476603E-002   8.2545495676349404E-002   0.0000000000000000     
  -5.6584056069781244E-002   8.8742761609065024E-002   0.0000000000000000     
  -5.8525180918928117E-002   9.5097635222623364E-002   0.0000000000000000     
  -6.0393207143917264E-002  0.10161011651702448        0.0000000000000000     
  -6.2188134744748678E-002  0.10828020549226830        0.0000000000000000     
  -5.9880501961468192E-002   8.3185754149348271E-002   0.0000000000000000     
  -6.2061617884003259E-002   8.9360825103405858E-002   0.0000000000000000     
  -6.4163774737635071E-002   9.5693100772068856E-002   0.0000000000000000     
  -6.6186972522363580E-002  0.10218258115533731        0.0000000000000000     
  -6.8131211238188855E-002  0.10882926625321122        0.0000000000000000     
  -6.5385748151861017E-002   8.3877535997723990E-002   0.0000000000000000     
  -6.7733533614398073E-002   9.0027881508073310E-002   0.0000000000000000     
  -6.9996488256764480E-002   9.6335432925669665E-002   0.0000000000000000     
  -7.2174612078960212E-002  0.10280019025051308        0.0000000000000000     
  -7.4267905080985283E-002  0.10942215348260358        0.0000000000000000     
  -7.1085571167655043E-002   8.4620841221476631E-002   0.0000000000000000     
  -7.3599803260965671E-002   9.0743930823067448E-002   0.0000000000000000     
  -7.6023321476316366E-002   9.7024631683425830E-002   0.0000000000000000     
  -7.8356125813707142E-002  0.10346294380255182        0.0000000000000000     
  -8.0598216273137971E-002  0.11005886718044534        0.0000000000000000     
  -7.6979971008850318E-002   8.5415669820606166E-002   0.0000000000000000     
  -7.9660426823706040E-002   9.1508973048388259E-002   0.0000000000000000     
  -8.2244274396290715E-002   9.7760697045337352E-002   0.0000000000000000     
  -8.4731513726604354E-002  0.10417084181145347        0.0000000000000000     
  -8.7122144814646946E-002  0.11073940734673660        0.0000000000000000     
  -6.2188134744748678E-002  0.10828020549226830        0.0000000000000000     
  -6.3909960679784758E-002  0.11509585484105087        0.0000000000000000     
  -6.5558681907387964E-002  0.12204501725606813        0.0000000000000000     
  -6.7134298427558262E-002  0.12912769273732014        0.0000000000000000     
  -6.8636810240295679E-002  0.13634388128480682        0.0000000000000000     
  -6.8131211238188855E-002  0.10882926625321122        0.0000000000000000     
  -6.9996718276563633E-002  0.11562139469409954        0.0000000000000000     
  -7.1783721028940720E-002  0.12254720510641130        0.0000000000000000     
  -7.3492219495320116E-002  0.12960669749014647        0.0000000000000000     
  -7.5122213675701793E-002  0.13679987184530507        0.0000000000000000     
  -7.4267905080985283E-002  0.10942215348260358        0.0000000000000000     
  -7.6276764185784648E-002  0.11618956550308969        0.0000000000000000     
  -7.8201586316303182E-002  0.12309066919312002        0.0000000000000000     
  -8.0042371472540938E-002  0.13012546455269455        0.0000000000000000     
  -8.1799119654497890E-002  0.13729395158181337        0.0000000000000000     
  -8.0598216273137971E-002  0.11005886718044534        0.0000000000000000     
  -8.2750098407447792E-002  0.11680036726802126        0.0000000000000000     
  -8.4812277769475378E-002  0.12367540951619425        0.0000000000000000     
  -8.6784754359220770E-002  0.13068399392496444        0.0000000000000000     
  -8.8667528176683955E-002  0.13782612049433171        0.0000000000000000     
  -8.7122144814646946E-002  0.11073940734673660        0.0000000000000000     
  -8.9416720941553063E-002  0.11745379998889428        0.0000000000000000     
  -9.1615795388457266E-002  0.12430142607563409        0.0000000000000000     
  -9.3719368155359570E-002  0.13128228560695604        0.0000000000000000     
  -9.5727439242259960E-002  0.13839637858286014        0.0000000000000000     
  -6.8636810240295679E-002  0.13634388128480682        0.0000000000000000     
  -7.0066272482058170E-002  0.14368143971740641        0.0000000000000000     
  -7.1422740289303802E-002  0.15112822485399702        0.0000000000000000     
  -7.2706213662032518E-002  0.15868423669457868        0.0000000000000000     
  -7.3916692600244346E-002  0.16634947523915139        0.0000000000000000     
  -7.5122213675701793E-002  0.13679987184530507        0.0000000000000000     
  -7.6674233582835274E-002  0.14411425252358526        0.0000000000000000     
  -7.8148809229469970E-002  0.15153736387668520        0.0000000000000000     
  -7.9545940615605937E-002  0.15906920590460494        0.0000000000000000     
  -8.0865627741243090E-002  0.16670977860734443        0.0000000000000000     
  -8.1799119654497890E-002  0.13729395158181337        0.0000000000000000     
  -8.3472703195468623E-002  0.14458361225378583        0.0000000000000000     
  -8.5063994428747652E-002  0.15198192854192144        0.0000000000000000     
  -8.6572993354335048E-002  0.15948890044622013        0.0000000000000000     
  -8.7999699972230755E-002  0.16710452796668196        0.0000000000000000     
  -8.8667528176683955E-002  0.13782612049433171        0.0000000000000000     
  -9.0461681319958243E-002  0.14508951890800811        0.0000000000000000     
  -9.2168295887136875E-002  0.15246191884970559        0.0000000000000000     
  -9.3787371878219894E-002  0.15994332031942415        0.0000000000000000     
  -9.5318909293207299E-002  0.16753372331716387        0.0000000000000000     
  -9.5727439242259960E-002  0.13839637858286014        0.0000000000000000     
  -9.7641167956304092E-002  0.14563197248625209        0.0000000000000000     
  -9.9461713604637583E-002  0.15297733480003778        0.0000000000000000     
 -0.10118907618726047       0.16043246552421714        0.0000000000000000     
 -0.10282325570417275       0.16799736465879020        0.0000000000000000     
  -7.3916692600244346E-002  0.16634947523915139        0.0000000000000000     
  -7.5053547503549728E-002  0.17411415876456721        0.0000000000000000     
  -7.6116148771559117E-002  0.18196850554767816        0.0000000000000000     
  -7.7104496404272541E-002  0.18991251558848427        0.0000000000000000     
  -7.8018590401689972E-002  0.19794618888698556        0.0000000000000000     
  -8.0865627741243090E-002  0.16670977860734443        0.0000000000000000     
  -8.2107669041069142E-002  0.17444989035695044        0.0000000000000000     
  -8.3271862949771708E-002  0.18228034952546951        0.0000000000000000     
  -8.4358209467350787E-002  0.19020115611290170        0.0000000000000000     
  -8.5366708593806351E-002  0.19821231011924711        0.0000000000000000     
  -8.7999699972230755E-002  0.16710452796668196        0.0000000000000000     
  -8.9344821514497935E-002  0.17481978715797628        0.0000000000000000     
  -9.0609065213199780E-002  0.18262565407477238        0.0000000000000000     
  -9.1792431068336303E-002  0.19052212871707028        0.0000000000000000     
  -9.2894919079907448E-002  0.19850921108487002        0.0000000000000000     
  -9.5318909293207299E-002  0.16753372331716387        0.0000000000000000     
  -9.6765004923836134E-002  0.17522384916764469        0.0000000000000000     
  -9.8127755561843374E-002  0.18300441919558669        0.0000000000000000     
  -9.9407161207229103E-002  0.19087543340098992        0.0000000000000000     
 -0.10060322185999324       0.19883689178385433        0.0000000000000000     
 -0.10282325570417275       0.16799736465879020        0.0000000000000000     
 -0.10436821926908366       0.17566207638595577        0.0000000000000000     
 -0.10582793399570245       0.18341664488791257        0.0000000000000000     
 -0.10720239988402915       0.19126107016466065        0.0000000000000000     
 -0.10849161693406373       0.19919535221620002        0.0000000000000000     
  -7.8018590401689972E-002  0.19794618888698556        0.0000000000000000     
  -7.8858885753735147E-002  0.20606235513800381        0.0000000000000000     
  -7.9625837450331777E-002  0.21425384403636072        0.0000000000000000     
  -8.0319445491479860E-002  0.22252065558205644        0.0000000000000000     
  -8.0939709877179425E-002  0.23086278977509089        0.0000000000000000     
  -8.5366708593806351E-002  0.19821231011924711        0.0000000000000000     
  -8.6300164573585858E-002  0.20630578255006654        0.0000000000000000     
  -8.7161381651136682E-002  0.21447354441092120        0.0000000000000000     
  -8.7950359826458838E-002  0.22271559570181093        0.0000000000000000     
  -8.8667099099552338E-002  0.23103193642273581        0.0000000000000000     
  -9.2894919079907448E-002  0.19850921108487002        0.0000000000000000     
  -9.3920841236737815E-002  0.20657908304074149        0.0000000000000000     
  -9.4874509527651987E-002  0.21472392644725466        0.0000000000000000     
  -9.5755923952649966E-002  0.22294374130440953        0.0000000000000000     
  -9.6565084511731736E-002  0.23123852761220609        0.0000000000000000     
 -0.10060322185999324       0.19883689178385433        0.0000000000000000     
 -0.10172091574319103       0.20688225661002857        0.0000000000000000     
 -0.10276522107987769       0.21500499014536115        0.0000000000000000     
 -0.10373613787005323       0.22320509238985220        0.0000000000000000     
 -0.10463366611371759       0.23148256334350165        0.0000000000000000     
 -0.10849161693406373       0.19919535221620002        0.0000000000000000     
 -0.10970038809294549       0.20721530325792770        0.0000000000000000     
 -0.11083351630781380       0.21531673550524066        0.0000000000000000     
 -0.11189100157866863       0.22349964895813895        0.0000000000000000     
 -0.11287284390550995       0.23176404361662256        0.0000000000000000     
  -8.0939709877179425E-002  0.23086278977509089        0.0000000000000000     
  -8.1476075090787928E-002  0.23930084551240408        0.0000000000000000     
  -8.1917985615662881E-002  0.24785542169093605        0.0000000000000000     
  -8.2265441451804228E-002  0.25652651831068685        0.0000000000000000     
  -8.2518442599212011E-002  0.26531413537165655        0.0000000000000000     
  -8.8667099099552338E-002  0.23103193642273581        0.0000000000000000     
  -8.9297297896619207E-002  0.23944808863497458        0.0000000000000000     
  -8.9826654643861539E-002  0.24798957439980585        0.0000000000000000     
  -9.0255169341279237E-002  0.25665639371722970        0.0000000000000000     
  -9.0582841988872398E-002  0.26544854658724620        0.0000000000000000     
  -9.6565084511731736E-002  0.23123852761220609        0.0000000000000000     
  -9.7292924562491070E-002  0.23963480765408768        0.0000000000000000     
  -9.7930377462521645E-002  0.24815910371349759        0.0000000000000000     
  -9.8477443211823557E-002  0.25681141579043582        0.0000000000000000     
  -9.8934121810396722E-002  0.26559174388490242        0.0000000000000000     
 -0.10463366611371759       0.23148256334350165        0.0000000000000000     
 -0.10546295508840343       0.23986100256974346        0.0000000000000000     
 -0.10622915407164329       0.24836400963201125        0.0000000000000000     
 -0.10693226306343713       0.25699158453030524        0.0000000000000000     
 -0.10757228206378502       0.26574372726462531        0.0000000000000000     
 -0.11287284390550995       0.23176404361662256        0.0000000000000000     
 -0.11380738947435634       0.24012667338194180        0.0000000000000000     
 -0.11472298447122638       0.24860429215534685        0.0000000000000000     
 -0.11561962889612001       0.25719689993683786        0.0000000000000000     
 -0.11649732274903729       0.26590449672641475        0.0000000000000000     
  -8.2518442599212011E-002  0.26531413537165655        0.0000000000000000     
  -8.2715964008768378E-002  0.27424468547062208        0.0000000000000000     
  -8.2896980631355477E-002  0.28334458120436073        0.0000000000000000     
  -8.3061492466973280E-002  0.29261382257287244        0.0000000000000000     
  -8.3209499515621815E-002  0.30205240957615720        0.0000000000000000     
  -9.0582841988872398E-002  0.26544854658724620        0.0000000000000000     
  -9.0840007388431329E-002  0.27442908061488985        0.0000000000000000     
  -9.1057000341746422E-002  0.28366104340519538        0.0000000000000000     
  -9.1233820848817662E-002  0.29314443495816278        0.0000000000000000     
  -9.1370468909645064E-002  0.30287925527379200        0.0000000000000000     
  -9.8934121810396722E-002  0.26559174388490242        0.0000000000000000     
  -9.9311420829082508E-002  0.27459836064813897        0.0000000000000000     
  -9.9620347838722229E-002  0.28392953873138693        0.0000000000000000     
  -9.9860902839315896E-002  0.29358527813464635        0.0000000000000000     
 -0.10003308583086346       0.30356557885791724        0.0000000000000000     
 -0.10757228206378502       0.26574372726462531        0.0000000000000000     
 -0.10813020433072196       0.27475252557036944        0.0000000000000000     
 -0.10858702312228290       0.28415006718293540        0.0000000000000000     
 -0.10894273843846793       0.29393635210232327        0.0000000000000000     
 -0.10919735027927693       0.30411138032853308        0.0000000000000000     
 -0.11649732274903729       0.26590449672641475        0.0000000000000000     
 -0.11729635789334963       0.27489157538158121        0.0000000000000000     
 -0.11795702619242845       0.28432262875984077        0.0000000000000000     
 -0.11847932764627375       0.29419765686119348        0.0000000000000000     
 -0.11886326225488555       0.30451665968563935        0.0000000000000000     
 </DataArray>
 <DataArray  type="Float64" Name="stress" NumberOfComponents="3" format="ascii">
   5963223863.8586731        12443402.545403719        20256013.018633727     
   5779354917.6925678       -226635.10196590424        13529182.466767495     
   5597190796.8481903       -7213921.6768631935        10668393.290600942     
   5416731501.3255749       -8518457.1792442799        11673645.490132790     
   5237977031.1247015       -4140241.6091504097        16544939.065361757     
   5596897175.5349417        6571530.2718844414        179759628.55069169     
   5424511922.8538752       -950331.55726289749        174782282.48263413     
   5253176906.3722019       -4971406.0551114082        173584464.83856222     
   5082892126.0899096       -5491693.2216777802        176166175.61847088     
   4913657582.0070076       -2511193.0569429398        182527414.82235494     
   5231100835.0369415        858762.34607172012        340300113.80388749     
   5069952095.9788771       -1589077.6234447956        336308564.91023111     
   4909199003.9978399       -2718094.0028734207        336010031.48882782     
   4748841559.0938196       -2528286.7922194004        339404513.53968340     
   4588879761.2668390       -1019655.9914715290        346492011.06280106     
   4865834842.3647108       -4694901.2320036888        501877468.77823418     
   4715675437.0675764       -2142873.3005175591        498108029.74954307     
   4565257089.7251158       -453985.52013611794        497945093.24139476     
   4414579800.3373108        371762.10911393166        501388659.25378233     
   4263643568.9041767        334369.58724570274        508438727.78670549     
   4501099197.5182171       -10089460.462358236        664491693.47371686     
   4361681946.1199656       -2611718.5884869099        660180677.00057781     
   4221351163.5540218        1820919.3930807114        659389650.09625995     
   4080106849.8203726        3208453.4823071957        662118612.76075780     
   3937949004.9190383        1550883.6792263985        668367564.99406993     
   5237977031.1247015       -4140241.6091504097        16544939.065361757     
   5053798889.2573090        225398.73308420181        10865058.565696809     
   4868980444.8849382        2456697.3920562267        9542117.4726858437     
   4683521698.0075922        2553654.3677773476        12576115.786330136     
   4497422648.6252594        516269.66021203995        19967053.506628409     
   4913657582.0070076       -2511193.0569429398        182527414.82235494     
   4740314207.6544704        246383.38441395760        176085137.28700885     
   4566586350.0855131        1722349.1043715477        173991448.56432804     
   4392474009.3001442        1916704.1029658318        176246348.65432429     
   4217977185.2983565        829448.38015508652        182849837.55697367     
   4588879761.2668390       -1019655.9914715290        346492011.06280106     
   4426347295.5891743        122698.89697813988        339585792.32844073     
   4263686165.9836612        836174.02594542503        337019811.81275880     
   4100896372.4503050        1120769.3954172134        338794069.51574659     
   3937977914.9891000        976485.00540184975        344908565.43741375     
   4263643568.9041767        334369.58724570274        508438727.78670549     
   4111898153.0614223       -145654.72917675972        501367023.68999100     
   3960279892.5793858       -201827.84320783615        498627207.21795887     
   3808788787.4580717        165850.24516654015        500219278.37061572     
   3657424837.6974740        957379.53593635559        506143237.14795727     
   3937949004.9190383        1550883.6792263985        668367564.99406993     
   3796966780.0712209       -558677.49406504631        661428831.37165737     
   3656367529.8726892       -1391656.5030808449        658813634.77993953     
   3516151254.3234487       -948053.34779286385        660521975.21892321     
   3376317953.4234829        772131.97175431252        666553852.68860531     
   4497422648.6252594        516269.66021203995        19967053.506628409     
   4313461077.4189920       -1478211.2294912338        13102289.001098145     
   4129745299.0682783       -2653382.6006829739        10568943.401665451     
   3946275313.5731168       -3009244.4533681870        12367016.708332887     
   3763051120.9335055       -2545796.7875545025        18496508.921077400     
   4217977185.2983565        829448.38015508652        182849837.55697367     
   4045493952.8394585       -16915.523712873459        175970066.59261268     
   3873155740.5350337       -379878.91266798973        173323417.99265268     
   3700962548.3850975       -259441.78667497635        174909891.75706446     
   3528914376.3896155        344395.85417890549        180729487.88586247     
   3937977914.9891000        976485.00540184975        344908565.43741375     
   3776692174.0155535        1193983.9087655544        337896219.86296856     
   3615450680.4953980        1558974.3234517574        335018700.11120719     
   3454253434.4286442        2071456.2494616508        336276006.18212104     
   3293100435.8152843        2731429.6867964268        341668138.07570714     
   3657424837.6974740        957379.53593635559        506143237.14795727     
   3507055740.9472566        2154487.0679271221        498880748.81216925     
   3356630118.9493532        3163177.1076376438        495654789.75735229     
   3206147971.7037754        3983449.6550869942        496465359.98350573     
   3055609299.2105131        4615304.7102736235        501312459.49062765     
   3376317953.4234829        772131.97175431252        666553852.68860531     
   3236584653.6345735        2864593.9537595510        658923653.44021189     
   3096694055.8969097        4432729.4399105310        655231686.93108356     
   2956646160.2104802        5476538.4301842451        655477953.16121781     
   2816440966.5753021        5996020.9246188402        659662452.13061774     
   3763051120.9335055       -2545796.7875545025        18496508.921077400     
   3584532531.7592230       -1236154.7485122681        11621327.097467182     
   3405395301.3779030       -1988650.0662746429        9061418.7379378658     
   3225639429.7895751       -4803282.7407298088        10816783.842495855     
   3045264916.9942255       -9680052.7719118595        16887422.411142435     
   3528914376.3896155        344395.85417890549        180729487.88586247     
   3361328844.1218624        1972831.7835147381        172553939.13286686     
   3193391131.0645595        2427331.7476956844        168399592.86920658     
   3025101237.2177057        1707895.7467072010        168266449.09486240     
   2856459162.5813098       -185476.21943485737        172154507.80984333     
   3293100435.8152843        2731429.6867964268        341668138.07570714     
   3135607757.6690216        4426598.6709408760        332503092.88040423     
   2978029359.1506729        5836033.0814752579        327065179.19965744     
   2820365240.2602692        6959732.9184734821        325354397.03346246     
   2662615400.9977684        7797698.1818412542        327370746.38183486     
   3055609299.2105131        4615304.7102736235        501312459.49062765     
   2907369272.4006853        6125145.9136834145        491468788.34005451     
   2759309985.6362648        8237453.9351122379        485058177.72927749     
   2611431438.9172344        10952228.774520516        482080627.65828925     
   2463733632.2436123        14269470.431946278        482536138.12710136     
   2816440966.5753021        5996020.9246188402        659662452.13061774     
   2676613388.3168721        7068473.5118063688        649451025.51183450     
   2537233010.5213118        9631594.3085591793        642378588.45808470     
   2398299833.1886387        13685383.314929247        638445140.96935081     
   2259813856.3188272        19229840.530848980        637650683.04565156     
   3045264916.9942255       -9680052.7719118595        16887422.411142435     
   2881574400.4186954       -9722539.6526880264        11010684.238945177     
   2718389833.3696280       -8078528.1119354963        6331874.1177675035     
   2555711215.8469849       -4748018.1497561932        2850992.0476491246     
   2393538547.8508220        268990.23401224613        568038.02854776813     
   2856459162.5813098       -185476.21943485737        172154507.80984333     
   2696607825.6164103        384688.55107569695        165156230.30627626     
   2536994152.1456180        1747064.9685990810        159771858.68647748     
   2377618142.1689205        3901653.0331155062        156001392.95043805     
   2218479795.6863079        6848452.7445832491        153844833.09817207     
   2662615400.9977684        7797698.1818412542        327370746.38183486     
   2507791751.7370291        9337067.0317442417        318937929.17580968     
   2352937479.9380360        10774360.754117131        312534995.68628681     
   2198052585.6007595        12109579.348892093        308161945.91326594     
   2043137068.7252424        13342722.816181898        305818779.85674542     
   2463733632.2436123        14269470.431946278        482536138.12710136     
   2315126178.7805505        17134595.789279819        472355780.84754455     
   2166219816.7468667        19003359.244531155        464621285.11721271     
   2017014546.1425617        19875760.797717333        459332650.93611461     
   1867510366.9676273        19751800.448805809        456489878.30425602     
   2259813856.3188272        19229840.530848980        637650683.04565156     
   2118611106.7469637        23777274.823669910        625409785.32147729     
   1976841162.5721109        26434060.439876080        616030726.97925615     
   1834504023.7942798        27200197.379479051        609513508.01900268     
   1691599690.4134641        26075685.642478704        605858128.44070864     
   2393538547.8508220        268990.23401224613        568038.02854776813     
   2250313277.5556879        6966263.9221329689       -6261878.1762809800     
   2103942088.0598953        3177140.2747147083       -11013574.591038739     
   1954424979.3634241       -11098380.708304048       -13687051.215730635     
   1801761951.4662573       -35860299.026954651       -14282308.050372040     
   2218479795.6863079        6848452.7445832491        153844833.09817207     
   2079437173.8079550        13059743.758536577        143465171.32954702     
   1938334321.7901726        12403600.974400997        134336861.47778556     
   1795171239.6329451        4880024.3921110630        126459903.54291391     
   1649947927.3362641       -9510985.9883465767        119834297.52491225     
   2043137068.7252424        13342722.816181898        305818779.85674542     
   1905914615.6259618        18359287.264661789        293156009.76244128     
   1767717621.4484868        20127381.452469826        280917723.71180671     
   1628546086.1928174        18647005.379644513        269103921.70485872     
   1488400009.8589303        13918159.046099424        257714603.74157459     
   1867510366.9676273        19751800.448805809        456489878.30425602     
   1729745603.0097227        22864894.440493584        442810637.12237066     
   1592091987.0348558        26348481.708982646        428729012.11097556     
   1454549519.0430331        30202562.254274487        414245003.27006894     
   1317118199.0342352        34427136.076316893        399358610.59963417     
   1691599690.4134641        26075685.642478704        605858128.44070864     
   1550930135.9592319        26576565.286069632        592429053.40936446     
   1411457418.5492785        31066901.743918180        577770726.67531919     
   1273181538.1835995        39546695.016018033        561883148.23855436     
   1136102494.8621798        52015945.102326334        544766318.09908462     
   1801761951.4662573       -35860299.026954651       -14282308.050372040     
   1771142304.3742321       -16642128.767142773       -8501203.6732219532     
   1748525988.1336153        29253810.997374654       -41534043.598601989     
   1733913002.7443612        101827520.26642901       -113380827.82650958     
   1727303348.2065203        201078999.04019368       -224041556.35696781     
   1649947927.3362641       -9510985.9883465767        119834297.52491225     
   1527484736.2013342       -13945677.859869003        135500815.94057274     
   1409144378.8280611       -4637590.5258632302        124790751.42529704     
   1294926855.2164459        18413276.013678074        87704103.979090929     
   1184832165.3664985        55206921.758777440        24240873.601939663     
   1488400009.8589303        13918159.046099424        257714603.74157459     
   1309628592.8856525       -3508799.4954204559        278739289.59105247     
   1131099512.5843019       -20127969.130519271        285824753.88120097     
   952812768.95488572       -35939349.859165728        278970996.61201423     
   774768361.99740696       -50942941.681359708        258178017.78349042     
   1317118199.0342352        34427136.076316893        399358610.59963417     
   1117573874.4271808        14668506.326179385        421214217.27825028     
   914391389.40232432       -17217324.816635847        441567963.76912868     
   707570743.95968246       -61230357.352089465        460419850.07227045     
   497111938.09922254       -117370591.28022471        477769876.18768829     
   1136102494.8621798        52015945.102326334        544766318.09908462     
   951320580.82591879        40586239.604938865        562925599.00213897     
   759020009.28213537        4094342.4157874584        592020381.08907473     
   559200780.23081326       -57459746.465148747        632050664.35985947     
   351862893.67197376       -144076027.03780901        683016448.81452692     
   1727303348.2065203        201078999.04019368       -224041556.35696781     
   1456676666.3390787        184537868.97100675       -96570517.967831120     
   1153923026.8219485        60906880.069524229        60091404.085206896     
   819042429.65513813       -169813967.66421479        245944209.80213088     
   452034874.83864856       -507624674.23023987        460987899.18295103     
   1184832165.3664985        55206921.758777440        24240873.601939663     
   977698431.75946140        11823385.432203293        155594899.94427374     
   732772324.42735338       -157534729.97790676        312793173.49780166     
   450053843.37020648       -452867424.47151917        495835694.26252741     
   129542988.58793622       -874174698.04883134        704722462.23845470     
   774768361.99740696       -50942941.681359708        258178017.78349042     
   621565758.21450233       -124037429.79612938        386805379.99107993     
   424905364.63113528       -341991217.24578464        537930352.95714831     
   184787181.24732122       -704804304.03024960        711552936.68172228     
  -98788791.936966181       -1212476690.1496532        907673131.16479552     
   497111938.09922254       -117370591.28022471        477769876.18768829     
   388278645.70416617       -223044576.71411183        597060922.17256033     
   230322147.43325624       -492462581.73416758        735502942.46322834     
   23242443.286503375       -925624606.34037960        893095937.05970359     
  -232960466.73610124       -1522530650.5327449        1069839905.9619595     
   351862893.67197376       -144076027.03780901        683016448.81452692     
   277837094.22847551       -285198055.32169396        786361526.48873758     
   149022672.83374709       -608948823.44302940        905510942.01604033     
  -34580370.512225211       -1115328331.4018307        1040464695.3964506     
  -272972035.80944216       -1804336579.1981249        1191222786.6299582     
   4501099197.5182171       -10089460.462358236        664491693.47371686     
   4361681946.1199656       -2611718.5884869099        660180677.00057781     
   4221351163.5540218        1820919.3930807114        659389650.09625995     
   4080106849.8203726        3208453.4823071957        662118612.76075780     
   3937949004.9190383        1550883.6792263985        668367564.99406993     
   4138419156.2379675       -1667058.7655851841        790670252.95897913     
   4007303187.6228971        1025674.5299124718        784012951.84964836     
   3875766530.4480786        2316112.6262371540        781325496.06127346     
   3743809184.7135024        2204255.5233764648        782607885.59384763     
   3611431150.4191742        690103.22134757042        787860120.44736922     
   3770616493.0398831        5218556.3558354378        913763092.68703282     
   3649087109.3569522        3511871.7176377773        905334489.98412311     
   3527629879.7221990        2045700.5734090805        901325588.35429001     
   3406244804.1356411        820042.92314839363        901736387.79754090     
   3284931882.5972791       -165101.23313355446        906566888.31387150     
   3397691207.9239693        10567384.901909590        1033770212.6578982     
   3287033711.3221097        4846872.9746983051        1024145291.4039962     
   3176941211.3763824        1009683.2346048355        1019389926.9753180     
   3067413708.0867896       -944184.31837141514        1019504119.3718399     
   2958451201.4533305       -1014729.6842378378        1024487868.5935816     
   3019643300.8902235        14379426.872630954        1150691612.8715551     
   2921142993.5183887        5030678.3010922670        1140445356.1092744     
   2823700525.4106293       -791939.39018416405        1135518511.9243388     
   2727315896.5669489       -3088426.2011992931        1135911080.3167453     
   2631989106.9873495       -1858782.1319416761        1141623061.2864990     
   3937949004.9190383        1550883.6792263985        668367564.99406993     
   3796966780.0712209       -558677.49406504631        661428831.37165737     
   3656367529.8726892       -1391656.5030808449        658813634.77993953     
   3516151254.3234487       -948053.34779286385        660521975.21892321     
   3376317953.4234829        772131.97175431252        666553852.68860531     
   3611431150.4191742        690103.22134757042        787860120.44736922     
   3482011551.8237419       -187424.73575687408        781281662.48659837     
   3352847209.0200853       -214100.05359363556        778989680.02399433     
   3223938122.0082216        610077.26787459850        780984173.05955994     
   3095284290.7881446        2285107.2286281586        787265141.59328949     
   3284931882.5972791       -165101.23313355446        906566888.31387150     
   3166969020.1612720        157636.99805307388        900199700.68099737     
   3049133694.6595497        905498.34352123737        898081927.01375985     
   2931425906.0921164        2078482.8032917976        900213567.31215537     
   2813845654.4589734        3676590.3773519993        906594621.57619143     
   2958451201.4533305       -1014729.6842378378        1024487868.5935816     
   2851839185.0838127        476507.70736336708        1018182945.9548546     
   2745226986.7910776        1967138.6882598400        1016090375.7492340     
   2638614606.5751290        3457163.2584352493        1018210157.9767166     
   2532002044.4359760        4946581.4179264307        1024542292.6373026     
   2631989106.9873495       -1858782.1319416761        1141623061.2864990     
   2536622046.5913653        769187.39218056202        1135231398.3081744     
   2441127085.4146671        2970820.9805969000        1133015026.2304192     
   2345504223.4572635        4746118.6333225965        1134973945.0532429     
   2249753460.7191491        6095080.3503519297        1141108154.7766297     
   3376317953.4234829        772131.97175431252        666553852.68860531     
   3236584653.6345735        2864593.9537595510        658923653.44021189     
   3096694055.8969097        4432729.4399105310        655231686.93108356     
   2956646160.2104802        5476538.4301842451        655477953.16121781     
   2816440966.5753021        5996020.9246188402        659662452.13061774     
   3095284290.7881446        2285107.2286281586        787265141.59328949     
   2965815451.5446973        4058661.0118798018        779430912.16975725     
   2836317527.6498046        5735265.9569698572        775627783.08780193     
   2706790519.1034570        7314922.0638821125        775855754.34741950     
   2577234425.9056664        8797629.3326401711        780114825.94861603     
   2813845654.4589734        3676590.3773519993        906594621.57619143     
   2694906611.7675943        5210836.7638286352        898705944.15771127     
   2576066697.7220764        7075511.9698387384        894941234.68311942     
   2457325912.3224134        9270615.9953705072        895300493.15241385     
   2338684255.5686121        11796148.840435982        899783719.56559396     
   2532002044.4359760        4946581.4179264307        1024542292.6373026     
   2423858134.3032684        6321121.2096190453        1016748749.4040712     
   2315941566.1137266        8453467.4785212278        1013172041.7170360     
   2208252339.8673530        11343620.224655509        1013812169.5762031     
   2100790455.5641468        14991579.448011637        1018669132.9815613     
   2249753460.7191491        6095080.3503519297        1141108154.7766297     
   2152670019.1517143        7389514.3492290974        1133559327.9088392     
   2055942132.8247542        9869132.4830178022        1130320204.1895580     
   1959569801.7382712        13533934.751733541        1131390783.6187813     
   1863553025.8922648        18383921.155362606        1136771066.1965172     
   2816440966.5753021        5996020.9246188402        659662452.13061774     
   2676613388.3168721        7068473.5118063688        649451025.51183450     
   2537233010.5213118        9631594.3085591793        642378588.45808470     
   2398299833.1886387        13685383.314929247        638445140.96935081     
   2259813856.3188272        19229840.530848980        637650683.04565156     
   2577234425.9056664        8797629.3326401711        780114825.94861603     
   2446062611.5920372        10295675.073877215        770744334.21296573     
   2315249588.3961949        12989691.207728624        764794919.06504762     
   2184795356.3181148        16879677.734131575        762266580.50486124     
   2054699915.3578146        21965634.653118849        763159318.53240895     
   2338684255.5686121        11796148.840435982        899783719.56559396     
   2216974168.1218138        13961576.612366438        891151018.47712946     
   2095534462.4476810        17028276.959858894        886221480.99909627     
   1974365138.5462222        20996249.882926822        884995107.13150644     
   1853466196.4174356        25865495.381565690        887471896.87434673     
   2100790455.5641468        14991579.448011637        1018669132.9815613     
   1989348057.9061797        18066178.127214909        1010671078.3043255     
   1878087632.6757820        21747351.564982176        1006658274.2602311     
   1767009179.8729515        26035099.761306763        1006630720.8492751     
   1656112699.4976926        30929422.716203034        1010588418.0714650     
   1863553025.8922648        18383921.155362606        1136771066.1965172     
   1763184280.9451451        22609479.618443131        1129304513.6945534     
   1662909099.0804949        27146915.023083985        1126105298.8484437     
   1562727480.2983098        31996227.369278371        1127173421.6581800     
   1462639424.5985951        37157416.657040775        1132508882.1237540     
   2259813856.3188272        19229840.530848980        637650683.04565156     
   2118611106.7469637        23777274.823669910        625409785.32147729     
   1976841162.5721109        26434060.439876080        616030726.97925615     
   1834504023.7942798        27200197.379479051        609513508.01900268     
   1691599690.4134641        26075685.642478704        605858128.44070864     
   2054699915.3578146        21965634.653118849        763159318.53240895     
   1921143911.9108815        25981513.568341255        751864617.51964521     
   1787208078.2751205        28731291.854152560        743712856.15430021     
   1652892414.4505379        30214969.510551214        738704034.43638825     
   1518196920.4371324        30432546.537544608        736838152.36591423     
   1853466196.4174356        25865495.381565690        887471896.87434673     
   1728360082.7110674        29590762.003892779        877341984.38949609     
   1603061503.2300358        32674476.044000804        870636111.81755245     
   1477570457.9743371        35116637.501892328        867354279.15851128     
   1351886946.9439697        36917246.377547979        867496486.41237140     
   1656112699.4976926        30929422.716203034        1010588418.0714650     
   1540259619.1475325        34605020.130334973        1001841885.9310576     
   1424401437.4368551        38263613.009420097        996800493.96902418     
   1308538154.3656788        41905201.353496194        995464242.18535709     
   1192669769.9339795        45529785.162509799        997833130.58007324     
   1462639424.5985951        37157416.657040775        1132508882.1237540     
   1356842521.2202637        41024287.947643518        1125364322.1443019     
   1251227880.8955815        45498702.750414908        1122206002.6086957     
   1145795503.6245484        50580661.065346003        1123033923.5169392     
   1040545389.4071615        56270162.892429769        1127848084.8690233     
   1691599690.4134641        26075685.642478704        605858128.44070864     
   1550930135.9592319        26576565.286069632        592429053.40936446     
   1411457418.5492785        31066901.743918180        577770726.67531919     
   1273181538.1835995        39546695.016018033        561883148.23855436     
   1136102494.8621798        52015945.102326334        544766318.09908462     
   1518196920.4371324        30432546.537544608        736838152.36591423     
   1375839309.3748293        28250759.324838936        727662074.32973456     
   1233795113.6936500        27113690.049227655        719035819.87997115     
   1092064333.3935966        27021338.710699081        710959389.01662707     
   950646968.47466683        27973705.309252203        703432781.73968923     
   1351886946.9439697        36917246.377547979        867496486.41237140     
   1212924351.5282514        33577713.984959126        861542746.76434135     
   1073391749.8305074        28338160.652289569        857917905.99186289     
   933289141.85073531        21198586.379529238        856621964.09492278     
   792616527.58894753        12158991.166702867        857654921.07353032     
   1192669769.9339795        45529785.162509799        997833130.58007324     
   1062185262.4194952        42557429.266410828        994071070.71318793     
   930247326.95983589        34740313.553066075        994416985.01097715     
   796855963.55501318        22078438.022504479        998870873.47344506     
   662011172.20501208        4571802.6746886373        1007432736.1005844     
   1040545389.4071615        56270162.892429769        1127848084.8690233     
   923622042.04857171        55189905.169238895        1125247046.1762741     
   804361845.08166230        46320148.751640290        1128533056.9373288     
   682764798.50642931        29660893.639631659        1137706117.1521945     
   558830902.32287395        5212139.8332203031        1152766226.8208525     
   1136102494.8621798        52015945.102326334        544766318.09908462     
   951320580.82591879        40586239.604938865        562925599.00213897     
   759020009.28213537        4094342.4157874584        592020381.08907473     
   559200780.23081326       -57459746.465148747        632050664.35985947     
   351862893.67197376       -144076027.03780901        683016448.81452692     
   950646968.47466683        27973705.309252203        703432781.73968923     
   791530324.15162170        10992142.730123460        721343048.15381467     
   623776652.12451839       -34779512.195868522        749341526.33616674     
   447385952.39335048       -109341259.46873567        787428216.28676939     
   262358224.95812929       -212693099.08845794        835603118.00559437     
   792616527.58894753        12158991.166702867        857654921.07353032     
   656744326.07731986       -11100676.564705014        874011407.76941967     
   511116726.66510600       -66878337.298078090        899608816.81791615     
   355733729.35230690       -155173991.03339061        934447148.21902335     
   190595334.13891110       -275987637.77069235        978526401.97274530     
   662011172.20501208        4571802.6746886373        1007432736.1005844     
   546962586.60301769       -25692218.279537767        1020930677.8489541     
   421040232.90391016       -92202132.890801847        1042822252.5343122     
   284244111.10768151       -194957941.15913656        1073107460.1566584     
   136574221.21433574       -333959643.08453387        1111786300.7159870     
   558830902.32287395        5212139.8332203031        1152766226.8208525     
   462185105.72872025       -32782482.414352506        1162100858.3924282     
   353547170.84091663       -110750898.97409160        1178981833.4853592     
   232917097.65948188       -228693109.84593147        1203409152.0996509     
   100294886.18437719       -386609115.03001034        1235382814.2353034     
   351862893.67197376       -144076027.03780901        683016448.81452692     
   277837094.22847551       -285198055.32169396        786361526.48873758     
   149022672.83374709       -608948823.44302940        905510942.01604033     
  -34580370.512225211       -1115328331.4018307        1040464695.3964506     
  -272972035.80944216       -1804336579.1981249        1191222786.6299582     
   262358224.95812929       -212693099.08845794        835603118.00559437     
   223638132.66677755       -352346355.02350068        884997627.77473879     
   140680096.52441975       -639459423.79523849        945407088.49654794     
   13484116.531061769       -1074032305.4036341        1016831500.1710352     
  -157949807.31330079       -1656064999.8487225        1099270862.7981756     
   190595334.13891110       -275987637.77069235        978526401.97274530     
   173496986.42704359       -418277310.12873483        986279468.28710496     
   122711372.96440989       -672857868.32264411        1000258098.6536930     
   38238493.751011312       -1039729312.3524382        1020462293.0725185     
  -79921651.213147521       -1518891642.2181165        1046892051.5436012     
   136574221.21433574       -333959643.08453387        1111786300.7159870     
   127413655.50928694       -482990920.63734758        1090207048.0258250     
   95116502.153712183       -709144157.02525330        1070063972.4874713     
   39682761.147610724       -1012419352.2482477        1051357074.1009371     
  -38887567.509012103       -1392816506.3063090        1034086352.8661857     
   100294886.18437719       -386609115.03001034        1235382814.2353034     
   85388139.913498193       -546487186.54938996        1196780366.9909120     
   57895484.092332542       -748318289.90306902        1154824709.9978888     
   17816918.720878482       -992102425.09104037        1109515843.2562666     
  -34847556.200863779       -1277839592.1133111        1060853766.7659883     
   3019643300.8902235        14379426.872630954        1150691612.8715551     
   2921142993.5183887        5030678.3010922670        1140445356.1092744     
   2823700525.4106293       -791939.39018416405        1135518511.9243388     
   2727315896.5669489       -3088426.2011992931        1135911080.3167453     
   2631989106.9873495       -1858782.1319416761        1141623061.2864990     
   2638516144.2135100        12291704.798878193        1221275280.9336562     
   2554105316.5132489        5171224.2527321577        1212749712.4427586     
   2470509386.5973201        767069.65435516834        1209228576.9621789     
   2387728354.4657197       -920758.99625825882        1210711874.4919174     
   2305762220.1184521        107738.30090594292        1217199605.0319738     
   2259633982.1367612        10877481.105117798        1291231981.8296804     
   2188412692.4880033        5715286.0983419418        1284143669.8837948     
   2117763359.1438289        2459612.1068369150        1281744811.3811972     
   2047685982.1042373        1110459.1306070089        1284035406.3218925     
   1978180561.3692286        1667827.1696540117        1291015454.7058771     
   1882996814.6599822        10136755.791347742        1360561715.5596356     
   1824065121.4426565        6662863.8379186392        1354627228.4323831     
   1765462443.0501611        4285687.9672672749        1353067215.1813943     
   1707188779.4825001        3005228.1793957949        1355881675.8066726     
   1649244130.7396727        2821484.4743033648        1363070610.3082173     
   1508604641.7831728        10069528.857566833        1429264482.1235123     
   1461062603.3772018        8013957.4714666009        1424200388.0885205     
   1413606638.3163116        6245297.2356414199        1423195788.3627675     
   1366236746.6005085        4763548.1501044035        1426250682.9462545     
   1318952928.2297933        3568710.2148554325        1433365071.8389852     
   2631989106.9873495       -1858782.1319416761        1141623061.2864990     
   2536622046.5913653        769187.39218056202        1135231398.3081744     
   2441127085.4146671        2970820.9805969000        1133015026.2304192     
   2345504223.4572635        4746118.6333225965        1134973945.0532429     
   2249753460.7191491        6095080.3503519297        1141108154.7766297     
   2305762220.1184521        107738.30090594292        1217199605.0319738     
   2221126579.2853007        1545985.6816031933        1210338876.0250328     
   2136474239.8080180        2928570.9151937962        1207832345.5066409     
   2051805201.6866033        4255494.0016771555        1209680013.4768035     
   1967119464.9210575        5526754.9410601854        1215881879.9355156     
   1978180561.3692286        1667827.1696540117        1291015454.7058771     
   1904787504.6359932        2069701.7680546045        1283815395.4963288     
   1831488951.3952100        2786588.0079495907        1281148442.3633084     
   1758284901.6468656        3818485.8893150091        1283014595.3068216     
   1685175355.3909698        5165395.4121714830        1289413854.3268626     
   1649244130.7396727        2821484.4743033648        1363070610.3082173     
   1587604822.6434414        2340335.6515334249        1355660956.7220635     
   1526171220.1762333        2544872.2588447928        1352963316.8004191     
   1464943323.3380470        3435094.2962235808        1354977690.5432863     
   1403921132.1288805        5011001.7636814117        1361704077.9506576     
   1318952928.2297933        3568710.2148554325        1433365071.8389852     
   1269578533.3076432        2357887.3320367336        1425875559.7022338     
   1220521046.1511002        2203423.6679081321        1423276968.8179743     
   1171780466.7601476        3105319.2224100828        1425569299.1862011     
   1123356795.1347978        5063573.9955933094        1432752550.8069158     
   2249753460.7191491        6095080.3503519297        1141108154.7766297     
   2152670019.1517143        7389514.3492290974        1133559327.9088392     
   2055942132.8247542        9869132.4830178022        1130320204.1895580     
   1959569801.7382712        13533934.751733541        1131390783.6187813     
   1863553025.8922648        18383921.155362606        1136771066.1965172     
   1967119464.9210575        5526754.9410601854        1215881879.9355156     
   1881388568.8638620        6893269.9066609144        1208997236.3023484     
   1795943911.1082006        9213912.5440356731        1206518982.7670023     
   1710785491.6540618        12488682.853157401        1208447119.3294668     
   1625913310.5014617        16717580.834068954        1214781645.9897494     
   1685175355.3909698        5165395.4121714830        1289413854.3268626     
   1611073253.2706137        6686865.8724830747        1283112524.1662128     
   1537188072.5128393        8931407.5414043069        1281314271.0526943     
   1463519813.1176496        11899020.418940365        1284019094.9862978     
   1390068475.0850446        15589704.505094349        1291226995.9670272     
   1403921132.1288805        5011001.7636814117        1361704077.9506576     
   1341724072.3719587        6770302.2466753721        1355905191.5004323     
   1279674617.0386755        9021617.4751358032        1354706069.0466392     
   1217772766.1290307        11764947.449061453        1358106710.5892797     
   1156018519.6430240        15000292.168440461        1366107116.1283548     
   1123356795.1347978        5063573.9955933094        1432752550.8069158     
   1073341026.1679041        7143579.0292510390        1427375238.3050048     
   1023403544.6857018        9484542.3452125192        1426694376.7488353     
   973544350.68819654        12086463.943498313        1430709966.1384106     
   923763444.17538667        14949343.824101567        1439422006.4737289     
   1863553025.8922648        18383921.155362606        1136771066.1965172     
   1763184280.9451451        22609479.618443131        1129304513.6945534     
   1662909099.0804949        27146915.023083985        1126105298.8484437     
   1562727480.2983098        31996227.369278371        1127173421.6581800     
   1462639424.5985951        37157416.657040775        1132508882.1237540     
   1625913310.5014617        16717580.834068954        1214781645.9897494     
   1536665797.2995396        20247137.247012556        1208157143.1786826     
   1447536391.7610412        24170385.871354818        1205980712.2196515     
   1358525093.8859546        28487326.707079113        1208252353.1126482     
   1269631903.6742935        33197959.754218161        1214972065.8576720     
   1390068475.0850446        15589704.505094349        1291226995.9670272     
   1312458577.0459905        18578173.893188953        1285473178.1913061     
   1234991331.2513089        22042150.762532890        1284348166.4637961     
   1157666737.7009957        25981635.113102198        1287851960.7844994     
   1080484796.3950572        30396626.944925189        1295984561.1534159     
   1156018519.6430240        15000292.168440461        1366107116.1283548     
   1090562620.1844988        17602589.556990981        1361252618.7324173     
   1025273917.5513023        20762209.696623266        1361207661.5808740     
   960152411.74343038        24479152.587344885        1365972244.6737285     
   895198102.76088524        28753418.229153097        1375546368.0109813     
   923763444.17538667        14949343.824101567        1439422006.4737289     
   870977926.71506298        17320384.238399655        1435495464.8020151     
   818384150.66102624        20330562.673651129        1436559197.5708866     
   765982116.01325607        23979879.129792929        1442613204.7803383     
   713771822.77177334        28268333.606892377        1453657486.4303751     
   1462639424.5985951        37157416.657040775        1132508882.1237540     
   1356842521.2202637        41024287.947643518        1125364322.1443019     
   1251227880.8955815        45498702.750414908        1122206002.6086957     
   1145795503.6245484        50580661.065346003        1123033923.5169392     
   1040545389.4071615        56270162.892429769        1127848084.8690233     
   1269631903.6742935        33197959.754218161        1214972065.8576720     
   1174432463.3138611        36268310.743300498        1209494454.2242887     
   1079280800.7756464        39497921.139779687        1208366309.1534822     
   984176916.05967712        42886790.943735182        1211587630.6452551     
   889120809.16592503        46434920.155092716        1219158418.6996083     
   1080484796.3950572        30396626.944925189        1295984561.1534159     
   996920607.96318078        32981794.305654228        1292016998.4294448     
   913269712.12211776        35277936.969092846        1292762128.3867822     
   829532108.87186503        37285054.935235471        1298219951.0254378     
   745707798.21242535        39003148.204086602        1308390466.3454063     
   895198102.76088524        28753418.229153097        1375546368.0109813     
   824306955.16823387        31164738.634734631        1372931954.7597690     
   753194614.93498278        32838750.238317519        1375393460.3086004     
   681861082.06112194        33775453.039863110        1382930884.6574814     
   610306356.54665029        33974847.039382905        1395544227.8064098     
   713771822.77177334        28268333.606892377        1453657486.4303751     
   656591504.92901921        30817143.730541408        1452239323.2152665     
   599055509.21424007        32180360.947443247        1456260304.9189339     
   541163835.62744045        32357985.257608354        1465720431.5413797     
   482916484.16861510        31350016.661021128        1480619703.0826170     
   1040545389.4071615        56270162.892429769        1127848084.8690233     
   923622042.04857171        55189905.169238895        1125247046.1762741     
   804361845.08166230        46320148.751640290        1128533056.9373288     
   682764798.50642931        29660893.639631659        1137706117.1521945     
   558830902.32287395        5212139.8332203031        1152766226.8208525     
   889120809.16592503        46434920.155092716        1219158418.6996083     
   787211584.52075350        44515980.339750111        1216642806.2281597     
   683005482.90964019        34940783.971271425        1219983011.4883361     
   576502504.33259261        17709331.049674988        1229179034.4801419     
   467702648.78960013       -7178378.4250675738        1244230875.2035689     
   745707798.21242535        39003148.204086602        1308390466.3454063     
   658723462.78872705        36218756.248992205        1306006914.8447018     
   569482223.04148006        25911349.882066935        1309447949.3534482     
   477984078.97067416        8080929.1032803655        1318713569.8716428     
   384229030.57631814       -17272506.087341294        1333803776.3992937     
   610306356.54665029        33974847.039382905        1395544227.8064098     
   538157676.85249770        30298232.896973431        1393339372.0259039     
   463792065.47717512        19231846.484006092        1396927870.5326624     
   387209522.42068481        775687.80047784746        1406309723.3267019     
   308410047.68302619       -25070243.153616354        1421484930.4080088     
   482916484.16861510        31350016.661021128        1480619703.0826170     
   425514226.71206540        26754410.283707127        1478640177.7717481     
   365935010.21673864        14902273.777130783        1482422775.0259788     
   304178834.68261987       -4206392.8587494195        1491967494.8453085     
   240245700.10971707       -30571589.623909876        1507274337.2297239     
   558830902.32287395        5212139.8332203031        1152766226.8208525     
   462185105.72872025       -32782482.414352506        1162100858.3924282     
   353547170.84091663       -110750898.97409160        1178981833.4853592     
   232917097.65948188       -228693109.84593147        1203409152.0996509     
   100294886.18437719       -386609115.03001034        1235382814.2353034     
   467702648.78960013       -7178378.4250675738        1244230875.2035689     
   390199597.54959130       -41549397.177353501        1242728606.4068420     
   302550115.20840013       -109741852.93359128        1247568966.6314893     
   204754201.76603726       -211755745.69373369        1258751955.8775189     
   96811857.222480744       -347591075.45784640        1276277574.1449299     
   384229030.57631814       -17272506.087341294        1333803776.3992937     
   322429540.40480411       -49051676.630050316        1323617932.2921286     
   252329326.32457781       -108499926.86846942        1318571002.7063699     
   173928388.33563256       -195617256.80261061        1318662987.6420157     
   87226726.437980533       -310403666.43245357        1323893887.0990627     
   308410047.68302619       -25070243.153616354        1421484930.4080088     
   258874934.29435873       -55289320.772435427        1404768836.0482931     
   202884804.18944064       -107025120.77875531        1391987941.7100008     
   140439657.36828050       -180277643.17255175        1383142247.3931375     
   71539493.830864087       -275046887.95386398        1378231753.0976994     
   240245700.10971707       -30571589.623909876        1507274337.2297239     
   199535779.21824324       -60262329.604544908        1486181317.6753297     
   154216548.80299693       -105317434.66442150        1467819783.6423852     
   104288008.86395663       -165736904.80361149        1452189735.1308861     
   49750159.401144102       -241520740.02204216        1439291172.1408432     
   100294886.18437719       -386609115.03001034        1235382814.2353034     
   85388139.913498193       -546487186.54938996        1196780366.9909120     
   57895484.092332542       -748318289.90306902        1154824709.9978888     
   17816918.720878482       -992102425.09104037        1109515843.2562666     
  -34847556.200863779       -1277839592.1133111        1060853766.7659883     
   96811857.222480744       -347591075.45784640        1276277574.1449299     
   79842921.529955685       -488783379.40717405        1221963065.5570042     
   51493605.834963858       -667910283.36473000        1165103366.9541292     
   11763910.137490988       -884971787.33055305        1105698478.3362811     
  -39346165.562463164       -1139967891.3046365        1043748399.7034633     
   87226726.437980533       -310403666.43245357        1323893887.0990627     
   70504229.134264350       -432217614.46857965        1255273768.3067272     
   43606881.375892937       -587947730.68690085        1184916479.2330928     
   6534683.1628530920       -777594015.08744395        1112822019.8781371     
  -40712365.504846931       -1001156467.6701834        1038990390.2418972     
   71539493.830864087       -275046887.95386398        1378231753.0976994     
   57372062.726421580       -376789891.73362893        1296712475.2400627     
   34235310.715123802       -508430631.86958164        1214264046.8347874     
   2129237.7969786227       -669969108.36169755        1130886467.8818593     
  -38946156.028018802       -861405321.20997357        1046579738.3812879     
   49750159.401144102       -241520740.02204216        1439291172.1408432     
   40446422.306416243       -322500211.20235366        1346279186.3570271     
   23378893.852659672       -429358986.91276079        1253146069.7592239     
  -1452425.9601443112       -562097067.15332329        1159891822.3474350     
  -34047537.131981194       -720714451.92400098        1066516444.1216568     
   1508604641.7831728        10069528.857566833        1429264482.1235123     
   1461062603.3772018        8013957.4714666009        1424200388.0885205     
   1413606638.3163116        6245297.2356414199        1423195788.3627675     
   1366236746.6005085        4763548.1501044035        1426250682.9462545     
   1318952928.2297933        3568710.2148554325        1433365071.8389852     
   1133963438.2370105        8305135.2785945535        1455099667.1626408     
   1097337137.3675027        6472525.1881264448        1449650923.3296995     
   1060775391.5171759        4855098.4949260950        1448487953.7627265     
   1024278200.6860291        3452855.1989926100        1451610758.4617274     
   987845564.87406492        2265795.3003364205        1459019337.4266975     
   757648930.91330850        6038750.5663637817        1479773650.7257392     
   732584881.74235511        4623056.0201534927        1473915152.3812902     
   707563869.26467824        3350817.1181962788        1472568708.2595441     
   682585893.48027885        2222033.8605013788        1475734318.3604996     
   657650954.38915634        1236706.2470601201        1483411982.6841619     
   379661119.81206590        3270374.7208674550        1503286432.8128047     
   366805836.50175846        2465549.9675466716        1496993075.2432950     
   353972071.55882239        1732453.1054653823        1495438051.8532197     
   341159824.98325944        1071084.1346285343        1498621362.6425765     
   328369096.77507013        481443.05503542721        1506543007.6113706     
   4.9332842755933033        7.7421127659032898        1525638013.4238360     
   1.6457092099332074        7.0303007005688958        1518884691.9157116     
  -1.6003961891983125        6.4567180814388605        1517095984.5437522     
  -4.8050301146387771        6.0213744018350637        1520271891.3079579     
  -7.9681986741398543        5.7242493025852816        1528412412.2083302     
   1318952928.2297933        3568710.2148554325        1433365071.8389852     
   1269578533.3076432        2357887.3320367336        1425875559.7022338     
   1220521046.1511002        2203423.6679081321        1423276968.8179743     
   1171780466.7601476        3105319.2224100828        1425569299.1862011     
   1123356795.1347978        5063573.9955933094        1432752550.8069158     
   987845564.87406492        2265795.3003364205        1459019337.4266975     
   951196863.59942591        1472306.6529998779        1452128221.1059885     
   914785843.05733669        1471087.1141656637        1450038870.7457640     
   878612503.24779773        2262136.6838310957        1452751286.3460245     
   842676844.17080986        3845455.3619996905        1460265467.9067705     
   657650954.38915634        1236706.2470601201        1483411982.6841619     
   633473217.35630143        784133.01347994804        1477026830.6409333     
   609453934.02295089        859738.77824985981        1475354289.2661891     
   585593104.38910043        1463523.5413512588        1478394358.5599256     
   561890728.45475209        2595487.3027949929        1486147038.5221450     
   328369096.77507013        481443.05503542721        1506543007.6113706     
   316407594.57827634        293366.41349697113        1500571388.3070719     
   304525319.04793787        369378.66014091671        1499223224.3792496     
   292722270.18405211        709479.79496113956        1502498515.8279076     
   280998447.98662138        1313669.8179651499        1510397262.6530435     
  -7.9681986741398543        5.7242493025852816        1528412412.2083302     
  -4.7346525052209287        6.8530395186455699        1522761894.1043999     
  -1.8677023069150289        6.7598421251616827        1521645676.0849462     
  0.63265769683513273        5.4446775899643489        1525063758.1499691     
   2.7664175895113994        2.9075133784100906        1533016140.2994659     
   1123356795.1347978        5063573.9955933094        1432752550.8069158     
   1073341026.1679041        7143579.0292510390        1427375238.3050048     
   1023403544.6857018        9484542.3452125192        1426694376.7488353     
   973544350.68819654        12086463.943498313        1430709966.1384106     
   923763444.17538667        14949343.824101567        1439422006.4737289     
   842676844.17080986        3845455.3619996905        1460265467.9067705     
   804794822.06460524        5294399.7465095520        1454974105.7361238     
   766971515.67536545        6939063.1875689030        1454465573.4316101     
   729206925.00308609        8779445.6851618588        1458739870.9932225     
   691501050.04777837        10815547.239328802        1467796998.4209666     
   561890728.45475209        2595487.3027949929        1486147038.5221450     
   536389250.12461972        3487410.1127603650        1480918792.9537559     
   510926915.74372613        4509812.7535201907        1480559756.1718781     
   485503725.31206834        5662695.2250696719        1485069928.1765151     
   460119678.82965171        6946057.5274173021        1494449308.9676685     
   280998447.98662138        1313669.8179651499        1510397262.6530435     
   268124310.34795034        1722610.1280101985        1505209299.9578915     
   255269744.89079115        2196791.0430932194        1504976924.9696374     
   242434751.61514071        2736212.5632063150        1509700137.6882846     
   229619330.52099833        3340874.6883460432        1519378938.1138256     
   2.7664175895113994        2.9075133784100906        1533016140.2994659     
   2.7345924974991336      -0.20775482982311999        1527845626.7485337     
   3.1165528033740939       -1.9437397662110250        1527717079.8248878     
   3.9122929712714734       -2.3004584958575327        1532630499.5285273     
   5.1218178965427947       -1.2778933131454506        1542585885.8594491     
   923763444.17538667        14949343.824101567        1439422006.4737289     
   870977926.71506298        17320384.238399655        1435495464.8020151     
   818384150.66102624        20330562.673651129        1436559197.5708866     
   765982116.01325607        23979879.129792929        1442613204.7803383     
   713771822.77177334        28268333.606892377        1453657486.4303751     
   691501050.04777837        10815547.239328802        1467796998.4209666     
   651582658.76354480        12495051.881272376        1464412963.6050799     
   611808073.51165783        14653909.964369208        1466096028.8930709     
   572177294.29210865        17292121.488595933        1472846194.2849393     
   532690321.10490566        20409686.453970879        1484663459.7806849     
   460119678.82965171        6946057.5274173021        1494449308.9676685     
   433287915.61662543        7999876.9655197412        1491551856.4046869     
   406552023.06201088        9373265.2649945468        1493798329.6088729     
   379912001.16580731        11066222.425839677        1501188728.5802319     
   353367849.92801732        13078748.448059812        1513723053.3187551     
   229619330.52099833        3340874.6883460432        1519378938.1138256     
   216093697.27430624        3834859.4911496490        1516912143.2008295     
   202615999.31208873        4488628.5755352601        1519666099.7182951     
   189186236.63435692        5302181.9415419251        1527640807.6662261     
   175804409.24110207        6275519.5891356841        1540836267.0446203     
   5.1218178965427947       -1.2778933131454506        1542585885.8594491     
   3.7365839360377122      -0.54185136231379305        1540493823.9935119     
   2.2618964393791212      -0.10398925310594309        1543699339.2213333     
  0.69775620720862630        3.5696377172837135E-002   1552202431.5429106     
 -0.95584044342515206      -0.12280327853509951        1566003100.9582448     
   713771822.77177334        28268333.606892377        1453657486.4303751     
   656591504.92901921        30817143.730541408        1452239323.2152665     
   599055509.21424007        32180360.947443247        1456260304.9189339     
   541163835.62744045        32357985.257608354        1465720431.5413797     
   482916484.16861510        31350016.661021128        1480619703.0826170     
   532690321.10490566        20409686.453970879        1484663459.7806849     
   489521184.32214487        22236124.565899223        1483530990.8953674     
   446085289.12805355        23173367.973389715        1487903909.9093542     
   402382635.52263463        23221416.676453456        1497782216.8226469     
   358413223.50588483        22380270.675083831        1513165911.6352465     
   353367849.92801732        13078748.448059812        1513723053.3187551     
   324399159.86388373        14239594.245834336        1512980018.1340520     
   295252630.84912014        14807643.541512161        1517808613.8291733     
   265928262.88372087        14782896.335069492        1528208840.4041224     
   236426055.96768618        14165352.626506038        1544180697.8589048     
   175804409.24110207        6275519.5891356841        1540836267.0446203     
   161225431.55423731        6827552.7703605518        1540586404.9313273     
   146557534.37743485        7083187.6517957300        1545974416.6783924     
   131800717.71069378        7042424.2334332466        1557000302.2858076     
   116954981.55401708        6705262.5152871087        1573664061.7535760     
 -0.95584044342515206      -0.12280327853509951        1566003100.9582448     
 -0.60680014126954562       0.13945612064403987        1566350151.2871888     
 -0.28698929679602303       0.30428260643745220        1572401318.4570074     
   3.5681164982355462E-003  0.37159696107726081        1584156602.4677014     
  0.26488179781437937       0.34143498468091499        1601616003.3192685     
   482916484.16861510        31350016.661021128        1480619703.0826170     
   425514226.71206540        26754410.283707127        1478640177.7717481     
   365935010.21673864        14902273.777130783        1482422775.0259788     
   304178834.68261987       -4206392.8587494195        1491967494.8453085     
   240245700.10971707       -30571589.623909876        1507274337.2297239     
   358413223.50588483        22380270.675083831        1513165911.6352465     
   316165616.75987476        19174791.762943804        1509750896.4916012     
   272285290.73817205        10526915.265158743        1511910383.7605443     
   226772245.44077763       -3563358.8182660639        1519644373.4420698     
   179626480.86768493       -23096030.487347573        1532952865.5361946     
   236426055.96768618        14165352.626506038        1544180697.8589048     
   208797042.35362431        12189183.905959189        1539965139.2727478     
   180079549.22696051        6584750.1434073374        1541136462.9466772     
   150273576.58769181       -2647948.6611622497        1547694668.8806858     
   119379124.43581860       -15508912.507745534        1559639757.0747781     
   116954981.55401708        6705262.5152871087        1573664061.7535760     
   103408503.49331625        5797586.7127689533        1569282906.1151829     
   89317785.683095142        3075778.4118527249        1570101012.5843663     
   74682828.123364881       -1460162.3874308690        1576118381.1611290     
   59503630.814118095       -7810235.6850987263        1587335011.8454621     
  0.26488179781437937       0.34143498468091499        1601616003.3192685     
  0.17893946397877852       0.18333146356331009        1597704197.0189164     
  0.10658044959408987        7.0504980059355335E-002   1598804032.6736317     
   4.7799722055943503E-002   2.9394527105415531E-003   1604915510.2834122     
   2.5906017258121505E-003  -1.9386690055498448E-002   1616038629.8482642     
   240245700.10971707       -30571589.623909876        1507274337.2297239     
   199535779.21824324       -60262329.604544908        1486181317.6753297     
   154216548.80299693       -105317434.66442150        1467819783.6423852     
   104288008.86395663       -165736904.80361149        1452189735.1308861     
   49750159.401144102       -241520740.02204216        1439291172.1408432     
   179626480.86768493       -23096030.487347573        1532952865.5361946     
   148394469.56667638       -45573956.660792030        1507366277.7334175     
   113705476.12202999       -79575156.646365345        1484674408.6001971     
   75559500.533749446       -125099630.44405180        1464877258.1365349     
   33956542.801825590       -182147378.05388123        1447974826.3424327     
   119379124.43581860       -15508912.507745534        1559639757.0747781     
   98091403.148437530       -30634110.747059084        1530903982.9671166     
   74499027.097562253       -53441491.531351909        1505226160.6771216     
   48601996.283199817       -83931054.860601306        1482606290.2047961     
   20400310.705342494       -122102800.73483640        1463044371.5501275     
   59503630.814118095       -7810235.6850987263        1587335011.8454621     
   48626579.963528119       -15442791.863331459        1556794433.3764298     
   36597201.729588732       -26916439.319397300        1529475039.8731687     
   23415496.112310350       -42231178.053256184        1505376831.3356802     
   9081463.1116741858       -61387008.064977117        1484499807.7639608     
   2.5906017258121505E-003  -1.9386690055498448E-002   1616038629.8482642     
   1.1955454941055526E-002  -9.5894903739347018E-003   1585037628.9613543     
   1.8113029391382797E-002  -1.0486689355709906E-002   1557421046.1883283     
   2.1081373826102270E-002  -2.2012920332701816E-002   1533188881.5291810     
   2.0841295722185214E-002  -4.4233893105148803E-002   1512341134.9839051     
   49750159.401144102       -241520740.02204216        1439291172.1408432     
   40446422.306416243       -322500211.20235366        1346279186.3570271     
   23378893.852659672       -429358986.91276079        1253146069.7592239     
  -1452425.9601443112       -562097067.15332329        1159891822.3474350     
  -34047537.131981194       -720714451.92400098        1066516444.1216568     
   33956542.801825590       -182147378.05388123        1447974826.3424327     
   29807794.331840605       -242033265.14047796        1347490331.7811067     
   19836202.342592433       -321328630.62462139        1246224593.7234819     
   4041766.8340948224       -420033474.50625741        1144177612.1695712     
  -17575512.193649709       -538147796.78538871        1041349387.1193485     
   20400310.705342494       -122102800.73483640        1463044371.5501275     
   19520514.624907166       -161460914.59832951        1357351807.3577249     
   14758822.865006268       -213758680.72670928        1250217886.9867146     
   6115235.4256401062       -278996099.11997592        1141642610.4370856     
  -6410247.6931964457       -357173169.77813989        1031625977.7088584     
   9081463.1116741858       -61387008.064977117        1484499807.7639608     
   9584583.1856238246       -80783159.575882748        1375863613.0868840     
   8146755.4198879451       -106649137.21907763        1265125949.5488884     
   4767979.8144703135       -138984940.99454087        1152286817.1499708     
  -551743.63062245399       -177790570.90226150        1037346215.8901200     
   2.0841295722185214E-002  -4.4233893105148803E-002   1512341134.9839051     
   1.3989267619765138E-002  -7.3141355609458863E-002   1403025748.9685843     
   7.2471790473522535E-003 -0.10168443468191615        1290948781.4100194     
   6.0999740057667007E-004 -0.12987504844468750        1176110232.3082321     
  -5.9263949059551249E-003 -0.15773316718693153        1058510101.6632100     
   4.9332842755933033        7.7421127659032898        1525638013.4238360     
   1.6457092099332074        7.0303007005688958        1518884691.9157116     
  -1.6003961891983125        6.4567180814388605        1517095984.5437522     
  -4.8050301146387771        6.0213744018350637        1520271891.3079579     
  -7.9681986741398543        5.7242493025852816        1528412412.2083302     
  -379661117.41365510       -3270386.2159535438        1503286435.5889654     
  -366805838.45170176       -2465554.8792544901        1496993078.2535737     
  -353972078.24814135       -1732452.7372021377        1495438054.9627640     
  -341159836.80297261       -1071079.7897889167        1498621365.7165418     
  -328369114.11619925       -481436.03702442348        1506543010.5149026     
  -757648934.60803473       -6038788.6282519400        1479773659.3772140     
  -732584887.94392776       -4623079.6072583199        1473915160.9480474     
  -707563878.83807731       -3350829.1137791872        1472568716.4718869     
  -682585907.29048109       -2222037.1478185952        1475734325.9487271     
  -657650973.30114317       -1236703.7093844712        1483411989.3785684     
  -1133963446.6498494       -8305199.4947816133        1455099684.7885783     
  -1097337146.8309674       -6472567.1536999941        1449650939.9991348     
  -1060775403.3702035       -4855122.6730169058        1448487969.0711124     
  -1024278216.2675593       -3452866.0527293086        1451610772.0045123     
  -987845585.52303159       -2265797.2928312421        1459019348.7993298     
  -1508604653.5391033       -10069618.815541506        1429264511.8230627     
  -1461062615.1128230       -8014017.5185931325        1424200415.4068360     
  -1413606651.8445189       -6245333.4149063230        1423195812.7604451     
  -1366236763.7341988       -4763566.5044945478        1426250703.8838947     
  -1318952950.7818599       -3568716.7873533368        1433365088.7771862     
  -7.9681986741398543        5.7242493025852816        1528412412.2083302     
  -4.7346525052209287        6.8530395186455699        1522761894.1043999     
  -1.8677023069150289        6.7598421251616827        1521645676.0849462     
  0.63265769683513273        5.4446775899643489        1525063758.1499691     
   2.7664175895113994        2.9075133784100906        1533016140.2994659     
  -328369114.11619925       -481436.03702442348        1506543010.5149026     
  -316407604.84919798       -293354.90968824923        1500571390.1720126     
  -304525323.15313917       -369365.68549342453        1499223225.1553299     
  -292722269.02802801       -709468.36445914209        1502498515.4648585     
  -280998442.47386277       -1313662.9465745091        1510397261.1006007     
  -657650973.30114317       -1236703.7093844712        1483411989.3785684     
  -633473228.73858750       -784123.80486586690        1477026835.0583100     
  -609453938.95132947       -859726.48467165232        1475354291.3059928     
  -585593103.93936384       -1463511.7487841845        1478394358.1216209     
  -561890723.70269287       -2595479.5972156823        1486147035.5051904     
  -987845585.52303159       -2265797.2928312421        1459019348.7993298     
  -951196876.40282512       -1472299.8325012326        1452128228.7632906     
  -914785849.26226354       -1471075.6376546621        1450038874.5369303     
  -878612504.10134983       -2262124.7083010077        1452751286.1202481     
  -842676840.92008126       -3845447.0444301367        1460265463.5132408     
  -1318952950.7818599       -3568716.7873533368        1433365088.7771862     
  -1269578547.8419068       -2357882.9925866127        1425875571.2869599     
  -1220521054.0859520       -2203413.1444815397        1423276974.8481469     
  -1171780469.5139918       -3105307.2430256009        1425569299.4607451     
  -1123356794.1260242       -5063565.2882110476        1432752545.1247535     
   2.7664175895113994        2.9075133784100906        1533016140.2994659     
   2.7345924974991336      -0.20775482982311999        1527845626.7485337     
   3.1165528033740939       -1.9437397662110250        1527717079.8248878     
   3.9122929712714734       -2.3004584958575327        1532630499.5285273     
   5.1218178965427947       -1.2778933131454506        1542585885.8594491     
  -280998442.47386277       -1313662.9465745091        1510397261.1006007     
  -268124304.82722926       -1722609.2915856242        1505209299.0957067     
  -255269738.57052791       -2196793.6030360460        1504976924.8076718     
  -242434743.70375323       -2736215.8809083700        1509700138.2364914     
  -229619320.22690299       -3340876.1251960844        1519378939.3821628     
  -561890723.70269287       -2595479.5972156823        1486147035.5051904     
  -536389245.26455712       -3487408.2380873859        1480918791.2753453     
  -510926910.02005470       -4509814.1910686493        1480559755.8519242     
  -485503717.96918929       -5662697.4561749995        1485069929.2349243     
  -460119669.11195827       -6946058.0333941877        1494449311.4243512     
  -842676840.92008126       -3845447.0444301367        1460265463.5132408     
  -804794818.57738531       -5294397.0472363234        1454974103.2874510     
  -766971511.23202801       -6939063.7078405917        1454465572.9576502     
  -729206918.88401783       -8779447.0262661576        1458739872.5238461     
  -691501041.53334939       -10815547.002498835        1467797001.9860296     
  -1123356794.1260242       -5063565.2882110476        1432752545.1247535     
  -1073341024.7657081       -7143575.7190203667        1427375235.1320210     
  -1023403542.2064435       -9484542.1533352733        1426694376.1248486     
  -973544346.44823408       -12086464.591166139        1430709968.1032395     
  -923763437.49107635       -14949343.032504320        1439422011.0671904     
   5.1218178965427947       -1.2778933131454506        1542585885.8594491     
   3.7365839360377122      -0.54185136231379305        1540493823.9935119     
   2.2618964393791212      -0.10398925310594309        1543699339.2213333     
  0.69775620720862630        3.5696377172837135E-002   1552202431.5429106     
 -0.95584044342515206      -0.12280327853509951        1566003100.9582448     
  -229619320.22690299       -3340876.1251960844        1519378939.3821628     
  -216093689.73086581       -3834859.6626392677        1516912144.0706871     
  -202615994.70133829       -4488628.0884487182        1519666100.2526262     
  -189186235.13831145       -5302181.4025938213        1527640807.9279711     
  -175804411.04179895       -6275519.6051190868        1540836267.0967319     
  -460119669.11195827       -6946058.0333941877        1494449311.4243512     
  -433287908.44993383       -7999876.3589242995        1491551858.0607860     
  -406552018.63146877       -9373264.1629831344        1493798330.5902805     
  -379911999.65655923       -11066221.445561275        1501188729.0128381     
  -353367851.52520949       -13078748.206670538        1513723053.3284569     
  -691501041.53334939       -10815547.002498835        1467797001.9860296     
  -651582652.42061412       -12495050.630683869        1464412965.9638090     
  -611808069.52849042       -14653908.327575147        1466096030.2342961     
  -572177292.85697401       -17292120.093157232        1472846194.7975018     
  -532690322.40607136       -20409685.927450687        1484663459.6534209     
  -923763437.49107635       -14949343.032504320        1439422011.0671904     
  -870977921.64291537       -17320382.477949739        1435495467.7797484     
  -818384147.39240885       -20330560.582244486        1436559199.1846752     
  -765982114.73956907       -23979877.345429301        1442613205.2819653     
  -713771823.68438971       -28268332.767481118        1453657486.0716262     
 -0.95584044342515206      -0.12280327853509951        1566003100.9582448     
 -0.60680014126954562       0.13945612064403987        1566350151.2871888     
 -0.28698929679602303       0.30428260643745220        1572401318.4570074     
   3.5681164982355462E-003  0.37159696107726081        1584156602.4677014     
  0.26488179781437937       0.34143498468091499        1601616003.3192685     
  -175804411.04179895       -6275519.6051190868        1540836267.0967319     
  -161225432.73360130       -6827552.4890078232        1540586404.9602933     
  -146557534.96651179       -7083187.1765861288        1545974416.6775987     
  -131800717.74052829       -7042423.6678546295        1557000302.2486396     
  -116954981.05565053       -6705261.9628061503        1573664061.6734273     
  -353367851.52520949       -13078748.206670538        1513723053.3284569     
  -324399160.93538433       -14239593.939969659        1512980018.1294656     
  -295252631.39853483       -14807643.183184221        1517808613.7970755     
  -265928262.91465858       -14782895.936309516        1528208840.3312964     
  -236426055.48375198       -14165352.199334681        1544180697.7321184     
  -532690322.40607136       -20409685.927450687        1484663459.6534209     
  -489521185.21215272       -22236124.213438749        1483530990.7946954     
  -446085289.58306694       -23173367.715535447        1487903909.8154428     
  -402382635.51881784       -23221416.433756530        1497782216.7156634     
  -358413223.01941323       -22380270.368122831        1513165911.4953494     
  -713771823.68438971       -28268332.767481118        1453657486.0716262     
  -656591505.56389344       -30817143.309379578        1452239322.9559958     
  -599055509.52011108       -32180360.773653597        1456260304.7326996     
  -541163835.55302572       -32357985.160253108        1465720431.4017422     
  -482916483.66263813       -31350016.469180062        1480619702.9631255     
  0.26488179781437937       0.34143498468091499        1601616003.3192685     
  0.17893946397877852       0.18333146356331009        1597704197.0189164     
  0.10658044959408987        7.0504980059355335E-002   1598804032.6736317     
   4.7799722055943503E-002   2.9394527105415531E-003   1604915510.2834122     
   2.5906017258121505E-003  -1.9386690055498448E-002   1616038629.8482642     
  -116954981.05565053       -6705261.9628061503        1573664061.6734273     
  -103408503.14537436       -5797586.3960545659        1569282906.0665655     
  -89317785.467108265       -3075778.2693359144        1570101012.5652201     
  -74682828.020852238        1460162.4173510596        1576118381.1693950     
  -59503630.806609623        7810235.6639916152        1587335011.8790815     
  -236426055.48375198       -14165352.199334681        1544180697.7321184     
  -208797042.00453961       -12189183.635906018        1539965139.1988940     
  -180079549.00292739       -6584749.9978101030        1541136462.9216383     
  -150273576.47891784        2647948.7149450257        1547694668.9003553     
  -119379124.43250799        15508912.502363816        1559639757.1350369     
  -358413223.01941323       -22380270.368122831        1513165911.4953494     
  -316165616.39855129       -19174791.536206409        1509750896.4159112     
  -272285290.50087637       -10526915.114919499        1511910383.7428882     
  -226772245.32639396        3563358.8957292438        1519644373.4762836     
  -179626480.87510523        23096030.495731339        1532952865.6161029     
  -482916483.66263813       -31350016.469180062        1480619702.9631255     
  -425514226.32741112       -26754410.096967876        1478640177.7176092     
  -365935009.96096206       -14902273.620683238        1482422775.0289674     
  -304178834.56329560        4206392.9596592039        1491967494.8971958     
  -240245700.13440785        30571589.644073933        1507274337.3222909     
   2.5906017258121505E-003  -1.9386690055498448E-002   1616038629.8482642     
   1.1955454941055526E-002  -9.5894903739347018E-003   1585037628.9613543     
   1.8113029391382797E-002  -1.0486689355709906E-002   1557421046.1883283     
   2.1081373826102270E-002  -2.2012920332701816E-002   1533188881.5291810     
   2.0841295722185214E-002  -4.4233893105148803E-002   1512341134.9839051     
  -59503630.806609623        7810235.6639916152        1587335011.8790815     
  -48626579.941125669        15442791.845744140        1556794433.4019313     
  -36597201.696547292        26916439.291146517        1529475039.8913059     
  -23415496.072874237        42231178.000198819        1505376831.3472054     
  -9081463.0701093115        61387007.972886875        1484499807.7696424     
  -119379124.43250799        15508912.502363816        1559639757.1350369     
  -98091403.131900638        30634110.729789592        1530903983.0136390     
  -74499027.069907278        53441491.495169818        1505226160.7114258     
  -48601996.246521413        83931054.798523083        1482606290.2283952     
  -20400310.661752343        122102800.63982326        1463044371.5645397     
  -179626480.87510523        23096030.495731339        1532952865.6161029     
  -148394469.56038046        45573956.642506957        1507366277.7964780     
  -113705476.10196269        79575156.601591170        1484674408.6486864     
  -75559500.499868095        125099630.37293413        1464877258.1727288     
  -33956542.754089519        182147377.95655304        1447974826.3685932     
  -240245700.13440785        30571589.644073933        1507274337.3222909     
  -199535779.22655389        60262329.583932877        1486181317.7504492     
  -154216548.79272103        105317434.61039162        1467819783.7030931     
  -104288008.83291346        165736904.72343308        1452189735.1802166     
  -49750159.347129434        241520739.92305869        1439291172.1818156     
   2.0841295722185214E-002  -4.4233893105148803E-002   1512341134.9839051     
   1.3989267619765138E-002  -7.3141355609458863E-002   1403025748.9685843     
   7.2471790473522535E-003 -0.10168443468191615        1290948781.4100194     
   6.0999740057667007E-004 -0.12987504844468750        1176110232.3082321     
  -5.9263949059551249E-003 -0.15773316718693153        1058510101.6632100     
  -9081463.0701093115        61387007.972886875        1484499807.7696424     
  -9584583.1562372111        80783159.433296517        1375863613.0928869     
  -8146755.4031776860        106649137.02433300        1265125949.5546975     
  -4767979.8109317198        138984940.74598941        1152286817.1550672     
   551743.62049855292        177790570.59825841        1037346215.8940091     
  -20400310.661752343        122102800.63982326        1463044371.5645397     
  -19520514.593445748        161460914.45967972        1357351807.3719449     
  -14758822.846881345        213758680.54040095        1250217886.9997180     
  -6115235.4220539033        278996098.88199657        1141642610.4478495     
   6410247.6810460538        357173169.48450005        1031625977.7163320     
  -33956542.754089519        182147377.95655304        1447974826.3685932     
  -29807794.297658145        242033265.00592849        1347490331.8057680     
  -19836202.323882401        321328630.44645596        1246224593.7450984     
  -4041766.8327606916        420033474.27813327        1144177612.1865699     
   17575512.175706595        538147796.50096238        1041349387.1302243     
  -49750159.347129434        241520739.92305869        1439291172.1818156     
  -40446422.268856615        322500211.07210809        1346279186.3943381     
  -23378893.834165961        429358986.74254620        1253146069.7908192     
   1452425.9569432437        562097066.93438148        1159891822.3712442     
   34047537.104489833        720714451.64767468        1066516444.1356251     
  -1508604653.5391033       -10069618.815541506        1429264511.8230627     
  -1461062615.1128230       -8014017.5185931325        1424200415.4068360     
  -1413606651.8445189       -6245333.4149063230        1423195812.7604451     
  -1366236763.7341988       -4763566.5044945478        1426250703.8838947     
  -1318952950.7818599       -3568716.7873533368        1433365088.7771862     
  -1882996813.5260203       -10136813.661176801        1360561749.2612884     
  -1824065125.0933385       -6662905.9415274858        1354627257.2499666     
  -1765462452.2209313       -4285716.7561131716        1353067239.2223332     
  -1707188794.9087958       -3005246.1049431562        1355881695.1783907     
  -1649244153.1569343       -2821493.9880170822        1363070625.1181357     
  -2259633971.9406586       -10877508.035130024        1291232014.0190997     
  -2188412690.0334396       -5715310.8523359299        1284143695.9433460     
  -2117763364.0887835       -2459633.5447511673        1281744832.0651281     
  -2047685994.1066918       -1110476.1123850346        1284035422.3844516     
  -1978180580.0871646       -1667838.5552291870        1291015466.9013112     
  -2638516128.7830281       -12291701.937402844        1221275306.0964961     
  -2554105309.9331222       -5171232.2510162592        1212749731.4869666     
  -2470509387.4480743       -767083.78082096577        1209228591.2888253     
  -2387728361.3278842        920743.47318601608        1210711885.5020757     
  -2305762231.5725470       -107750.48898780346        1217199614.1267145     
  -3019643284.0531211       -14379395.367990971        1150691625.4934816     
  -2921142984.7923908       -5030670.1375790834        1140445363.8808384     
  -2823700522.2988076        791932.53567385674        1135518516.8934319     
  -2727315896.5723720        3088412.6517695189        1135911084.5312645     
  -2631989107.6130843        1858770.2107104063        1141623066.7943394     
  -1318952950.7818599       -3568716.7873533368        1433365088.7771862     
  -1269578547.8419068       -2357882.9925866127        1425875571.2869599     
  -1220521054.0859520       -2203413.1444815397        1423276974.8481469     
  -1171780469.5139918       -3105307.2430256009        1425569299.4607451     
  -1123356794.1260242       -5063565.2882110476        1432752545.1247535     
  -1649244153.1569343       -2821493.9880170822        1363070625.1181357     
  -1587604838.1509385       -2340335.5310153961        1355660965.8162591     
  -1526171229.9821396       -2544866.5313355923        1352963319.8224864     
  -1464943328.6505344       -3435086.9889676571        1354977687.1368198     
  -1403921134.1561317       -5010996.9039381146        1361704067.7592583     
  -1978180580.0871646       -1667838.5552291870        1291015466.9013112     
  -1904787517.9959970       -2069704.9302405119        1283815401.8590465     
  -1831488960.3952293       -2786586.2732532024        1281148442.3815837     
  -1758284907.2848573       -3818482.5842502117        1283014588.4689159     
  -1685175358.6648858       -5165393.8632494211        1289413840.1210525     
  -2305762231.5725470       -107750.48898780346        1217199614.1267145     
  -2221126587.3770833       -1545991.1902799606        1210338879.4153266     
  -2136474245.3252208       -2928572.3702416420        1207832342.5254333     
  -2051805205.4169581       -4255494.0288711786        1209680003.4570339     
  -1967119467.6522944       -5526756.1661584377        1215881862.2101238     
  -2631989107.6130843        1858770.2107104063        1141623066.7943394     
  -2536622046.2941990       -769194.31112635136        1135231398.4850950     
  -2441127084.7721171       -2970824.8223063946        1133015020.2540388     
  -2345504223.0468330       -4746121.3228158951        1134973932.1011682     
  -2249753461.1183548       -6095083.8126699924        1141108134.0264869     
  -1123356794.1260242       -5063565.2882110476        1432752545.1247535     
  -1073341024.7657081       -7143575.7190203667        1427375235.1320210     
  -1023403542.2064435       -9484542.1533352733        1426694376.1248486     
  -973544346.44823408       -12086464.591166139        1430709968.1032395     
  -923763437.49107635       -14949343.032504320        1439422011.0671904     
  -1403921134.1561317       -5010996.9039381146        1361704067.7592583     
  -1341724073.6436200       -6770301.5540875196        1355905185.1360688     
  -1279674616.9800510       -9021619.0340422392        1354706066.4642384     
  -1217772764.1654081       -11764949.343752384        1358106711.7437658     
  -1156018515.1997001       -15000292.483246982        1366107120.9746530     
  -1685175358.6648858       -5165393.8632494211        1289413840.1210525     
  -1611073255.6693401       -6686867.3335104585        1283112514.9782114     
  -1537188073.5706091       -8931410.4598141909        1281314266.7525296     
  -1463519812.3686888       -11899023.242164016        1284019095.4440022     
  -1390068472.0635860       -15589705.680558085        1291227001.0526290     
  -1967119467.6522944       -5526756.1661584377        1215881862.2101238     
  -1881388570.8428609       -6893273.0572602749        1208997224.6584451     
  -1795943911.9781282       -9213916.4306930304        1206518976.9897175     
  -1710785491.0580814       -12488686.286412597        1208447119.2039404     
  -1625913308.0827293       -16717582.624451578        1214781651.3011160     
  -2249753461.1183548       -6095083.8126699924        1141108134.0264869     
  -2152670019.1641908       -7389518.7253645658        1133559314.1767724     
  -2055942132.2025979       -9869136.9466317892        1130320197.1758037     
  -1959569800.2335813       -13533938.476487875        1131390783.0235846     
  -1863553023.2571375       -18383923.314917922        1136771071.7201142     
  -923763437.49107635       -14949343.032504320        1439422011.0671904     
  -870977921.64291537       -17320382.477949739        1435495467.7797484     
  -818384147.39240885       -20330560.582244486        1436559199.1846752     
  -765982114.73956907       -23979877.345429301        1442613205.2819653     
  -713771823.68438971       -28268332.767481118        1453657486.0716262     
  -1156018515.1997001       -15000292.483246982        1366107120.9746530     
  -1090562616.7455587       -17602588.736818075        1361252621.9964993     
  -1025273915.2956158       -20762208.337725103        1361207663.4401453     
  -960152410.84989011       -24479151.286015332        1365972245.3055992     
  -895198103.40836608       -28753417.581652343        1375546367.5928502     
  -1390068472.0635860       -15589705.680558085        1291227001.0526290     
  -1312458574.6336422       -18578173.831308484        1285473181.7427895     
  -1234991329.6144519       -22042150.017906904        1284348168.5841906     
  -1157666737.0060139       -25981634.240345180        1287851961.5768313     
  -1080484796.8083286       -30396626.498626053        1295984560.7207069     
  -1625913308.0827293       -16717582.624451578        1214781651.3011160     
  -1536665795.3071694       -20247137.761443615        1208157147.0186231     
  -1447536390.3489106       -24170385.622776031        1205980714.6168113     
  -1358525093.2079477       -28487326.208423316        1208252354.0956690     
  -1269631903.8842826       -33197959.518403828        1214972065.4552066     
  -1863553023.2571375       -18383923.314917922        1136771071.7201142     
  -1763184278.7661407       -22609480.527208686        1129304517.8240001     
  -1662909097.4989922       -27146915.152326941        1126105301.5379987     
  -1562727479.4556801       -31996227.190234661        1127173422.8621113     
  -1462639424.6362140       -37157416.640961647        1132508881.7963338     
  -713771823.68438971       -28268332.767481118        1453657486.0716262     
  -656591505.56389344       -30817143.309379578        1452239322.9559958     
  -599055509.52011108       -32180360.773653597        1456260304.7326996     
  -541163835.55302572       -32357985.160253108        1465720431.4017422     
  -482916483.66263813       -31350016.469180062        1480619702.9631255     
  -895198103.40836608       -28753417.581652343        1375546367.5928502     
  -824306955.58548808       -31164738.316558897        1372931954.4828978     
  -753194615.07952023       -32838750.107835352        1375393460.1423669     
  -681861081.89044929       -33775452.955432236        1382930884.5712559     
  -610306356.01828015       -33974846.859370708        1395544227.7695630     
  -1080484796.8083286       -30396626.498626053        1295984560.7207069     
  -996920608.20568871       -32981794.103336692        1292016998.1695325     
  -913269712.16014981       -35277936.898389816        1292762128.2648644     
  -829532108.67171371       -37285054.883783579        1298219951.0066981     
  -745707797.74038279       -39003148.059526175        1308390466.3950391     
  -1269631903.8842826       -33197959.518403828        1214972065.4552066     
  -1174432463.4244823       -36268310.669667304        1209494454.0159087     
  -1079280800.7619977       -39497921.145306468        1208366309.1001961     
  -984176915.89681542       -42886790.945289433        1211587630.7080741     
  -889120808.82893527       -46434920.069616586        1219158418.8395429     
  -1462639424.6362140       -37157416.640961647        1132508881.7963338     
  -1356842521.2418911       -41024288.015615880        1125364322.0220125     
  -1251227880.8850625       -45498702.848584950        1122206002.6483600     
  -1145795503.5657444       -50580661.139922619        1123033923.6753855     
  -1040545389.2839351       -56270162.889621258        1127848085.1030798     
  -482916483.66263813       -31350016.469180062        1480619702.9631255     
  -425514226.32741112       -26754410.096967876        1478640177.7176092     
  -365935009.96096206       -14902273.620683238        1482422775.0289674     
  -304178834.56329560        4206392.9596592039        1491967494.8971958     
  -240245700.13440785        30571589.644073933        1507274337.3222909     
  -610306356.01828015       -33974846.859370708        1395544227.7695630     
  -538157676.45455301       -30298232.715966016        1393339372.0216143     
  -463792065.21797788       -19231846.329731032        1396927870.5607545     
  -387209522.30853069       -775687.70059031248        1406309723.3869712     
  -308410047.72622395        25070243.171414107        1421484930.5002835     
  -745707797.74038279       -39003148.059526175        1308390466.3950391     
  -658723462.43326116       -36218756.090477288        1306006914.8932335     
  -569482222.81163871       -25911349.739759028        1309447949.4087319     
  -477984078.87551337       -8080929.0073707998        1318713569.9415271     
  -384229030.62488914        17272506.106692895        1333803776.4916224     
  -889120808.82893527       -46434920.069616586        1219158418.8395429     
  -787211584.26351023       -44515980.220425874        1216642806.3324640     
  -683005482.74194860       -34940783.850781739        1219983011.5729015     
  -576502504.26424682       -17709330.960673183        1229179034.5608485     
  -467702648.83040583        7178378.4499062300        1244230875.2963207     
  -1040545389.2839351       -56270162.889621258        1127848085.1030798     
  -923622041.94531143       -55189905.105846733        1125247046.3393052     
  -804361845.00891054       -46320148.662811697        1128533057.0532603     
  -682764798.47472656       -29660893.560502291        1137706117.2449498     
  -558830902.34275651       -5212139.7989040017        1152766226.9143651     
  -240245700.13440785        30571589.644073933        1507274337.3222909     
  -199535779.22655389        60262329.583932877        1486181317.7504492     
  -154216548.79272103        105317434.61039162        1467819783.7030931     
  -104288008.83291346        165736904.72343308        1452189735.1802166     
  -49750159.347129434        241520739.92305869        1439291172.1818156     
  -308410047.72622395        25070243.171414107        1421484930.5002835     
  -258874934.31511551        55289320.752415270        1404768836.1293216     
  -202884804.18543151        107025120.72866908        1391987941.7807362     
  -140439657.33716699        180277643.10019198        1383142247.4545212     
  -71539493.770318061        275046887.86699349        1378231753.1506870     
  -384229030.62488914        17272506.106692895        1333803776.4916224     
  -322429540.43082768        49051676.612737522        1323617932.3795803     
  -252329326.32558638        108499926.82271819        1318571002.7877984     
  -173928388.30915892        195617256.73665553        1318662987.7162874     
  -87226726.381554514        310403666.35450727        1323893887.1650503     
  -467702648.83040583        7178378.4499062300        1244230875.2963207     
  -390199597.57368249        41549397.164927781        1242728606.5012197     
  -302550115.21318686        109741852.89253446        1247568966.7242868     
  -204754201.74890187        211755745.63276741        1258751955.9655170     
  -96811857.180833355        347591075.38561171        1276277574.2249160     
  -558830902.34275651       -5212139.7989040017        1152766226.9143651     
  -462185105.74368626        32782482.408963382        1162100858.4942517     
  -353547170.84823489        110750898.93810649        1178981833.5901971     
  -232917097.65638274        228693109.78858703        1203409152.2022049     
  -100294886.16816196        386609114.96028793        1235382814.3302710     
  -49750159.347129434        241520739.92305869        1439291172.1818156     
  -40446422.268856615        322500211.07210809        1346279186.3943381     
  -23378893.834165961        429358986.74254620        1253146069.7908192     
   1452425.9569432437        562097066.93438148        1159891822.3712442     
   34047537.104489833        720714451.64767468        1066516444.1356251     
  -71539493.770318061        275046887.86699349        1378231753.1506870     
  -57372062.685231060        376789891.61777699        1296712475.2835219     
  -34235310.695546329        508430631.71722269        1214264046.8680017     
  -2129237.8012534380        669969108.16535652        1130886467.9041479     
   38946155.997634679        861405320.96214926        1046579738.3919506     
  -87226726.381554514        310403666.35450727        1323893887.1650503     
  -70504229.096212924        432217614.36504364        1255273768.3577273     
  -43606881.358082831        587947730.55153894        1184916479.2697670     
  -6534683.1671751142        777594014.91396737        1112822019.9011717     
   40712365.476521432        1001156467.4523466        1038990390.2519405     
  -96811857.180833355        347591075.38561171        1276277574.2249160     
  -79842921.501784414        488783379.31396341        1221963065.6169810     
  -51493605.821774632        667910283.24551535        1165103366.9961207     
  -11763910.140798330        884971787.18027782        1105698478.3623269     
   39346165.541136801        1139967891.1182559        1043748399.7156017     
  -100294886.16816196        386609114.96028793        1235382814.3302710     
  -85388139.901957035        546487186.46448946        1196780367.0612683     
  -57895484.086617380        748318289.79914308        1154824710.0470531     
  -17816918.722131371        992102424.96428442        1109515843.2875884     
   34847556.191498399        1277839591.9599020        1060853766.7829287     
  -3019643284.0531211       -14379395.367990971        1150691625.4934816     
  -2921142984.7923908       -5030670.1375790834        1140445363.8808384     
  -2823700522.2988076        791932.53567385674        1135518516.8934319     
  -2727315896.5723720        3088412.6517695189        1135911084.5312645     
  -2631989107.6130843        1858770.2107104063        1141623066.7943394     
  -3397691200.9967360       -10567360.632967949        1033770231.8058660     
  -3287033705.8234076       -4846863.3756403923        1024145308.5070362     
  -3176941205.7416964       -1009683.0903612375        1019389943.1249126     
  -3067413700.7515960        944180.22287249565        1019504135.6594867     
  -2958451190.8531170        1014726.5640434027        1024487886.1107613     
  -3770616493.4097733       -5218538.5387766361        913763121.46897960     
  -3649087107.2053895       -3511860.7189846039        905334518.43876076     
  -3527629874.4170856       -2045694.2861468792        901325616.61670196     
  -3406244795.0448670       -820039.24024891853        901736416.00280726     
  -3284931869.0887341        165104.41869759560        906566916.59707034     
  -4138419161.2922406        1667070.9145882130        790670294.48283398     
  -4007303188.9383364       -1025662.1676299572        784012993.67600691     
  -3875766528.3249865       -2316101.0516893864        781325537.36880541     
  -3743809179.4521856       -2204245.7375826836        782607925.56122398     
  -3611431142.3199344       -690096.22532153130        787860158.25326717     
  -4501099204.6441336        10089467.727125406        664491750.84742391     
  -4361681951.0222492        2611732.2784478664        660180734.21877968     
  -4221351167.4653859       -1820903.3869769573        659389705.38121724     
  -4080106853.9735432       -3208439.2691214085        662118664.33473885     
  -3937949010.5467229       -1550875.3680174351        668367611.07934654     
  -2631989107.6130843        1858770.2107104063        1141623066.7943394     
  -2536622046.2941990       -769194.31112635136        1135231398.4850950     
  -2441127084.7721171       -2970824.8223063946        1133015020.2540388     
  -2345504223.0468330       -4746121.3228158951        1134973932.1011682     
  -2249753461.1183548       -6095083.8126699924        1141108134.0264869     
  -2958451190.8531170        1014726.5640434027        1024487886.1107613     
  -2851839176.0618696       -476509.33051824570        1018182955.0047808     
  -2745226979.6099329       -1967139.6894425154        1016090376.0392114     
  -2638614601.4972978       -3457164.5127103329        1018210149.2140535     
  -2532002041.7239680       -4946583.8003292084        1024542274.5293077     
  -3284931869.0887341        165104.41869759560        906566916.59707034     
  -3166969009.2187686       -157635.36667943001        900199717.72809589     
  -3049133686.2306137       -905498.09142863750        898081933.06175721     
  -2931425900.1242709       -2078483.7555440664        900213562.59805560     
  -2813845650.8997407       -3676592.3590395451        906594606.33699179     
  -3611431142.3199344       -690096.22532153130        787860158.25326717     
  -3482011545.7648916        187427.58039784431        781281686.65504193     
  -3352847204.6341672        214099.97172570229        778989691.32167602     
  -3223938118.9277577       -610079.05134201050        780984172.25317419     
  -3095284288.6456680       -2285109.4887996912        787265129.44953668     
  -3937949010.5467229       -1550875.3680174351        668367611.07934654     
  -3796966785.7002478        558679.51069808006        661428861.78561401     
  -3656367534.8205938        1391654.5000011921        658813650.81896794     
  -3516151257.9077568        948049.59991550446        660521978.17941141     
  -3376317954.9617510       -772135.18960022926        666553843.86694002     
  -2249753461.1183548       -6095083.8126699924        1141108134.0264869     
  -2152670019.1641908       -7389518.7253645658        1133559314.1767724     
  -2055942132.2025979       -9869136.9466317892        1130320197.1758037     
  -1959569800.2335813       -13533938.476487875        1131390783.0235846     
  -1863553023.2571375       -18383923.314917922        1136771071.7201142     
  -2532002041.7239680       -4946583.8003292084        1024542274.5293077     
  -2423858131.7516890       -6321124.2201660872        1016748737.8136896     
  -2315941563.5666232       -8453470.5973939896        1013172036.4572136     
  -2208252337.1687808       -11343622.932018161        1013812170.4598824     
  -2100790452.5581508       -14991581.224030972        1018669139.8216916     
  -2813845650.8997407       -3676592.3590395451        906594606.33699179     
  -2694906608.5939293       -5210838.9913883209        898705934.82838356     
  -2576066694.8699813       -7075514.2299437523        894941231.18931353     
  -2457325909.7278953       -9270618.0747131109        895300495.41977882     
  -2338684253.1676779       -11796150.525701523        899783727.51978326     
  -3095284288.6456680       -2285109.4887996912        787265129.44953668     
  -2965815449.6909165       -4058663.0390371084        779430905.22085261     
  -2836317526.1126719       -5735267.8443026543        775627781.37210071     
  -2706790517.9109387       -7314923.9045983553        775855757.90328455     
  -2577234425.0857096       -8797631.2199183702        780114834.81439316     
  -3376317954.9617510       -772135.18960022926        666553843.86694002     
  -3236584655.0426459       -2864596.3631069660        658923648.99109781     
  -3096694057.2946935       -4432731.4404525757        655231687.00557840     
  -2956646161.7178931       -5476540.4216414690        655477957.91038620     
  -2816440968.3122511       -5996023.3066916466        659662461.70551884     
  -1863553023.2571375       -18383923.314917922        1136771071.7201142     
  -1763184278.7661407       -22609480.527208686        1129304517.8240001     
  -1662909097.4989922       -27146915.152326941        1126105301.5379987     
  -1562727479.4556801       -31996227.190234661        1127173422.8621113     
  -1462639424.6362140       -37157416.640961647        1132508881.7963338     
  -2100790452.5581508       -14991581.224030972        1018669139.8216916     
  -1989348055.5215917       -18066179.128869057        1010671083.3192245     
  -1878087630.9883108       -21747352.044648886        1006658277.4784381     
  -1767009178.9583161       -26035099.971381545        1006630722.2993324     
  -1656112699.4316025       -30929422.909042597        1010588417.7819034     
  -2338684253.1676779       -11796150.525701523        899783727.51978326     
  -2216974166.2953539       -13961577.936011314        891151024.25161934     
  -2095534461.2057617       -17028277.955412865        886221484.69669878     
  -1974365137.8988895       -20996250.583886027        884995108.85502827     
  -1853466196.3747427       -25865495.821452260        887471896.72659886     
  -2577234425.0857096       -8797631.2199183702        780114834.81439316     
  -2446062611.0874443       -10295676.948660970        770744340.62118220     
  -2315249588.1513319       -12989692.884601712        764794923.19277811     
  -2184795356.2773905       -16879679.027777433        762266582.52919257     
  -2054699915.4656239       -21965635.378182650        763159318.63041425     
  -2816440968.3122511       -5996023.3066916466        659662461.70551884     
  -2676613389.8978424       -7068476.1667929888        649451032.42791247     
  -2537233011.8250422       -9631596.8322581053        642378592.96668398     
  -2398299834.0938430       -13685385.303060651        638445143.32183278     
  -2259813856.7042532       -19229841.579237580        637650683.49336004     
  -1462639424.6362140       -37157416.640961647        1132508881.7963338     
  -1356842521.2418911       -41024288.015615880        1125364322.0220125     
  -1251227880.8850625       -45498702.848584950        1122206002.6483600     
  -1145795503.5657444       -50580661.139922619        1123033923.6753855     
  -1040545389.2839351       -56270162.889621258        1127848085.1030798     
  -1656112699.4316025       -30929422.909042597        1010588417.7819034     
  -1540259619.0928867       -34605020.190436602        1001841885.8111662     
  -1424401437.4073536       -38263612.982420087        996800493.99084163     
  -1308538154.3750141       -41905201.285051048        995464242.32093489     
  -1192669769.9958534       -45529785.098291397        997833130.80143428     
  -1853466196.3747427       -25865495.821452260        887471896.72659886     
  -1728360082.6638098       -29590762.081222415        877341984.34115493     
  -1603061503.2217417       -32674475.903884232        870636111.85586131     
  -1477570458.0485446       -35116637.289437771        867354279.27072561     
  -1351886947.1442113       -36917246.237883568        867496486.58573139     
  -2054699915.4656239       -21965635.378182650        763159318.63041425     
  -1921143911.9546559       -25981513.688011646        751864617.61197042     
  -1787208078.3282254       -28731291.612970591        743712856.24341762     
  -1652892414.5863571       -30214969.153125703        738704034.52475595     
  -1518196920.7290256       -30432546.308420897        736838152.45598471     
  -2259813856.7042532       -19229841.579237580        637650683.49336004     
  -2118611106.9654133       -23777275.010734200        625409785.62362278     
  -1976841162.7268112       -26434060.109704137        616030727.15351033     
  -1834504023.9884291       -27200196.876072288        609513508.08302653     
  -1691599690.7502818       -26075685.309884191        605858128.41217506     
  -1040545389.2839351       -56270162.889621258        1127848085.1030798     
  -923622041.94531143       -55189905.105846733        1125247046.3393052     
  -804361845.00891054       -46320148.662811697        1128533057.0532603     
  -682764798.47472656       -29660893.560502291        1137706117.2449498     
  -558830902.34275651       -5212139.7989040017        1152766226.9143651     
  -1192669769.9958534       -45529785.098291397        997833130.80143428     
  -1062185262.4650929       -42557429.207999468        994071070.87083888     
  -930247326.99010837       -34740313.503634632        994416985.12419558     
  -796855963.57092047       -22078437.985253602        998870873.56149662     
  -662011172.20752001       -4571802.6528324485        1007432736.1827446     
  -1351886947.1442113       -36917246.237883568        867496486.58573139     
  -1212924351.6892624       -33577713.921441913        861542746.89249337     
  -1073391749.9436721       -28338160.636194825        857917906.08941460     
  -933289141.90743327       -21198586.382107437        856621964.17650342     
  -792616527.58054280       -12158991.159205437        857654921.15375066     
  -1518196920.7290256       -30432546.308420897        736838152.45598471     
  -1375839309.6178472       -28250759.246228933        727662074.40426576     
  -1233795113.8695865       -27113690.060439706        719035819.94892776     
  -1092064333.4842467       -27021338.751048148        710959389.08997130     
  -950646968.46183121       -27973705.318071365        703432781.82739055     
  -1691599690.7502818       -26075685.309884191        605858128.41217506     
  -1550930136.2508240       -26576565.182320178        592429053.40615416     
  -1411457418.7678597       -31066901.776399016        577770726.70272923     
  -1273181538.3013763       -39546695.092081845        561883148.30189729     
  -1136102494.8513889       -52015945.129418194        544766318.20365477     
  -558830902.34275651       -5212139.7989040017        1152766226.9143651     
  -462185105.74368626        32782482.408963382        1162100858.4942517     
  -353547170.84823489        110750898.93810649        1178981833.5901971     
  -232917097.65638274        228693109.78858703        1203409152.2022049     
  -100294886.16816196        386609114.96028793        1235382814.3302710     
  -662011172.20752001       -4571802.6528324485        1007432736.1827446     
  -546962586.60754454        25692218.280377120        1020930677.9394022     
  -421040232.91016757        92202132.871595979        1042822252.6286930     
  -284244111.11537224        194957941.12087417        1073107460.2506198     
  -136574221.22317725        333959643.02815104        1111786300.8051741     
  -792616527.58054280       -12158991.159205437        857654921.15375066     
  -656744326.07517207        11100676.570681751        874011407.85504162     
  -511116726.67137551        66878337.295317948        899608816.90554082     
  -355733729.36914498        155173991.01473340        934447148.30524766     
  -190595334.16848022        275987637.72893459        978526402.05415714     
  -950646968.46183121       -27973705.318071365        703432781.82739055     
  -791530324.14657450       -10992142.720170200        721343048.24117196     
  -623776652.13186371        34779512.209238261        749341526.42073464     
  -447385952.41768682        109341259.47019839        787428216.36608350     
  -262358225.00407660        212693099.06261337        835603118.07720852     
  -1136102494.8513889       -52015945.129418194        544766318.20365477     
  -951320580.82174051       -40586239.592121303        562925599.09779572     
  -759020009.29162264       -4094342.3865992427        592020381.17428482     
  -559200780.26103258        57459746.487166345        632050664.43312526     
  -351862893.72995377        144076027.02922797        683016448.87431765     
  -100294886.16816196        386609114.96028793        1235382814.3302710     
  -85388139.901957035        546487186.46448946        1196780367.0612683     
  -57895484.086617380        748318289.79914308        1154824710.0470531     
  -17816918.722131371        992102424.96428442        1109515843.2875884     
   34847556.191498399        1277839591.9599020        1060853766.7829287     
  -136574221.22317725        333959643.02815104        1111786300.8051741     
  -127413655.51504853        482990920.56478405        1090207048.0910404     
  -95116502.156269103        709144156.93693233        1070063972.5315119     
  -39682761.146831512        1012419352.1446010        1051357074.1265750     
   38887567.513263106        1392816506.1877935        1034086352.8762494     
  -190595334.16848022        275987637.72893459        978526402.05415714     
  -173496986.44749072        418277310.06928670        986279468.34664130     
  -122711372.97434175        672857868.25020337        1000258098.6935546     
  -38238493.749028325        1039729312.2716624        1020462293.0948999     
   79921651.228461683        1518891642.1336884        1046892051.5506775     
  -262358225.00407660        212693099.06261337        835603118.07720852     
  -223638132.69929266        352346354.97798806        884997627.82807660     
  -140680096.54083407        639459423.73894453        945407088.53320718     
  -13484116.528694391        1074032305.3454995        1016831500.1926013     
   157949807.33711791        1656064999.7976408        1099270862.8062449     
  -351862893.72995377        144076027.02922797        683016448.87431765     
  -277837094.27044857        285198055.29086328        786361526.53534389     
  -149022672.85575092        608948823.40315652        905510942.05045259     
   34580370.514128566        1115328331.3660560        1040464695.4196391     
   272972035.83920586        1804336579.1796093        1191222786.6429119     
  -4501099204.6441336        10089467.727125406        664491750.84742391     
  -4361681951.0222492        2611732.2784478664        660180734.21877968     
  -4221351167.4653859       -1820903.3869769573        659389705.38121724     
  -4080106853.9735432       -3208439.2691214085        662118664.33473885     
  -3937949010.5467229       -1550875.3680174351        668367611.07934654     
  -4865834852.5386372        4694892.6051087379        501877505.44426823     
  -4715675447.1218395        2142874.9063549042        498108066.05454630     
  -4565257101.1859169        453992.27135348320        497945128.46599859     
  -4414579814.7308693       -371755.29989910126        501388692.67862433     
  -4263643587.7566905       -334367.80738115311        508438758.69242483     
  -5231100845.7598562       -858786.11492419243        340300131.64066088     
  -5069952105.6621742        1589068.8020367622        336308581.83803767     
  -4909199014.4612122        2718094.0632526875        336010047.84667194     
  -4748841572.1569843        2528289.6687064171        339404529.66657531     
  -4588879778.7494793        1019655.6184053421        346492027.29774070     
  -5596897184.3077908       -6571568.4329714775        179759629.43661001     
  -5424511926.6432486        950313.96550416946        174782281.56924343     
  -5253176907.2912903        4971401.9887130260        173584463.52323779     
  -5082892126.2519093        5491695.6366586685        176166175.29858771     
  -4913657583.5251055        2511194.9093291759        182527416.89528829     
  -5963223868.1824417       -12443454.349033356        20255998.832102291     
  -5779354910.0650702        226610.39674782753        13529165.248179400     
  -5597190779.6761322        7213916.0477476120        10668375.495700134     
  -5416731477.0156269        8518462.6039702892        11673629.574667851     
  -5237977002.0835514        4140250.0654335022        16544927.485078869     
  -3937949010.5467229       -1550875.3680174351        668367611.07934654     
  -3796966785.7002478        558679.51069808006        661428861.78561401     
  -3656367534.8205938        1391654.5000011921        658813650.81896794     
  -3516151257.9077568        948049.59991550446        660521978.17941141     
  -3376317954.9617510       -772135.18960022926        666553843.86694002     
  -4263643587.7566905       -334367.80738115311        508438758.69242483     
  -4111898169.4569316        145652.21088314056        501367044.22292513     
  -3960279905.8775663        201823.16117620468        498627217.51204544     
  -3808788797.0185943       -165854.95650601387        500219278.55978233     
  -3657424842.8800097       -957382.14214754105        506143227.36613739     
  -4588879778.7494793        1019655.6184053421        346492027.29774070     
  -4426347311.4777842       -122702.56818103790        339585803.43998063     
  -4263686179.6800499       -836179.00130867958        337019816.77236557     
  -4100896383.3562741       -1120773.6809635162        338794067.29489821     
  -3937977922.5064607       -976486.60716104507        344908555.00757951     
  -4913657583.5251055        2511194.9093291759        182527416.89528829     
  -4740314211.7628078       -246384.82650017738        176085139.43676433     
  -4566586356.2280455       -1722351.9874422550        173991448.59991720     
  -4392474016.9208097       -1916706.5734827518        176246344.38475424     
  -4217977193.8411102       -829448.58463191986        182849826.79126722     
  -5237977002.0835514        4140250.0654335022        16544927.485078869     
  -5053798870.3120003       -225394.56406331062        10865052.213293592     
  -4868980435.5215502       -2456695.7972285748        9542112.9947197679     
  -4683521697.7121992       -2553653.6340591908        12576109.829355320     
  -4497422656.8839493       -516268.07455587387        19967042.717197523     
  -3376317954.9617510       -772135.18960022926        666553843.86694002     
  -3236584655.0426459       -2864596.3631069660        658923648.99109781     
  -3096694057.2946935       -4432731.4404525757        655231687.00557840     
  -2956646161.7178931       -5476540.4216414690        655477957.91038620     
  -2816440968.3122511       -5996023.3066916466        659662461.70551884     
  -3657424842.8800097       -957382.14214754105        506143227.36613739     
  -3507055745.5545187       -2154488.1090991497        498880743.58161384     
  -3356630123.2255754       -3163177.3978657722        495654789.09477669     
  -3206147975.8931851       -3983450.0084768534        496465363.90562660     
  -3055609303.5573416       -4615305.9409092665        501312468.01416451     
  -3937977922.5064607       -976486.60716104507        344908555.00757951     
  -3776692180.8964071       -1193983.3040788174        337896214.01807988     
  -3615450687.1083012       -1558972.7408294678        335018698.73362648     
  -3454253441.1421409       -2071454.9174015522        336276009.15422451     
  -3293100442.9979267       -2731429.8337833881        341668145.27987105     
  -4217977193.8411102       -829448.58463191986        182849826.79126722     
  -4045493961.0683122        16918.051925897598        175970060.30049059     
  -3873155748.9428673        379882.53064990044        173323415.92212680     
  -3700962557.4647565        259444.85159063339        174909893.65617022     
  -3528914386.6339960       -344394.98530220985        180729493.50263354     
  -4497422656.8839493       -516268.07455587387        19967042.717197523     
  -4313461086.0702343        1478215.9589326382        13102282.428854113     
  -4129745308.7292700        2653388.4165883064        10568940.660278846     
  -3946275324.8610435        3009249.2984523773        12367017.411483567     
  -3763051134.4655495        2545798.6045403481        18496512.682453226     
  -2816440968.3122511       -5996023.3066916466        659662461.70551884     
  -2676613389.8978424       -7068476.1667929888        649451032.42791247     
  -2537233011.8250422       -9631596.8322581053        642378592.96668398     
  -2398299834.0938430       -13685385.303060651        638445143.32183278     
  -2259813856.7042532       -19229841.579237580        637650683.49336004     
  -3055609303.5573416       -4615305.9409092665        501312468.01416451     
  -2907369275.9782124       -6125147.8692207336        491468794.32727665     
  -2759309988.2830710       -8237456.0775010586        485058181.50491941     
  -2611431440.4719367       -10952230.565806150        482080629.54709566     
  -2463733632.5447979       -14269471.334095836        482536138.45380574     
  -3293100442.9979267       -2731429.8337833881        341668145.27987105     
  -3135607763.2593393       -4426599.9318639040        332503097.71757239     
  -2978029362.9471393       -5836034.7845727205        327065182.06796163     
  -2820365242.0613384       -6959734.3919341564        325354398.33103967     
  -2662615400.6019292       -7797698.7539502382        327370746.50679964     
  -3528914386.6339960       -344394.98530220985        180729493.50263354     
  -3361328851.7412314       -1972832.3547525406        172553942.59880200     
  -3193391135.8172483       -2427332.9534680843        168399594.65580791     
  -3025101238.8620467       -1707896.7814625502        168266449.67365754     
  -2856459160.8756351        185476.16124963760        172154507.65235344     
  -3763051134.4655495        2545798.6045403481        18496512.682453226     
  -3584532541.4238796        1236154.8621518612        11621328.970962130     
  -3405395306.8933783        1988649.4158701897        9061419.2684698943     
  -3225639430.8740702        4803282.2656112909        10816783.574967869     
  -3045264913.3659363        9680053.4114376307        16887421.890461501     
  -2259813856.7042532       -19229841.579237580        637650683.49336004     
  -2118611106.9654133       -23777275.010734200        625409785.62362278     
  -1976841162.7268112       -26434060.109704137        616030727.15351033     
  -1834504023.9884291       -27200196.876072288        609513508.08302653     
  -1691599690.7502818       -26075685.309884191        605858128.41217506     
  -2463733632.5447979       -14269471.334095836        482536138.45380574     
  -2315126178.9952307       -17134596.025872946        472355781.11144984     
  -2166219816.9530048       -19003359.075473905        464621285.28393590     
  -2017014546.4181225       -19875760.482870936        459332650.97126138     
  -1867510367.3905878       -19751800.248106122        456489878.17343020     
  -2662615400.6019292       -7797698.7539502382        327370746.50679964     
  -2507791751.4838700       -9337067.1786383390        318937929.35019487     
  -2352937479.8802843       -10774360.651576281        312534995.82364553     
  -2198052585.7911530       -12109579.172690988        308161945.92714477     
  -2043137069.2164807       -13342722.742010593        305818779.66069967     
  -2856459160.8756351        185476.16124963760        172154507.65235344     
  -2696607824.4313626       -384688.46911597252        165156230.33986822     
  -2536994151.5086508       -1747064.8380180597        159771858.77264005     
  -2377618142.1075134       -3901652.9455099106        156001392.95068467     
  -2218479796.2279530       -6848452.7915724516        153844832.87399322     
  -3045264913.3659363        9680053.4114376307        16887421.890461501     
  -2881574397.8376637        9722540.1028503180        11010684.080447603     
  -2718389831.8380837        8078528.3652734756        6331874.1309242863     
  -2555711215.3672080        4748018.1986861229        2850992.0418731361     
  -2393538548.4250116       -268990.39682340622        568037.81329431210     
  -1691599690.7502818       -26075685.309884191        605858128.41217506     
  -1550930136.2508240       -26576565.182320178        592429053.40615416     
  -1411457418.7678597       -31066901.776399016        577770726.70272923     
  -1273181538.3013763       -39546695.092081845        561883148.30189729     
  -1136102494.8513889       -52015945.129418194        544766318.20365477     
  -1867510367.3905878       -19751800.248106122        456489878.17343020     
  -1729745603.3501689       -22864894.376850009        442810637.04790878     
  -1592091987.2754121       -26348481.724455714        428729012.09506762     
  -1454549519.1663105       -30202562.290918231        414245003.31490129     
  -1317118199.0228708       -34427136.076264918        399358610.70741206     
  -2043137069.2164807       -13342722.742010593        305818779.66069967     
  -1905914616.0062938       -18359287.238420367        293156009.64164943     
  -1767717621.7109334       -20127381.450916409        280917723.66536117     
  -1628546086.3304102       -18647005.379530907        269103921.73182833     
  -1488400009.8647017       -13918159.024206400        257714603.84105912     
  -2218479796.2279530       -6848452.7915724516        153844832.87399322     
  -2079437174.2191923       -13059743.767009616        143465171.18738350     
  -1938334322.0744278       -12403600.955768943        134336861.41360947     
  -1795171239.7936549       -4880024.3578337431        126459903.55269015     
  -1649947927.3768938        9510986.0267323256        119834297.60459867     
  -2393538548.4250116       -268990.39682340622        568037.81329431210     
  -2250313277.9888668       -6966263.9626315832       -6261878.3149072696     
  -2103942088.3658860       -3177140.2389938831       -11013574.660177665     
  -1954424979.5560849        11098380.774052024       -13687051.222538492     
  -1801761951.5594325        35860299.076593399       -14282308.001964608     
  -1136102494.8513889       -52015945.129418194        544766318.20365477     
  -951320580.82174051       -40586239.592121303        562925599.09779572     
  -759020009.29162264       -4094342.3865992427        592020381.17428482     
  -559200780.26103258        57459746.487166345        632050664.43312526     
  -351862893.72995377        144076027.02922797        683016448.87431765     
  -1317118199.0228708       -34427136.076264918        399358610.70741206     
  -1117573874.4306958       -14668506.312963724        421214217.36624688     
  -914391389.42408216        17217324.831802845        441567963.83867019     
  -707570744.00301671        61230357.358066916        460419850.12468547     
  -497111938.16751057        117370591.26581347        477769876.22428083     
  -1488400009.8647017       -13918159.024206400        257714603.84105912     
  -1309628592.9064689        3508799.5061603189        278739289.66422731     
  -1131099512.6198287        20127969.131223857        285824753.93222040     
  -952812769.00476027        35939349.851045787        278970996.64503366     
  -774768362.06127882        50942941.665565521        258178017.80267701     
  -1649947927.3768938        9510986.0267323256        119834297.60459867     
  -1527484736.2490764        13945677.865208209        135500815.99173597     
  -1409144378.8788617        4637590.5116763711        124790751.45492381     
  -1294926855.2662680       -18413276.033934355        87704103.994182453     
  -1184832165.4112823       -55206921.771554768        24240873.609497242     
  -1801761951.5594325        35860299.076593399       -14282308.001964608     
  -1771142304.4584949        16642128.764266014       -8501203.6512382552     
  -1748525988.2012033       -29253811.026913643       -41534043.593205661     
  -1733913002.7875404       -101827520.29683959       -113380827.82787500     
  -1727303348.2175150       -201078999.04555708       -224041556.35525891     
  -351862893.72995377        144076027.02922797        683016448.87431765     
  -277837094.27044857        285198055.29086328        786361526.53534389     
  -149022672.85575092        608948823.40315652        905510942.05045259     
   34580370.514128566        1115328331.3660560        1040464695.4196391     
   272972035.83920586        1804336579.1796093        1191222786.6429119     
  -497111938.16751057        117370591.26581347        477769876.22428083     
  -388278645.75187892        223044576.69063860        597060922.20371008     
  -230322147.45861226        492462581.70757759        735502942.48842001     
  -23242443.287706912        925624606.31665933        893095937.07839477     
   232960466.76085195        1522530650.5178945        1069839905.9736719     
  -774768362.06127882        50942941.665565521        258178017.80267701     
  -621565758.25755537        124037429.78310350        386805380.01003850     
  -424905364.65374410        341991217.23429167        537930352.97386849     
  -184787181.24981657        704804304.01916730        711552936.69417882     
   98788791.954198897        1212476690.1376901        907673131.17096245     
  -1184832165.4112823       -55206921.771554768        24240873.609497242     
  -977698431.78746736       -11823385.431670606        155594899.95431921     
  -732772324.44111848        157534729.98333254        312793173.50682551     
  -450053843.37220043        452867424.47359288        495835694.26698732     
  -129542988.58071595        874174698.03901374        704722462.23483002     
  -1727303348.2175150       -201078999.04555708       -224041556.35525891     
  -1456676666.3416276       -184537868.95374584       -96570517.963423103     
  -1153923026.8207405       -60906880.045257568        60091404.087267429     
  -819042429.65484107        169813967.67993230        245944209.79682180     
  -452034874.84392786        507624674.22183502        460987899.16524726     
 </DataArray>
 <DataArray  type="Float64" Name="VM" NumberOfComponents="1" format="ascii">
   5957115225.6729393     
   5779515744.1645975     
   5600831723.6686525     
   5421033456.7228155     
   5240126736.6036663     
   5602272893.3419085     
   5433427291.1290960     
   5264257089.0203638     
   5094785547.2721052     
   4925071070.9181490     
   5263775917.8878555     
   5104094795.4178801     
   4944926100.2610989     
   4786344664.8184719     
   4628462781.8527927     
   4945185370.6677036     
   4795001495.5742579     
   4646234282.6909046     
   4499004950.1129436     
   4353476861.2524815     
   4650812518.0003529     
   4510341814.6359386     
   4372242714.3915300     
   4236672578.7092719     
   4103837603.4572787     
   5240126736.6036663     
   5053721232.1703110     
   4867780618.7718315     
   4682296060.4048376     
   4497297512.2529287     
   4925071070.9181490     
   4749992509.4738932     
   4575660354.0783272     
   4402113225.4200420     
   4229436820.5024676     
   4628462781.8527927     
   4465194600.3895302     
   4303045700.2248535     
   4142113037.9516702     
   3982550864.9125323     
   4353476861.2524815     
   4202667252.7227755     
   4053455740.2772059     
   3906007980.7623668     
   3760558302.4093609     
   4103837603.4572787     
   3966300873.3427830     
   3830955504.0461640     
   3698042979.7792835     
   3567884341.0851960     
   4497297512.2529287     
   4314260060.3175135     
   4131113188.6734180     
   3947838907.8677468     
   3764460990.0784030     
   4229436820.5024676     
   4056967604.9243331     
   3884962018.6834192     
   3713470674.0323839     
   3542599454.4107423     
   3982550864.9125323     
   3821180113.4435964     
   3660951003.0850716     
   3501993775.3129292     
   3344508098.1380987     
   3760558302.4093609     
   3610891124.1259322     
   3463145846.9727364     
   3317538653.3226714     
   3174367569.8616810     
   3567884341.0851960     
   3430562354.5419936     
   3296026791.2571998     
   3164577122.4732323     
   3036602029.2022052     
   3764460990.0784030     
   3585207274.6160154     
   3406426218.3256216     
   3228098119.5089650     
   3050256710.2303939     
   3542599454.4107423     
   3373607674.2477245     
   3205476042.1599631     
   3038258489.4081273     
   2872072476.5960102     
   3344508098.1380987     
   3185882993.4450445     
   3028568628.8612647     
   2872707083.6674123     
   2718516897.7249227     
   3174367569.8616810     
   3026491409.5749660     
   2880446852.6473641     
   2736475527.3202610     
   2594909290.9026842     
   3036602029.2022052     
   2900129225.8472500     
   2766072535.3816271     
   2634775952.7424593     
   2506684617.7085690     
   3050256710.2303939     
   2886510952.6551485     
   2722460177.0019364     
   2558093295.8333964     
   2393404266.2933207     
   2872072476.5960102     
   2711546846.4016309     
   2551174479.9469733     
   2390986389.6807580     
   2231033627.9717522     
   2718516897.7249227     
   2563367987.4755144     
   2409172854.8802719     
   2256070848.5122919     
   2104257939.6564157     
   2594909290.9026842     
   2447405568.7346940     
   2302025800.1380119     
   2159076765.4766984     
   2018971876.7805593     
   2506684617.7085690     
   2368990456.0017967     
   2234910596.1015759     
   2104938512.6143532     
   1979715143.0500176     
   2393404266.2933207     
   2246864422.5080438     
   2102441861.6129036     
   1960141100.1797314     
   1820125206.1664619     
   2231033627.9717522     
   2087778572.1247826     
   1946121949.9094949     
   1806067395.3145206     
   1667690627.7796156     
   2104257939.6564157     
   1963587963.3300972     
   1823840858.2666285     
   1685049945.8663352     
   1547275982.9399843     
   2018971876.7805593     
   1881817202.8530505     
   1744972099.6470165     
   1608568352.2675927     
   1472787449.0363741     
   1979715143.0500176     
   1848726251.8845291     
   1717784801.8982890     
   1587243858.1046968     
   1457617959.6791778     
   1820125206.1664619     
   1779582651.2078550     
   1735575725.2821321     
   1696711148.0444379     
   1681448497.3405745     
   1667690627.7796156     
   1552348970.0088844     
   1427922482.9007018     
   1294761288.0589268     
   1158976698.4307449     
   1547275982.9399843     
   1397433848.8131137     
   1244043949.5356884     
   1084832582.4096673     
   917767859.61425388     
   1472787449.0363741     
   1328554718.8373539     
   1198790316.4146235     
   1087975017.5878921     
   1002015279.6153340     
   1457617959.6791778     
   1348593065.1421404     
   1274552802.0394428     
   1243624861.8787680     
   1262851857.2445941     
   1681448497.3405745     
   1383881036.2082479     
   1129512761.7696130     
   1010058311.6136990     
   1152827794.4332180     
   1158976698.4307449     
   1008515557.2319355     
   985255433.38786113     
   1161469413.3358583     
   1544055451.6870670     
   917767859.61425388     
   963162447.79556239     
   1144955745.1394548     
   1476501593.3302524     
   1957470659.0936480     
   1002015279.6153340     
   1164713643.1098838     
   1425442548.9925184     
   1808783004.9035227     
   2334813265.1395316     
   1262851857.2445941     
   1446673194.4996710     
   1715699217.8735583     
   2110517701.6573408     
   2663577664.7615356     
   4650812518.0003529     
   4510341814.6359386     
   4372242714.3915300     
   4236672578.7092719     
   4103837603.4572787     
   4359918947.2368650     
   4230649905.9520030     
   4104144666.4936047     
   3980613654.4501200     
   3860325618.1783247     
   4086904423.2671466     
   3970129161.0434952     
   3856698552.8296857     
   3746878248.6837997     
   3641004039.5237660     
   3835955560.3515282     
   3733001876.5596991     
   3634173392.3107815     
   3539786702.6435876     
   3450240969.5551310     
   3612105377.2420082     
   3524237959.6797218     
   3441471830.0188093     
   3364159122.1397591     
   3292745366.8448291     
   4103837603.4572787     
   3966300873.3427830     
   3830955504.0461640     
   3698042979.7792835     
   3567884341.0851960     
   3860325618.1783247     
   3735807838.4293919     
   3614246403.1097002     
   3495943273.4355793     
   3381283220.2451010     
   3641004039.5237660     
   3529911057.1429243     
   3422588138.4139695     
   3319385883.7113895     
   3220735467.2792592     
   3450240969.5551310     
   3352867067.9863176     
   3260091071.0434952     
   3172291387.9338555     
   3089918250.6403027     
   3292745366.8448291     
   3209166845.8214893     
   3130978644.1865911     
   3058558175.7500734     
   2992340023.8949909     
   3567884341.0851960     
   3430562354.5419936     
   3296026791.2571998     
   3164577122.4732323     
   3036602029.2022052     
   3381283220.2451010     
   3256774196.4014344     
   3135802664.2731690     
   3018745586.3925791     
   2906076144.2479901     
   3220735467.2792592     
   3109907265.9347901     
   3003448375.4238162     
   2901800230.5293803     
   2805499590.9442573     
   3089918250.6403027     
   2993516455.4389615     
   2902349362.2246127     
   2816895959.0102372     
   2737720132.9014192     
   2992340023.8949909     
   2910842812.6487179     
   2835414675.1420813     
   2766534221.9478869     
   2704746533.0039935     
   3036602029.2022052     
   2900129225.8472500     
   2766072535.3816271     
   2634775952.7424593     
   2506684617.7085690     
   2906076144.2479901     
   2782136754.5572839     
   2661805555.6534314     
   2545562423.1677470     
   2434004494.6554914     
   2805499590.9442573     
   2695675675.2702127     
   2590759897.1092091     
   2491335645.3811784     
   2398100132.8125105     
   2737720132.9014192     
   2643153467.2581038     
   2554784788.3338294     
   2473239016.4256911     
   2399231157.0791202     
   2704746533.0039935     
   2625919148.0374546     
   2554447143.1367984     
   2490923387.0087924     
   2435995887.0555372     
   2506684617.7085690     
   2368990456.0017967     
   2234910596.1015759     
   2104938512.6143532     
   1979715143.0500176     
   2434004494.6554914     
   2310293477.4481325     
   2191555575.9574056     
   2078479043.8447049     
   1971911970.4046717     
   2398100132.8125105     
   2290447023.9579749     
   2189181657.0218425     
   2095106361.7571983     
   2009154976.2813458     
   2399231157.0791202     
   2308973360.5838494     
   2226368003.7251792     
   2152217638.8327436     
   2087401497.6774569     
   2435995887.0555372     
   2363551500.1727247     
   2299728469.4784040     
   2245231886.7971210     
   2200789242.0033555     
   1979715143.0500176     
   1848726251.8845291     
   1717784801.8982890     
   1587243858.1046968     
   1457617959.6791778     
   1971911970.4046717     
   1855623800.4181216     
   1743723122.3095193     
   1637136334.9648995     
   1537001009.7549288     
   2009154976.2813458     
   1912682261.1067464     
   1824999822.5666225     
   1747311408.9880781     
   1680912631.4120989     
   2087401497.6774569     
   2012306307.0020645     
   1949575675.6576967     
   1900290139.6090281     
   1865479901.3544798     
   2200789242.0033555     
   2145621526.2862585     
   2105384989.8510630     
   2080846402.7020860     
   2072683371.8836467     
   1457617959.6791778     
   1348593065.1421404     
   1274552802.0394428     
   1243624861.8787680     
   1262851857.2445941     
   1537001009.7549288     
   1476125958.8241735     
   1447943280.3669369     
   1456419250.1948445     
   1504848726.2853825     
   1680912631.4120989     
   1652396581.9190273     
   1651600353.2970076     
   1680892767.1523001     
   1742882518.0459135     
   1865479901.3544798     
   1854933742.8352280     
   1867359544.8338766     
   1904966620.0068152     
   1970786181.8725936     
   2072683371.8836467     
   2069124586.2539785     
   2084804912.1438346     
   2122356758.4986172     
   2185592066.7710652     
   1262851857.2445941     
   1446673194.4996710     
   1715699217.8735583     
   2110517701.6573408     
   2663577664.7615356     
   1504848726.2853825     
   1613264532.7630482     
   1788866162.3051014     
   2066409565.0266647     
   2476108553.1779470     
   1742882518.0459135     
   1787699229.1658082     
   1884651664.5303938     
   2060652028.5896938     
   2340934827.3346424     
   1970786181.8725936     
   1968935837.0703964     
   2003620376.1718442     
   2093513399.3986750     
   2257275032.5960937     
   2185592066.7710652     
   2156258946.4837646     
   2146512690.9002769     
   2166872652.4751878     
   2228405468.4299235     
   3612105377.2420082     
   3524237959.6797218     
   3441471830.0188093     
   3364159122.1397591     
   3292745366.8448291     
   3376984839.0523143     
   3304929417.2697110     
   3238552673.4802370     
   3178193794.2779536     
   3124262415.9790425     
   3175425171.4654946     
   3118292845.0045915     
   3067299806.5292163     
   3022744781.9647155     
   2984973126.2790422     
   3013316582.1916647     
   2969873608.0031528     
   2932862501.0711555     
   2902519151.4828358     
   2879104949.9632220     
   2896409726.2344341     
   2864978097.1640229     
   2840062163.7632337     
   2821823955.6073689     
   2810435711.6458998     
   3292745366.8448291     
   3209166845.8214893     
   3130978644.1865911     
   3058558175.7500734     
   2992340023.8949909     
   3124262415.9790425     
   3053642484.9421005     
   2989122088.8627672     
   2931069507.0545039     
   2879899995.6483989     
   2984973126.2790422     
   2927255248.2755742     
   2876330984.6254821     
   2832533450.0087481     
   2796230020.1999784     
   2879104949.9632220     
   2833765853.1760235     
   2795863081.1774964     
   2765670289.0296431     
   2743482930.8435469     
   2810435711.6458998     
   2776365434.1595631     
   2750298010.0557122     
   2732431853.3546152     
   2722977698.0784636     
   2992340023.8949909     
   2910842812.6487179     
   2835414675.1420813     
   2766534221.9478869     
   2704746533.0039935     
   2879899995.6483989     
   2812778785.6810355     
   2752456343.9283485     
   2699372302.7521501     
   2654011223.7663884     
   2796230020.1999784     
   2742984134.0846944     
   2697145986.1829696     
   2659084896.5016766     
   2629194574.9383960     
   2743482930.8435469     
   2703076416.0279999     
   2670541027.7175627     
   2646156345.2219758     
   2630210860.2136073     
   2722977698.0784636     
   2693816011.8147559     
   2672846570.8871484     
   2660255814.4469652     
   2656230386.1862202     
   2704746533.0039935     
   2625919148.0374546     
   2554447143.1367984     
   2490923387.0087924     
   2435995887.0555372     
   2654011223.7663884     
   2590283707.1829104     
   2534586107.1605964     
   2487432904.9681354     
   2449365111.4037657     
   2629194574.9383960     
   2579890202.4858727     
   2539117606.1102414     
   2507284839.1976395     
   2484805063.8106098     
   2630210860.2136073     
   2594121436.9283252     
   2566902728.4120479     
   2548848501.7652378     
   2540246017.3070889     
   2656230386.1862202     
   2631683598.1140714     
   2616225281.5730891     
   2610044837.5300832     
   2613322107.4386840     
   2435995887.0555372     
   2363551500.1727247     
   2299728469.4784040     
   2245231886.7971210     
   2200789242.0033555     
   2449365111.4037657     
   2393040497.8021331     
   2346108521.7935243     
   2309127335.0530577     
   2282640469.0573187     
   2484805063.8106098     
   2443354669.2198181     
   2411802145.7718611     
   2390545893.3981104     
   2379952363.2595420     
   2540246017.3070889     
   2511889795.2859564     
   2493745787.6901913     
   2486068913.9119453     
   2489080984.8723540     
   2613322107.4386840     
   2595924687.1955318     
   2588958764.3074446     
   2592566974.0817294     
   2606867052.5884562     
   2200789242.0033555     
   2145621526.2862585     
   2105384989.8510630     
   2080846402.7020860     
   2072683371.8836467     
   2282640469.0573187     
   2242164001.5239134     
   2215610129.5128770     
   2203429731.2654166     
   2206011345.3549047     
   2379952363.2595420     
   2351240617.0073037     
   2335420121.4081340     
   2332742584.1272740     
   2343430056.0257325     
   2489080984.8723540     
   2469495952.2858114     
   2461864292.0615602     
   2466323696.5191174     
   2483009345.8586187     
   2606867052.5884562     
   2594132629.4859304     
   2592568050.6992168     
   2602253440.7533612     
   2623285172.1610279     
   2072683371.8836467     
   2069124586.2539785     
   2084804912.1438346     
   2122356758.4986172     
   2185592066.7710652     
   2206011345.3549047     
   2191647280.9136901     
   2192274443.6434140     
   2209862465.6142035     
   2247330943.0970869     
   2343430056.0257325     
   2319067889.7163954     
   2306232534.6853280     
   2306329728.0669184     
   2321447717.8114185     
   2483009345.8586187     
   2450410701.9185495     
   2426359759.0875463     
   2411801999.7502079     
   2408114137.7922535     
   2623285172.1610279     
   2584893671.5993338     
   2552371632.2329845     
   2526300489.3841257     
   2507488838.6877618     
   2185592066.7710652     
   2156258946.4837646     
   2146512690.9002769     
   2166872652.4751878     
   2228405468.4299235     
   2247330943.0970869     
   2182633999.9795442     
   2134372604.3019030     
   2112210112.0671284     
   2127076330.1333280     
   2321447717.8114185     
   2224723079.9598403     
   2141332260.3801920     
   2079638196.5810180     
   2049808628.7428248     
   2408114137.7922535     
   2282820430.8983607     
   2168038646.0782909     
   2070507733.1601102     
   1998993484.4330389     
   2507488838.6877618     
   2357135808.9625568     
   2214962497.8674502     
   2085949648.6532085     
   1976972933.7244701     
   2896409726.2344341     
   2864978097.1640229     
   2840062163.7632337     
   2821823955.6073689     
   2810435711.6458998     
   2761968402.9520040     
   2738896044.5585899     
   2722952421.6941795     
   2714248045.5081248     
   2712898453.4970107     
   2671831448.3249822     
   2655295243.4548779     
   2646443413.6354322     
   2645333068.9358420     
   2652023061.2346683     
   2631068589.8235679     
   2618513514.2842488     
   2614132913.5326014     
   2617942651.8229914     
   2629958917.1375475     
   2642482553.2085328     
   2630785457.2366138     
   2627687325.1885071     
   2633188157.0642128     
   2647287952.8637338     
   2810435711.6458998     
   2776365434.1595631     
   2750298010.0557122     
   2732431853.3546152     
   2722977698.0784636     
   2712898453.4970107     
   2688755529.8195119     
   2672700460.7906265     
   2664852042.1388044     
   2665333803.7331657     
   2652023061.2346683     
   2635453847.0648737     
   2626960544.4761839     
   2626597425.3358154     
   2634419975.5071158     
   2629958917.1375475     
   2618236907.3150883     
   2614504570.8091345     
   2618775385.6492252     
   2631062976.7089739     
   2647287952.8637338     
   2637500968.4186392     
   2635567622.0966215     
   2641487913.8976808     
   2655261843.8218131     
   2722977698.0784636     
   2693816011.8147559     
   2672846570.8871484     
   2660255814.4469652     
   2656230386.1862202     
   2665333803.7331657     
   2644675930.2184157     
   2632371878.2759738     
   2628532636.1343999     
   2633267134.5169721     
   2634419975.5071158     
   2620155795.8171329     
   2614370677.9469748     
   2617115730.8198333     
   2628440328.4123940     
   2631062976.7089739     
   2620762646.5538278     
   2619059626.7232146     
   2625966919.0309377     
   2641496950.9229021     
   2655261843.8218131     
   2646306251.6503754     
   2646083601.8474636     
   2654593894.4130774     
   2671837129.3472109     
   2656230386.1862202     
   2631683598.1140714     
   2616225281.5730891     
   2610044837.5300832     
   2613322107.4386840     
   2633267134.5169721     
   2617267757.0933657     
   2610339283.1727204     
   2612588649.2790990     
   2624115138.0023403     
   2628440328.4123940     
   2618877046.9168816     
   2618370110.2457113     
   2626966729.0718470     
   2644709951.6300159     
   2641496950.9229021     
   2636086086.1803107     
   2639757391.6741662     
   2652522527.1727858     
   2674391989.5857973     
   2671837129.3472109     
   2668213571.9028301     
   2673765687.1418524     
   2688493475.0642734     
   2712396935.6700940     
   2613322107.4386840     
   2595924687.1955318     
   2588958764.3074446     
   2592566974.0817294     
   2606867052.5884562     
   2624115138.0023403     
   2613777531.4560728     
   2613573401.8729682     
   2623578059.0274515     
   2643851879.1241989     
   2644709951.6300159     
   2639724204.2253728     
   2644664506.3713431     
   2659562363.3879256     
   2684442393.0534687     
   2674391989.5857973     
   2673043002.5146465     
   2681529764.7023444     
   2699859746.7857542     
   2728038663.9793429     
   2712396935.6700940     
   2712998044.4726081     
   2723478973.4558272     
   2743839722.6197510     
   2774080291.9643769     
   2606867052.5884562     
   2594132629.4859304     
   2592568050.6992168     
   2602253440.7533612     
   2623285172.1610279     
   2643851879.1241989     
   2632927888.9418736     
   2632299906.3333740     
   2642007472.5313082     
   2662100903.7597594     
   2684442393.0534687     
   2675009832.8936372     
   2675180557.7227917     
   2684969914.2473812     
   2704398612.9376678     
   2728038663.9793429     
   2719940059.8389149     
   2720912342.3386002     
   2730958835.3267517     
   2750084314.8408370     
   2774080291.9643769     
   2767304844.7027988     
   2769209815.9367414     
   2779795205.6662011     
   2799061013.8911881     
   2623285172.1610279     
   2584893671.5993338     
   2552371632.2329845     
   2526300489.3841257     
   2507488838.6877618     
   2662100903.7597594     
   2616738449.4809799     
   2577029990.2380695     
   2543306463.1436563     
   2516030425.5978856     
   2704398612.9376678     
   2654160193.0203876     
   2609502792.0164542     
   2570573871.3551083     
   2537580087.6170731     
   2750084314.8408370     
   2697068904.8721771     
   2649703871.9496145     
   2608025850.1039124     
   2572086188.1621318     
   2799061013.8911881     
   2745365705.2695718     
   2697532380.7752595     
   2655561040.4082417     
   2619451684.1685052     
   2507488838.6877618     
   2357135808.9625568     
   2214962497.8674502     
   2085949648.6532085     
   1976972933.7244701     
   2516030425.5978856     
   2348163892.6099114     
   2183860507.7984676     
   2026220461.2335732     
   1879808331.9346626     
   2537580087.6170731     
   2357289601.2986536     
   2176740617.9349122     
   1997404790.2601612     
   1821559954.9969482     
   2572086188.1621318     
   2384616132.9380336     
   2194069337.3720078     
   2000824068.1731055     
   1805484204.1879957     
   2619451684.1685052     
   2430111881.5409651     
   2235988879.3712821     
   2037082677.6594932     
   1833393276.4055774     
   2642482553.2085328     
   2630785457.2366138     
   2627687325.1885071     
   2633188157.0642128     
   2647287952.8637338     
   2631068593.4224510     
   2618513519.3799777     
   2614132919.7973819     
   2617942658.9211993     
   2629958924.7277327     
   2671831458.4326162     
   2655295256.2135830     
   2646443428.3094068     
   2645333084.7717667     
   2652023077.4671040     
   2761968421.2618899     
   2738896066.4999137     
   2722952446.0648909     
   2714248071.0726018     
   2712898478.9950695     
   2896409753.1890907     
   2864978128.7295799     
   2840062198.2355995     
   2821823991.2240667     
   2810435746.5977035     
   2647287952.8637338     
   2637500968.4186392     
   2635567622.0966215     
   2641487913.8976808     
   2655261843.8218131     
   2629958924.7277327     
   2618236912.4560642     
   2614504573.3758516     
   2618775385.5310197     
   2631062973.8114858     
   2652023077.4671040     
   2635453858.3301620     
   2626960550.4775743     
   2626597425.8035574     
   2634419970.2042265     
   2712898478.9950695     
   2688755547.9546890     
   2672700471.0409422     
   2664852044.0146379     
   2665333796.7893090     
   2810435746.5977035     
   2776365459.6370425     
   2750298025.2622728     
   2732431857.5187349     
   2722977690.4737744     
   2655261843.8218131     
   2646306251.6503754     
   2646083601.8474636     
   2654593894.4130774     
   2671837129.3472109     
   2631062973.8114858     
   2620762644.5475039     
   2619059625.7080383     
   2625966919.1004844     
   2641496952.1625643     
   2634419970.2042265     
   2620155792.1688991     
   2614370676.1517577     
   2617115731.0652404     
   2628440330.8715410     
   2665333796.7893090     
   2644675925.5245924     
   2632371876.1271596     
   2628532636.8138442     
   2633267138.2902303     
   2722977690.4737744     
   2693816006.8647943     
   2672846568.9791169     
   2660255815.9594870     
   2656230391.4812508     
   2671837129.3472109     
   2668213571.9028301     
   2673765687.1418524     
   2688493475.0642734     
   2712396935.6700940     
   2641496952.1625643     
   2636086087.0622983     
   2639757392.2648687     
   2652522527.5379529     
   2674391989.7916393     
   2628440330.8715410     
   2618877048.6200776     
   2618370111.3270240     
   2626966729.6651554     
   2644709951.8710637     
   2633267138.2902303     
   2617267759.6383667     
   2610339284.6928530     
   2612588649.9799838     
   2624115138.0947514     
   2656230391.4812508     
   2631683601.6045861     
   2616225283.5325603     
   2610044838.2393498     
   2613322107.1899023     
   2712396935.6700940     
   2712998044.4726081     
   2723478973.4558272     
   2743839722.6197510     
   2774080291.9643769     
   2674391989.7916393     
   2673043002.6421232     
   2681529764.7441201     
   2699859746.7351975     
   2728038663.8303733     
   2644709951.8710637     
   2639724204.3634186     
   2644664506.3938742     
   2659562363.2831130     
   2684442392.8098865     
   2624115138.0947514     
   2613777531.4775610     
   2613573401.8079410     
   2623578058.8601179     
   2643851878.8383141     
   2613322107.1899023     
   2595924686.9654741     
   2588958764.0800009     
   2592566973.8387728     
   2606867052.3096271     
   2774080291.9643769     
   2767304844.7027988     
   2769209815.9367414     
   2779795205.6662011     
   2799061013.8911881     
   2728038663.8303733     
   2719940059.7472529     
   2720912342.3006659     
   2730958835.3386574     
   2750084314.8985906     
   2684442392.8098865     
   2675009832.7489443     
   2675180557.6692543     
   2684969914.2768121     
   2704398613.0416169     
   2643851878.8383141     
   2632927888.7815590     
   2632299906.2860489     
   2642007472.5838799     
   2662100903.8986917     
   2606867052.3096271     
   2594132629.3456326     
   2592568050.6791182     
   2602253440.8346243     
   2623285172.3241515     
   2799061013.8911881     
   2745365705.2695718     
   2697532380.7752595     
   2655561040.4082417     
   2619451684.1685052     
   2750084314.8985906     
   2697068904.9156094     
   2649703871.9799156     
   2608025850.1220994     
   2572086188.1689663     
   2704398613.0416169     
   2654160193.0996642     
   2609502792.0734868     
   2570573871.3920355     
   2537580087.6356483     
   2662100903.8986917     
   2616738449.5887089     
   2577029990.3183112     
   2543306463.1998024     
   2516030425.6329765     
   2623285172.3241515     
   2584893671.7283659     
   2552371632.3330259     
   2526300489.4599810     
   2507488838.7441268     
   2619451684.1685052     
   2430111881.5409651     
   2235988879.3712821     
   2037082677.6594932     
   1833393276.4055774     
   2572086188.1689663     
   2384616132.9426913     
   2194069337.3717608     
   2000824068.1642177     
   1805484204.1653051     
   2537580087.6356483     
   2357289601.3118086     
   2176740617.9373779     
   1997404790.2447515     
   1821559954.9537339     
   2516030425.6329765     
   2348163892.6354489     
   2183860507.8069038     
   2026220461.2147117     
   1879808331.8750422     
   2507488838.7441268     
   2357135809.0043359     
   2214962497.8851953     
   2085949648.6344333     
   1976972933.6532576     
   2896409753.1890907     
   2864978128.7295799     
   2840062198.2355995     
   2821823991.2240667     
   2810435746.5977035     
   3013316609.2489944     
   2969873636.8390064     
   2932862531.2357426     
   2902519182.4429817     
   2879104981.1126356     
   3175425194.0057721     
   3118292866.8381853     
   3067299828.4876957     
   3022744804.8172770     
   2984973150.7358646     
   3376984855.4318295     
   3304929430.0764542     
   3238552684.7924180     
   3178193806.1815066     
   3124262430.5649014     
   3612105388.3059754     
   3524237963.3694620     
   3441471829.5702906     
   3364159120.9085813     
   3292745368.3027935     
   2810435746.5977035     
   2776365459.6370425     
   2750298025.2622728     
   2732431857.5187349     
   2722977690.4737744     
   2879104981.1126356     
   2833765874.9431553     
   2795863092.4710603     
   2765670288.7597508     
   2743482917.9384208     
   2984973150.7358646     
   2927255264.3092651     
   2876330990.9268575     
   2832533445.2342367     
   2796230002.9818897     
   3124262430.5649014     
   3053642492.8564563     
   2989122088.6710086     
   2931069497.2478776     
   2879899974.6445403     
   3292745368.3027935     
   3209166843.0415773     
   3130978635.7038713     
   3058558159.9897594     
   2992339999.1614542     
   2722977690.4737744     
   2693816006.8647943     
   2672846568.9791169     
   2660255815.9594870     
   2656230391.4812508     
   2743482917.9384208     
   2703076407.2503848     
   2670541023.3913531     
   2646156345.6727014     
   2630210865.7573490     
   2796230002.9818897     
   2742984122.1712618     
   2697145979.8335443     
   2659084895.9898887     
   2629194580.5389156     
   2879899974.6445403     
   2812778770.9418998     
   2752456335.6422310     
   2699372301.1351619     
   2654011229.0483737     
   2992339999.1614542     
   2910842795.0079937     
   2835414664.7013416     
   2766534218.8546262     
   2704746537.4325771     
   2656230391.4812508     
   2631683601.6045861     
   2616225283.5325603     
   2610044838.2393498     
   2613322107.1899023     
   2630210865.7573490     
   2594121440.7995381     
   2566902730.7384667     
   2548848502.6814308     
   2540246016.9591074     
   2629194580.5389156     
   2579890206.5913844     
   2539117608.7134681     
   2507284840.2937236     
   2484805063.4023056     
   2654011229.0483737     
   2590283711.2332311     
   2534586109.8512311     
   2487432906.1646676     
   2449365110.9702005     
   2704746537.4325771     
   2625919151.6141992     
   2554447145.6319709     
   2490923388.1738095     
   2435995886.6257610     
   2613322107.1899023     
   2595924686.9654741     
   2588958764.0800009     
   2592566973.8387728     
   2606867052.3096271     
   2540246016.9591074     
   2511889795.0145631     
   2493745787.4758296     
   2486068913.7328305     
   2489080984.7040424     
   2484805063.4023056     
   2443354668.9433546     
   2411802145.6022878     
   2390545893.3078113     
   2379952363.2176418     
   2449365110.9702005     
   2393040497.5565777     
   2346108521.7038469     
   2309127335.0837369     
   2282640469.1686096     
   2435995886.6257610     
   2363551499.9919443     
   2299728469.5060863     
   2245231886.9881830     
   2200789242.3071046     
   2606867052.3096271     
   2594132629.3456326     
   2592568050.6791182     
   2602253440.8346243     
   2623285172.3241515     
   2489080984.7040424     
   2469495952.2117724     
   2461864292.0748897     
   2466323696.6124339     
   2483009346.0239649     
   2379952363.2176418     
   2351240617.0110888     
   2335420121.4621263     
   2332742584.2359524     
   2343430056.1932559     
   2282640469.1686096     
   2242164001.6245213     
   2215610129.6188693     
   2203429731.3938036     
   2206011345.5232773     
   2200789242.3071046     
   2145621526.5116491     
   2105384990.0255082     
   2080846402.8559060     
   2072683372.0495489     
   2623285172.3241515     
   2584893671.7283659     
   2552371632.3330259     
   2526300489.4599810     
   2507488838.7441268     
   2483009346.0239649     
   2450410702.0588231     
   2426359759.2045612     
   2411801999.8453264     
   2408114137.8667636     
   2343430056.1932559     
   2319067889.8684587     
   2306232534.8204746     
   2306329728.1831145     
   2321447717.9065351     
   2206011345.5232773     
   2191647281.0774107     
   2192274443.7977324     
   2209862465.7535014     
   2247330943.2156181     
   2072683372.0495489     
   2069124586.4283171     
   2084804912.3181684     
   2122356758.6632335     
   2185592066.9159923     
   2507488838.7441268     
   2357135809.0043359     
   2214962497.8851953     
   2085949648.6344333     
   1976972933.6532576     
   2408114137.8667636     
   2282820430.9474072     
   2168038646.0945606     
   2070507733.1336951     
   1998993484.3513629     
   2321447717.9065351     
   2224723080.0195112     
   2141332260.3997211     
   2079638196.5536804     
   2049808628.6602199     
   2247330943.2156181     
   2182634000.0535154     
   2134372604.3295436     
   2112210112.0453620     
   2127076330.0583532     
   2185592066.9159923     
   2156258946.5757952     
   2146512690.9408455     
   2166872652.4650421     
   2228405468.3698859     
   3612105388.3059754     
   3524237963.3694620     
   3441471829.5702906     
   3364159120.9085813     
   3292745368.3027935     
   3835955580.3873506     
   3733001890.0117655     
   3634173401.0387530     
   3539786708.5838518     
   3450240974.7298951     
   4086904451.1099949     
   3970129183.5778580     
   3856698570.6658115     
   3746878262.4576340     
   3641004049.8996892     
   4359918980.3968935     
   4230649936.3031168     
   4104144693.5396905     
   3980613677.6729937     
   3860325637.0208373     
   4650812553.0278835     
   4510341851.1305218     
   4372242750.9003029     
   4236672613.7209592     
   4103837635.3577991     
   3292745368.3027935     
   3209166843.0415773     
   3130978635.7038713     
   3058558159.9897594     
   2992339999.1614542     
   3450240974.7298951     
   3352867067.8678355     
   3260091064.8488383     
   3172291374.7551174     
   3089918229.4353209     
   3641004049.8996892     
   3529911061.0995874     
   3422588135.7790508     
   3319385874.1876602     
   3220735450.4394054     
   3860325637.0208373     
   3735807849.2711172     
   3614246406.3079572     
   3495943269.2325897     
   3381283208.7692933     
   4103837635.3577991     
   3966300894.9131274     
   3830955516.0876012     
   3698042982.9913788     
   3567884336.0746613     
   2992339999.1614542     
   2910842795.0079937     
   2835414664.7013416     
   2766534218.8546262     
   2704746537.4325771     
   3089918229.4353209     
   2993516440.3531384     
   2902349353.4521713     
   2816895956.8040047     
   2737720137.5666718     
   3220735450.4394054     
   3109907254.1378613     
   3003448368.8938394     
   2901800229.5613036     
   2805499595.9057665     
   3381283208.7692933     
   3256774188.8047638     
   3135802660.7610416     
   3018745587.2456579     
   2906076149.8307700     
   3567884336.0746613     
   3430562352.1716309     
   3296026791.6768498     
   3164577125.9045200     
   3036602035.9515963     
   2704746537.4325771     
   2625919151.6141992     
   2554447145.6319709     
   2490923388.1738095     
   2435995886.6257610     
   2737720137.5666718     
   2643153470.8541040     
   2554784790.7324805     
   2473239017.4747691     
   2399231156.6039553     
   2805499595.9057665     
   2695675678.9622741     
   2590759899.5071993     
   2491335646.4357905     
   2398100132.4504638     
   2906076149.8307700     
   2782136758.6232252     
   2661805558.2779155     
   2545562424.4049077     
   2434004494.5387063     
   3036602035.9515963     
   2900129230.7320671     
   2766072538.5677233     
   2634775954.3796725     
   2506684617.9316964     
   2435995886.6257610     
   2363551499.9919443     
   2299728469.5060863     
   2245231886.9881830     
   2200789242.3071046     
   2399231156.6039553     
   2308973360.3726010     
   2226368003.7440357     
   2152217639.0459290     
   2087401498.0465293     
   2398100132.4504638     
   2290447023.8388920     
   2189181657.1107469     
   2095106362.0196335     
   2009154976.6832185     
   2434004494.5387063     
   2310293477.5260158     
   2191555576.1862712     
   2078479044.1828697     
   1971911970.8127866     
   2506684617.9316964     
   2368990456.3535910     
   2234910596.5237098     
   2104938513.0507817     
   1979715143.4471169     
   2200789242.3071046     
   2145621526.5116491     
   2105384990.0255082     
   2080846402.8559060     
   2072683372.0495489     
   2087401498.0465293     
   2012306307.2734683     
   1949575675.8560317     
   1900290139.7618341     
   1865479901.4923003     
   2009154976.6832185     
   1912682261.3996356     
   1824999822.7743607     
   1747311409.1373458     
   1680912631.5326724     
   1971911970.8127866     
   1855623800.7120810     
   1743723122.5141494     
   1637136335.1073823     
   1537001009.8649535     
   1979715143.4471169     
   1848726252.1659963     
   1717784802.0908155     
   1587243858.2363608     
   1457617959.7786140     
   2072683372.0495489     
   2069124586.4283171     
   2084804912.3181684     
   2122356758.6632335     
   2185592066.9159923     
   1865479901.4923003     
   1854933742.9860737     
   1867359544.9904487     
   1904966620.1603773     
   1970786182.0133879     
   1680912631.5326724     
   1652396582.0552599     
   1651600353.4417202     
   1680892767.2967465     
   1742882518.1797166     
   1537001009.8649535     
   1476125958.9521475     
   1447943280.5046875     
   1456419250.3322144     
   1504848726.4100308     
   1457617959.7786140     
   1348593065.2631774     
   1274552802.1724131     
   1243624862.0107298     
   1262851857.3588958     
   2185592066.9159923     
   2156258946.5757952     
   2146512690.9408455     
   2166872652.4650421     
   2228405468.3698859     
   1970786182.0133879     
   1968935837.1596577     
   2003620376.2096238     
   2093513399.3859918     
   2257275032.5365791     
   1742882518.1797166     
   1787699229.2519295     
   1884651664.5680606     
   2060652028.5809014     
   2340934827.2863517     
   1504848726.4100308     
   1613264532.8457911     
   1788866162.3451118     
   2066409565.0274651     
   2476108553.1497140     
   1262851857.3588958     
   1446673194.5788314     
   1715699217.9179771     
   2110517701.6725516     
   2663577664.7602906     
   4650812553.0278835     
   4510341851.1305218     
   4372242750.9003029     
   4236672613.7209592     
   4103837635.3577991     
   4945185387.5942831     
   4795001517.5689545     
   4646234308.5952053     
   4499004978.7509937     
   4353476891.4150410     
   5263775920.1959696     
   5104094804.0000820     
   4944926114.0163231     
   4786344682.6419477     
   4628462802.6489248     
   5602272883.1690016     
   5433427286.0399141     
   5264257087.7750778     
   5094785548.6079063     
   4925071073.5885820     
   5957115204.0317430     
   5779515724.0630083     
   5600831703.5750341     
   5421033435.0289774     
   5240126711.6863556     
   4103837635.3577991     
   3966300894.9131274     
   3830955516.0876012     
   3698042982.9913788     
   3567884336.0746613     
   4353476891.4150410     
   4202667274.8809938     
   4053455754.7815142     
   3906007987.8605666     
   3760558302.2327199     
   4628462802.6489248     
   4465194616.8553143     
   4303045712.4959993     
   4142113046.0824037     
   3982550868.8434882     
   4925071073.5885820     
   4749992513.0933323     
   4575660358.7739906     
   4402113231.2780647     
   4229436827.5230250     
   5240126711.6863556     
   5053721215.2685184     
   4867780610.1789694     
   4682296060.4280043     
   4497297521.1603336     
   3567884336.0746613     
   3430562352.1716309     
   3296026791.6768498     
   3164577125.9045200     
   3036602035.9515963     
   3760558302.2327199     
   3610891125.9263768     
   3463145850.6906075     
   3317538658.9593835     
   3174367577.4904613     
   3982550868.8434882     
   3821180118.9913578     
   3660951010.0169864     
   3501993783.4452624     
   3344508107.3430505     
   4229436827.5230250     
   4056967613.5717154     
   3884962028.5928373     
   3713470684.8776393     
   3542599465.9073634     
   4497297521.1603336     
   4314260071.2746592     
   4131113201.2239976     
   3947838921.5873895     
   3764461004.5747805     
   3036602035.9515963     
   2900129230.7320671     
   2766072538.5677233     
   2634775954.3796725     
   2506684617.9316964     
   3174367577.4904613     
   3026491414.9895124     
   2880446856.0664744     
   2736475528.9515071     
   2594909290.9467616     
   3344508107.3430505     
   3185882999.8390312     
   3028568632.6859360     
   2872707085.1546259     
   2718516897.1044054     
   3542599465.9073634     
   3373607682.0847173     
   3205476046.5748110     
   3038258490.6264949     
   2872072474.8422942     
   3764461004.5747805     
   3585207284.3555865     
   3406426223.5197878     
   3228098120.3526659     
   3050256706.9149065     
   2506684617.9316964     
   2368990456.3535910     
   2234910596.5237098     
   2104938513.0507817     
   1979715143.4471169     
   2594909290.9467616     
   2447405568.9795761     
   2302025800.5102344     
   2159076765.8994584     
   2018971877.1718400     
   2718516897.1044054     
   2563367987.2220774     
   2409172854.9270706     
   2256070848.7878547     
   2104257940.0818901     
   2872072474.8422942     
   2711546845.2700768     
   2551174479.3947911     
   2390986389.6632080     
   2231033628.4399242     
   3050256706.9149065     
   2886510950.2985826     
   2722460175.5977330     
   2558093295.3781347     
   2393404266.7859654     
   1979715143.4471169     
   1848726252.1659963     
   1717784802.0908155     
   1587243858.2363608     
   1457617959.7786140     
   2018971877.1718400     
   1881817203.1398287     
   1744972099.8461306     
   1608568352.3966660     
   1472787449.1140404     
   2104257940.0818901     
   1963587963.6558688     
   1823840858.4988251     
   1685049946.0115278     
   1547275983.0055537     
   2231033628.4399242     
   2087778572.4996169     
   1946121950.1875770     
   1806067395.4930396     
   1667690627.8563142     
   2393404266.7859654     
   2246864422.9222207     
   2102441861.9377873     
   1960141100.4056687     
   1820125206.2840223     
   1457617959.7786140     
   1348593065.2631774     
   1274552802.1724131     
   1243624862.0107298     
   1262851857.3588958     
   1472787449.1140404     
   1328554718.9294009     
   1198790316.5142238     
   1087975017.6861188     
   1002015279.7002922     
   1547275983.0055537     
   1397433848.8814952     
   1244043949.6037745     
   1084832582.4759369     
   917767859.67859530     
   1667690627.8563142     
   1552348970.0721490     
   1427922482.9516380     
   1294761288.1016264     
   1158976698.4700129     
   1820125206.2840223     
   1779582651.2903385     
   1735575725.3348856     
   1696711148.0738282     
   1681448497.3484154     
   1262851857.3588958     
   1446673194.5788314     
   1715699217.9179771     
   2110517701.6725516     
   2663577664.7602906     
   1002015279.7002922     
   1164713643.1698549     
   1425442549.0286562     
   1808783004.9192421     
   2334813265.1410885     
   917767859.67859530     
   963162447.84307897     
   1144955745.1692228     
   1476501593.3431857     
   1957470659.0906510     
   1158976698.4700129     
   1008515557.2638230     
   985255433.41067910     
   1161469413.3439419     
   1544055451.6734843     
   1681448497.3484154     
   1383881036.2166209     
   1129512761.7798274     
   1010058311.6185699     
   1152827794.4098637     
 </DataArray>
 <DataArray  type="Float64" Name="strain" NumberOfComponents="3" format="ascii">
   9.9324847384917536E-002  -2.9608729276869972E-002   8.7776056414079484E-004
   9.6323715137052623E-002  -2.8900551840162270E-002   5.8626457355992478E-004
   9.3322582889187489E-002  -2.8106186012188672E-002   4.6229704259270754E-004
   9.0321450641322465E-002  -2.7225631792948610E-002   5.0585797123908760E-004
   8.7320318393457441E-002  -2.6258889182442680E-002   7.1694735949900945E-004
   9.3248761940889602E-002  -2.7874960373143298E-002   7.7895839038633063E-003
   9.0413283705350900E-002  -2.7138398473557090E-002   7.5738989075808116E-003
   8.7577805469812253E-002  -2.6348741299446199E-002   7.5219934763376961E-003
   8.4742327234273551E-002  -2.5505988850810846E-002   7.6338676101337377E-003
   8.1906848998734849E-002  -2.4610141127650753E-002   7.9095213089687144E-003
   8.7180720105552001E-002  -2.6141191469416847E-002   1.4746338264835124E-002
   8.4507146987765180E-002  -2.5376245106951800E-002   1.4573371146110015E-002
   8.1833573869978360E-002  -2.4591296586703754E-002   1.4560434697849206E-002
   7.9160000752191428E-002  -2.3786345908672756E-002   1.4707528920052948E-002
   7.6486427634404663E-002  -2.2961393072858716E-002   1.5014653812721379E-002
   8.1120721878905205E-002  -2.4407422565690284E-002   2.1748023647056816E-002
   7.8605304984295535E-002  -2.3614091740346510E-002   2.1584681289146868E-002
   7.6089888089685948E-002  -2.2833851873961183E-002   2.1577620707127106E-002
   7.3574471195076291E-002  -2.2066702966534662E-002   2.1726841900997235E-002
   7.1059054300466717E-002  -2.1312645018066789E-002   2.2032344870757239E-002
   7.5068767260948743E-002  -2.2673653661963722E-002   2.8794640050527731E-002
   7.2707757694941866E-002  -2.1851938373741275E-002   2.8607829336691704E-002
   7.0346748128934961E-002  -2.1076407161218766E-002   2.8573551504171263E-002
   6.7985738562928014E-002  -2.0347060024396745E-002   2.8691806552966173E-002
   6.5624728996921178E-002  -1.9663896963274752E-002   2.8962594483076365E-002
   8.7320318393457441E-002  -2.6258889182442680E-002   7.1694735949900945E-004
   8.4228854493956395E-002  -2.5265237800735141E-002   4.7081920451352843E-004
   8.1137390594455350E-002  -2.4303957267890419E-002   4.1349175714971986E-004
   7.8045926694954304E-002  -2.3375047583908334E-002   5.4496501740763925E-004
   7.4954462795453258E-002  -2.2478508748789428E-002   8.6523898528723109E-004
   8.1906848998734849E-002  -2.4610141127650753E-002   7.9095213089687144E-003
   7.9004004877319095E-002  -2.3697464648532118E-002   7.6303559491037176E-003
   7.6101160755903369E-002  -2.2804225932021374E-002   7.5396294377875483E-003
   7.3198316634487573E-002  -2.1930424978117955E-002   7.6373417750207201E-003
   7.0295472513071833E-002  -2.1076061786822531E-002   7.9234929608021920E-003
   7.6486427634404663E-002  -2.2961393072858716E-002   1.5014653812721379E-002
   7.3771841432001342E-002  -2.2129691496329568E-002   1.4715384334232431E-002
   7.1057255229597965E-002  -2.1304494596152551E-002   1.4604191845219550E-002
   6.8342669027194672E-002  -2.0485802372327909E-002   1.4681076345682352E-002
   6.5628082824791323E-002  -1.9673614824855468E-002   1.4946037835621262E-002
   7.1059054300466717E-002  -2.1312645018066789E-002   2.2032344870757239E-002
   6.8532364158002929E-002  -2.0561918344126726E-002   2.1725904359899611E-002
   6.6005674015539140E-002  -1.9804763260283728E-002   2.1607178979444884E-002
   6.3478983873075365E-002  -1.9041179766537585E-002   2.1676168729393347E-002
   6.0952293730611548E-002  -1.8271167862888432E-002   2.1932873609744816E-002
   6.5624728996921178E-002  -1.9663896963274752E-002   2.8962594483076365E-002
   6.3285573055324007E-002  -1.8994145191923856E-002   2.8661916026105155E-002
   6.0946417113726892E-002  -1.8305031924414794E-002   2.8548590840464044E-002
   5.8607261172129776E-002  -1.7596557160747123E-002   2.8622618926153337E-002
   5.6268105230532606E-002  -1.6868720900921508E-002   2.8884000283172895E-002
   7.4954462795453258E-002  -2.2478508748789428E-002   8.6523898528723109E-004
   7.1898409013130660E-002  -2.1591942240919815E-002   5.6776585671425295E-004
   6.8842355230808061E-002  -2.0692949538686112E-002   4.5798754740550285E-004
   6.5786301448485462E-002  -1.9781530642088388E-002   5.3590405736109181E-004
   6.2730247666162864E-002  -1.8857685551126768E-002   8.0151538658002064E-004
   7.0295472513071833E-002  -2.1076061786822531E-002   7.9234929608021920E-003
   6.7424983791609550E-002  -2.0227751689592510E-002   7.6253695523465503E-003
   6.4554495070147239E-002  -1.9372110017886301E-002   7.5106814463482829E-003
   6.1684006348684997E-002  -1.8509136771703405E-002   7.5794286428061269E-003
   5.8813517627222700E-002  -1.7638831951045097E-002   7.8316111417207068E-003
   6.5628082824791323E-002  -1.9673614824855468E-002   1.4946037835621262E-002
   6.2938899647382071E-002  -1.8863561138265011E-002   1.4642169527395305E-002
   6.0249716469972708E-002  -1.8051270497086130E-002   1.4517477004818979E-002
   5.7560533292563429E-002  -1.7236742901318859E-002   1.4571960267891912E-002
   5.4871350115154094E-002  -1.6419978350963149E-002   1.4805619316613977E-002
   6.0952293730611548E-002  -1.8271167862888432E-002   2.1932873609744816E-002
   5.8440156580447974E-002  -1.7499370586937499E-002   2.1618165781860668E-002
   5.5928019430284366E-002  -1.6730430976286140E-002   2.1478374222818598E-002
   5.3415882280120827E-002  -1.5964349030934095E-002   2.1513498932618582E-002
   5.0903745129957184E-002  -1.5201124750881340E-002   2.1723539911260532E-002
   5.6268105230532606E-002  -1.6868720900921508E-002   2.8884000283172895E-002
   5.3928754590807426E-002  -1.6135180035610208E-002   2.8553358315742516E-002
   5.1589403951082274E-002  -1.5409591455486038E-002   2.8393373100346952E-002
   4.9250053311357081E-002  -1.4691955160549330E-002   2.8404044636986106E-002
   4.6910702671631943E-002  -1.3982271150799530E-002   2.8585372925660102E-002
   6.2730247666162864E-002  -1.8857685551126768E-002   8.0151538658002064E-004
   5.9748389636396282E-002  -1.7943265237937989E-002   5.0359084089024453E-004
   5.6766531606629755E-002  -1.7060120674660756E-002   3.9266147864397416E-004
   5.3784673576863229E-002  -1.6208251861293370E-002   4.6872729984148709E-004
   5.0802815547096647E-002  -1.5387658797836323E-002   7.3178830448283883E-004
   5.8813517627222700E-002  -1.7638831951045097E-002   7.8316111417207068E-003
   5.6012283243113470E-002  -1.6773763690884069E-002   7.4773373624242301E-003
   5.3211048859004184E-002  -1.5926500126194537E-002   7.2973156909989512E-003
   5.0409814474894898E-002  -1.5097041256976744E-002   7.2915461274440374E-003
   4.7608580090785668E-002  -1.4285387083230461E-002   7.4600286717598774E-003
   5.4871350115154094E-002  -1.6419978350963149E-002   1.4805619316613977E-002
   5.2237996301128992E-002  -1.5604262143829428E-002   1.4408467358150850E-002
   4.9604642487103834E-002  -1.4792879577728776E-002   1.4172824431985157E-002
   4.6971288673078787E-002  -1.3985830652660122E-002   1.4098690538116708E-002
   4.4337934859053602E-002  -1.3183115368624820E-002   1.4186065676546178E-002
   5.0903745129957184E-002  -1.5201124750881340E-002   2.1723539911260532E-002
   4.8425528810443007E-002  -1.4434760596775370E-002   2.1296980828069030E-002
   4.5947312490928857E-002  -1.3659259029262787E-002   2.1019187701602025E-002
   4.3469096171414638E-002  -1.2874620048344164E-002   2.0890160531859200E-002
   4.0990879851900475E-002  -1.2080843654018958E-002   2.0909899318841060E-002
   4.6910702671631943E-002  -1.3982271150799530E-002   2.8585372925660102E-002
   4.4574880771055508E-002  -1.3265259049720923E-002   2.8142877772179498E-002
   4.2239058870479074E-002  -1.2525638480797241E-002   2.7836405499850336E-002
   3.9903236969902667E-002  -1.1763409444027706E-002   2.7665956108671869E-002
   3.7567415069326204E-002  -1.0978571939413317E-002   2.7631529598644899E-002
   5.0802815547096647E-002  -1.5387658797836323E-002   7.3178830448283883E-004
   4.8074852705241700E-002  -1.4569914329638278E-002   4.7712965035429100E-004
   4.5346889863386808E-002  -1.3726591302047064E-002   2.7438121176992514E-004
   4.2618927021531861E-002  -1.2857689715064194E-002   1.2354298873146208E-004
   3.9890964179676969E-002  -1.1963209568687239E-002   2.4614981237069955E-005
   4.7608580090785668E-002  -1.4285387083230461E-002   7.4600286717598774E-003
   4.4941540317518125E-002  -1.3476627652230788E-002   7.1567699799386375E-003
   4.2274500544250637E-002  -1.2655853011251439E-002   6.9234472097473576E-003
   3.9607460770983094E-002  -1.1823063160292677E-002   6.7600603611856491E-003
   3.6940420997715551E-002  -1.0978258099355154E-002   6.6666094342541227E-003
   4.4337934859053602E-002  -1.3183115368624820E-002   1.4186065676546178E-002
   4.1749843860458435E-002  -1.2383340974822743E-002   1.3820643597618421E-002
   3.9161752861863353E-002  -1.1585114720454898E-002   1.3543183146405763E-002
   3.6573661863268200E-002  -1.0788436605522263E-002   1.3353684322908191E-002
   3.3985570864673131E-002  -9.9933066300231799E-003   1.3252147127125635E-002
   4.0990879851900475E-002  -1.2080843654018958E-002   2.0909899318841060E-002
   3.8499763334062770E-002  -1.1290054297414753E-002   2.0468750503393598E-002
   3.6008646816225121E-002  -1.0514376429658814E-002   2.0133589021745883E-002
   3.3517530298387443E-002  -9.7538100507508531E-003   1.9904414873898300E-002
   3.1026413780549759E-002  -9.0083551606913725E-003   1.9781228059851094E-002
   3.7567415069326204E-002  -1.0978571939413317E-002   2.7631529598644899E-002
   3.5191298738331045E-002  -1.0196767620006986E-002   2.7101090697264019E-002
   3.2815182407335802E-002  -9.4436381388626200E-003   2.6694664835767767E-002
   3.0439066076340601E-002  -8.7191834959800818E-003   2.6412252014156784E-002
   2.8062949745345345E-002  -8.0234036913593432E-003   2.6253852232430708E-002
   3.9890964179676969E-002  -1.1963209568687239E-002   2.4614981237069955E-005
   3.7470389972984131E-002  -1.1135461989076223E-002  -2.7134805430550912E-004
   3.5049815766291348E-002  -1.0466758102387563E-002  -4.7725489894501205E-004
   3.2629241559598593E-002  -9.9570979086221895E-003  -5.9310555268166087E-004
   3.0208667352905727E-002  -9.6064814077805316E-003  -6.1890001551612173E-004
   3.6940420997715551E-002  -1.0978258099355154E-002   6.6666094342541227E-003
   3.4591987511339906E-002  -1.0179523473064167E-002   6.2168240909470374E-003
   3.2243554024964205E-002  -9.4849449260441809E-003   5.8212639973707070E-003
   2.9895120538588532E-002  -8.8945224582962085E-003   5.4799291535262695E-003
   2.7546687052212804E-002  -8.4082560698204301E-003   5.1928195594128645E-003
   3.3985570864673131E-002  -9.9933066300231799E-003   1.3252147127125635E-002
   3.1673447157442719E-002  -9.2235849570521111E-003   1.2703427089705788E-002
   2.9361323450212432E-002  -8.5031317497012704E-003   1.2173101360844957E-002
   2.7049199742982068E-002  -7.8319470079700124E-003   1.1661169940543878E-002
   2.4737076035751676E-002  -7.2100307318596624E-003   1.1167632828801566E-002
   3.1026413780549759E-002  -9.0083551606913725E-003   1.9781228059851094E-002
   2.8714768911292911E-002  -8.2676464410403883E-003   1.9188460941969396E-002
   2.6403124042036017E-002  -7.5213185733579019E-003   1.8578257191475607E-002
   2.4091479172779179E-002  -6.7693715576439238E-003   1.7950616808369655E-002
   2.1779834303522337E-002  -6.0118053938992277E-003   1.7305539792650815E-002
   2.8062949745345345E-002  -8.0234036913593432E-003   2.6253852232430708E-002
   2.5715952772890183E-002  -7.3117079250283323E-003   2.5671925647739124E-002
   2.3368955800435048E-002  -6.5395053970144223E-003   2.5036731489263830E-002
   2.1021958827979900E-002  -5.7067961073176965E-003   2.4348269757004021E-002
   1.8674961855524697E-002  -4.8135800559387931E-003   2.3606540450960334E-002
   3.0208667352905727E-002  -9.6064814077805316E-003  -6.1890001551612173E-004
   2.9602249050072915E-002  -9.1330803346568734E-003  -3.6838549250628461E-004
   2.8995830747240048E-002  -8.2550664240451654E-003  -1.7998085559394195E-003
   2.8389412444407208E-002  -6.9724396759479890E-003  -4.9131692058154153E-003
   2.7782994141574369E-002  -5.2852000903627072E-003  -9.7084674421352712E-003
   2.7546687052212804E-002  -8.4082560698204301E-003   5.1928195594128645E-003
   2.5527807325988250E-002  -7.8698516453378220E-003   5.8717020240914852E-003
   2.3508927599763668E-002  -7.1230150695713590E-003   5.4075992284295382E-003
   2.1490047873539045E-002  -6.1677463425209300E-003   3.8005111724272733E-003
   1.9471168147314422E-002  -5.0040454641862020E-003   1.0504378560840522E-003
   2.4737076035751676E-002  -7.2100307318596624E-003   1.1167632828801566E-002
   2.1844687212237979E-002  -6.6066229560186041E-003   1.2078702548945608E-002
   1.8952298388724295E-002  -5.9909637150968309E-003   1.2385739334852042E-002
   1.6059909565210591E-002  -5.3630530090938572E-003   1.2088743186520617E-002
   1.3167520741696914E-002  -4.7228908380096968E-003   1.1187714103951252E-002
   2.1779834303522337E-002  -6.0118053938992277E-003   1.7305539792650815E-002
   1.8552888708822116E-002  -5.3433942666995804E-003   1.8252616082057513E-002
   1.5325943114121918E-002  -4.8589123606222195E-003   1.9134611763328910E-002
   1.2098997519421820E-002  -4.5583596756665692E-003   1.9951526836465054E-002
   8.8720519247214996E-003  -4.4417362118331916E-003   2.0703361301466494E-002
   1.8674961855524697E-002  -4.8135800559387931E-003   2.3606540450960334E-002
   1.5652411815740619E-002  -4.0801655773806123E-003   2.4393442623426020E-002
   1.2629861775956652E-002  -3.7268610061475527E-003   2.5654216513859907E-002
   9.6073117361726301E-003  -3.7536663422398781E-003   2.7388862122260577E-002
   6.5847616963886080E-003  -4.1605815856566863E-003   2.9597379448629502E-002
   2.7782994141574369E-002  -5.2852000903627072E-003  -9.7084674421352712E-003
   2.3355255094129612E-002  -4.2077521821786146E-003  -4.1847224452726817E-003
   1.8927516046684856E-002  -4.7545004662843393E-003   2.6039608436922990E-003
   1.4499776999240044E-002  -6.9254449426792708E-003   1.0657582424759005E-002
   1.0072037951795343E-002  -1.0720585611363909E-002   1.9976142297927879E-002
   1.9471168147314422E-002  -5.0040454641862020E-003   1.0504378560840522E-003
   1.6235856935496673E-002  -4.6914357349272517E-003   6.7424456642518615E-003
   1.3000545723678758E-002  -6.2894404551018801E-003   1.3554370851571407E-002
   9.7652345118610373E-003  -9.7980596247096846E-003   2.1486213418042854E-002
   6.5299233000430945E-003  -1.5217293243753538E-002   3.0537973363666371E-002
   1.3167520741696914E-002  -4.7228908380096968E-003   1.1187714103951252E-002
   1.0979616452555685E-002  -5.1751192876746677E-003   1.6761566466280131E-002
   8.7917121634145112E-003  -7.8243804439187548E-003   2.3310315294809758E-002
   6.6038078742732681E-003  -1.2670674306740765E-002   3.0833960589541298E-002
   4.4159035851321637E-003  -1.9714000876142723E-002   3.9332502350474474E-002
   8.8720519247214996E-003  -4.4417362118331916E-003   2.0703361301466494E-002
   7.5865336453066617E-003  -5.6588028404226942E-003   2.5872639960810948E-002
   6.3010153658917753E-003  -9.3593204327357404E-003   3.1871794173406562E-002
   5.0154970864769548E-003  -1.5543288988772178E-002   3.8700823939253823E-002
   3.7299788070620371E-003  -2.4210708508531908E-002   4.6359729258351579E-002
   6.5847616963886080E-003  -4.1605815856566863E-003   2.9597379448629502E-002
   6.0566085137497283E-003  -6.1424863931706097E-003   3.4075666147845296E-002
   5.5284553311109319E-003  -1.0894260421552560E-002   3.9238807487361749E-002
   5.0003021484720661E-003  -1.8415903670802716E-002   4.5086803467179526E-002
   4.4721489658332558E-003  -2.8707416140921538E-002   5.1619654087298183E-002
   7.5068767260948743E-002  -2.2673653661963722E-002   2.8794640050527731E-002
   7.2707757694941866E-002  -2.1851938373741275E-002   2.8607829336691704E-002
   7.0346748128934961E-002  -2.1076407161218766E-002   2.8573551504171263E-002
   6.7985738562928014E-002  -2.0347060024396745E-002   2.8691806552966173E-002
   6.5624728996921178E-002  -1.9663896963274752E-002   2.8962594483076365E-002
   6.8981987897794056E-002  -2.0719880093949594E-002   3.4262377628222429E-002
   6.6783258087732056E-002  -2.0019421362615947E-002   3.3973894580151431E-002
   6.4584528277670125E-002  -1.9340230775136441E-002   3.3857438162655185E-002
   6.2385798467608160E-002  -1.8682308331511237E-002   3.3913008375733397E-002
   6.0187068657546167E-002  -1.8045654031740077E-002   3.4140605219386000E-002
   6.2817515435552210E-002  -1.8766106525935494E-002   3.9596400683104757E-002
   6.0800559130694348E-002  -1.8186904351490799E-002   3.9231161232645334E-002
   5.8783602825836272E-002  -1.7604054389054179E-002   3.9057442162019236E-002
   5.6766646520978278E-002  -1.7017556638625732E-002   3.9075243471226775E-002
   5.4749690216120320E-002  -1.6427411100205291E-002   3.9284565160267765E-002
   5.6575349874223274E-002  -1.6812332957921353E-002   4.4796709215175590E-002
   5.4759660823828334E-002  -1.6354387340365574E-002   4.4379629294173169E-002
   5.2943971773433345E-002  -1.5867878002971830E-002   4.4173563502263778E-002
   5.1128282723038355E-002  -1.5352804945740140E-002   4.4178511839446398E-002
   4.9312593672643366E-002  -1.4809168168670617E-002   4.4394474305721868E-002
   5.0255491213807235E-002  -1.4858559389907267E-002   4.9863303224434052E-002
   4.8660563167134352E-002  -1.4521870329240405E-002   4.9419298764735220E-002
   4.7065635120461413E-002  -1.4131701616889550E-002   4.9205802183388020E-002
   4.5470707073788474E-002  -1.3688053252854732E-002   4.9222813480392300E-002
   4.3875779027115536E-002  -1.3190925237135775E-002   4.9470332655748295E-002
   6.5624728996921178E-002  -1.9663896963274752E-002   2.8962594483076365E-002
   6.3285573055324007E-002  -1.8994145191923856E-002   2.8661916026105155E-002
   6.0946417113726892E-002  -1.8305031924414794E-002   2.8548590840464044E-002
   5.8607261172129776E-002  -1.7596557160747123E-002   2.8622618926153337E-002
   5.6268105230532606E-002  -1.6868720900921508E-002   2.8884000283172895E-002
   6.0187068657546167E-002  -1.8045654031740077E-002   3.4140605219386000E-002
   5.8034462987407817E-002  -1.7413181504714659E-002   3.3855538707752597E-002
   5.5881857317269384E-002  -1.6767804379326984E-002   3.3756219467706419E-002
   5.3729251647130986E-002  -1.6109522655576532E-002   3.3842647499247598E-002
   5.1576645976992602E-002  -1.5438336333463587E-002   3.4114822802375877E-002
   5.4749690216120320E-002  -1.6427411100205291E-002   3.9284565160267765E-002
   5.2782028817697606E-002  -1.5832217817505476E-002   3.9008653696176551E-002
   5.0814367419274892E-002  -1.5230576834239062E-002   3.8916883503929592E-002
   4.8846706020852150E-002  -1.4622488150405719E-002   3.9009254583526734E-002
   4.6879044622429464E-002  -1.4007951766005666E-002   3.9285766934968297E-002
   4.9312593672643366E-002  -1.4809168168670617E-002   4.4394474305721868E-002
   4.7528270546193394E-002  -1.4251254130296341E-002   4.4121260991377032E-002
   4.5743947419743330E-002  -1.3693349289151058E-002   4.4030582949133472E-002
   4.3959624293293309E-002  -1.3135453645235058E-002   4.4122440178991057E-002
   4.2175301166843301E-002  -1.2577567198547773E-002   4.4396832680949780E-002
   4.3875779027115536E-002  -1.3190925237135775E-002   4.9470332655748295E-002
   4.2273188172895187E-002  -1.2670290443087151E-002   4.9193360593354218E-002
   4.0670597318674798E-002  -1.2156121744063386E-002   4.9097317803318163E-002
   3.9068006464454443E-002  -1.1648419140064273E-002   4.9182204285640532E-002
   3.7465415610234060E-002  -1.1147182631089880E-002   4.9448020040320617E-002
   5.6268105230532606E-002  -1.6868720900921508E-002   2.8884000283172895E-002
   5.3928754590807426E-002  -1.6135180035610208E-002   2.8553358315742516E-002
   5.1589403951082274E-002  -1.5409591455486038E-002   2.8393373100346952E-002
   4.9250053311357081E-002  -1.4691955160549330E-002   2.8404044636986106E-002
   4.6910702671631943E-002  -1.3982271150799530E-002   2.8585372925660102E-002
   5.1576645976992602E-002  -1.5438336333463587E-002   3.4114822802375877E-002
   4.9409964220685554E-002  -1.4761432907525490E-002   3.3775339527356146E-002
   4.7243282464378561E-002  -1.4085999872299526E-002   3.3610537267138085E-002
   4.5076600708071540E-002  -1.3412037227785917E-002   3.3620416021721514E-002
   4.2909918951764575E-002  -1.2739544973984329E-002   3.3804975791106695E-002
   4.6879044622429464E-002  -1.4007951766005666E-002   3.9285766934968297E-002
   4.4889056012307429E-002  -1.3387685779440828E-002   3.8943924246834155E-002
   4.2899067402185416E-002  -1.2762408289113070E-002   3.8780786836268510E-002
   4.0909078792063375E-002  -1.2132119295022559E-002   3.8796354703271266E-002
   3.8919090181941354E-002  -1.1496818797169128E-002   3.8990627847842407E-002
   4.2175301166843301E-002  -1.2577567198547773E-002   4.4396832680949780E-002
   4.0366029965673053E-002  -1.2013938651356026E-002   4.4059112474176418E-002
   3.8556758764502840E-002  -1.1438816705926613E-002   4.3904121807738228E-002
   3.6747487563332605E-002  -1.0852201362259173E-002   4.3931860681635466E-002
   3.4938216362162385E-002  -1.0254092620353872E-002   4.4142329095867655E-002
   3.7465415610234060E-002  -1.1147182631089880E-002   4.9448020040320617E-002
   3.5840886080782425E-002  -1.0640191523271419E-002   4.9120904209383032E-002
   3.4216356551330818E-002  -1.0115225122740143E-002   4.8980542181547515E-002
   3.2591827021879183E-002  -9.5722834294957974E-003   4.9026933956813859E-002
   3.0967297492427603E-002  -9.0113664435386154E-003   4.9260079535182411E-002
   4.6910702671631943E-002  -1.3982271150799530E-002   2.8585372925660102E-002
   4.4574880771055508E-002  -1.3265259049720923E-002   2.8142877772179498E-002
   4.2239058870479074E-002  -1.2525638480797241E-002   2.7836405499850336E-002
   3.9903236969902667E-002  -1.1763409444027706E-002   2.7665956108671869E-002
   3.7567415069326204E-002  -1.0978571939413317E-002   2.7631529598644899E-002
   4.2909918951764575E-002  -1.2739544973984329E-002   3.3804975791106695E-002
   4.0716231817831239E-002  -1.2058718473395569E-002   3.3398921149228517E-002
   3.8522544683897944E-002  -1.1359753088518831E-002   3.3141113159485397E-002
   3.6328857549964587E-002  -1.0642648819355047E-002   3.3031551821877322E-002
   3.4135170416031313E-002  -9.9074056659037568E-003   3.3070237136404390E-002
   3.8919090181941354E-002  -1.1496818797169128E-002   3.8990627847842407E-002
   3.6879761585635072E-002  -1.0852177897069631E-002   3.8616544134008945E-002
   3.4840432989328721E-002  -1.0193867696240755E-002   3.8402930843294172E-002
   3.2801104393022404E-002  -9.5218881946823319E-003   3.8349787975698615E-002
   3.0761775796716101E-002  -8.8362393923944182E-003   3.8457115531221692E-002
   3.4938216362162385E-002  -1.0254092620353872E-002   4.4142329095867655E-002
   3.3065470074466925E-002  -9.6456373207439855E-003   4.3795746726520771E-002
   3.1192723786771456E-002  -9.0279823039625395E-003   4.3621858551276683E-002
   2.9319977499075993E-002  -8.4011275700096449E-003   4.3620664570135255E-002
   2.7447231211380530E-002  -7.7650731188850797E-003   4.3792164783096818E-002
   3.0967297492427603E-002  -9.0113664435386154E-003   4.9260079535182411E-002
   2.9273357284326867E-002  -8.4390967444183396E-003   4.8936528926763978E-002
   2.7579417076226159E-002  -7.8620969116844075E-003   4.8797896283432562E-002
   2.5885476868125437E-002  -7.2803669453369094E-003   4.8844181605187803E-002
   2.4191536660024715E-002  -6.6939068453756301E-003   4.9075384892029339E-002
   3.7567415069326204E-002  -1.0978571939413317E-002   2.7631529598644899E-002
   3.5191298738331045E-002  -1.0196767620006986E-002   2.7101090697264019E-002
   3.2815182407335802E-002  -9.4436381388626200E-003   2.6694664835767767E-002
   3.0439066076340601E-002  -8.7191834959800818E-003   2.6412252014156784E-002
   2.8062949745345345E-002  -8.0234036913593432E-003   2.6253852232430708E-002
   3.4135170416031313E-002  -9.9074056659037568E-003   3.3070237136404390E-002
   3.1889157630672987E-002  -9.1726943334153876E-003   3.2580800092517959E-002
   2.9643144845314578E-002  -8.4571855271397267E-003   3.2227557100019677E-002
   2.7397132059956211E-002  -7.7608792470768365E-003   3.2010508158910156E-002
   2.5151119274597816E-002  -7.0837754932265851E-003   3.1929653269189617E-002
   3.0761775796716101E-002  -8.8362393923944182E-003   3.8457115531221692E-002
   2.8658047568498324E-002  -8.1486210468237896E-003   3.8018152656878162E-002
   2.6554319340280595E-002  -7.4707329154168334E-003   3.7727564845427275E-002
   2.4450591112062822E-002  -6.8025749981734801E-003   3.7585352096868821E-002
   2.2346862883845089E-002  -6.1441472950940490E-003   3.7591514411202759E-002
   2.7447231211380530E-002  -7.7650731188850797E-003   4.3792164783096818E-002
   2.5497968551807203E-002  -7.1245477602320806E-003   4.3413148390345831E-002
   2.3548705892233818E-002  -6.4842803036939400E-003   4.3194688071991047E-002
   2.1599443232660498E-002  -5.8442707492701237E-003   4.3136783828032141E-002
   1.9650180573087112E-002  -5.2045190969614019E-003   4.3239435658469841E-002
   2.4191536660024715E-002  -6.6939068453756301E-003   4.9075384892029339E-002
   2.2408920580599512E-002  -6.1004744736405936E-003   4.8765787292919749E-002
   2.0626304501174281E-002  -5.4978276919709912E-003   4.8628926779710147E-002
   1.8843688421749077E-002  -4.8859665003669756E-003   4.8664803352400698E-002
   1.7061072342323874E-002  -4.2648908988286438E-003   4.8873417010991016E-002
   2.8062949745345345E-002  -8.0234036913593432E-003   2.6253852232430708E-002
   2.5715952772890183E-002  -7.3117079250283323E-003   2.5671925647739124E-002
   2.3368955800435048E-002  -6.5395053970144223E-003   2.5036731489263830E-002
   2.1021958827979900E-002  -5.7067961073176965E-003   2.4348269757004021E-002
   1.8674961855524697E-002  -4.8135800559387931E-003   2.3606540450960334E-002
   2.5151119274597816E-002  -7.0837754932265851E-003   3.1929653269189617E-002
   2.2789401359622957E-002  -6.4083505581268296E-003   3.1532023220955163E-002
   2.0427683444648029E-002  -5.7170807343144558E-003   3.1158218861465414E-002
   1.8065965529673114E-002  -5.0099660217896649E-003   3.0808240190720509E-002
   1.5704247614698186E-002  -4.2870064205524638E-003   3.0482087208719866E-002
   2.2346862883845089E-002  -6.1441472950940490E-003   3.7591514411202759E-002
   2.0047517288879393E-002  -5.5049931912252714E-003   3.7333519026454792E-002
   1.7748171693913677E-002  -4.8946560716143783E-003   3.7176442592980724E-002
   1.5448826098947942E-002  -4.3131359362615224E-003   3.7120285110779985E-002
   1.3149480503982278E-002  -3.7604327851663566E-003   3.7165046579852978E-002
   1.9650180573087112E-002  -5.2045190969614019E-003   4.3239435658469841E-002
   1.7490300560659533E-002  -4.6016358243239630E-003   4.3076413064238143E-002
   1.5330420548231935E-002  -4.0722314089147449E-003   4.3091402683809010E-002
   1.3170540535804364E-002  -3.6163058507333243E-003   4.3284404517182622E-002
   1.1010660523376757E-002  -3.2338591497802494E-003   4.3655418564358658E-002
   1.7061072342323874E-002  -4.2648908988286438E-003   4.8873417010991016E-002
   1.5117751174963334E-002  -3.6982784574222105E-003   4.8760705334305210E-002
   1.3174430007602836E-002  -3.2498067462143065E-003   4.8903099133950911E-002
   1.1231108840242331E-002  -2.9194757652049527E-003   4.9300598409928426E-002
   9.2877876728817976E-003  -2.7072855143940311E-003   4.9953203162236948E-002
   1.8674961855524697E-002  -4.8135800559387931E-003   2.3606540450960334E-002
   1.5652411815740619E-002  -4.0801655773806123E-003   2.4393442623426020E-002
   1.2629861775956652E-002  -3.7268610061475527E-003   2.5654216513859907E-002
   9.6073117361726301E-003  -3.7536663422398781E-003   2.7388862122260577E-002
   6.5847616963886080E-003  -4.1605815856566863E-003   2.9597379448629502E-002
   1.5704247614698186E-002  -4.2870064205524638E-003   3.0482087208719866E-002
   1.3137211355543077E-002  -3.7744492419227171E-003   3.1258198753331967E-002
   1.0570175096387982E-002  -3.6985417972204004E-003   3.2471466141233890E-002
   8.0031388372328524E-003  -4.0592840864456803E-003   3.4121889372426675E-002
   5.4361025780777783E-003  -4.8566761095982791E-003   3.6209468446909088E-002
   1.3149480503982278E-002  -3.7604327851663566E-003   3.7165046579852978E-002
   1.1001242150778856E-002  -3.4687329064650163E-003   3.7873827670008187E-002
   8.8530037975754899E-003  -3.6702225882934980E-003   3.8983048728776365E-002
   6.7047654443720683E-003  -4.3649018306513784E-003   4.0492709756157680E-002
   4.5565270911686467E-003  -5.5527706335394278E-003   4.2402810752152298E-002
   1.1010660523376757E-002  -3.2338591497802494E-003   4.3655418564358658E-002
   9.2445042014479839E-003  -3.1630165710073849E-003   4.4240329373454679E-002
   7.4783478795191795E-003  -3.6419033793662486E-003   4.5188964276486866E-002
   5.7121915575903751E-003  -4.6705195748573507E-003   4.6501323273455200E-002
   3.9460352356615984E-003  -6.2488651574805765E-003   4.8177406364359437E-002
   9.2877876728817976E-003  -2.7072855143940311E-003   4.9953203162236948E-002
   7.8669975075504328E-003  -2.8573002355494759E-003   5.0357703863671888E-002
   6.4462073422190680E-003  -3.6135841704394434E-003   5.1089212784365567E-002
   5.0254171768876893E-003  -4.9761373190629343E-003   5.2147729924318209E-002
   3.6046270115563384E-003  -6.9449596814220582E-003   5.3533255283529813E-002
   6.5847616963886080E-003  -4.1605815856566863E-003   2.9597379448629502E-002
   6.0566085137497283E-003  -6.1424863931706097E-003   3.4075666147845296E-002
   5.5284553311109319E-003  -1.0894260421552560E-002   3.9238807487361749E-002
   5.0003021484720661E-003  -1.8415903670802716E-002   4.5086803467179526E-002
   4.4721489658332558E-003  -2.8707416140921538E-002   5.1619654087298183E-002
   5.4361025780777783E-003  -4.8566761095982791E-003   3.6209468446909088E-002
   5.4890339862304627E-003  -6.9906299137255656E-003   3.8349897203572014E-002
   5.5419653943831887E-003  -1.1361057545876074E-002   4.0967640501517077E-002
   5.5948968025358661E-003  -1.7967959006049208E-002   4.4062698340744860E-002
   5.6478282106885991E-003  -2.6811334294245537E-002   4.7635070721254280E-002
   4.5565270911686467E-003  -5.5527706335394278E-003   4.2402810752152298E-002
   4.9830029910944013E-003  -7.8387734342807991E-003   4.2738776959107883E-002
   5.4094788910200517E-003  -1.1827854670199450E-002   4.3344517608326694E-002
   5.8359547909457125E-003  -1.7520014341295694E-002   4.4220032699809134E-002
   6.2624306908714567E-003  -2.4915252447569536E-002   4.5365322233556049E-002
   3.9460352356615984E-003  -6.2488651574805765E-003   4.8177406364359437E-002
   4.5385155283415198E-003  -8.6869169548355607E-003   4.7242305414452415E-002
   5.1309958210214706E-003  -1.2294651794522785E-002   4.6369438807790424E-002
   5.7234761137014171E-003  -1.7072069676542182E-002   4.5558806544373942E-002
   6.3159564063813428E-003  -2.3019170600893424E-002   4.4810408624201381E-002
   3.6046270115563384E-003  -6.9449596814220582E-003   5.3533255283529813E-002
   4.1555715979719188E-003  -9.5350604753906554E-003   5.1860482569606181E-002
   4.7065161843875547E-003  -1.2761448918846147E-002   5.0042404099908511E-002
   5.2574607708031768E-003  -1.6624125011788400E-002   4.8079019874438217E-002
   5.8084053572188266E-003  -2.1123088754217534E-002   4.5970329893192829E-002
   5.0255491213807235E-002  -1.4858559389907267E-002   4.9863303224434052E-002
   4.8660563167134352E-002  -1.4521870329240405E-002   4.9419298764735220E-002
   4.7065635120461413E-002  -1.4131701616889550E-002   4.9205802183388020E-002
   4.5470707073788474E-002  -1.3688053252854732E-002   4.9222813480392300E-002
   4.3875779027115536E-002  -1.3190925237135775E-002   4.9470332655748295E-002
   4.3913810546230780E-002  -1.2987718974419582E-002   5.2921928840458432E-002
   4.2542565820623823E-002  -1.2684339511687376E-002   5.2552487539186205E-002
   4.1171321095016894E-002  -1.2339762438747348E-002   5.2399905001694419E-002
   3.9800076369409951E-002  -1.1953987755599568E-002   5.2464181227983089E-002
   3.8428831643803008E-002  -1.1527015462243828E-002   5.2745316218052202E-002
   3.7606178963420431E-002  -1.1116878558931842E-002   5.5953385879286152E-002
   3.6444968444308348E-002  -1.0846808694134319E-002   5.5646225694964441E-002
   3.5283757925196294E-002  -1.0547823260605195E-002   5.5542275159851877E-002
   3.4122547406084253E-002  -1.0219922258344403E-002   5.5641534273948676E-002
   3.2961336886972205E-002  -9.8631056873519085E-003   5.5944003037254678E-002
   3.1332596465376297E-002  -9.2460381434441158E-003   5.8957674340917546E-002
   3.0367771038188014E-002  -9.0092778765813036E-003   5.8700513232069929E-002
   2.9402945610999681E-002  -8.7558840824630176E-003   5.8632912657860421E-002
   2.8438120183811356E-002  -8.4858567610892367E-003   5.8754872618289149E-002
   2.7473294756623030E-002  -8.1991959124599750E-003   5.9066393113356083E-002
   2.5093063052098380E-002  -7.3751977279564174E-003   6.1934794225352197E-002
   2.4310973602262698E-002  -7.1717470590282328E-003   6.1715350150502557E-002
   2.3528884152426988E-002  -6.9639449043208679E-003   6.1671817495719927E-002
   2.2746794702591284E-002  -6.7517912638341351E-003   6.1804196261004363E-002
   2.1964705252755609E-002  -6.5352861375680416E-003   6.2112486446356030E-002
   4.3875779027115536E-002  -1.3190925237135775E-002   4.9470332655748295E-002
   4.2273188172895187E-002  -1.2670290443087151E-002   4.9193360593354218E-002
   4.0670597318674798E-002  -1.2156121744063386E-002   4.9097317803318163E-002
   3.9068006464454443E-002  -1.1648419140064273E-002   4.9182204285640532E-002
   3.7465415610234060E-002  -1.1147182631089880E-002   4.9448020040320617E-002
   3.8428831643803008E-002  -1.1527015462243828E-002   5.2745316218052202E-002
   3.7011046393013669E-002  -1.1079866468399785E-002   5.2448017961084753E-002
   3.5593261142224331E-002  -1.0633561683786860E-002   5.2339401638621108E-002
   3.4175475891435006E-002  -1.0188101108405064E-002   5.2419467250661489E-002
   3.2757690640645654E-002  -9.7434847422542825E-003   5.2688214797205674E-002
   3.2961336886972205E-002  -9.8631056873519085E-003   5.5944003037254678E-002
   3.1736109901759617E-002  -9.4894424937123911E-003   5.5632000471507584E-002
   3.0510882916547088E-002  -9.1110016235102231E-003   5.5516432502410035E-002
   2.9285655931334517E-002  -8.7277830767457446E-003   5.5597299129962266E-002
   2.8060428946121971E-002  -8.3397868534186570E-003   5.5874600354164042E-002
   2.7473294756623030E-002  -8.1991959124599750E-003   5.9066393113356083E-002
   2.6448378699133024E-002  -7.8990185190249834E-003   5.8745308124622753E-002
   2.5423462641642997E-002  -7.5884415632337526E-003   5.8628410394684825E-002
   2.4398546584152997E-002  -7.2674650450865082E-003   5.8715699923542405E-002
   2.3373630526662935E-002  -6.9360889645830454E-003   5.9007176711195167E-002
   2.1964705252755609E-002  -6.5352861375680416E-003   6.2112486446356030E-002
   2.1147852785133869E-002  -6.3085945443376035E-003   6.1787940920430134E-002
   2.0331000317512130E-002  -6.0658815029570323E-003   6.1675335315445556E-002
   1.9514147849890411E-002  -5.8071470134272371E-003   6.1774669631402046E-002
   1.8697295382268664E-002  -5.5323910757474337E-003   6.2085943868299687E-002
   3.7465415610234060E-002  -1.1147182631089880E-002   4.9448020040320617E-002
   3.5840886080782425E-002  -1.0640191523271419E-002   4.9120904209383032E-002
   3.4216356551330818E-002  -1.0115225122740143E-002   4.8980542181547515E-002
   3.2591827021879183E-002  -9.5722834294957974E-003   4.9026933956813859E-002
   3.0967297492427603E-002  -9.0113664435386154E-003   4.9260079535182411E-002
   3.2757690640645654E-002  -9.7434847422542825E-003   5.2688214797205674E-002
   3.1322009798197728E-002  -9.2920550125416279E-003   5.2389880239768427E-002
   2.9886328955749830E-002  -8.8261543464737413E-003   5.2282489253236766E-002
   2.8450648113301912E-002  -8.3457827440510182E-003   5.2366041837610226E-002
   2.7014967270854021E-002  -7.8509402052728272E-003   5.2640537992889147E-002
   2.8060428946121971E-002  -8.3397868534186570E-003   5.5874600354164042E-002
   2.6817786558481146E-002  -7.9439185018116837E-003   5.5601542713869218E-002
   2.5575144170840301E-002  -7.5370835702074576E-003   5.5523618412283419E-002
   2.4332501783199456E-002  -7.1192820586059077E-003   5.5640827449406238E-002
   2.3089859395558604E-002  -6.6905139670069835E-003   5.5953169825237847E-002
   2.3373630526662935E-002  -6.9360889645830454E-003   5.9007176711195167E-002
   2.2328216361632604E-002  -6.5957819910818713E-003   5.8755891631685396E-002
   2.1282802196602248E-002  -6.2480127939411149E-003   5.8703929658687697E-002
   2.0237388031571872E-002  -5.8927813731607962E-003   5.8851290792202124E-002
   1.9191973866541531E-002  -5.5300877287411121E-003   5.9197975032228713E-002
   1.8697295382268664E-002  -5.5323910757474337E-003   6.2085943868299687E-002
   1.7853299207652149E-002  -5.2476454803520034E-003   6.1852926993216872E-002
   1.7009303033035633E-002  -4.9589420176749666E-003   6.1823422992449528E-002
   1.6165306858419118E-002  -4.6662806877160110E-003   6.1997431865997793E-002
   1.5321310683802603E-002  -4.3696614904752407E-003   6.2374953613861583E-002
   3.0967297492427603E-002  -9.0113664435386154E-003   4.9260079535182411E-002
   2.9273357284326867E-002  -8.4390967444183396E-003   4.8936528926763978E-002
   2.7579417076226159E-002  -7.8620969116844075E-003   4.8797896283432562E-002
   2.5885476868125437E-002  -7.2803669453369094E-003   4.8844181605187803E-002
   2.4191536660024715E-002  -6.6939068453756301E-003   4.9075384892029339E-002
   2.7014967270854021E-002  -7.8509402052728272E-003   5.2640537992889147E-002
   2.5509860935423928E-002  -7.3458766990474877E-003   5.2353476204409582E-002
   2.4004754599993912E-002  -6.8348421942826254E-003   5.2259164196184898E-002
   2.2499648264563851E-002  -6.3178366909784553E-003   5.2357601968214762E-002
   2.0994541929133803E-002  -5.7948601891344986E-003   5.2648789520499117E-002
   2.3089859395558604E-002  -6.6905139670069835E-003   5.5953169825237847E-002
   2.1781418747967227E-002  -6.2526566536768025E-003   5.5703837721623267E-002
   2.0472978100375815E-002  -5.8075874768809960E-003   5.5655087213431167E-002
   1.9164537452784420E-002  -5.3553064366199422E-003   5.5806918300661638E-002
   1.7856096805192997E-002  -4.8958135328932006E-003   5.6159330983314687E-002
   1.9191973866541531E-002  -5.5300877287411121E-003   5.9197975032228713E-002
   1.8088030721956694E-002  -5.1594366083059784E-003   5.8987613478404748E-002
   1.6984087577371923E-002  -4.7803327594794567E-003   5.8985665335171203E-002
   1.5880144432787114E-002  -4.3927761822614032E-003   5.9192130602528231E-002
   1.4776201288202322E-002  -3.9967668766518749E-003   5.9607009280475853E-002
   1.5321310683802603E-002  -4.3696614904752407E-003   6.2374953613861583E-002
   1.4429696857392385E-002  -4.0662165629353209E-003   6.2204803474753989E-002
   1.3538083030982181E-002  -3.7530780420776122E-003   6.2250898561405088E-002
   1.2646469204571971E-002  -3.4302459279030653E-003   6.2513238873814658E-002
   1.1754855378161760E-002  -3.0977202204106602E-003   6.2991824411982922E-002
   2.4191536660024715E-002  -6.6939068453756301E-003   4.9075384892029339E-002
   2.2408920580599512E-002  -6.1004744736405936E-003   4.8765787292919749E-002
   2.0626304501174281E-002  -5.4978276919709912E-003   4.8628926779710147E-002
   1.8843688421749077E-002  -4.8859665003669756E-003   4.8664803352400698E-002
   1.7061072342323874E-002  -4.2648908988286438E-003   4.8873417010991016E-002
   2.0994541929133803E-002  -5.7948601891344986E-003   5.2648789520499117E-002
   1.9392532834847848E-002  -5.2676904708476302E-003   5.2411426349719181E-002
   1.7790523740561878E-002  -4.7381053182152383E-003   5.2362540063317559E-002
   1.6188514646275944E-002  -4.2061047312361328E-003   5.2502130661294388E-002
   1.4586505551989953E-002  -3.6716887099114137E-003   5.2830198143649698E-002
   1.7856096805192997E-002  -4.8958135328932006E-003   5.6159330983314687E-002
   1.6450434494524740E-002  -4.4349064680549999E-003   5.5987403265275945E-002
   1.5044772183856497E-002  -3.9783829444590413E-003   5.6019692230093898E-002
   1.3639109873188240E-002  -3.5262429621054012E-003   5.6256197877768976E-002
   1.2233447562519990E-002  -3.0784865209940171E-003   5.6696920208300944E-002
   1.4776201288202322E-002  -3.9967668766518749E-003   5.9607009280475853E-002
   1.3582625559630225E-002  -3.6021224652622585E-003   5.9493718039589985E-002
   1.2389049831058126E-002  -3.2186605707029553E-003   5.9600383280039353E-002
   1.1195474102486051E-002  -2.8463811929745585E-003   5.9927005001824199E-002
   1.0001898373913925E-002  -2.4852843320768703E-003   6.0473583204944427E-002
   1.1754855378161760E-002  -3.0977202204106602E-003   6.2991824411982922E-002
   1.0789106030164280E-002  -2.7693384624694062E-003   6.2930370672661551E-002
   9.8233566821667867E-003  -2.4589381969471469E-003   6.3104613213153804E-002
   8.8576073341692999E-003  -2.1665194238437296E-003   6.3514552033459792E-002
   7.8918579861718130E-003  -1.8920821431593904E-003   6.4160187133580071E-002
   1.7061072342323874E-002  -4.2648908988286438E-003   4.8873417010991016E-002
   1.5117751174963334E-002  -3.6982784574222105E-003   4.8760705334305210E-002
   1.3174430007602836E-002  -3.2498067462143065E-003   4.8903099133950911E-002
   1.1231108840242331E-002  -2.9194757652049527E-003   4.9300598409928426E-002
   9.2877876728817976E-003  -2.7072855143940311E-003   4.9953203162236948E-002
   1.4586505551989953E-002  -3.6716887099114137E-003   5.2830198143649698E-002
   1.2897613173647141E-002  -3.1941249169412655E-003   5.2721188269886921E-002
   1.1208720795304314E-002  -2.8326810150270110E-003   5.2865930497827895E-002
   9.5198284169615011E-003  -2.5873570041683794E-003   5.3264424827472817E-002
   7.8309360386186744E-003  -2.4581528843657940E-003   5.3916671258821325E-002
   1.2233447562519990E-002  -3.0784865209940171E-003   5.6696920208300944E-002
   1.0797630598567157E-002  -2.6899713764604316E-003   5.6593632976603747E-002
   9.3618136346143334E-003  -2.4155552838396183E-003   5.6742744471982756E-002
   7.9259966706615014E-003  -2.2552382431320316E-003   5.7144254694437853E-002
   6.4901797067086764E-003  -2.2090202543372794E-003   5.7798163643969391E-002
   1.0001898373913925E-002  -2.4852843320768703E-003   6.0473583204944427E-002
   8.8178034497234277E-003  -2.1858178359795977E-003   6.0378039454455835E-002
   7.6337085255328884E-003  -1.9984295526524407E-003   6.0533541056415369E-002
   6.4496136013423577E-003  -1.9231194820954600E-003   6.0940088010823748E-002
   5.2655186771518522E-003  -1.9598876243087371E-003   6.1597680317680384E-002
   7.8918579861718130E-003  -1.8920821431593904E-003   6.4160187133580071E-002
   6.9581317271158877E-003  -1.6816642954985417E-003   6.4074407703442415E-002
   6.0244054680599901E-003  -1.5813038214648467E-003   6.4238320251125747E-002
   5.0906792090040787E-003  -1.5910007210589230E-003   6.4651924776630038E-002
   4.1569529499481672E-003  -1.7107549942804168E-003   6.5315221279954705E-002
   9.2877876728817976E-003  -2.7072855143940311E-003   4.9953203162236948E-002
   7.8669975075504328E-003  -2.8573002355494759E-003   5.0357703863671888E-002
   6.4462073422190680E-003  -3.6135841704394434E-003   5.1089212784365567E-002
   5.0254171768876893E-003  -4.9761373190629343E-003   5.2147729924318209E-002
   3.6046270115563384E-003  -6.9449596814220582E-003   5.3533255283529813E-002
   7.8309360386186744E-003  -2.4581528843657940E-003   5.3916671258821325E-002
   6.7110736117132891E-003  -2.6434879407038481E-003   5.3851572944296489E-002
   5.5912111848079593E-003  -3.3417814582685224E-003   5.4061321887364538E-002
   4.4713487579026226E-003  -4.5530334370590814E-003   5.4545918088025822E-002
   3.3514863309972442E-003  -6.2772438770765104E-003   5.5305361546280296E-002
   6.4901797067086764E-003  -2.2090202543372794E-003   5.7798163643969391E-002
   5.6190840565636530E-003  -2.4296756458581925E-003   5.7356777065992237E-002
   4.7479884064186434E-003  -3.0699787460973793E-003   5.7138076783942698E-002
   3.8768927562735957E-003  -4.1299295550550064E-003   5.7142062797820678E-002
   3.0057971061286104E-003  -5.6095280727307961E-003   5.7368735107626051E-002
   5.2655186771518522E-003  -1.9598876243087371E-003   6.1597680317680384E-002
   4.5910288421014897E-003  -2.2158633510123843E-003   6.0873316228759369E-002
   3.9165390070511202E-003  -2.7981760339264583E-003   6.0319477474100033E-002
   3.2420491720007672E-003  -3.7068256730505983E-003   5.9936164053702626E-002
   2.5675593369503882E-003  -4.9418122683853871E-003   5.9723375967566973E-002
   4.1569529499481672E-003  -1.7107549942804168E-003   6.5315221279954705E-002
   3.6269079683267785E-003  -2.0020510561669647E-003   6.4401190432597621E-002
   3.0968629867053898E-003  -2.5263733217553430E-003   6.3605523957836696E-002
   2.5668180050840012E-003  -3.2837217910466412E-003   6.2928221855671734E-002
   2.0367730234626125E-003  -4.2740964640397561E-003   6.2369284126103208E-002
   3.6046270115563384E-003  -6.9449596814220582E-003   5.3533255283529813E-002
   4.1555715979719188E-003  -9.5350604753906554E-003   5.1860482569606181E-002
   4.7065161843875547E-003  -1.2761448918846147E-002   5.0042404099908511E-002
   5.2574607708031768E-003  -1.6624125011788400E-002   4.8079019874438217E-002
   5.8084053572188266E-003  -2.1123088754217534E-002   4.5970329893192829E-002
   3.3514863309972442E-003  -6.2772438770765104E-003   5.5305361546280296E-002
   3.7746322558684653E-003  -8.5456042644360131E-003   5.2951732840803512E-002
   4.1977781807397141E-003  -1.1389306085253653E-002   5.0487812568012269E-002
   4.6209241056109490E-003  -1.4808349339530007E-002   4.7913600727905514E-002
   5.0440700304821284E-003  -1.8802734027264956E-002   4.5229097320483413E-002
   3.0057971061286104E-003  -5.6095280727307961E-003   5.7368735107626051E-002
   3.3361585579139708E-003  -7.5561480534809822E-003   5.4395196626624842E-002
   3.6665200096993866E-003  -1.0017163251661146E-002   5.1346380766767355E-002
   3.9968814614847713E-003  -1.2992573667271665E-002   4.8222287528052611E-002
   4.3272429132701351E-003  -1.6482379300312155E-002   4.5022916910482214E-002
   2.5675593369503882E-003  -4.9418122683853871E-003   5.9723375967566973E-002
   2.8401505041085046E-003  -6.5666918425259235E-003   5.6190873927069389E-002
   3.1127416712666382E-003  -8.6450204180686455E-003   5.2618108696174115E-002
   3.3853328384247988E-003  -1.1176797995013187E-002   4.9005080274880569E-002
   3.6579240055828882E-003  -1.4162024573359466E-002   4.5351788663189146E-002
   2.0367730234626125E-003  -4.2740964640397561E-003   6.2369284126103208E-002
   2.2866080944520389E-003  -5.5772356315713090E-003   5.8338764742137839E-002
   2.5364431654414654E-003  -7.2728775844759785E-003   5.4302996356233035E-002
   2.7862782364308780E-003  -9.3610223227546668E-003   5.0261978968388854E-002
   3.0361133074203184E-003  -1.1841669846406777E-002   4.6215712578605128E-002
   2.5093063052098380E-002  -7.3751977279564174E-003   6.1934794225352197E-002
   2.4310973602262698E-002  -7.1717470590282328E-003   6.1715350150502557E-002
   2.3528884152426988E-002  -6.9639449043208679E-003   6.1671817495719927E-002
   2.2746794702591284E-002  -6.7517912638341351E-003   6.1804196261004363E-002
   2.1964705252755609E-002  -6.5352861375680416E-003   6.2112486446356030E-002
   1.8857864960890536E-002  -5.5313982698751429E-003   6.3054318910381102E-002
   1.8256589663517744E-002  -5.3788102670354054E-003   6.2818206677620309E-002
   1.7655314366144967E-002  -5.2229586493371116E-003   6.2767811329718148E-002
   1.7054039068772189E-002  -5.0638434167802684E-003   6.2903132866674857E-002
   1.6452763771399398E-002  -4.9014645693647163E-003   6.3224171288490227E-002
   1.2597288429056656E-002  -3.6875988117938130E-003   6.4123524864782039E-002
   1.2186632748938483E-002  -3.5858734750425503E-003   6.3869656603189245E-002
   1.1775977068820321E-002  -3.4819723943534525E-003   6.3811310691246917E-002
   1.1365321388702139E-002  -3.3758955697263705E-003   6.3948487128954984E-002
   1.0954665708583972E-002  -3.2676430011614466E-003   6.4281185916313682E-002
   6.3113334565967610E-003  -1.8437993537125386E-003   6.5142412088554869E-002
   6.1011028585249080E-003  -1.7929366830496812E-003   6.4869699927209451E-002
   5.8908722604530473E-003  -1.7409861393696893E-003   6.4802315580306191E-002
   5.6806416623811813E-003  -1.6879477226724882E-003   6.4940259047844978E-002
   5.4704110643093249E-003  -1.6338214329580936E-003   6.5283530329826062E-002
   4.3510840763705261E-011   1.0436879138708832E-010   6.6110980581699563E-002
  -7.7230166706243608E-012   1.0894313229314889E-010   6.5818336649680842E-002
  -5.8956860227166175E-011   1.1561394896997257E-010   6.5740825996895930E-002
  -1.1019070725315494E-010   1.2438139060377829E-010   6.5878448623344840E-002
  -1.6142455774859066E-010   1.3524514841378732E-010   6.6231204529027643E-002
   2.1964705252755609E-002  -6.5352861375680416E-003   6.2112486446356030E-002
   2.1147852785133869E-002  -6.3085945443376035E-003   6.1787940920430134E-002
   2.0331000317512130E-002  -6.0658815029570323E-003   6.1675335315445556E-002
   1.9514147849890411E-002  -5.8071470134272371E-003   6.1774669631402046E-002
   1.8697295382268664E-002  -5.5323910757474337E-003   6.2085943868299687E-002
   1.6452763771399398E-002  -4.9014645693647163E-003   6.3224171288490227E-002
   1.5845919526725434E-002  -4.7314458737804654E-003   6.2925556247926173E-002
   1.5239075282051449E-002  -4.5494110967172555E-003   6.2835017732316437E-002
   1.4632231037377475E-002  -4.3553602381751367E-003   6.2952555741661059E-002
   1.4025386792703501E-002  -4.1492932981540553E-003   6.3278170275960055E-002
   1.0954665708583972E-002  -3.2676430011614466E-003   6.4281185916313682E-002
   1.0553966290870957E-002  -3.1542972032235078E-003   6.4004495994440441E-002
   1.0153266873157932E-002  -3.0329406904772566E-003   6.3932019201534865E-002
   9.7525674554449163E-003  -2.9035734629229808E-003   6.4063755537596773E-002
   9.3518680377318933E-003  -2.7661955205605104E-003   6.4399705002626290E-002
   5.4704110643093249E-003  -1.6338214329580936E-003   6.5283530329826062E-002
   5.2719930775704544E-003  -1.5771485326664322E-003   6.5024760159973119E-002
   5.0735750908315934E-003  -1.5164702842373409E-003   6.4966339723100813E-002
   4.8751571040927290E-003  -1.4517866876709081E-003   6.5108269019209325E-002
   4.6767391173538637E-003  -1.3830977429670210E-003   6.5450548048298557E-002
  -1.6142455774859066E-010   1.3524514841378732E-010   6.6231204529027643E-002
  -1.1317607268024332E-010   1.3789058783686414E-010   6.5986348744523998E-002
  -6.4927582407725559E-011   1.2200254695393653E-010   6.5937979297014337E-002
  -1.6679093002569534E-011   8.7581338015230159E-011   6.6086096186498661E-002
   3.1569392933139540E-011   3.4626468359277851E-011   6.6430699412976857E-002
   1.8697295382268664E-002  -5.5323910757474337E-003   6.2085943868299687E-002
   1.7853299207652149E-002  -5.2476454803520034E-003   6.1852926993216872E-002
   1.7009303033035633E-002  -4.9589420176749666E-003   6.1823422992449528E-002
   1.6165306858419118E-002  -4.6662806877160110E-003   6.1997431865997793E-002
   1.5321310683802603E-002  -4.3696614904752407E-003   6.2374953613861583E-002
   1.4025386792703501E-002  -4.1492932981540553E-003   6.3278170275960055E-002
   1.3386775035677541E-002  -3.9357341145478675E-003   6.3048877915232032E-002
   1.2748163278651581E-002  -3.7192065252506790E-003   6.3026841515369775E-002
   1.2109551521625624E-002  -3.4997105302627327E-003   6.3212061076372977E-002
   1.1470939764599661E-002  -3.2772461295834110E-003   6.3604536598241890E-002
   9.3518680377318933E-003  -2.7661955205605104E-003   6.4399705002626290E-002
   8.9223837848465271E-003  -2.6238227487437593E-003   6.4173147694662758E-002
   8.4928995319611678E-003  -2.4794710328266273E-003   6.4157589434114717E-002
   8.0634152790757911E-003  -2.3331403728091803E-003   6.4353030220982321E-002
   7.6339310261904422E-003  -2.1848307686913038E-003   6.4759470055265639E-002
   4.6767391173538637E-003  -1.3830977429670210E-003   6.5450548048298557E-002
   4.4601254551591210E-003  -1.3119113829395818E-003   6.5225736331508632E-002
   4.2435117929643862E-003  -1.2397355404024021E-003   6.5215666748684287E-002
   4.0268981307696470E-003  -1.1665702153555984E-003   6.5420339299825672E-002
   3.8102844685749086E-003  -1.0924154077992243E-003   6.5839753984932442E-002
   3.1569392933139540E-011   3.4626468359277851E-011   6.6430699412976857E-002
   4.6615315774101163E-011  -1.7135542984547669E-011   6.6206643825769795E-002
   6.1661245553956689E-011  -4.7978426787054218E-011   6.6201073459078469E-002
   7.6707175333812216E-011  -5.7902439787316240E-011   6.6413988312902850E-002
   9.1753098174773839E-011  -4.6907311368471483E-011   6.6845388387242799E-002
   1.5321310683802603E-002  -4.3696614904752407E-003   6.2374953613861583E-002
   1.4429696857392385E-002  -4.0662165629353209E-003   6.2204803474753989E-002
   1.3538083030982181E-002  -3.7530780420776122E-003   6.2250898561405088E-002
   1.2646469204571971E-002  -3.4302459279030653E-003   6.2513238873814658E-002
   1.1754855378161760E-002  -3.0977202204106602E-003   6.2991824411982922E-002
   1.1470939764599661E-002  -3.2772461295834110E-003   6.3604536598241890E-002
   1.0797235719986052E-002  -3.0496624291298513E-003   6.3457895089553462E-002
   1.0123531675372451E-002  -2.8148085348188023E-003   6.3530827918699739E-002
   9.4498276307588315E-003  -2.5726844466506110E-003   6.3823335085680707E-002
   8.7761235861452402E-003  -2.3232901646250137E-003   6.4335416590496353E-002
   7.6339310261904422E-003  -2.1848307686913038E-003   6.4759470055265639E-002
   7.1814658754494921E-003  -2.0331082953244650E-003   6.4633913777536439E-002
   6.7290007247085420E-003  -1.8765390275601451E-003   6.4731260949717831E-002
   6.2765355739675902E-003  -1.7151229653983753E-003   6.5051511571810050E-002
   5.8240704232266557E-003  -1.5488601088390896E-003   6.5594665643812722E-002
   3.8102844685749086E-003  -1.0924154077992243E-003   6.5839753984932442E-002
   3.5823873237826893E-003  -1.0165541615190371E-003   6.5732859538702615E-002
   3.3544901789904691E-003  -9.3826952030152261E-004   6.5852197654459460E-002
   3.1265930341982389E-003  -8.5756148414608581E-004   6.6197768332203130E-002
   2.8986958894060225E-003  -7.7443005305324886E-004   6.6769571571933542E-002
   9.1753098174773839E-011  -4.6907311368471483E-011   6.6845388387242799E-002
   6.4985655745530835E-011  -2.7713775718751776E-011   6.6754732373052184E-002
   3.8218220255181734E-011  -1.3042636415327991E-011   6.6893638032924446E-002
   1.1450788234279585E-011  -2.8938414164958459E-012   6.7262105366859462E-002
  -1.5316657664410371E-011   2.7324809082074353E-012   6.7860134374857273E-002
   1.1754855378161760E-002  -3.0977202204106602E-003   6.2991824411982922E-002
   1.0789106030164280E-002  -2.7693384624694062E-003   6.2930370672661551E-002
   9.8233566821667867E-003  -2.4589381969471469E-003   6.3104613213153804E-002
   8.8576073341692999E-003  -2.1665194238437296E-003   6.3514552033459792E-002
   7.8918579861718130E-003  -1.8920821431593904E-003   6.4160187133580071E-002
   8.7761235861452402E-003  -2.3232901646250137E-003   6.4335416590496353E-002
   8.0475057825395852E-003  -2.0770038455124040E-003   6.4286342938799257E-002
   7.3188879789339439E-003  -1.8442036460837724E-003   6.4475836096072020E-002
   6.5902701753283097E-003  -1.6248895663389488E-003   6.4903896062314698E-002
   5.8616523717226615E-003  -1.4190616062780270E-003   6.5570522837527345E-002
   5.8240704232266557E-003  -1.5488601088390896E-003   6.5594665643812722E-002
   5.3354546931688902E-003  -1.3846692285555129E-003   6.5562467452475584E-002
   4.8468389631111074E-003  -1.2294690952203979E-003   6.5771706599264179E-002
   4.3582232330533332E-003  -1.0832597088341125E-003   6.6222383084178632E-002
   3.8696075029955729E-003  -9.4604106939666366E-004   6.6914496907219206E-002
   2.8986958894060225E-003  -7.7443005305324886E-004   6.6769571571933542E-002
   2.6529527620521524E-003  -6.9233461159851073E-004   6.6758744213690852E-002
   2.4072096346982692E-003  -6.1473454435724550E-004   6.6992224722730337E-002
   2.1614665073443969E-003  -5.4162985132958155E-004   6.7470013099051665E-002
   1.9157233799905159E-003  -4.7302053251530030E-004   6.8192109342654961E-002
  -1.5316657664410371E-011   2.7324809082074353E-012   6.7860134374857273E-002
  -1.0810616291045960E-011   5.3582693837483930E-012   6.7875173222444851E-002
  -6.3045679787876452E-012   6.5063232579376518E-012   6.8137390466470327E-002
  -1.7985161970823782E-012   6.1754421021298356E-012   6.8646786106933727E-002
   2.7075217068350810E-012   4.3661740889433531E-012   6.9403360143834969E-002
   7.8918579861718130E-003  -1.8920821431593904E-003   6.4160187133580071E-002
   6.9581317271158877E-003  -1.6816642954985417E-003   6.4074407703442415E-002
   6.0244054680599901E-003  -1.5813038214648467E-003   6.4238320251125747E-002
   5.0906792090040787E-003  -1.5910007210589230E-003   6.4651924776630038E-002
   4.1569529499481672E-003  -1.7107549942804168E-003   6.5315221279954705E-002
   5.8616523717226615E-003  -1.4190616062780270E-003   6.5570522837527345E-002
   5.1735529871831942E-003  -1.2612482210836440E-003   6.5422538847969391E-002
   4.4854536026437408E-003  -1.1859778659382147E-003   6.5516116629623589E-002
   3.7973542181042909E-003  -1.1932505408416560E-003   6.5851256182489687E-002
   3.1092548335648201E-003  -1.2830662457942177E-003   6.6427957506568436E-002
   3.8696075029955729E-003  -9.4604106939666366E-004   6.6914496907219206E-002
   3.4190047863639425E-003  -8.4083214666880179E-004   6.6731822701819071E-002
   2.9684020697323052E-003  -7.9065191041134686E-004   6.6782580061022681E-002
   2.5177993531006748E-003  -7.9550036062449661E-004   6.7066768984829717E-002
   2.0671966364690375E-003  -8.5537749730818513E-004   6.7584389473240386E-002
   1.9157233799905159E-003  -4.7302053251530030E-004   6.8192109342654961E-002
   1.6944871246580926E-003  -4.2041607225376532E-004   6.8002259264991261E-002
   1.4732508693256555E-003  -3.9532595488459693E-004   6.8037710545322538E-002
   1.2520146139932357E-003  -3.9775018040733891E-004   6.8298463183648919E-002
   1.0307783586607951E-003  -4.2768874882223584E-004   6.8784517179970028E-002
   2.7075217068350810E-012   4.3661740889433531E-012   6.9403360143834969E-002
   2.0656670818297584E-012   2.1608270728279422E-012   6.9233848537486375E-002
   1.4238159262713879E-012   6.4218075301880617E-013   6.9281508082524035E-002
   7.8196477071301729E-013  -1.9000773177069163E-013   6.9546338778947864E-002
   1.4011014570769476E-013  -3.3606450955403488E-013   7.0028340626758112E-002
   4.1569529499481672E-003  -1.7107549942804168E-003   6.5315221279954705E-002
   3.6269079683267785E-003  -2.0020510561669647E-003   6.4401190432597621E-002
   3.0968629867053898E-003  -2.5263733217553430E-003   6.3605523957836696E-002
   2.5668180050840012E-003  -3.2837217910466412E-003   6.2928221855671734E-002
   2.0367730234626125E-003  -4.2740964640397561E-003   6.2369284126103208E-002
   3.1092548335648201E-003  -1.2830662457942177E-003   6.6427957506568436E-002
   2.7011109427485663E-003  -1.5015382921799159E-003   6.5319205368448097E-002
   2.2929670519323264E-003  -1.8947799913829055E-003   6.4335891039341869E-002
   1.8848231611160830E-003  -2.4627913434029439E-003   6.3478014519249851E-002
   1.4766792702998327E-003  -3.2055723482404819E-003   6.2745575808172083E-002
   2.0671966364690375E-003  -8.5537749730818513E-004   6.7584389473240386E-002
   1.7880272728759208E-003  -1.0010255281931724E-003   6.6339172595241719E-002
   1.5088579092827972E-003  -1.2631866610103432E-003   6.5226466962675270E-002
   1.2296885456896701E-003  -1.6418608957593540E-003   6.4246272575541163E-002
   9.5051918209655695E-004  -2.1370482324406526E-003   6.3398589433838859E-002
   1.0307783586607951E-003  -4.2768874882223584E-004   6.8784517179970028E-002
   8.8765695870879260E-004  -5.0051276420649826E-004   6.7461092112978627E-002
   7.4453555875679880E-004  -6.3159333063789874E-004   6.6277251727837314E-002
   6.0141415880478680E-004  -8.2093044811582146E-004   6.5232996024546144E-002
   4.5829275885278867E-004  -1.0685241166413229E-003   6.4328325003104966E-002
   1.4011014570769476E-013  -3.3606450955403488E-013   7.0028340626758112E-002
   2.4720503422059892E-013  -2.1960211427085596E-013   6.8684963921658682E-002
   3.5431726996826285E-013  -2.6534330288541241E-013   6.7488245334827557E-002
   4.6142083209854690E-013  -4.7228887467554159E-013   6.6438184866264516E-002
   5.6852439422883094E-013  -8.4143803036340614E-013   6.5534782515969225E-002
   2.0367730234626125E-003  -4.2740964640397561E-003   6.2369284126103208E-002
   2.2866080944520389E-003  -5.5772356315713090E-003   5.8338764742137839E-002
   2.5364431654414654E-003  -7.2728775844759785E-003   5.4302996356233035E-002
   2.7862782364308780E-003  -9.3610223227546668E-003   5.0261978968388854E-002
   3.0361133074203184E-003  -1.1841669846406777E-002   4.6215712578605128E-002
   1.4766792702998327E-003  -3.2055723482404819E-003   6.2745575808172083E-002
   1.7069628978997331E-003  -4.1829267240005019E-003   5.8391247710514627E-002
   1.9372465254996474E-003  -5.4546581887899848E-003   5.4003065728017552E-002
   2.1675301530995339E-003  -7.0207667426080977E-003   4.9581029860681414E-002
   2.3978137806994482E-003  -8.8812523854548964E-003   4.5125140108505102E-002
   9.5051918209655695E-004  -2.1370482324406526E-003   6.3398589433838859E-002
   1.1326464834067670E-003  -2.7886178164300279E-003   5.8818578318834747E-002
   1.3147737847169841E-003  -3.6364387931035191E-003   5.4176108436090969E-002
   1.4969010860272150E-003  -4.6805111624611331E-003   4.9471179785607042E-002
   1.6790283873374251E-003  -5.9208349245030156E-003   4.4703792367383866E-002
   4.5829275885278867E-004  -1.0685241166413229E-003   6.4328325003104966E-002
   5.6365885097314425E-004  -1.3943089088594984E-003   5.9620756567098310E-002
   6.6902494309352065E-004  -1.8182193974174005E-003   5.4822124480451838E-002
   7.7439103521387623E-004  -2.3402555823146994E-003   4.9932428743165405E-002
   8.7975712733426650E-004  -2.9604174635512459E-003   4.4951669355238533E-002
   5.6852439422883094E-013  -8.4143803036340614E-013   6.5534782515969225E-002
   5.9886123837671335E-013  -1.2889689315898067E-012   6.0797782455305316E-002
   6.2920849086545161E-013  -1.7309764732686972E-012   5.5941113861100844E-002
   6.5954186556638206E-013  -2.1676341277476752E-012   5.0964776733356726E-002
   6.8989258750207227E-013  -2.5992541452524165E-012   4.5868771072072434E-002
   4.3510840763705261E-011   1.0436879138708832E-010   6.6110980581699563E-002
  -7.7230166706243608E-012   1.0894313229314889E-010   6.5818336649680842E-002
  -5.8956860227166175E-011   1.1561394896997257E-010   6.5740825996895930E-002
  -1.1019070725315494E-010   1.2438139060377829E-010   6.5878448623344840E-002
  -1.6142455774859066E-010   1.3524514841378732E-010   6.6231204529027643E-002
  -6.3113333591478180E-003   1.8437991501357165E-003   6.5142412208855166E-002
  -6.1011028664654243E-003   1.7929366109376010E-003   6.4869700057654855E-002
  -5.8908723737830116E-003   1.7409861789540043E-003   6.4802315715053113E-002
  -5.6806418811005989E-003   1.6879478541850478E-003   6.4940259181050147E-002
  -5.4704113884181983E-003   1.6338216366305891E-003   6.5283530455645777E-002
  -1.2597288300325986E-002   3.6875981959026416E-003   6.4123525239679277E-002
  -1.2186632734362504E-002   3.5858731129320004E-003   6.3869656974415392E-002
  -1.1775977168399059E-002   3.4819722422940666E-003   6.3811311047115099E-002
  -1.1365321602435592E-002   3.3758955839887621E-003   6.3948487457778175E-002
  -1.0954666036472129E-002   3.2676431380159743E-003   6.4281186206404634E-002
  -1.8857864780023579E-002   5.5313972416695528E-003   6.3054319674171730E-002
  -1.8256589611414291E-002   5.3788096149265038E-003   6.2818207399962508E-002
  -1.7655314442804975E-002   5.2229583056340699E-003   6.2767811993081540E-002
  -1.7054039274195677E-002   5.0638433137923091E-003   6.2903133453528867E-002
  -1.6452764105586371E-002   4.9014646394013039E-003   6.3224171781304295E-002
  -2.5093062798240681E-002   7.3751962874364918E-003   6.1934795512332719E-002
  -2.4310973497620750E-002   7.1717461169208963E-003   6.1715351334296231E-002
  -2.3528884197000784E-002   6.9639443689741565E-003   6.1671818552952617E-002
  -2.2746794896380842E-002   6.7517910435960851E-003   6.1804197168302100E-002
  -2.1964705595760900E-002   6.5352861407867446E-003   6.2112487180344733E-002
  -1.6142455774859066E-010   1.3524514841378732E-010   6.6231204529027643E-002
  -1.1317607268024332E-010   1.3789058783686414E-010   6.5986348744523998E-002
  -6.4927582407725559E-011   1.2200254695393653E-010   6.5937979297014337E-002
  -1.6679093002569534E-011   8.7581338015230159E-011   6.6086096186498661E-002
   3.1569392933139540E-011   3.4626468359277851E-011   6.6430699412976857E-002
  -5.4704113884181983E-003   1.6338216366305891E-003   6.5283530455645777E-002
  -5.2719933062715255E-003   1.5771487757511859E-003   6.5024760240787211E-002
  -5.0735752241248527E-003   1.5164705210074722E-003   6.4966339756730968E-002
  -4.8751571419781720E-003   1.4517868723991547E-003   6.5108269003477201E-002
  -4.6767390598315070E-003   1.3830978299264052E-003   6.5450547981026036E-002
  -1.0954666036472129E-002   3.2676431380159743E-003   6.4281186206404634E-002
  -1.0553966526618795E-002   3.1542974136118396E-003   6.4004496185860099E-002
  -1.0153267016765466E-002   3.0329409200121199E-003   6.3932019289926353E-002
  -9.7525675069121427E-003   2.9035736572170824E-003   6.4063755518603577E-002
  -9.3518679970588034E-003   2.7661956252265363E-003   6.4399704871891589E-002
  -1.6452764105586371E-002   4.9014646394013039E-003   6.3224171781304295E-002
  -1.5845919774217912E-002   4.7314460514724377E-003   6.2925556579742595E-002
  -1.5239075442849451E-002   4.5494113190170729E-003   6.2835017896600315E-002
  -1.4632231111480994E-002   4.3553604420350656E-003   6.2952555731877413E-002
  -1.4025386780112538E-002   4.1492934205265702E-003   6.3278170085573765E-002
  -2.1964705595760900E-002   6.5352861407867446E-003   6.2112487180344733E-002
  -2.1147853049068847E-002   6.3085946893330913E-003   6.1787941422434933E-002
  -2.0331000502376795E-002   6.0658817180217345E-003   6.1675335576753032E-002
  -1.9514147955684735E-002   5.8071472268528650E-003   6.1774669643298960E-002
  -1.8697295408992683E-002   5.5323912158266042E-003   6.2085943622072648E-002
   3.1569392933139540E-011   3.4626468359277851E-011   6.6430699412976857E-002
   4.6615315774101163E-011  -1.7135542984547669E-011   6.6206643825769795E-002
   6.1661245553956689E-011  -4.7978426787054218E-011   6.6201073459078469E-002
   7.6707175333812216E-011  -5.7902439787316240E-011   6.6413988312902850E-002
   9.1753098174773839E-011  -4.6907311368471483E-011   6.6845388387242799E-002
  -4.6767390598315070E-003   1.3830978299264052E-003   6.5450547981026036E-002
  -4.4601253673292266E-003   1.3119113692763862E-003   6.5225736294147296E-002
  -4.2435116748269514E-003   1.2397354661353721E-003   6.5215666741665776E-002
  -4.0268979823246788E-003   1.1665701205036266E-003   6.5420339323581295E-002
  -3.8102842898224028E-003   1.0924153323812469E-003   6.5839754039893728E-002
  -9.3518679970588034E-003   2.7661956252265363E-003   6.4399704871891589E-002
  -8.9223837132188493E-003   2.6238227556879962E-003   6.4173147621931631E-002
  -8.4928994293789022E-003   2.4794709802491294E-003   6.4157589420250044E-002
  -8.0634151455389463E-003   2.3331402989096965E-003   6.4353030266846717E-002
  -7.6339308616990009E-003   2.1848307116698884E-003   6.4759470161721885E-002
  -1.4025386780112538E-002   4.1492934205265702E-003   6.3278170085573765E-002
  -1.3386774991053575E-002   3.9357341420996547E-003   6.3048877809122883E-002
  -1.2748163201994596E-002   3.7192064943627964E-003   6.3026841494831509E-002
  -1.2109551412935633E-002   3.4997104773156536E-003   6.3212061142700005E-002
  -1.1470939623876662E-002   3.2772460909584328E-003   6.3604536752727953E-002
  -1.8697295408992683E-002   5.5323912158266042E-003   6.2085943622072648E-002
  -1.7853299200833367E-002   5.2476455285115353E-003   6.1852926855720913E-002
  -1.7009302992674051E-002   4.9589420084766300E-003   6.1823422965410102E-002
  -1.6165306784514739E-002   4.6662806557217357E-003   6.1997431951140380E-002
  -1.5321310576355419E-002   4.3696614702469772E-003   6.2374953812911582E-002
   9.1753098174773839E-011  -4.6907311368471483E-011   6.6845388387242799E-002
   6.4985655745530835E-011  -2.7713775718751776E-011   6.6754732373052184E-002
   3.8218220255181734E-011  -1.3042636415327991E-011   6.6893638032924446E-002
   1.1450788234279585E-011  -2.8938414164958459E-012   6.7262105366859462E-002
  -1.5316657664410371E-011   2.7324809082074353E-012   6.7860134374857273E-002
  -3.8102842898224028E-003   1.0924153323812469E-003   6.5839754039893728E-002
  -3.5823871972012339E-003   1.0165541209436746E-003   6.5732859576396435E-002
  -3.3544901045800615E-003   9.3826950536587961E-004   6.5852197677613800E-002
  -3.1265930119588883E-003   8.5756148564832685E-004   6.6197768343545418E-002
  -2.8986959193377203E-003   7.7443006179034324E-004   6.6769571574191722E-002
  -7.6339308616990009E-003   2.1848307116698884E-003   6.4759470161721885E-002
  -7.1814657590376085E-003   2.0331082696009306E-003   6.4633913849300728E-002
  -6.7290006563762300E-003   1.8765390237742915E-003   6.4731260992245493E-002
  -6.2765355537148472E-003   1.7151229741901083E-003   6.5051511590556318E-002
  -5.8240704510534730E-003   1.5488601208482056E-003   6.5594665644233136E-002
  -1.1470939623876662E-002   3.2772460909584328E-003   6.3604536752727953E-002
  -1.0797235620523482E-002   3.0496624182583393E-003   6.3457895191765062E-002
  -1.0123531617170299E-002   2.8148085421828666E-003   6.3530827976819498E-002
  -9.4498276138171144E-003   2.5726844627322496E-003   6.3823335107891746E-002
  -8.7761236104639366E-003   2.3232901799061789E-003   6.4335416584981570E-002
  -1.5321310576355419E-002   4.3696614702469772E-003   6.2374953812911582E-002
  -1.4429696781658841E-002   4.0662165669154149E-003   6.2204803603789105E-002
  -1.3538082986962258E-002   3.7530780605913028E-003   6.2250898631335927E-002
  -1.2646469192265671E-002   3.4302459512740233E-003   6.2513238895551826E-002
  -1.1754855397569090E-002   3.0977202389639302E-003   6.2991824396437135E-002
  -1.5316657664410371E-011   2.7324809082074353E-012   6.7860134374857273E-002
  -1.0810616291045960E-011   5.3582693837483930E-012   6.7875173222444851E-002
  -6.3045679787876452E-012   6.5063232579376518E-012   6.8137390466470327E-002
  -1.7985161970823782E-012   6.1754421021298356E-012   6.8646786106933727E-002
   2.7075217068350810E-012   4.3661740889433531E-012   6.9403360143834969E-002
  -2.8986959193377203E-003   7.7443006179034324E-004   6.6769571574191722E-002
  -2.6529527831149827E-003   6.9233462218454278E-004   6.6758744214946042E-002
  -2.4072096468922659E-003   6.1473455522279008E-004   6.6992224722695948E-002
  -2.1614665106695317E-003   5.4162986090506432E-004   6.7470013097441051E-002
  -1.9157233744468115E-003   4.7302053923148346E-004   6.8192109339181850E-002
  -5.8240704510534730E-003   1.5488601208482056E-003   6.5594665644233136E-002
  -5.3354547125565571E-003   1.3846692390107607E-003   6.5562467452276840E-002
  -4.8468389740596593E-003   1.2294691039396038E-003   6.5771706597873278E-002
  -4.3582232355627625E-003   1.0832597156348010E-003   6.6222383081022851E-002
  -3.8696074970658596E-003   9.4604107409651528E-004   6.6914496901725129E-002
  -8.7761236104639366E-003   2.3232901799061789E-003   6.4335416584981570E-002
  -8.0475057991353516E-003   2.0770038558367843E-003   6.4286342934436802E-002
  -7.3188879878067718E-003   1.8442036526564107E-003   6.4475836092002525E-002
  -6.5902701764781815E-003   1.6248895703648136E-003   6.4903896057678753E-002
  -5.8616523651496069E-003   1.4190616089616859E-003   6.5570522831465139E-002
  -1.1754855397569090E-002   3.0977202389639302E-003   6.2991824396437135E-002
  -1.0789106042851326E-002   2.7693384726631409E-003   6.2930370661426482E-002
  -9.8233566881335832E-003   2.4589382013729955E-003   6.3104613205083648E-002
  -8.8576073334158296E-003   2.1665194250942432E-003   6.3514552027408827E-002
  -7.8918579786980692E-003   1.8920821438268565E-003   6.4160187128402102E-002
   2.7075217068350810E-012   4.3661740889433531E-012   6.9403360143834969E-002
   2.0656670818297584E-012   2.1608270728279422E-012   6.9233848537486375E-002
   1.4238159262713879E-012   6.4218075301880617E-013   6.9281508082524035E-002
   7.8196477071301729E-013  -1.9000773177069163E-013   6.9546338778947864E-002
   1.4011014570769476E-013  -3.3606450955403488E-013   7.0028340626758112E-002
  -1.9157233744468115E-003   4.7302053923148346E-004   6.8192109339181850E-002
  -1.6944871204426330E-003   4.2041607579262896E-004   6.8002259262884501E-002
  -1.4732508664384580E-003   3.9532595617994271E-004   6.8037710544492869E-002
  -1.2520146124342926E-003   3.9775018039344551E-004   6.8298463184007119E-002
  -1.0307783584301185E-003   4.2768874843290838E-004   6.8784517181426863E-002
  -3.8696074970658596E-003   9.4604107409651528E-004   6.6914496901725129E-002
  -3.4190047818961301E-003   8.4083214942426432E-004   6.6731822698618742E-002
  -2.9684020667264058E-003   7.9065191171780180E-004   6.6782580059937660E-002
  -2.5177993515566894E-003   7.9550036097700630E-004   6.7066768985682063E-002
  -2.0671966363869521E-003   8.5537749720193679E-004   6.7584389475851603E-002
  -5.8616523651496069E-003   1.4190616089616859E-003   6.5570522831465139E-002
  -5.1735529822948224E-003   1.2612482230559829E-003   6.5422538844689487E-002
  -4.4854535994400084E-003   1.1859778672557234E-003   6.5516116628858492E-002
  -3.7973542165852126E-003   1.1932505415607909E-003   6.5851256183972293E-002
  -3.1092548337304103E-003   1.2830662459710485E-003   6.6427957510031124E-002
  -7.8918579786980692E-003   1.8920821438268565E-003   6.4160187128402102E-002
  -6.9581317216386787E-003   1.6816642966875905E-003   6.4074407701096403E-002
  -6.0244054645792848E-003   1.5813038227934229E-003   6.4238320251255254E-002
  -5.0906792075198892E-003   1.5910007221441314E-003   6.4651924778878489E-002
  -4.1569529504605005E-003   1.7107549947399381E-003   6.5315221283965941E-002
   1.4011014570769476E-013  -3.3606450955403488E-013   7.0028340626758112E-002
   2.4720503422059892E-013  -2.1960211427085596E-013   6.8684963921658682E-002
   3.5431726996826285E-013  -2.6534330288541241E-013   6.7488245334827557E-002
   4.6142083209854690E-013  -4.7228887467554159E-013   6.6438184866264516E-002
   5.6852439422883094E-013  -8.4143803036340614E-013   6.5534782515969225E-002
  -1.0307783584301185E-003   4.2768874843290838E-004   6.8784517181426863E-002
  -8.8765695824748192E-004   5.0051276380136400E-004   6.7461092114083687E-002
  -7.4453555806485404E-004   6.3159333000184503E-004   6.6277251728623254E-002
  -6.0141415788223136E-004   8.2093044703435147E-004   6.5232996025045564E-002
  -4.5829275769958960E-004   1.0685241148986613E-003   6.4328325003351172E-002
  -2.0671966363869521E-003   8.5537749720193679E-004   6.7584389475851603E-002
  -1.7880272725139586E-003   1.0010255278226632E-003   6.6339172597257690E-002
  -1.5088579086409704E-003   1.2631866602690334E-003   6.5226466964161789E-002
  -1.2296885447679721E-003   1.6418608945413249E-003   6.4246272576563790E-002
  -9.5051918089498859E-004   2.1370482306391492E-003   6.3398589434463387E-002
  -3.1092548337304103E-003   1.2830662459710485E-003   6.6427957510031124E-002
  -2.7011109425522091E-003   1.5015382918436848E-003   6.5319205371180716E-002
  -2.2929670513740005E-003   1.8947799905363327E-003   6.4335891041443077E-002
  -1.8848231601958057E-003   2.4627913420482428E-003   6.3478014520818249E-002
  -1.4766792690175906E-003   3.2055723463796648E-003   6.2745575809305704E-002
  -4.1569529504605005E-003   1.7107549947399381E-003   6.5315221283965941E-002
  -3.6269079683622293E-003   2.0020510558649840E-003   6.4401190435852795E-002
  -3.0968629862639756E-003   2.5263733208034655E-003   6.3605523960467369E-002
  -2.5668180041657235E-003   3.2837217895551191E-003   6.2928221857809385E-002
  -2.0367730220674507E-003   4.2740964621199584E-003   6.2369284127878677E-002
   5.6852439422883094E-013  -8.4143803036340614E-013   6.5534782515969225E-002
   5.9886123837671335E-013  -1.2889689315898067E-012   6.0797782455305316E-002
   6.2920849086545161E-013  -1.7309764732686972E-012   5.5941113861100844E-002
   6.5954186556638206E-013  -2.1676341277476752E-012   5.0964776733356726E-002
   6.8989258750207227E-013  -2.5992541452524165E-012   4.5868771072072434E-002
  -4.5829275769958960E-004   1.0685241148986613E-003   6.4328325003351172E-002
  -5.6365884977043618E-004   1.3943089063361280E-003   5.9620756567358435E-002
  -6.6902494184129316E-004   1.8182193940881053E-003   5.4822124480703560E-002
  -7.7439103391214233E-004   2.3402555781544820E-003   4.9932428743386242E-002
  -8.7975712598298283E-004   2.9604174585351473E-003   4.4951669355407065E-002
  -9.5051918089498859E-004   2.1370482306391492E-003   6.3398589434463387E-002
  -1.1326464821891612E-003   2.7886178139618911E-003   5.8818578319450948E-002
  -1.3147737834833606E-003   3.6364387899077560E-003   5.4176108436654449E-002
  -1.4969010847775480E-003   4.6805111584768792E-003   4.9471179786073481E-002
  -1.6790283860717327E-003   5.9208349196697707E-003   4.4703792367707718E-002
  -1.4766792690175906E-003   3.2055723463796648E-003   6.2745575809305704E-002
  -1.7069628966572782E-003   4.1829267215870991E-003   5.8391247711583286E-002
  -1.9372465242969864E-003   5.4546581857270113E-003   5.4003065728954261E-002
  -2.1675301519366776E-003   7.0207667387993580E-003   4.9581029861418026E-002
  -2.3978137795763682E-003   8.8812523808041721E-003   4.5125140108976391E-002
  -2.0367730220674507E-003   4.2740964621199584E-003   6.2369284127878677E-002
  -2.2866080931748176E-003   5.5772356292127512E-003   5.8338764743754656E-002
  -2.5364431642821636E-003   7.2728775815465996E-003   5.4302996357602162E-002
  -2.7862782353895200E-003   9.3610223191216424E-003   5.0261978969420584E-002
  -3.0361133064968765E-003   1.1841669841938796E-002   4.6215712579210422E-002
  -2.5093062798240681E-002   7.3751962874364918E-003   6.1934795512332719E-002
  -2.4310973497620750E-002   7.1717461169208963E-003   6.1715351334296231E-002
  -2.3528884197000784E-002   6.9639443689741565E-003   6.1671818552952617E-002
  -2.2746794896380842E-002   6.7517910435960851E-003   6.1804197168302100E-002
  -2.1964705595760900E-002   6.5352861407867446E-003   6.2112487180344733E-002
  -3.1332596157127787E-002   9.2460371732771551E-003   5.8957675801322496E-002
  -3.0367770888514670E-002   9.0092771931079008E-003   5.8700514480831884E-002
  -2.9402945619901623E-002   8.7558836485027713E-003   5.8632913699634442E-002
  -2.8438120351288548E-002   8.4858565394615934E-003   5.8754873457730269E-002
  -2.7473295082675486E-002   8.1991958659843878E-003   5.9066393755119212E-002
  -3.7606178658835324E-002   1.1116878059117791E-002   5.5953387274160993E-002
  -3.6444968279628981E-002   1.0846808269294933E-002   5.5646226824211664E-002
  -3.5283757900422638E-002   1.0547822928031400E-002   5.5542276056155554E-002
  -3.4122547521216275E-002   1.0219922035327043E-002   5.5641534969992905E-002
  -3.2961337142009932E-002   9.8631055911820031E-003   5.5944003565723488E-002
  -4.3913810303363450E-002   1.2987718944958426E-002   5.2921929930848162E-002
  -4.2542565670963622E-002   1.2684339345482007E-002   5.2552488364435219E-002
  -4.1171321038563802E-002   1.2339762207560022E-002   5.2399905622515758E-002
  -3.9800076406164002E-002   1.1953987531192522E-002   5.2464181705089943E-002
  -3.8428831773764174E-002   1.1527015316379605E-002   5.2745316612157631E-002
  -5.0255491090712062E-002   1.4858559830799090E-002   4.9863303771384204E-002
  -4.8660563062518619E-002   1.4521870421668970E-002   4.9419299101503000E-002
  -4.7065635034325162E-002   1.4131701487088602E-002   4.9205802398715387E-002
  -4.5470707006131712E-002   1.3688053027058018E-002   4.9222813663021461E-002
  -4.3875778977938290E-002   1.3190925041577262E-002   4.9470332894421376E-002
  -2.1964705595760900E-002   6.5352861407867446E-003   6.2112487180344733E-002
  -2.1147853049068847E-002   6.3085946893330913E-003   6.1787941422434933E-002
  -2.0331000502376795E-002   6.0658817180217345E-003   6.1675335576753032E-002
  -1.9514147955684735E-002   5.8071472268528650E-003   6.1774669643298960E-002
  -1.8697295408992683E-002   5.5323912158266042E-003   6.2085943622072648E-002
  -2.7473295082675486E-002   8.1991958659843878E-003   5.9066393755119212E-002
  -2.6448378958193901E-002   7.8990185985711031E-003   5.8745308518704561E-002
  -2.5423462833712315E-002   7.5884417077217714E-003   5.8628410525641078E-002
  -2.4398546709230737E-002   7.2674651934365453E-003   5.8715699775928859E-002
  -2.3373630584749169E-002   6.9360890557150223E-003   5.9007176269567863E-002
  -3.2961337142009932E-002   9.8631055911820031E-003   5.5944003565723488E-002
  -3.1736110108615413E-002   9.4894425078093092E-003   5.5632000747225352E-002
  -3.0510883075220891E-002   9.1110016974219263E-003   5.5516432503201964E-002
  -2.9285656041826369E-002   8.7277831600201163E-003   5.5597298833653025E-002
  -2.8060429008431850E-002   8.3397868956036070E-003   5.5874599738578945E-002
  -3.8428831773764174E-002   1.1527015316379605E-002   5.2745316612157631E-002
  -3.7011046500333322E-002   1.1079866417047418E-002   5.2448018107997485E-002
  -3.5593261226902477E-002   1.0633561687122078E-002   5.2339401509435446E-002
  -3.4175475953471611E-002   1.0188101126603604E-002   5.2419466816471472E-002
  -3.2757690680040780E-002   9.7434847354921639E-003   5.2688214029105368E-002
  -4.3875778977938290E-002   1.3190925041577262E-002   4.9470332894421376E-002
  -4.2273188133347683E-002   1.2670290326285555E-002   4.9193360601020780E-002
  -4.0670597288757090E-002   1.2156121676822146E-002   4.9097317544341684E-002
  -3.9068006444166477E-002   1.1648419093187236E-002   4.9182203724383949E-002
  -3.7465415599575905E-002   1.1147182575380610E-002   4.9448019141147770E-002
  -1.8697295408992683E-002   5.5323912158266042E-003   6.2085943622072648E-002
  -1.7853299200833367E-002   5.2476455285115353E-003   6.1852926855720913E-002
  -1.7009302992674051E-002   4.9589420084766300E-003   6.1823422965410102E-002
  -1.6165306784514739E-002   4.6662806557217357E-003   6.1997431951140380E-002
  -1.5321310576355419E-002   4.3696614702469772E-003   6.2374953812911582E-002
  -2.3373630584749169E-002   6.9360890557150223E-003   5.9007176269567863E-002
  -2.2328216386289897E-002   6.5957820089833086E-003   5.8755891355896317E-002
  -2.1282802187830643E-002   6.2480127676662195E-003   5.8703929546783662E-002
  -2.0237387989371372E-002   5.8927813317645010E-003   5.8851290842229856E-002
  -1.9191973790912104E-002   5.5300877012777194E-003   5.9197975242234968E-002
  -2.8060429008431850E-002   8.3397868956036070E-003   5.5874599738578945E-002
  -2.6817786591154785E-002   7.9439184894548598E-003   5.5601542315722494E-002
  -2.5575144173877747E-002   7.5370835268561420E-003   5.5523618225942956E-002
  -2.4332501756600660E-002   7.1192820078073774E-003   5.5640827469240095E-002
  -2.3089859339323643E-002   6.6905139323086282E-003   5.5953170045613926E-002
  -3.2757690680040780E-002   9.7434847354921639E-003   5.2688214029105368E-002
  -3.1322009815428049E-002   9.2920549699266330E-003   5.2389879735199291E-002
  -2.9886328950815340E-002   8.8261542860457592E-003   5.2282489002887754E-002
  -2.8450648086202627E-002   8.3457826838501982E-003   5.2366041832170751E-002
  -2.7014967221589900E-002   7.8509401633394538E-003   5.2640538223048365E-002
  -3.7465415599575905E-002   1.1147182575380610E-002   4.9448019141147770E-002
  -3.5840886059109692E-002   1.0640191450398212E-002   4.9120903614326805E-002
  -3.4216356518643472E-002   1.0115225045235793E-002   4.8980541877618161E-002
  -3.2591826978177252E-002   9.5722833598931092E-003   4.9026933931022004E-002
  -3.0967297437711039E-002   9.0113663943703903E-003   4.9260079774538279E-002
  -1.5321310576355419E-002   4.3696614702469772E-003   6.2374953812911582E-002
  -1.4429696781658841E-002   4.0662165669154149E-003   6.2204803603789105E-002
  -1.3538082986962258E-002   3.7530780605913028E-003   6.2250898631335927E-002
  -1.2646469192265671E-002   3.4302459512740233E-003   6.2513238895551826E-002
  -1.1754855397569090E-002   3.0977202389639302E-003   6.2991824396437135E-002
  -1.9191973790912104E-002   5.5300877012777194E-003   5.9197975242234968E-002
  -1.8088030668741890E-002   5.1594366047808260E-003   5.8987613619848306E-002
  -1.6984087546571637E-002   4.7803327708493271E-003   5.8985665415739630E-002
  -1.5880144424401426E-002   4.3927761994825287E-003   5.9192130629909301E-002
  -1.4776201302231173E-002   3.9967668906809584E-003   5.9607009262356847E-002
  -2.3089859339323643E-002   6.6905139323086282E-003   5.5953170045613926E-002
  -2.1781418708070828E-002   6.2526566426464036E-003   5.5703837875520884E-002
  -2.0472978076817996E-002   5.8075874811071432E-003   5.5655087305314932E-002
  -1.9164537445565170E-002   5.3553064476909822E-003   5.5806918334996021E-002
  -1.7856096814312349E-002   4.8958135423978755E-003   5.6159330964563964E-002
  -2.7014967221589900E-002   7.8509401633394538E-003   5.2640538223048365E-002
  -2.5509860899645607E-002   7.3458766805117870E-003   5.2353476370807006E-002
  -2.4004754577701296E-002   6.8348421913649524E-003   5.2259164300061819E-002
  -2.2499648255757013E-002   6.3178366958993506E-003   5.2357602010812326E-002
  -2.0994541933812689E-002   5.7948601941146816E-003   5.2648789503058957E-002
  -3.0967297437711039E-002   9.0113663943703903E-003   4.9260079774538279E-002
  -2.9273357243466303E-002   8.4390967183772259E-003   4.8936529105706672E-002
  -2.7579417049221566E-002   7.8620969016228448E-003   4.8797896399979945E-002
  -2.5885476854976830E-002   7.2803669441078231E-003   4.8844181657358154E-002
  -2.4191536660732094E-002   6.6939068458317097E-003   4.9075384877841133E-002
  -1.1754855397569090E-002   3.0977202389639302E-003   6.2991824396437135E-002
  -1.0789106042851326E-002   2.7693384726631409E-003   6.2930370661426482E-002
  -9.8233566881335832E-003   2.4589382013729955E-003   6.3104613205083648E-002
  -8.8576073334158296E-003   2.1665194250942432E-003   6.3514552027408827E-002
  -7.8918579786980692E-003   1.8920821438268565E-003   6.4160187128402102E-002
  -1.4776201302231173E-002   3.9967668906809584E-003   5.9607009262356847E-002
  -1.3582625568175341E-002   3.6021224726514589E-003   5.9493718027592235E-002
  -1.2389049834119495E-002   3.2186605736003460E-003   5.9600383272835900E-002
  -1.1195474100063661E-002   2.8463811935283759E-003   5.9927004998087757E-002
  -1.0001898366007816E-002   2.4852843324352225E-003   6.0473583203347725E-002
  -1.7856096814312349E-002   4.8958135423978755E-003   5.6159330964563964E-002
  -1.6450434499578129E-002   4.4349064726394993E-003   5.5987403254013079E-002
  -1.5044772184843881E-002   3.9783829458275854E-003   5.6019692224810791E-002
  -1.3639109870109644E-002   3.5262429619621755E-003   5.6256197876956918E-002
  -1.2233447555375416E-002   3.0784865210431445E-003   5.6696920210451696E-002
  -2.0994541933812689E-002   5.7948601941146816E-003   5.2648789503058957E-002
  -1.9392532837059703E-002   5.2676904726279561E-003   5.2411426340689383E-002
  -1.7790523740306763E-002   4.7381053180548804E-003   5.2362540061008503E-002
  -1.6188514643553809E-002   4.2061047303959195E-003   5.2502130664016544E-002
  -1.4586505546800839E-002   3.6716887096510664E-003   5.2830198149713528E-002
  -2.4191536660732094E-002   6.6939068458317097E-003   4.9075384877841133E-002
  -2.2408920580620106E-002   6.1004744726158577E-003   4.8765787287620543E-002
  -2.0626304500508119E-002   5.4978276902822310E-003   4.8628926781428938E-002
  -1.8843688420396125E-002   4.8859664988300106E-003   4.8664803359266706E-002
  -1.7061072340284145E-002   4.2648908982593214E-003   4.8873417021133458E-002
  -7.8918579786980692E-003   1.8920821438268565E-003   6.4160187128402102E-002
  -6.9581317216386787E-003   1.6816642966875905E-003   6.4074407701096403E-002
  -6.0244054645792848E-003   1.5813038227934229E-003   6.4238320251255254E-002
  -5.0906792075198892E-003   1.5910007221441314E-003   6.4651924778878489E-002
  -4.1569529504605005E-003   1.7107549947399381E-003   6.5315221283965941E-002
  -1.0001898366007816E-002   2.4852843324352225E-003   6.0473583203347725E-002
  -8.8178034439960543E-003   2.1858178370066650E-003   6.0378039454269949E-002
  -7.6337085219843094E-003   1.9984295539277053E-003   6.0533541057632700E-002
  -6.4496135999725594E-003   1.9231194831994813E-003   6.0940088013435423E-002
  -5.2655186779608024E-003   1.9598876248213548E-003   6.1597680321678949E-002
  -1.2233447555375416E-002   3.0784865210431445E-003   5.6696920210451696E-002
  -1.0797630593435300E-002   2.6899713773250178E-003   5.6593632978706787E-002
  -9.3618136314951826E-003   2.4155552850622097E-003   5.6742744474378382E-002
  -7.9259966695550358E-003   2.2552382442547203E-003   5.7144254697466174E-002
  -6.4901797076149497E-003   2.2090202549026605E-003   5.7798163647970302E-002
  -1.4586505546800839E-002   3.6716887096510664E-003   5.2830198149713528E-002
  -1.2897613169956376E-002   3.1941249176437869E-003   5.2721188274406777E-002
  -1.1208720793111901E-002   2.8326810161967142E-003   5.2865930501492395E-002
  -9.5198284162674156E-003   2.5873570053100148E-003   5.3264424830970103E-002
  -7.8309360394229616E-003   2.4581528849837997E-003   5.3916671262840568E-002
  -1.7061072340284145E-002   4.2648908982593214E-003   4.8873417021133458E-002
  -1.5117751173559291E-002   3.6982784579624450E-003   4.8760705341369892E-002
  -1.3174430006834451E-002   3.2498067473310244E-003   4.8903099138974615E-002
  -1.1231108840109597E-002   2.9194757663652607E-003   4.9300598413947821E-002
  -9.2877876733847564E-003   2.7072855150653830E-003   4.9953203166289151E-002
  -4.1569529504605005E-003   1.7107549947399381E-003   6.5315221283965941E-002
  -3.6269079683622293E-003   2.0020510558649840E-003   6.4401190435852795E-002
  -3.0968629862639756E-003   2.5263733208034655E-003   6.3605523960467369E-002
  -2.5668180041657235E-003   3.2837217895551191E-003   6.2928221857809385E-002
  -2.0367730220674507E-003   4.2740964621199584E-003   6.2369284127878677E-002
  -5.2655186779608024E-003   1.9598876248213548E-003   6.1597680321678949E-002
  -4.5910288423473347E-003   2.2158633507824987E-003   6.0873316232270602E-002
  -3.9165390067338705E-003   2.7981760330716421E-003   6.0319477477165234E-002
  -3.2420491711204098E-003   3.7068256716890347E-003   5.9936164056362581E-002
  -2.5675593355069352E-003   4.9418122666348152E-003   5.9723375969863102E-002
  -6.4901797076149497E-003   2.2090202549026605E-003   5.7798163647970302E-002
  -5.6190840569108162E-003   2.4296756456997637E-003   5.7356777069781817E-002
  -4.7479884062066975E-003   3.0699787453399019E-003   5.7138076787471265E-002
  -3.8768927555025930E-003   4.1299295538233874E-003   5.7142062801039117E-002
  -3.0057971047984453E-003   5.6095280711495610E-003   5.7368735110485514E-002
  -7.8309360394229616E-003   2.4581528849837997E-003   5.3916671262840568E-002
  -6.7110736120526808E-003   2.6434879406172090E-003   5.3851572948386189E-002
  -5.5912111846824538E-003   3.3417814576081756E-003   5.4061321891385759E-002
  -4.4713487573122017E-003   4.5530334359572995E-003   5.4545918091839077E-002
  -3.3514863299419478E-003   6.2772438756643623E-003   5.5305361549746357E-002
  -9.2877876733847564E-003   2.7072855150653830E-003   4.9953203166289151E-002
  -7.8669975077729215E-003   2.8573002355344879E-003   5.0357703868084247E-002
  -6.4462073421611144E-003   3.6135841698762827E-003   5.1089212788908545E-002
  -5.0254171765493141E-003   4.9761373180916973E-003   5.2147729928762210E-002
  -3.6046270109374723E-003   6.9449596801789415E-003   5.3533255287645076E-002
  -2.0367730220674507E-003   4.2740964621199584E-003   6.2369284127878677E-002
  -2.2866080931748176E-003   5.5772356292127512E-003   5.8338764743754656E-002
  -2.5364431642821636E-003   7.2728775815465996E-003   5.4302996357602162E-002
  -2.7862782353895200E-003   9.3610223191216424E-003   5.0261978969420584E-002
  -3.0361133064968765E-003   1.1841669841938796E-002   4.6215712579210422E-002
  -2.5675593355069352E-003   4.9418122666348152E-003   5.9723375969863102E-002
  -2.8401505028427358E-003   6.5666918403891050E-003   5.6190873928952612E-002
  -3.1127416701785520E-003   8.6450204154314425E-003   5.2618108697613408E-002
  -3.3853328375143396E-003   1.1176797991762209E-002   4.9005080275846408E-002
  -3.6579240048501688E-003   1.4162024569380982E-002   4.5351788663651194E-002
  -3.0057971047984453E-003   5.6095280711495610E-003   5.7368735110485514E-002
  -3.3361585567621005E-003   7.5561480515651258E-003   5.4395196628834852E-002
  -3.6665200087257419E-003   1.0017163249316063E-002   5.1346380768356570E-002
  -3.9968814606894222E-003   1.2992573664401999E-002   4.8222287529050778E-002
  -4.3272429126530419E-003   1.6482379296823169E-002   4.5022916910917421E-002
  -3.3514863299419478E-003   6.2772438756643623E-003   5.5305361549746357E-002
  -3.7746322549328908E-003   8.5456042627416462E-003   5.2951732843402509E-002
  -4.1977781799238199E-003   1.1389306083200795E-002   5.0487812569831897E-002
  -4.6209241049146952E-003   1.4808349337041955E-002   4.7913600729034160E-002
  -5.0440700299056642E-003   1.8802734024265244E-002   4.5229097321009409E-002
  -3.6046270109374723E-003   6.9449596801789415E-003   5.3533255287645076E-002
  -4.1555715973550650E-003   9.5350604739179445E-003   5.1860482572654965E-002
  -4.7065161837726716E-003   1.2761448917085472E-002   5.0042404102038973E-002
  -5.2574607701902781E-003   1.6624125009682064E-002   4.8079019875795492E-002
  -5.8084053566078708E-003   2.1123088751707542E-002   4.5970329893926909E-002
  -5.0255491090712062E-002   1.4858559830799090E-002   4.9863303771384204E-002
  -4.8660563062518619E-002   1.4521870421668970E-002   4.9419299101503000E-002
  -4.7065635034325162E-002   1.4131701487088602E-002   4.9205802398715387E-002
  -4.5470707006131712E-002   1.3688053027058018E-002   4.9222813663021461E-002
  -4.3875778977938290E-002   1.3190925041577262E-002   4.9470332894421376E-002
  -5.6575349880114090E-002   1.6812333327767548E-002   4.4796710044920862E-002
  -5.4759660780178590E-002   1.6354387472856363E-002   4.4379630035304901E-002
  -5.2943971680243132E-002   1.5867877977202460E-002   4.4173564202079546E-002
  -5.1128282580307625E-002   1.5352804840805853E-002   4.4178512545244422E-002
  -4.9312593480372161E-002   1.4809168063666306E-002   4.4394475064799654E-002
  -6.2817515530802337E-002   1.8766106824735923E-002   3.9596401930322447E-002
  -6.0800559149828230E-002   1.8186904524043868E-002   3.9231162465679634E-002
  -5.8783602768854026E-002   1.7604054467316312E-002   3.9057443386723754E-002
  -5.6766646387879871E-002   1.7017556654553519E-002   3.9075244693454983E-002
  -5.4749690006905723E-002   1.6427411085755295E-002   3.9284566385873049E-002
  -6.8981988042776957E-002   2.0719880321704340E-002   3.4262379427589473E-002
  -6.6783258171467449E-002   2.0019421575231178E-002   3.3973896392626969E-002
  -6.4584528300157998E-002   1.9340230957430111E-002   3.3857439952648234E-002
  -6.2385798428848512E-002   1.8682308468301215E-002   3.3913010107653040E-002
  -6.0187068557538970E-002   1.8045654107844311E-002   3.4140606857641580E-002
  -7.5068767416037852E-002   2.2673653818672757E-002   2.8794642536721704E-002
  -7.2707757845096394E-002   2.1851938626418710E-002   2.8607831816147122E-002
  -7.0346748274154880E-002   2.1076407447543979E-002   2.8573553899852749E-002
  -6.7985738703213450E-002   2.0347060282049027E-002   2.8691808787838682E-002
  -6.5624729132271964E-002   1.9663897129933328E-002   2.8962596480105018E-002
  -4.3875778977938290E-002   1.3190925041577262E-002   4.9470332894421376E-002
  -4.2273188133347683E-002   1.2670290326285555E-002   4.9193360601020780E-002
  -4.0670597288757090E-002   1.2156121676822146E-002   4.9097317544341684E-002
  -3.9068006444166477E-002   1.1648419093187236E-002   4.9182203724383949E-002
  -3.7465415599575905E-002   1.1147182575380610E-002   4.9448019141147770E-002
  -4.9312593480372161E-002   1.4809168063666306E-002   4.4394475064799654E-002
  -4.7528270387711902E-002   1.4251254058134044E-002   4.4121261383540500E-002
  -4.5743947295051664E-002   1.3693349236558953E-002   4.4030582961699163E-002
  -4.3959624202391412E-002   1.3135453598941317E-002   4.4122439799275652E-002
  -4.2175301109731160E-002   1.2577567145281021E-002   4.4396831896270000E-002
  -5.4749690006905723E-002   1.6427411085755295E-002   3.9284566385873049E-002
  -5.2782028643479410E-002   1.5832217789982519E-002   3.9008654434884153E-002
  -5.0814367280053091E-002   1.5230576796295928E-002   3.8916883766009477E-002
  -4.8846705916626793E-002   1.4622488104695620E-002   3.9009254379249077E-002
  -4.6879044553200480E-002   1.4007951715181377E-002   3.9285766274602979E-002
  -6.0187068557538970E-002   1.8045654107844311E-002   3.4140606857641580E-002
  -5.8034462900650181E-002   1.7413181521831085E-002   3.3855539755051817E-002
  -5.5881857243761414E-002   1.6767804356032930E-002   3.3756219957272626E-002
  -5.3729251586872584E-002   1.6109522610449754E-002   3.3842647464304217E-002
  -5.1576645929983803E-002   1.5438336285081677E-002   3.4114822276146588E-002
  -6.5624729132271964E-002   1.9663897129933328E-002   2.8962596480105018E-002
  -6.3285573159224284E-002   1.8994145253679540E-002   2.8661917344043275E-002
  -6.0946417186176563E-002   1.8305031915769654E-002   2.8548591535488610E-002
  -5.8607261213128863E-002   1.7596557116204045E-002   2.8622619054441162E-002
  -5.6268105240081190E-002   1.6868720854982089E-002   2.8883999900900736E-002
  -3.7465415599575905E-002   1.1147182575380610E-002   4.9448019141147770E-002
  -3.5840886059109692E-002   1.0640191450398212E-002   4.9120903614326805E-002
  -3.4216356518643472E-002   1.0115225045235793E-002   4.8980541877618161E-002
  -3.2591826978177252E-002   9.5722833598931092E-003   4.9026933931022004E-002
  -3.0967297437711039E-002   9.0113663943703903E-003   4.9260079774538279E-002
  -4.2175301109731160E-002   1.2577567145281021E-002   4.4396831896270000E-002
  -4.0366029908093980E-002   1.2013938588422340E-002   4.4059111971926551E-002
  -3.8556758706456751E-002   1.1438816641209881E-002   4.3904121579812591E-002
  -3.6747487504819591E-002   1.0852201303643602E-002   4.3931860719928238E-002
  -3.4938216303182362E-002   1.0254092575723572E-002   4.4142329392273305E-002
  -4.6879044553200480E-002   1.4007951715181377E-002   3.9285766274602979E-002
  -4.4889055948275219E-002   1.3387685726446510E-002   3.8943923842563288E-002
  -4.2899067343349973E-002   1.2762408237184178E-002   3.8780786684870255E-002
  -4.0909078738424691E-002   1.2132119247394258E-002   3.8796354801523748E-002
  -3.8919090133499465E-002   1.1496818757076699E-002   3.8990628192523941E-002
  -5.1576645929983803E-002   1.5438336285081677E-002   3.4114822276146588E-002
  -4.9409964179653425E-002   1.4761432864470632E-002   3.3775339226236947E-002
  -4.7243282429323019E-002   1.4085999833158315E-002   3.3610537192791029E-002
  -4.5076600678992655E-002   1.3412037191144721E-002   3.3620416175808999E-002
  -4.2909918928662236E-002   1.2739544938429909E-002   3.3804976175290373E-002
  -5.6268105240081190E-002   1.6868720854982089E-002   2.8883999900900736E-002
  -5.3928754602228568E-002   1.6135180002494781E-002   2.8553358122947570E-002
  -5.1589403964375960E-002   1.5409591429132591E-002   2.8393373103575065E-002
  -4.9250053326523345E-002   1.4691955134895442E-002   2.8404044842783402E-002
  -4.6910702688670730E-002   1.3982271119783063E-002   2.8585373340572484E-002
  -3.0967297437711039E-002   9.0113663943703903E-003   4.9260079774538279E-002
  -2.9273357243466303E-002   8.4390967183772259E-003   4.8936529105706672E-002
  -2.7579417049221566E-002   7.8620969016228448E-003   4.8797896399979945E-002
  -2.5885476854976830E-002   7.2803669441078231E-003   4.8844181657358154E-002
  -2.4191536660732094E-002   6.6939068458317097E-003   4.9075384877841133E-002
  -3.4938216303182362E-002   1.0254092575723572E-002   4.4142329392273305E-002
  -3.3065470029715514E-002   9.6456372921268074E-003   4.3795746943833064E-002
  -3.1192723756248604E-002   9.0279822875307392E-003   4.3621858690732318E-002
  -2.9319977482781697E-002   8.4011275619352219E-003   4.3620664632971068E-002
  -2.7447231209314832E-002   7.7650731153406372E-003   4.3792164770549147E-002
  -3.8919090133499465E-002   1.1496818757076699E-002   3.8990628192523941E-002
  -3.6879761548575848E-002   1.0852177865876583E-002   3.8616544384236839E-002
  -3.4840432963652294E-002   1.0193867673438592E-002   3.8402931003523613E-002
  -3.2801104378728727E-002   9.5218881797630127E-003   3.8349788050384560E-002
  -3.0761775793805117E-002   8.8362393848495091E-003   3.8457115524819285E-002
  -4.2909918928662236E-002   1.2739544938429909E-002   3.3804976175290373E-002
  -4.0716231800047437E-002   1.2058718439626206E-002   3.3398921426917895E-002
  -3.8522544671432526E-002   1.1359753059346632E-002   3.3141113338353720E-002
  -3.6328857542817623E-002   1.0642648797590663E-002   3.3031551909598347E-002
  -3.4135170414202817E-002   9.9074056543584088E-003   3.3070237140651285E-002
  -4.6910702688670730E-002   1.3982271119783063E-002   2.8585373340572484E-002
  -4.4574880784130078E-002   1.3265259013375996E-002   2.8142878071876209E-002
  -4.2239058879589411E-002   1.2525638445254242E-002   2.7836405695222971E-002
  -3.9903236975048752E-002   1.1763409415418206E-002   2.7665956210612755E-002
  -3.7567415070508037E-002   1.0978571923867309E-002   2.7631529618045603E-002
  -2.4191536660732094E-002   6.6939068458317097E-003   4.9075384877841133E-002
  -2.2408920580620106E-002   6.1004744726158577E-003   4.8765787287620543E-002
  -2.0626304500508119E-002   5.4978276902822310E-003   4.8628926781428938E-002
  -1.8843688420396125E-002   4.8859664988300106E-003   4.8664803359266706E-002
  -1.7061072340284145E-002   4.2648908982593214E-003   4.8873417021133458E-002
  -2.7447231209314832E-002   7.7650731153406372E-003   4.3792164770549147E-002
  -2.5497968550595926E-002   7.1245477589571560E-003   4.3413148385150535E-002
  -2.3548705891877131E-002   6.4842803039964342E-003   4.3194688072936471E-002
  -2.1599443233158312E-002   5.8442707504575524E-003   4.3136783833907177E-002
  -1.9650180574439430E-002   5.2045190983410761E-003   4.3239435668062154E-002
  -3.0761775793805117E-002   8.8362393848495091E-003   3.8457115524819285E-002
  -2.8658047567324055E-002   8.1486210452986763E-003   3.8018152654783380E-002
  -2.6554319340842941E-002   7.4707329177106374E-003   3.7727564847087322E-002
  -2.4450591114361889E-002   6.8025750020854273E-003   3.7585352101731445E-002
  -2.2346862887880771E-002   6.1441472984229972E-003   3.7591514418715027E-002
  -3.4135170414202817E-002   9.9074056543584088E-003   3.3070237140651285E-002
  -3.1889157630804209E-002   9.1726943316397525E-003   3.2580800096518717E-002
  -2.9643144847405573E-002   8.4571855314249517E-003   3.2227557103881428E-002
  -2.7397132064006992E-002   7.7608792537130246E-003   3.2010508162739426E-002
  -2.5151119280608321E-002   7.0837754985047796E-003   3.1929653273092669E-002
  -3.7567415070508037E-002   1.0978571923867309E-002   2.7631529618045603E-002
  -3.5191298741036547E-002   1.0196767617981495E-002   2.7101090710356990E-002
  -3.2815182411565003E-002   9.4436381451389884E-003   2.6694664843318783E-002
  -3.0439066082093458E-002   8.7191835053409411E-003   2.6412252016931148E-002
  -2.8062949752621941E-002   8.0234036985866730E-003   2.6253852231194252E-002
  -1.7061072340284145E-002   4.2648908982593214E-003   4.8873417021133458E-002
  -1.5117751173559291E-002   3.6982784579624450E-003   4.8760705341369892E-002
  -1.3174430006834451E-002   3.2498067473310244E-003   4.8903099138974615E-002
  -1.1231108840109597E-002   2.9194757663652607E-003   4.9300598413947821E-002
  -9.2877876733847564E-003   2.7072855150653830E-003   4.9953203166289151E-002
  -1.9650180574439430E-002   5.2045190983410761E-003   4.3239435668062154E-002
  -1.7490300561711553E-002   4.6016358255254741E-003   4.3076413071069686E-002
  -1.5330420548983634E-002   4.0722314098899648E-003   4.3091402688715141E-002
  -1.3170540536255739E-002   3.6163058514337085E-003   4.3284404520998188E-002
  -1.1010660523527838E-002   3.2338591501570590E-003   4.3655418567918935E-002
  -2.2346862887880771E-002   6.1441472984229972E-003   3.7591514418715027E-002
  -2.0047517291880500E-002   5.5049931930889473E-003   3.7333519032008045E-002
  -1.7748171695880229E-002   4.8946560724484472E-003   3.7176442597207968E-002
  -1.5448826099880016E-002   4.3131359365020418E-003   3.7120285114315150E-002
  -1.3149480503879686E-002   3.7604327852492903E-003   3.7165046583329198E-002
  -2.5151119280608321E-002   7.0837754985047796E-003   3.1929653273092669E-002
  -2.2789401364066309E-002   6.4083505606520874E-003   3.1532023224184851E-002
  -2.0427683447524242E-002   5.7170807350072697E-003   3.1158218864453534E-002
  -1.8065965530982206E-002   5.0099660215704323E-003   3.0808240193898759E-002
  -1.5704247614440163E-002   4.2870064203412994E-003   3.0482087212520256E-002
  -2.8062949752621941E-002   8.0234036985866730E-003   2.6253852231194252E-002
  -2.5715952778268797E-002   7.3117079282154496E-003   2.5671925647600013E-002
  -2.3368955803915667E-002   6.5395053975659811E-003   2.5036731490451603E-002
  -2.1021958829562530E-002   5.7067961066388506E-003   2.4348269759748881E-002
  -1.8674961855209393E-002   4.8135800554333086E-003   2.3606540455491709E-002
  -9.2877876733847564E-003   2.7072855150653830E-003   4.9953203166289151E-002
  -7.8669975077729215E-003   2.8573002355344879E-003   5.0357703868084247E-002
  -6.4462073421611144E-003   3.6135841698762827E-003   5.1089212788908545E-002
  -5.0254171765493141E-003   4.9761373180916973E-003   5.2147729928762210E-002
  -3.6046270109374723E-003   6.9449596801789415E-003   5.3533255287645076E-002
  -1.1010660523527838E-002   3.2338591501570590E-003   4.3655418567918935E-002
  -9.2445042015276285E-003   3.1630165710440084E-003   4.4240329377374099E-002
  -7.4783478795274402E-003   3.6419033790774380E-003   4.5188964280576699E-002
  -5.7121915575272415E-003   4.6705195742580974E-003   4.6501323277526860E-002
  -3.9460352355270428E-003   6.2488651565850706E-003   4.8177406368224207E-002
  -1.3149480503879686E-002   3.7604327852492903E-003   3.7165046583329198E-002
  -1.1001242150772944E-002   3.4687329065538897E-003   3.7873827673718469E-002
  -8.8530037976661813E-003   3.6702225882788431E-003   3.8983048732573439E-002
  -6.7047654445594167E-003   4.3649018304246154E-003   4.0492709759894066E-002
  -4.5565270914526765E-003   5.5527706329913107E-003   4.2402810755680143E-002
  -1.5704247614440163E-002   4.2870064203412994E-003   3.0482087212520256E-002
  -1.3137211355508722E-002   3.7744492420633685E-003   3.1258198757117453E-002
  -1.0570175096577254E-002   3.6985417974799567E-003   3.2471466144898500E-002
  -8.0031388376457721E-003   4.0592840865917405E-003   3.4121889375863620E-002
  -5.4361025787143438E-003   4.8566761093972732E-003   3.6209468450012369E-002
  -1.8674961855209393E-002   4.8135800554333086E-003   2.3606540455491709E-002
  -1.5652411815735068E-002   4.0801655775733470E-003   2.4393442627571149E-002
  -1.2629861776260715E-002   3.7268610066814589E-003   2.5654216517552342E-002
  -9.6073117367863753E-003   3.7536663427579359E-003   2.7388862125435426E-002
  -6.5847616973120360E-003   4.1605815858035688E-003   2.9597379451220429E-002
  -3.6046270109374723E-003   6.9449596801789415E-003   5.3533255287645076E-002
  -4.1555715973550650E-003   9.5350604739179445E-003   5.1860482572654965E-002
  -4.7065161837726716E-003   1.2761448917085472E-002   5.0042404102038973E-002
  -5.2574607701902781E-003   1.6624125009682064E-002   4.8079019875795492E-002
  -5.8084053566078708E-003   2.1123088751707542E-002   4.5970329893926909E-002
  -3.9460352355270428E-003   6.2488651565850706E-003   4.8177406368224207E-002
  -4.5385155280747297E-003   8.6869169536549773E-003   4.7242305417278418E-002
  -5.1309958206224790E-003   1.2294651793063549E-002   4.6369438809698849E-002
  -5.7234761131701971E-003   1.7072069674810841E-002   4.5558806545484914E-002
  -6.3159564057179152E-003   2.3019170598896910E-002   4.4810408624637477E-002
  -4.5565270914526765E-003   5.5527706329913107E-003   4.2402810755680143E-002
  -4.9830029911379463E-003   7.8387734333922321E-003   4.2738776961687791E-002
  -5.4094788908233792E-003   1.1827854669041765E-002   4.3344517610054034E-002
  -5.8359547905087843E-003   1.7520014339939514E-002   4.4220032700778997E-002
  -6.2624306901940818E-003   2.4915252446085834E-002   4.5365322233862693E-002
  -5.4361025787143438E-003   4.8566761093972732E-003   3.6209468450012369E-002
  -5.4890339865448180E-003   6.9906299131295979E-003   3.8349897205883318E-002
  -5.5419653943752905E-003   1.1361057545019912E-002   4.0967640503105647E-002
  -5.5948968022057370E-003   1.7967959005068462E-002   4.4062698341679390E-002
  -5.6478282100362390E-003   2.6811334293275091E-002   4.7635070721603945E-002
  -6.5847616973120360E-003   4.1605815858035688E-003   2.9597379451220429E-002
  -6.0566085142951254E-003   6.1424863928666307E-003   3.4075666149864903E-002
  -5.5284553312782980E-003   1.0894260420998031E-002   3.9238807488852945E-002
  -5.0003021482614707E-003   1.8415903670196958E-002   4.5086803468184361E-002
  -4.4721489652446156E-003   2.8707416140464126E-002   5.1619654087859512E-002
  -7.5068767416037852E-002   2.2673653818672757E-002   2.8794642536721704E-002
  -7.2707757845096394E-002   2.1851938626418710E-002   2.8607831816147122E-002
  -7.0346748274154880E-002   2.1076407447543979E-002   2.8573553899852749E-002
  -6.7985738703213450E-002   2.0347060282049027E-002   2.8691808787838682E-002
  -6.5624729132271964E-002   1.9663897129933328E-002   2.8962596480105018E-002
  -8.1120722005336154E-002   2.4407422472778328E-002   2.1748025235918289E-002
  -7.8605305159895764E-002   2.3614091817381777E-002   2.1584682862363674E-002
  -7.6089888314455387E-002   2.2833852043785477E-002   2.1577622233526605E-002
  -7.3574471469014996E-002   2.2066703151989362E-002   2.1726843349407055E-002
  -7.1059054623574605E-002   2.1312645141993769E-002   2.2032346210005077E-002
  -8.7180720165422970E-002   2.6141191126883873E-002   1.4746339037761971E-002
  -8.4507147105046421E-002   2.5376245008344817E-002   1.4573371879648300E-002
  -8.1833574044669802E-002   2.4591296640026940E-002   1.4560435406689116E-002
  -7.9160000984293266E-002   2.3786346021930027E-002   1.4707529618884930E-002
  -7.6486427923916689E-002   2.2961393154054155E-002   1.5014654516235432E-002
  -9.3248761896298327E-002   2.7874959780989431E-002   7.7895839422531012E-003
  -9.0413283680548337E-002   2.7138398199307981E-002   7.5738988680005490E-003
  -8.7577805464798403E-002   2.6348741236268337E-002   7.5219934193403049E-003
  -8.4742327249048455E-002   2.5505988891870529E-002   7.6338675962721340E-003
  -8.1906849033298409E-002   2.4610141166114347E-002   7.9095213987958254E-003
  -9.9324847197962196E-002   2.9608728435094989E-002   8.7775994939109925E-004
  -9.6323714886401568E-002   2.8900551390271145E-002   5.8626382742110739E-004
  -9.3322582574840940E-002   2.8106185832509789E-002   4.6229627148033914E-004
  -9.0321450263280312E-002   2.7225631761810976E-002   5.0585728156894022E-004
  -8.7320317951719684E-002   2.6258889178174982E-002   7.1694685768675104E-004
  -6.5624729132271964E-002   1.9663897129933328E-002   2.8962596480105018E-002
  -6.3285573159224284E-002   1.8994145253679540E-002   2.8661917344043275E-002
  -6.0946417186176563E-002   1.8305031915769654E-002   2.8548591535488610E-002
  -5.8607261213128863E-002   1.7596557116204045E-002   2.8622619054441162E-002
  -5.6268105240081190E-002   1.6868720854982089E-002   2.8883999900900736E-002
  -7.1059054623574605E-002   2.1312645141993769E-002   2.2032346210005077E-002
  -6.8532364418669944E-002   2.0561918384132710E-002   2.1725905249660088E-002
  -6.6005674213765325E-002   1.9804763248740767E-002   2.1607179425521969E-002
  -6.3478984008860706E-002   1.9041179735817874E-002   2.1676168737590568E-002
  -6.0952293803956087E-002   1.8271167845364256E-002   2.1932873185865953E-002
  -7.6486427923916689E-002   2.2961393154054155E-002   1.5014654516235432E-002
  -7.3771841678455505E-002   2.2129691514585909E-002   1.4715384815732493E-002
  -7.1057255432994279E-002   2.1304494581711769E-002   1.4604192060135843E-002
  -6.8342669187533081E-002   2.0485802355431980E-002   1.4681076249445590E-002
  -6.5628082942071869E-002   1.9673614835746284E-002   1.4946037383661778E-002
  -8.1906849033298409E-002   2.4610141166114347E-002   7.9095213987958254E-003
  -7.9004004938580966E-002   2.3697464645039037E-002   7.6303560422597873E-003
  -7.6101160843863536E-002   2.2804225914682855E-002   7.5396294393297453E-003
  -7.3198316749146078E-002   2.1930424975046003E-002   7.6373415900060169E-003
  -7.0295472654428676E-002   2.1076061826128353E-002   7.9234924942882465E-003
  -8.7320317951719684E-002   2.6258889178174982E-002   7.1694685768675104E-004
  -8.4228854199046355E-002   2.5265237775492277E-002   4.7081892924272228E-004
  -8.1137390446373026E-002   2.4303957247653940E-002   4.1349156310452329E-004
  -7.8045926693699696E-002   2.3375047594660012E-002   5.4496475927206384E-004
  -7.4954462941026367E-002   2.2478508816510478E-002   8.6523851774522598E-004
  -5.6268105240081190E-002   1.6868720854982089E-002   2.8883999900900736E-002
  -5.3928754602228568E-002   1.6135180002494781E-002   2.8553358122947570E-002
  -5.1589403964375960E-002   1.5409591429132591E-002   2.8393373103575065E-002
  -4.9250053326523345E-002   1.4691955134895442E-002   2.8404044842783402E-002
  -4.6910702688670730E-002   1.3982271119783063E-002   2.8585373340572484E-002
  -6.0952293803956087E-002   1.8271167845364256E-002   2.1932873185865953E-002
  -5.8440156652029812E-002   1.7499370592620939E-002   2.1618165555203267E-002
  -5.5928019500103593E-002   1.6730430992830114E-002   2.1478374194106989E-002
  -5.3415882348177367E-002   1.5964349045991311E-002   2.1513499102577154E-002
  -5.0903745196251154E-002   1.5201124752104889E-002   2.1723540280613796E-002
  -6.5628082942071869E-002   1.9673614835746284E-002   1.4946037383661778E-002
  -6.2938899765086390E-002   1.8863561182747388E-002   1.4642169274116795E-002
  -6.0249716588100868E-002   1.8051270556527679E-002   1.4517476945123814E-002
  -5.7560533411115340E-002   1.7236742957087343E-002   1.4571960396683063E-002
  -5.4871350234129861E-002   1.6419978384426576E-002   1.4805619628794411E-002
  -7.0295472654428676E-002   2.1076061826128353E-002   7.9234924942882465E-003
  -6.7424983941398176E-002   2.0227751772873663E-002   7.6253692796879255E-003
  -6.4554495228367703E-002   1.9372110120225168E-002   7.5106813566254947E-003
  -6.1684006515337231E-002   1.8509136868183625E-002   7.5794287251007095E-003
  -5.8813517802306758E-002   1.7638832016748276E-002   7.8316113851141199E-003
  -7.4954462941026367E-002   2.2478508816510478E-002   8.6523851774522598E-004
  -7.1898409180965239E-002   2.1591942363000050E-002   5.6776557191701160E-004
  -6.8842355420904111E-002   2.0692949683922823E-002   4.5798742861208330E-004
  -6.5786301660842983E-002   1.9781530779279424E-002   5.3590408783095456E-004
  -6.2730247900781855E-002   1.8857685649070088E-002   8.0151554957297311E-004
  -4.6910702688670730E-002   1.3982271119783063E-002   2.8585373340572484E-002
  -4.4574880784130078E-002   1.3265259013375996E-002   2.8142878071876209E-002
  -4.2239058879589411E-002   1.2525638445254242E-002   2.7836405695222971E-002
  -3.9903236975048752E-002   1.1763409415418206E-002   2.7665956210612755E-002
  -3.7567415070508037E-002   1.0978571923867309E-002   2.7631529618045603E-002
  -5.0903745196251154E-002   1.5201124752104889E-002   2.1723540280613796E-002
  -4.8425528860290765E-002   1.4434760582070716E-002   2.1296981087515321E-002
  -4.5947312524330347E-002   1.3659259006790339E-002   2.1019187865213174E-002
  -4.3469096188369916E-002   1.2874620026262915E-002   2.0890160613707479E-002
  -4.0990879852409484E-002   1.2080843640489058E-002   2.0909899332998250E-002
  -5.4871350234129861E-002   1.6419978384426576E-002   1.4805619628794411E-002
  -5.2237996387996331E-002   1.5604262150765630E-002   1.4408467567761471E-002
  -4.9604642541862795E-002   1.4792879568326152E-002   1.4172824556278336E-002
  -4.6971288695729300E-002   1.3985830637107790E-002   1.4098690594345053E-002
  -4.4337934849595736E-002   1.3183115357110475E-002   1.4186065681961318E-002
  -5.8813517802306758E-002   1.7638832016748276E-002   7.8316113851141199E-003
  -5.6012283367246764E-002   1.6773763719460280E-002   7.4773375126147533E-003
  -5.3211048932186797E-002   1.5926500129861774E-002   7.2973157684183432E-003
  -5.0409814497126802E-002   1.5097041247952525E-002   7.2915461525251595E-003
  -4.7608580062066835E-002   1.4285387073732336E-002   7.4600286649353156E-003
  -6.2730247900781855E-002   1.8857685649070088E-002   8.0151554957297311E-004
  -5.9748389798042090E-002   1.7943265288155263E-002   5.0359092207502565E-004
  -5.6766531695302325E-002   1.7060120691398062E-002   3.9266150163369540E-004
  -5.3784673592562560E-002   1.6208251858797207E-002   4.6872728824860765E-004
  -5.0802815489822795E-002   1.5387658790353642E-002   7.3178828191999834E-004
  -3.7567415070508037E-002   1.0978571923867309E-002   2.7631529618045603E-002
  -3.5191298741036547E-002   1.0196767617981495E-002   2.7101090710356990E-002
  -3.2815182411565003E-002   9.4436381451389884E-003   2.6694664843318783E-002
  -3.0439066082093458E-002   8.7191835053409411E-003   2.6412252016931148E-002
  -2.8062949752621941E-002   8.0234036985866730E-003   2.6253852231194252E-002
  -4.0990879852409484E-002   1.2080843640489058E-002   2.0909899332998250E-002
  -3.8499763336457812E-002   1.1290054294544938E-002   2.0468750514829492E-002
  -3.6008646820506043E-002   1.0514376433507125E-002   2.0133589028970555E-002
  -3.3517530304554351E-002   9.7538100573760951E-003   1.9904414875421328E-002
  -3.1026413788602603E-002   9.0083551661511718E-003   1.9781228054181976E-002
  -4.4337934849595736E-002   1.3183115357110475E-002   1.4186065681961318E-002
  -4.1749843855504648E-002   1.2383340971108714E-002   1.3820643605175112E-002
  -3.9161752861413525E-002   1.1585114721875150E-002   1.3543183152357974E-002
  -3.6573661867322430E-002   1.0788436609410916E-002   1.3353684323509606E-002
  -3.3985570873231292E-002   9.9933066337155596E-003   1.3252147118630320E-002
  -4.7608580062066835E-002   1.4285387073732336E-002   7.4600286649353156E-003
  -4.4941540298177131E-002   1.3476627647671546E-002   7.1567699813942891E-003
  -4.2274500534287426E-002   1.2655853010242954E-002   6.9234472134810689E-003
  -3.9607460770397680E-002   1.1823063161445737E-002   6.7600603611963350E-003
  -3.6940421006508024E-002   1.0978258101280225E-002   6.6666094245397059E-003
  -5.0802815489822795E-002   1.5387658790353642E-002   7.3178828191999834E-004
  -4.8074852664475309E-002   1.4569914324235822E-002   4.7712964348606279E-004
  -4.5346889839127769E-002   1.3726591298611646E-002   2.7438121234005242E-004
  -4.2618927013780228E-002   1.2857689713480808E-002   1.2354298848116924E-004
  -3.9890964188432743E-002   1.1963209568844668E-002   2.4614971909420191E-005
  -2.8062949752621941E-002   8.0234036985866730E-003   2.6253852231194252E-002
  -2.5715952778268797E-002   7.3117079282154496E-003   2.5671925647600013E-002
  -2.3368955803915667E-002   6.5395053975659811E-003   2.5036731490451603E-002
  -2.1021958829562530E-002   5.7067961066388506E-003   2.4348269759748881E-002
  -1.8674961855209393E-002   4.8135800554333086E-003   2.3606540455491709E-002
  -3.1026413788602603E-002   9.0083551661511718E-003   1.9781228054181976E-002
  -2.8714768917285236E-002   8.2676464438033448E-003   1.9188460938742713E-002
  -2.6403124045967924E-002   7.5213185743027988E-003   1.8578257190786263E-002
  -2.4091479174650585E-002   6.7693715576495825E-003   1.7950616810312389E-002
  -2.1779834303333190E-002   6.0118053938432725E-003   1.7305539797321190E-002
  -3.3985570873231292E-002   9.9933066337155596E-003   1.3252147118630320E-002
  -3.1673447163912793E-002   9.2235849593911290E-003   1.2703427084471475E-002
  -2.9361323454594312E-002   8.5031317510393944E-003   1.2173101358832317E-002
  -2.7049199745275851E-002   7.8319470086598703E-003   1.1661169941712561E-002
  -2.4737076035957331E-002   7.2100307322534030E-003   1.1167632833112562E-002
  -3.6940421006508024E-002   1.0978258101280225E-002   6.6666094245397059E-003
  -3.4591987518151492E-002   1.0179523474979135E-002   6.2168240847866180E-003
  -3.2243554029794952E-002   9.4849449277759901E-003   5.8212639945897440E-003
  -2.9895120541438416E-002   8.8945224596710462E-003   5.4799291539499063E-003
  -2.7546687053081890E-002   8.4082560706633391E-003   5.1928195628659427E-003
  -3.9890964188432743E-002   1.1963209568844668E-002   2.4614971909420191E-005
  -3.7470389980001295E-002   1.1135461990567141E-002  -2.7134806031264835E-004
  -3.5049815771569792E-002   1.0466758104512863E-002  -4.7725490194103215E-004
  -3.2629241563138345E-002   9.9570979106812924E-003  -5.9310555297666795E-004
  -3.0208667354706842E-002   9.6064814090737194E-003  -6.1890001341846634E-004
  -1.8674961855209393E-002   4.8135800554333086E-003   2.3606540455491709E-002
  -1.5652411815735068E-002   4.0801655775733470E-003   2.4393442627571149E-002
  -1.2629861776260715E-002   3.7268610066814589E-003   2.5654216517552342E-002
  -9.6073117367863753E-003   3.7536663427579359E-003   2.7388862125435426E-002
  -6.5847616973120360E-003   4.1605815858035688E-003   2.9597379451220429E-002
  -2.1779834303333190E-002   6.0118053938432725E-003   1.7305539797321190E-002
  -1.8552888708946780E-002   5.3433942669374179E-003   1.8252616085870699E-002
  -1.5325943114560384E-002   4.8589123609837914E-003   1.9134611766342374E-002
  -1.2098997520173946E-002   4.5583596759828648E-003   1.9951526838736369E-002
  -8.8720519257875774E-003   4.4417362119344439E-003   2.0703361303052170E-002
  -2.4737076035957331E-002   7.2100307322534030E-003   1.1167632833112562E-002
  -2.1844687212638617E-002   6.6066229563016832E-003   1.2078702552116516E-002
  -1.8952298389319930E-002   5.9909637152862072E-003   1.2385739337062884E-002
  -1.6059909566001233E-002   5.3630530092078979E-003   1.2088743187951459E-002
  -1.3167520742682473E-002   4.7228908380658186E-003   1.1187714104782670E-002
  -2.7546687053081890E-002   8.4082560706633391E-003   5.1928195628659427E-003
  -2.5527807326810648E-002   7.8698516456655182E-003   5.8717020263085590E-003
  -2.3508927600539409E-002   7.1230150695889144E-003   5.4075992297133654E-003
  -2.1490047874268132E-002   6.1677463424324348E-003   3.8005111730812398E-003
  -1.9471168147996931E-002   5.0040454641971654E-003   1.0504378564115471E-003
  -3.0208667354706842E-002   9.6064814090737194E-003  -6.1890001341846634E-004
  -2.9602249051462914E-002   9.1330803350302414E-003  -3.6838549155365774E-004
  -2.8995830748218820E-002   8.2550664238907889E-003  -1.7998085557055787E-003
  -2.8389412444974810E-002   6.9724396756570411E-003  -4.9131692058745832E-003
  -2.7782994141730799E-002   5.2852000903282903E-003  -9.7084674420612194E-003
  -6.5847616973120360E-003   4.1605815858035688E-003   2.9597379451220429E-002
  -6.0566085142951254E-003   6.1424863928666307E-003   3.4075666149864903E-002
  -5.5284553312782980E-003   1.0894260420998031E-002   3.9238807488852945E-002
  -5.0003021482614707E-003   1.8415903670196958E-002   4.5086803468184361E-002
  -4.4721489652446156E-003   2.8707416140464126E-002   5.1619654087859512E-002
  -8.8720519257875774E-003   4.4417362119344439E-003   2.0703361303052170E-002
  -7.5865336459845084E-003   5.6588028402700385E-003   2.5872639962160771E-002
  -6.3010153661814255E-003   9.3593204324193546E-003   3.1871794174498203E-002
  -5.0154970863784121E-003   1.5543288988382857E-002   3.8700823940063772E-002
  -3.7299788065752737E-003   2.4210708508160650E-002   4.6359729258859117E-002
  -1.3167520742682473E-002   4.7228908380658186E-003   1.1187714104782670E-002
  -1.0979616453208108E-002   5.1751192876728358E-003   1.6761566467101668E-002
  -8.7917121637338599E-003   7.8243804438402481E-003   2.3310315295534303E-002
  -6.6038078742594458E-003   1.2670674306568538E-002   3.0833960590081082E-002
  -4.4159035847851358E-003   1.9714000875857174E-002   3.9332502350741705E-002
  -1.9471168147996931E-002   5.0040454641971654E-003   1.0504378564115471E-003
  -1.6235856935966103E-002   4.6914357350761604E-003   6.7424456646871661E-003
  -1.3000545723935303E-002   6.2894404552611347E-003   1.3554370851962438E-002
  -9.7652345119046378E-003   9.7980596247542167E-003   2.1486213418236116E-002
  -6.5299232998736675E-003   1.5217293243553809E-002   3.0537973363509302E-002
  -2.7782994141730799E-002   5.2852000903282903E-003  -9.7084674420612194E-003
  -2.3355255094258398E-002   4.2077521824790409E-003  -4.1847224450816678E-003
  -1.8927516046786053E-002   4.7545004666827428E-003   2.6039608437815887E-003
  -1.4499776999313679E-002   6.9254449429397430E-003   1.0657582424528945E-002
  -1.0072037951841306E-002   1.0720585611250222E-002   1.9976142297160715E-002
 </DataArray>
 </PointData>
 </Piece>
 </UnstructuredGrid>
 </VTKFile>
