 <VTKFile type="UnstructuredGrid"  version="0.1"   >
 <UnstructuredGrid>
 <Piece  NumberOfPoints="          1600 "  NumberOfCells="         1024 ">
 <Points>
 <DataArray  type="Float64" NumberOfComponents="3"  format="ascii" >
   0.0000000000000000        0.0000000000000000        0.0000000000000000     
   3.1250000000000000E-002   0.0000000000000000        0.0000000000000000     
   6.2500000000000000E-002   0.0000000000000000        0.0000000000000000     
   9.3750000000000000E-002   0.0000000000000000        0.0000000000000000     
  0.12500000000000000        0.0000000000000000        0.0000000000000000     
   0.0000000000000000        3.1250000000000000E-002   0.0000000000000000     
   3.1250000000000000E-002   3.1250000000000000E-002   0.0000000000000000     
   6.2500000000000000E-002   3.1250000000000000E-002   0.0000000000000000     
   9.3750000000000000E-002   3.1250000000000000E-002   0.0000000000000000     
  0.12500000000000000        3.1250000000000000E-002   0.0000000000000000     
   0.0000000000000000        6.2500000000000000E-002   0.0000000000000000     
   3.1250000000000000E-002   6.2500000000000000E-002   0.0000000000000000     
   6.2500000000000000E-002   6.2500000000000000E-002   0.0000000000000000     
   9.3750000000000000E-002   6.2500000000000000E-002   0.0000000000000000     
  0.12500000000000000        6.2500000000000000E-002   0.0000000000000000     
   0.0000000000000000        9.3750000000000000E-002   0.0000000000000000     
   3.1250000000000000E-002   9.3750000000000000E-002   0.0000000000000000     
   6.2500000000000000E-002   9.3750000000000000E-002   0.0000000000000000     
   9.3750000000000000E-002   9.3750000000000000E-002   0.0000000000000000     
  0.12500000000000000        9.3750000000000000E-002   0.0000000000000000     
   0.0000000000000000       0.12500000000000000        0.0000000000000000     
   3.1250000000000000E-002  0.12500000000000000        0.0000000000000000     
   6.2500000000000000E-002  0.12500000000000000        0.0000000000000000     
   9.3750000000000000E-002  0.12500000000000000        0.0000000000000000     
  0.12500000000000000       0.12500000000000000        0.0000000000000000     
  0.12500000000000000        0.0000000000000000        0.0000000000000000     
  0.15625000000000000        0.0000000000000000        0.0000000000000000     
  0.18750000000000000        0.0000000000000000        0.0000000000000000     
  0.21875000000000000        0.0000000000000000        0.0000000000000000     
  0.25000000000000000        0.0000000000000000        0.0000000000000000     
  0.12500000000000000        3.1250000000000000E-002   0.0000000000000000     
  0.15625000000000000        3.1250000000000000E-002   0.0000000000000000     
  0.18750000000000000        3.1250000000000000E-002   0.0000000000000000     
  0.21875000000000000        3.1250000000000000E-002   0.0000000000000000     
  0.25000000000000000        3.1250000000000000E-002   0.0000000000000000     
  0.12500000000000000        6.2500000000000000E-002   0.0000000000000000     
  0.15625000000000000        6.2500000000000000E-002   0.0000000000000000     
  0.18750000000000000        6.2500000000000000E-002   0.0000000000000000     
  0.21875000000000000        6.2500000000000000E-002   0.0000000000000000     
  0.25000000000000000        6.2500000000000000E-002   0.0000000000000000     
  0.12500000000000000        9.3750000000000000E-002   0.0000000000000000     
  0.15625000000000000        9.3750000000000000E-002   0.0000000000000000     
  0.18750000000000000        9.3750000000000000E-002   0.0000000000000000     
  0.21875000000000000        9.3750000000000000E-002   0.0000000000000000     
  0.25000000000000000        9.3750000000000000E-002   0.0000000000000000     
  0.12500000000000000       0.12500000000000000        0.0000000000000000     
  0.15625000000000000       0.12500000000000000        0.0000000000000000     
  0.18750000000000000       0.12500000000000000        0.0000000000000000     
  0.21875000000000000       0.12500000000000000        0.0000000000000000     
  0.25000000000000000       0.12500000000000000        0.0000000000000000     
  0.25000000000000000        0.0000000000000000        0.0000000000000000     
  0.28125000000000000        0.0000000000000000        0.0000000000000000     
  0.31250000000000000        0.0000000000000000        0.0000000000000000     
  0.34375000000000000        0.0000000000000000        0.0000000000000000     
  0.37500000000000000        0.0000000000000000        0.0000000000000000     
  0.25000000000000000        3.1250000000000000E-002   0.0000000000000000     
  0.28125000000000000        3.1250000000000000E-002   0.0000000000000000     
  0.31250000000000000        3.1250000000000000E-002   0.0000000000000000     
  0.34375000000000000        3.1250000000000000E-002   0.0000000000000000     
  0.37500000000000000        3.1250000000000000E-002   0.0000000000000000     
  0.25000000000000000        6.2500000000000000E-002   0.0000000000000000     
  0.28125000000000000        6.2500000000000000E-002   0.0000000000000000     
  0.31250000000000000        6.2500000000000000E-002   0.0000000000000000     
  0.34375000000000000        6.2500000000000000E-002   0.0000000000000000     
  0.37500000000000000        6.2500000000000000E-002   0.0000000000000000     
  0.25000000000000000        9.3750000000000000E-002   0.0000000000000000     
  0.28125000000000000        9.3750000000000000E-002   0.0000000000000000     
  0.31250000000000000        9.3750000000000000E-002   0.0000000000000000     
  0.34375000000000000        9.3750000000000000E-002   0.0000000000000000     
  0.37500000000000000        9.3750000000000000E-002   0.0000000000000000     
  0.25000000000000000       0.12500000000000000        0.0000000000000000     
  0.28125000000000000       0.12500000000000000        0.0000000000000000     
  0.31250000000000000       0.12500000000000000        0.0000000000000000     
  0.34375000000000000       0.12500000000000000        0.0000000000000000     
  0.37500000000000000       0.12500000000000000        0.0000000000000000     
  0.37500000000000000        0.0000000000000000        0.0000000000000000     
  0.40625000000000000        0.0000000000000000        0.0000000000000000     
  0.43750000000000000        0.0000000000000000        0.0000000000000000     
  0.46875000000000000        0.0000000000000000        0.0000000000000000     
  0.50000000000000000        0.0000000000000000        0.0000000000000000     
  0.37500000000000000        3.1250000000000000E-002   0.0000000000000000     
  0.40625000000000000        3.1250000000000000E-002   0.0000000000000000     
  0.43750000000000000        3.1250000000000000E-002   0.0000000000000000     
  0.46875000000000000        3.1250000000000000E-002   0.0000000000000000     
  0.50000000000000000        3.1250000000000000E-002   0.0000000000000000     
  0.37500000000000000        6.2500000000000000E-002   0.0000000000000000     
  0.40625000000000000        6.2500000000000000E-002   0.0000000000000000     
  0.43750000000000000        6.2500000000000000E-002   0.0000000000000000     
  0.46875000000000000        6.2500000000000000E-002   0.0000000000000000     
  0.50000000000000000        6.2500000000000000E-002   0.0000000000000000     
  0.37500000000000000        9.3750000000000000E-002   0.0000000000000000     
  0.40625000000000000        9.3750000000000000E-002   0.0000000000000000     
  0.43750000000000000        9.3750000000000000E-002   0.0000000000000000     
  0.46875000000000000        9.3750000000000000E-002   0.0000000000000000     
  0.50000000000000000        9.3750000000000000E-002   0.0000000000000000     
  0.37500000000000000       0.12500000000000000        0.0000000000000000     
  0.40625000000000000       0.12500000000000000        0.0000000000000000     
  0.43750000000000000       0.12500000000000000        0.0000000000000000     
  0.46875000000000000       0.12500000000000000        0.0000000000000000     
  0.50000000000000000       0.12500000000000000        0.0000000000000000     
  0.50000000000000000        0.0000000000000000        0.0000000000000000     
  0.53125000000000000        0.0000000000000000        0.0000000000000000     
  0.56250000000000000        0.0000000000000000        0.0000000000000000     
  0.59375000000000000        0.0000000000000000        0.0000000000000000     
  0.62500000000000000        0.0000000000000000        0.0000000000000000     
  0.50000000000000000        3.1250000000000000E-002   0.0000000000000000     
  0.53125000000000000        3.1250000000000000E-002   0.0000000000000000     
  0.56250000000000000        3.1250000000000000E-002   0.0000000000000000     
  0.59375000000000000        3.1250000000000000E-002   0.0000000000000000     
  0.62500000000000000        3.1250000000000000E-002   0.0000000000000000     
  0.50000000000000000        6.2500000000000000E-002   0.0000000000000000     
  0.53125000000000000        6.2500000000000000E-002   0.0000000000000000     
  0.56250000000000000        6.2500000000000000E-002   0.0000000000000000     
  0.59375000000000000        6.2500000000000000E-002   0.0000000000000000     
  0.62500000000000000        6.2500000000000000E-002   0.0000000000000000     
  0.50000000000000000        9.3750000000000000E-002   0.0000000000000000     
  0.53125000000000000        9.3750000000000000E-002   0.0000000000000000     
  0.56250000000000000        9.3750000000000000E-002   0.0000000000000000     
  0.59375000000000000        9.3750000000000000E-002   0.0000000000000000     
  0.62500000000000000        9.3750000000000000E-002   0.0000000000000000     
  0.50000000000000000       0.12500000000000000        0.0000000000000000     
  0.53125000000000000       0.12500000000000000        0.0000000000000000     
  0.56250000000000000       0.12500000000000000        0.0000000000000000     
  0.59375000000000000       0.12500000000000000        0.0000000000000000     
  0.62500000000000000       0.12500000000000000        0.0000000000000000     
  0.62500000000000000        0.0000000000000000        0.0000000000000000     
  0.65625000000000000        0.0000000000000000        0.0000000000000000     
  0.68750000000000000        0.0000000000000000        0.0000000000000000     
  0.71875000000000000        0.0000000000000000        0.0000000000000000     
  0.75000000000000000        0.0000000000000000        0.0000000000000000     
  0.62500000000000000        3.1250000000000000E-002   0.0000000000000000     
  0.65625000000000000        3.1250000000000000E-002   0.0000000000000000     
  0.68750000000000000        3.1250000000000000E-002   0.0000000000000000     
  0.71875000000000000        3.1250000000000000E-002   0.0000000000000000     
  0.75000000000000000        3.1250000000000000E-002   0.0000000000000000     
  0.62500000000000000        6.2500000000000000E-002   0.0000000000000000     
  0.65625000000000000        6.2500000000000000E-002   0.0000000000000000     
  0.68750000000000000        6.2500000000000000E-002   0.0000000000000000     
  0.71875000000000000        6.2500000000000000E-002   0.0000000000000000     
  0.75000000000000000        6.2500000000000000E-002   0.0000000000000000     
  0.62500000000000000        9.3750000000000000E-002   0.0000000000000000     
  0.65625000000000000        9.3750000000000000E-002   0.0000000000000000     
  0.68750000000000000        9.3750000000000000E-002   0.0000000000000000     
  0.71875000000000000        9.3750000000000000E-002   0.0000000000000000     
  0.75000000000000000        9.3750000000000000E-002   0.0000000000000000     
  0.62500000000000000       0.12500000000000000        0.0000000000000000     
  0.65625000000000000       0.12500000000000000        0.0000000000000000     
  0.68750000000000000       0.12500000000000000        0.0000000000000000     
  0.71875000000000000       0.12500000000000000        0.0000000000000000     
  0.75000000000000000       0.12500000000000000        0.0000000000000000     
  0.75000000000000000        0.0000000000000000        0.0000000000000000     
  0.78125000000000000        0.0000000000000000        0.0000000000000000     
  0.81250000000000000        0.0000000000000000        0.0000000000000000     
  0.84375000000000000        0.0000000000000000        0.0000000000000000     
  0.87500000000000000        0.0000000000000000        0.0000000000000000     
  0.75000000000000000        3.1250000000000000E-002   0.0000000000000000     
  0.78125000000000000        3.1250000000000000E-002   0.0000000000000000     
  0.81250000000000000        3.1250000000000000E-002   0.0000000000000000     
  0.84375000000000000        3.1250000000000000E-002   0.0000000000000000     
  0.87500000000000000        3.1250000000000000E-002   0.0000000000000000     
  0.75000000000000000        6.2500000000000000E-002   0.0000000000000000     
  0.78125000000000000        6.2500000000000000E-002   0.0000000000000000     
  0.81250000000000000        6.2500000000000000E-002   0.0000000000000000     
  0.84375000000000000        6.2500000000000000E-002   0.0000000000000000     
  0.87500000000000000        6.2500000000000000E-002   0.0000000000000000     
  0.75000000000000000        9.3750000000000000E-002   0.0000000000000000     
  0.78125000000000000        9.3750000000000000E-002   0.0000000000000000     
  0.81250000000000000        9.3750000000000000E-002   0.0000000000000000     
  0.84375000000000000        9.3750000000000000E-002   0.0000000000000000     
  0.87500000000000000        9.3750000000000000E-002   0.0000000000000000     
  0.75000000000000000       0.12500000000000000        0.0000000000000000     
  0.78125000000000000       0.12500000000000000        0.0000000000000000     
  0.81250000000000000       0.12500000000000000        0.0000000000000000     
  0.84375000000000000       0.12500000000000000        0.0000000000000000     
  0.87500000000000000       0.12500000000000000        0.0000000000000000     
  0.87500000000000000        0.0000000000000000        0.0000000000000000     
  0.90625000000000000        0.0000000000000000        0.0000000000000000     
  0.93750000000000000        0.0000000000000000        0.0000000000000000     
  0.96875000000000000        0.0000000000000000        0.0000000000000000     
   1.0000000000000000        0.0000000000000000        0.0000000000000000     
  0.87500000000000000        3.1250000000000000E-002   0.0000000000000000     
  0.90625000000000000        3.1250000000000000E-002   0.0000000000000000     
  0.93750000000000000        3.1250000000000000E-002   0.0000000000000000     
  0.96875000000000000        3.1250000000000000E-002   0.0000000000000000     
   1.0000000000000000        3.1250000000000000E-002   0.0000000000000000     
  0.87500000000000000        6.2500000000000000E-002   0.0000000000000000     
  0.90625000000000000        6.2500000000000000E-002   0.0000000000000000     
  0.93750000000000000        6.2500000000000000E-002   0.0000000000000000     
  0.96875000000000000        6.2500000000000000E-002   0.0000000000000000     
   1.0000000000000000        6.2500000000000000E-002   0.0000000000000000     
  0.87500000000000000        9.3750000000000000E-002   0.0000000000000000     
  0.90625000000000000        9.3750000000000000E-002   0.0000000000000000     
  0.93750000000000000        9.3750000000000000E-002   0.0000000000000000     
  0.96875000000000000        9.3750000000000000E-002   0.0000000000000000     
   1.0000000000000000        9.3750000000000000E-002   0.0000000000000000     
  0.87500000000000000       0.12500000000000000        0.0000000000000000     
  0.90625000000000000       0.12500000000000000        0.0000000000000000     
  0.93750000000000000       0.12500000000000000        0.0000000000000000     
  0.96875000000000000       0.12500000000000000        0.0000000000000000     
   1.0000000000000000       0.12500000000000000        0.0000000000000000     
   0.0000000000000000       0.12500000000000000        0.0000000000000000     
   3.1250000000000000E-002  0.12500000000000000        0.0000000000000000     
   6.2500000000000000E-002  0.12500000000000000        0.0000000000000000     
   9.3750000000000000E-002  0.12500000000000000        0.0000000000000000     
  0.12500000000000000       0.12500000000000000        0.0000000000000000     
   0.0000000000000000       0.15625000000000000        0.0000000000000000     
   3.1250000000000000E-002  0.15625000000000000        0.0000000000000000     
   6.2500000000000000E-002  0.15625000000000000        0.0000000000000000     
   9.3750000000000000E-002  0.15625000000000000        0.0000000000000000     
  0.12500000000000000       0.15625000000000000        0.0000000000000000     
   0.0000000000000000       0.18750000000000000        0.0000000000000000     
   3.1250000000000000E-002  0.18750000000000000        0.0000000000000000     
   6.2500000000000000E-002  0.18750000000000000        0.0000000000000000     
   9.3750000000000000E-002  0.18750000000000000        0.0000000000000000     
  0.12500000000000000       0.18750000000000000        0.0000000000000000     
   0.0000000000000000       0.21875000000000000        0.0000000000000000     
   3.1250000000000000E-002  0.21875000000000000        0.0000000000000000     
   6.2500000000000000E-002  0.21875000000000000        0.0000000000000000     
   9.3750000000000000E-002  0.21875000000000000        0.0000000000000000     
  0.12500000000000000       0.21875000000000000        0.0000000000000000     
   0.0000000000000000       0.25000000000000000        0.0000000000000000     
   3.1250000000000000E-002  0.25000000000000000        0.0000000000000000     
   6.2500000000000000E-002  0.25000000000000000        0.0000000000000000     
   9.3750000000000000E-002  0.25000000000000000        0.0000000000000000     
  0.12500000000000000       0.25000000000000000        0.0000000000000000     
  0.12500000000000000       0.12500000000000000        0.0000000000000000     
  0.15625000000000000       0.12500000000000000        0.0000000000000000     
  0.18750000000000000       0.12500000000000000        0.0000000000000000     
  0.21875000000000000       0.12500000000000000        0.0000000000000000     
  0.25000000000000000       0.12500000000000000        0.0000000000000000     
  0.12500000000000000       0.15625000000000000        0.0000000000000000     
  0.15625000000000000       0.15625000000000000        0.0000000000000000     
  0.18750000000000000       0.15625000000000000        0.0000000000000000     
  0.21875000000000000       0.15625000000000000        0.0000000000000000     
  0.25000000000000000       0.15625000000000000        0.0000000000000000     
  0.12500000000000000       0.18750000000000000        0.0000000000000000     
  0.15625000000000000       0.18750000000000000        0.0000000000000000     
  0.18750000000000000       0.18750000000000000        0.0000000000000000     
  0.21875000000000000       0.18750000000000000        0.0000000000000000     
  0.25000000000000000       0.18750000000000000        0.0000000000000000     
  0.12500000000000000       0.21875000000000000        0.0000000000000000     
  0.15625000000000000       0.21875000000000000        0.0000000000000000     
  0.18750000000000000       0.21875000000000000        0.0000000000000000     
  0.21875000000000000       0.21875000000000000        0.0000000000000000     
  0.25000000000000000       0.21875000000000000        0.0000000000000000     
  0.12500000000000000       0.25000000000000000        0.0000000000000000     
  0.15625000000000000       0.25000000000000000        0.0000000000000000     
  0.18750000000000000       0.25000000000000000        0.0000000000000000     
  0.21875000000000000       0.25000000000000000        0.0000000000000000     
  0.25000000000000000       0.25000000000000000        0.0000000000000000     
  0.25000000000000000       0.12500000000000000        0.0000000000000000     
  0.28125000000000000       0.12500000000000000        0.0000000000000000     
  0.31250000000000000       0.12500000000000000        0.0000000000000000     
  0.34375000000000000       0.12500000000000000        0.0000000000000000     
  0.37500000000000000       0.12500000000000000        0.0000000000000000     
  0.25000000000000000       0.15625000000000000        0.0000000000000000     
  0.28125000000000000       0.15625000000000000        0.0000000000000000     
  0.31250000000000000       0.15625000000000000        0.0000000000000000     
  0.34375000000000000       0.15625000000000000        0.0000000000000000     
  0.37500000000000000       0.15625000000000000        0.0000000000000000     
  0.25000000000000000       0.18750000000000000        0.0000000000000000     
  0.28125000000000000       0.18750000000000000        0.0000000000000000     
  0.31250000000000000       0.18750000000000000        0.0000000000000000     
  0.34375000000000000       0.18750000000000000        0.0000000000000000     
  0.37500000000000000       0.18750000000000000        0.0000000000000000     
  0.25000000000000000       0.21875000000000000        0.0000000000000000     
  0.28125000000000000       0.21875000000000000        0.0000000000000000     
  0.31250000000000000       0.21875000000000000        0.0000000000000000     
  0.34375000000000000       0.21875000000000000        0.0000000000000000     
  0.37500000000000000       0.21875000000000000        0.0000000000000000     
  0.25000000000000000       0.25000000000000000        0.0000000000000000     
  0.28125000000000000       0.25000000000000000        0.0000000000000000     
  0.31250000000000000       0.25000000000000000        0.0000000000000000     
  0.34375000000000000       0.25000000000000000        0.0000000000000000     
  0.37500000000000000       0.25000000000000000        0.0000000000000000     
  0.37500000000000000       0.12500000000000000        0.0000000000000000     
  0.40625000000000000       0.12500000000000000        0.0000000000000000     
  0.43750000000000000       0.12500000000000000        0.0000000000000000     
  0.46875000000000000       0.12500000000000000        0.0000000000000000     
  0.50000000000000000       0.12500000000000000        0.0000000000000000     
  0.37500000000000000       0.15625000000000000        0.0000000000000000     
  0.40625000000000000       0.15625000000000000        0.0000000000000000     
  0.43750000000000000       0.15625000000000000        0.0000000000000000     
  0.46875000000000000       0.15625000000000000        0.0000000000000000     
  0.50000000000000000       0.15625000000000000        0.0000000000000000     
  0.37500000000000000       0.18750000000000000        0.0000000000000000     
  0.40625000000000000       0.18750000000000000        0.0000000000000000     
  0.43750000000000000       0.18750000000000000        0.0000000000000000     
  0.46875000000000000       0.18750000000000000        0.0000000000000000     
  0.50000000000000000       0.18750000000000000        0.0000000000000000     
  0.37500000000000000       0.21875000000000000        0.0000000000000000     
  0.40625000000000000       0.21875000000000000        0.0000000000000000     
  0.43750000000000000       0.21875000000000000        0.0000000000000000     
  0.46875000000000000       0.21875000000000000        0.0000000000000000     
  0.50000000000000000       0.21875000000000000        0.0000000000000000     
  0.37500000000000000       0.25000000000000000        0.0000000000000000     
  0.40625000000000000       0.25000000000000000        0.0000000000000000     
  0.43750000000000000       0.25000000000000000        0.0000000000000000     
  0.46875000000000000       0.25000000000000000        0.0000000000000000     
  0.50000000000000000       0.25000000000000000        0.0000000000000000     
  0.50000000000000000       0.12500000000000000        0.0000000000000000     
  0.53125000000000000       0.12500000000000000        0.0000000000000000     
  0.56250000000000000       0.12500000000000000        0.0000000000000000     
  0.59375000000000000       0.12500000000000000        0.0000000000000000     
  0.62500000000000000       0.12500000000000000        0.0000000000000000     
  0.50000000000000000       0.15625000000000000        0.0000000000000000     
  0.53125000000000000       0.15625000000000000        0.0000000000000000     
  0.56250000000000000       0.15625000000000000        0.0000000000000000     
  0.59375000000000000       0.15625000000000000        0.0000000000000000     
  0.62500000000000000       0.15625000000000000        0.0000000000000000     
  0.50000000000000000       0.18750000000000000        0.0000000000000000     
  0.53125000000000000       0.18750000000000000        0.0000000000000000     
  0.56250000000000000       0.18750000000000000        0.0000000000000000     
  0.59375000000000000       0.18750000000000000        0.0000000000000000     
  0.62500000000000000       0.18750000000000000        0.0000000000000000     
  0.50000000000000000       0.21875000000000000        0.0000000000000000     
  0.53125000000000000       0.21875000000000000        0.0000000000000000     
  0.56250000000000000       0.21875000000000000        0.0000000000000000     
  0.59375000000000000       0.21875000000000000        0.0000000000000000     
  0.62500000000000000       0.21875000000000000        0.0000000000000000     
  0.50000000000000000       0.25000000000000000        0.0000000000000000     
  0.53125000000000000       0.25000000000000000        0.0000000000000000     
  0.56250000000000000       0.25000000000000000        0.0000000000000000     
  0.59375000000000000       0.25000000000000000        0.0000000000000000     
  0.62500000000000000       0.25000000000000000        0.0000000000000000     
  0.62500000000000000       0.12500000000000000        0.0000000000000000     
  0.65625000000000000       0.12500000000000000        0.0000000000000000     
  0.68750000000000000       0.12500000000000000        0.0000000000000000     
  0.71875000000000000       0.12500000000000000        0.0000000000000000     
  0.75000000000000000       0.12500000000000000        0.0000000000000000     
  0.62500000000000000       0.15625000000000000        0.0000000000000000     
  0.65625000000000000       0.15625000000000000        0.0000000000000000     
  0.68750000000000000       0.15625000000000000        0.0000000000000000     
  0.71875000000000000       0.15625000000000000        0.0000000000000000     
  0.75000000000000000       0.15625000000000000        0.0000000000000000     
  0.62500000000000000       0.18750000000000000        0.0000000000000000     
  0.65625000000000000       0.18750000000000000        0.0000000000000000     
  0.68750000000000000       0.18750000000000000        0.0000000000000000     
  0.71875000000000000       0.18750000000000000        0.0000000000000000     
  0.75000000000000000       0.18750000000000000        0.0000000000000000     
  0.62500000000000000       0.21875000000000000        0.0000000000000000     
  0.65625000000000000       0.21875000000000000        0.0000000000000000     
  0.68750000000000000       0.21875000000000000        0.0000000000000000     
  0.71875000000000000       0.21875000000000000        0.0000000000000000     
  0.75000000000000000       0.21875000000000000        0.0000000000000000     
  0.62500000000000000       0.25000000000000000        0.0000000000000000     
  0.65625000000000000       0.25000000000000000        0.0000000000000000     
  0.68750000000000000       0.25000000000000000        0.0000000000000000     
  0.71875000000000000       0.25000000000000000        0.0000000000000000     
  0.75000000000000000       0.25000000000000000        0.0000000000000000     
  0.75000000000000000       0.12500000000000000        0.0000000000000000     
  0.78125000000000000       0.12500000000000000        0.0000000000000000     
  0.81250000000000000       0.12500000000000000        0.0000000000000000     
  0.84375000000000000       0.12500000000000000        0.0000000000000000     
  0.87500000000000000       0.12500000000000000        0.0000000000000000     
  0.75000000000000000       0.15625000000000000        0.0000000000000000     
  0.78125000000000000       0.15625000000000000        0.0000000000000000     
  0.81250000000000000       0.15625000000000000        0.0000000000000000     
  0.84375000000000000       0.15625000000000000        0.0000000000000000     
  0.87500000000000000       0.15625000000000000        0.0000000000000000     
  0.75000000000000000       0.18750000000000000        0.0000000000000000     
  0.78125000000000000       0.18750000000000000        0.0000000000000000     
  0.81250000000000000       0.18750000000000000        0.0000000000000000     
  0.84375000000000000       0.18750000000000000        0.0000000000000000     
  0.87500000000000000       0.18750000000000000        0.0000000000000000     
  0.75000000000000000       0.21875000000000000        0.0000000000000000     
  0.78125000000000000       0.21875000000000000        0.0000000000000000     
  0.81250000000000000       0.21875000000000000        0.0000000000000000     
  0.84375000000000000       0.21875000000000000        0.0000000000000000     
  0.87500000000000000       0.21875000000000000        0.0000000000000000     
  0.75000000000000000       0.25000000000000000        0.0000000000000000     
  0.78125000000000000       0.25000000000000000        0.0000000000000000     
  0.81250000000000000       0.25000000000000000        0.0000000000000000     
  0.84375000000000000       0.25000000000000000        0.0000000000000000     
  0.87500000000000000       0.25000000000000000        0.0000000000000000     
  0.87500000000000000       0.12500000000000000        0.0000000000000000     
  0.90625000000000000       0.12500000000000000        0.0000000000000000     
  0.93750000000000000       0.12500000000000000        0.0000000000000000     
  0.96875000000000000       0.12500000000000000        0.0000000000000000     
   1.0000000000000000       0.12500000000000000        0.0000000000000000     
  0.87500000000000000       0.15625000000000000        0.0000000000000000     
  0.90625000000000000       0.15625000000000000        0.0000000000000000     
  0.93750000000000000       0.15625000000000000        0.0000000000000000     
  0.96875000000000000       0.15625000000000000        0.0000000000000000     
   1.0000000000000000       0.15625000000000000        0.0000000000000000     
  0.87500000000000000       0.18750000000000000        0.0000000000000000     
  0.90625000000000000       0.18750000000000000        0.0000000000000000     
  0.93750000000000000       0.18750000000000000        0.0000000000000000     
  0.96875000000000000       0.18750000000000000        0.0000000000000000     
   1.0000000000000000       0.18750000000000000        0.0000000000000000     
  0.87500000000000000       0.21875000000000000        0.0000000000000000     
  0.90625000000000000       0.21875000000000000        0.0000000000000000     
  0.93750000000000000       0.21875000000000000        0.0000000000000000     
  0.96875000000000000       0.21875000000000000        0.0000000000000000     
   1.0000000000000000       0.21875000000000000        0.0000000000000000     
  0.87500000000000000       0.25000000000000000        0.0000000000000000     
  0.90625000000000000       0.25000000000000000        0.0000000000000000     
  0.93750000000000000       0.25000000000000000        0.0000000000000000     
  0.96875000000000000       0.25000000000000000        0.0000000000000000     
   1.0000000000000000       0.25000000000000000        0.0000000000000000     
   0.0000000000000000       0.25000000000000000        0.0000000000000000     
   3.1250000000000000E-002  0.25000000000000000        0.0000000000000000     
   6.2500000000000000E-002  0.25000000000000000        0.0000000000000000     
   9.3750000000000000E-002  0.25000000000000000        0.0000000000000000     
  0.12500000000000000       0.25000000000000000        0.0000000000000000     
   0.0000000000000000       0.28125000000000000        0.0000000000000000     
   3.1250000000000000E-002  0.28125000000000000        0.0000000000000000     
   6.2500000000000000E-002  0.28125000000000000        0.0000000000000000     
   9.3750000000000000E-002  0.28125000000000000        0.0000000000000000     
  0.12500000000000000       0.28125000000000000        0.0000000000000000     
   0.0000000000000000       0.31250000000000000        0.0000000000000000     
   3.1250000000000000E-002  0.31250000000000000        0.0000000000000000     
   6.2500000000000000E-002  0.31250000000000000        0.0000000000000000     
   9.3750000000000000E-002  0.31250000000000000        0.0000000000000000     
  0.12500000000000000       0.31250000000000000        0.0000000000000000     
   0.0000000000000000       0.34375000000000000        0.0000000000000000     
   3.1250000000000000E-002  0.34375000000000000        0.0000000000000000     
   6.2500000000000000E-002  0.34375000000000000        0.0000000000000000     
   9.3750000000000000E-002  0.34375000000000000        0.0000000000000000     
  0.12500000000000000       0.34375000000000000        0.0000000000000000     
   0.0000000000000000       0.37500000000000000        0.0000000000000000     
   3.1250000000000000E-002  0.37500000000000000        0.0000000000000000     
   6.2500000000000000E-002  0.37500000000000000        0.0000000000000000     
   9.3750000000000000E-002  0.37500000000000000        0.0000000000000000     
  0.12500000000000000       0.37500000000000000        0.0000000000000000     
  0.12500000000000000       0.25000000000000000        0.0000000000000000     
  0.15625000000000000       0.25000000000000000        0.0000000000000000     
  0.18750000000000000       0.25000000000000000        0.0000000000000000     
  0.21875000000000000       0.25000000000000000        0.0000000000000000     
  0.25000000000000000       0.25000000000000000        0.0000000000000000     
  0.12500000000000000       0.28125000000000000        0.0000000000000000     
  0.15625000000000000       0.28125000000000000        0.0000000000000000     
  0.18750000000000000       0.28125000000000000        0.0000000000000000     
  0.21875000000000000       0.28125000000000000        0.0000000000000000     
  0.25000000000000000       0.28125000000000000        0.0000000000000000     
  0.12500000000000000       0.31250000000000000        0.0000000000000000     
  0.15625000000000000       0.31250000000000000        0.0000000000000000     
  0.18750000000000000       0.31250000000000000        0.0000000000000000     
  0.21875000000000000       0.31250000000000000        0.0000000000000000     
  0.25000000000000000       0.31250000000000000        0.0000000000000000     
  0.12500000000000000       0.34375000000000000        0.0000000000000000     
  0.15625000000000000       0.34375000000000000        0.0000000000000000     
  0.18750000000000000       0.34375000000000000        0.0000000000000000     
  0.21875000000000000       0.34375000000000000        0.0000000000000000     
  0.25000000000000000       0.34375000000000000        0.0000000000000000     
  0.12500000000000000       0.37500000000000000        0.0000000000000000     
  0.15625000000000000       0.37500000000000000        0.0000000000000000     
  0.18750000000000000       0.37500000000000000        0.0000000000000000     
  0.21875000000000000       0.37500000000000000        0.0000000000000000     
  0.25000000000000000       0.37500000000000000        0.0000000000000000     
  0.25000000000000000       0.25000000000000000        0.0000000000000000     
  0.28125000000000000       0.25000000000000000        0.0000000000000000     
  0.31250000000000000       0.25000000000000000        0.0000000000000000     
  0.34375000000000000       0.25000000000000000        0.0000000000000000     
  0.37500000000000000       0.25000000000000000        0.0000000000000000     
  0.25000000000000000       0.28125000000000000        0.0000000000000000     
  0.28125000000000000       0.28125000000000000        0.0000000000000000     
  0.31250000000000000       0.28125000000000000        0.0000000000000000     
  0.34375000000000000       0.28125000000000000        0.0000000000000000     
  0.37500000000000000       0.28125000000000000        0.0000000000000000     
  0.25000000000000000       0.31250000000000000        0.0000000000000000     
  0.28125000000000000       0.31250000000000000        0.0000000000000000     
  0.31250000000000000       0.31250000000000000        0.0000000000000000     
  0.34375000000000000       0.31250000000000000        0.0000000000000000     
  0.37500000000000000       0.31250000000000000        0.0000000000000000     
  0.25000000000000000       0.34375000000000000        0.0000000000000000     
  0.28125000000000000       0.34375000000000000        0.0000000000000000     
  0.31250000000000000       0.34375000000000000        0.0000000000000000     
  0.34375000000000000       0.34375000000000000        0.0000000000000000     
  0.37500000000000000       0.34375000000000000        0.0000000000000000     
  0.25000000000000000       0.37500000000000000        0.0000000000000000     
  0.28125000000000000       0.37500000000000000        0.0000000000000000     
  0.31250000000000000       0.37500000000000000        0.0000000000000000     
  0.34375000000000000       0.37500000000000000        0.0000000000000000     
  0.37500000000000000       0.37500000000000000        0.0000000000000000     
  0.37500000000000000       0.25000000000000000        0.0000000000000000     
  0.40625000000000000       0.25000000000000000        0.0000000000000000     
  0.43750000000000000       0.25000000000000000        0.0000000000000000     
  0.46875000000000000       0.25000000000000000        0.0000000000000000     
  0.50000000000000000       0.25000000000000000        0.0000000000000000     
  0.37500000000000000       0.28125000000000000        0.0000000000000000     
  0.40625000000000000       0.28125000000000000        0.0000000000000000     
  0.43750000000000000       0.28125000000000000        0.0000000000000000     
  0.46875000000000000       0.28125000000000000        0.0000000000000000     
  0.50000000000000000       0.28125000000000000        0.0000000000000000     
  0.37500000000000000       0.31250000000000000        0.0000000000000000     
  0.40625000000000000       0.31250000000000000        0.0000000000000000     
  0.43750000000000000       0.31250000000000000        0.0000000000000000     
  0.46875000000000000       0.31250000000000000        0.0000000000000000     
  0.50000000000000000       0.31250000000000000        0.0000000000000000     
  0.37500000000000000       0.34375000000000000        0.0000000000000000     
  0.40625000000000000       0.34375000000000000        0.0000000000000000     
  0.43750000000000000       0.34375000000000000        0.0000000000000000     
  0.46875000000000000       0.34375000000000000        0.0000000000000000     
  0.50000000000000000       0.34375000000000000        0.0000000000000000     
  0.37500000000000000       0.37500000000000000        0.0000000000000000     
  0.40625000000000000       0.37500000000000000        0.0000000000000000     
  0.43750000000000000       0.37500000000000000        0.0000000000000000     
  0.46875000000000000       0.37500000000000000        0.0000000000000000     
  0.50000000000000000       0.37500000000000000        0.0000000000000000     
  0.50000000000000000       0.25000000000000000        0.0000000000000000     
  0.53125000000000000       0.25000000000000000        0.0000000000000000     
  0.56250000000000000       0.25000000000000000        0.0000000000000000     
  0.59375000000000000       0.25000000000000000        0.0000000000000000     
  0.62500000000000000       0.25000000000000000        0.0000000000000000     
  0.50000000000000000       0.28125000000000000        0.0000000000000000     
  0.53125000000000000       0.28125000000000000        0.0000000000000000     
  0.56250000000000000       0.28125000000000000        0.0000000000000000     
  0.59375000000000000       0.28125000000000000        0.0000000000000000     
  0.62500000000000000       0.28125000000000000        0.0000000000000000     
  0.50000000000000000       0.31250000000000000        0.0000000000000000     
  0.53125000000000000       0.31250000000000000        0.0000000000000000     
  0.56250000000000000       0.31250000000000000        0.0000000000000000     
  0.59375000000000000       0.31250000000000000        0.0000000000000000     
  0.62500000000000000       0.31250000000000000        0.0000000000000000     
  0.50000000000000000       0.34375000000000000        0.0000000000000000     
  0.53125000000000000       0.34375000000000000        0.0000000000000000     
  0.56250000000000000       0.34375000000000000        0.0000000000000000     
  0.59375000000000000       0.34375000000000000        0.0000000000000000     
  0.62500000000000000       0.34375000000000000        0.0000000000000000     
  0.50000000000000000       0.37500000000000000        0.0000000000000000     
  0.53125000000000000       0.37500000000000000        0.0000000000000000     
  0.56250000000000000       0.37500000000000000        0.0000000000000000     
  0.59375000000000000       0.37500000000000000        0.0000000000000000     
  0.62500000000000000       0.37500000000000000        0.0000000000000000     
  0.62500000000000000       0.25000000000000000        0.0000000000000000     
  0.65625000000000000       0.25000000000000000        0.0000000000000000     
  0.68750000000000000       0.25000000000000000        0.0000000000000000     
  0.71875000000000000       0.25000000000000000        0.0000000000000000     
  0.75000000000000000       0.25000000000000000        0.0000000000000000     
  0.62500000000000000       0.28125000000000000        0.0000000000000000     
  0.65625000000000000       0.28125000000000000        0.0000000000000000     
  0.68750000000000000       0.28125000000000000        0.0000000000000000     
  0.71875000000000000       0.28125000000000000        0.0000000000000000     
  0.75000000000000000       0.28125000000000000        0.0000000000000000     
  0.62500000000000000       0.31250000000000000        0.0000000000000000     
  0.65625000000000000       0.31250000000000000        0.0000000000000000     
  0.68750000000000000       0.31250000000000000        0.0000000000000000     
  0.71875000000000000       0.31250000000000000        0.0000000000000000     
  0.75000000000000000       0.31250000000000000        0.0000000000000000     
  0.62500000000000000       0.34375000000000000        0.0000000000000000     
  0.65625000000000000       0.34375000000000000        0.0000000000000000     
  0.68750000000000000       0.34375000000000000        0.0000000000000000     
  0.71875000000000000       0.34375000000000000        0.0000000000000000     
  0.75000000000000000       0.34375000000000000        0.0000000000000000     
  0.62500000000000000       0.37500000000000000        0.0000000000000000     
  0.65625000000000000       0.37500000000000000        0.0000000000000000     
  0.68750000000000000       0.37500000000000000        0.0000000000000000     
  0.71875000000000000       0.37500000000000000        0.0000000000000000     
  0.75000000000000000       0.37500000000000000        0.0000000000000000     
  0.75000000000000000       0.25000000000000000        0.0000000000000000     
  0.78125000000000000       0.25000000000000000        0.0000000000000000     
  0.81250000000000000       0.25000000000000000        0.0000000000000000     
  0.84375000000000000       0.25000000000000000        0.0000000000000000     
  0.87500000000000000       0.25000000000000000        0.0000000000000000     
  0.75000000000000000       0.28125000000000000        0.0000000000000000     
  0.78125000000000000       0.28125000000000000        0.0000000000000000     
  0.81250000000000000       0.28125000000000000        0.0000000000000000     
  0.84375000000000000       0.28125000000000000        0.0000000000000000     
  0.87500000000000000       0.28125000000000000        0.0000000000000000     
  0.75000000000000000       0.31250000000000000        0.0000000000000000     
  0.78125000000000000       0.31250000000000000        0.0000000000000000     
  0.81250000000000000       0.31250000000000000        0.0000000000000000     
  0.84375000000000000       0.31250000000000000        0.0000000000000000     
  0.87500000000000000       0.31250000000000000        0.0000000000000000     
  0.75000000000000000       0.34375000000000000        0.0000000000000000     
  0.78125000000000000       0.34375000000000000        0.0000000000000000     
  0.81250000000000000       0.34375000000000000        0.0000000000000000     
  0.84375000000000000       0.34375000000000000        0.0000000000000000     
  0.87500000000000000       0.34375000000000000        0.0000000000000000     
  0.75000000000000000       0.37500000000000000        0.0000000000000000     
  0.78125000000000000       0.37500000000000000        0.0000000000000000     
  0.81250000000000000       0.37500000000000000        0.0000000000000000     
  0.84375000000000000       0.37500000000000000        0.0000000000000000     
  0.87500000000000000       0.37500000000000000        0.0000000000000000     
  0.87500000000000000       0.25000000000000000        0.0000000000000000     
  0.90625000000000000       0.25000000000000000        0.0000000000000000     
  0.93750000000000000       0.25000000000000000        0.0000000000000000     
  0.96875000000000000       0.25000000000000000        0.0000000000000000     
   1.0000000000000000       0.25000000000000000        0.0000000000000000     
  0.87500000000000000       0.28125000000000000        0.0000000000000000     
  0.90625000000000000       0.28125000000000000        0.0000000000000000     
  0.93750000000000000       0.28125000000000000        0.0000000000000000     
  0.96875000000000000       0.28125000000000000        0.0000000000000000     
   1.0000000000000000       0.28125000000000000        0.0000000000000000     
  0.87500000000000000       0.31250000000000000        0.0000000000000000     
  0.90625000000000000       0.31250000000000000        0.0000000000000000     
  0.93750000000000000       0.31250000000000000        0.0000000000000000     
  0.96875000000000000       0.31250000000000000        0.0000000000000000     
   1.0000000000000000       0.31250000000000000        0.0000000000000000     
  0.87500000000000000       0.34375000000000000        0.0000000000000000     
  0.90625000000000000       0.34375000000000000        0.0000000000000000     
  0.93750000000000000       0.34375000000000000        0.0000000000000000     
  0.96875000000000000       0.34375000000000000        0.0000000000000000     
   1.0000000000000000       0.34375000000000000        0.0000000000000000     
  0.87500000000000000       0.37500000000000000        0.0000000000000000     
  0.90625000000000000       0.37500000000000000        0.0000000000000000     
  0.93750000000000000       0.37500000000000000        0.0000000000000000     
  0.96875000000000000       0.37500000000000000        0.0000000000000000     
   1.0000000000000000       0.37500000000000000        0.0000000000000000     
   0.0000000000000000       0.37500000000000000        0.0000000000000000     
   3.1250000000000000E-002  0.37500000000000000        0.0000000000000000     
   6.2500000000000000E-002  0.37500000000000000        0.0000000000000000     
   9.3750000000000000E-002  0.37500000000000000        0.0000000000000000     
  0.12500000000000000       0.37500000000000000        0.0000000000000000     
   0.0000000000000000       0.40625000000000000        0.0000000000000000     
   3.1250000000000000E-002  0.40625000000000000        0.0000000000000000     
   6.2500000000000000E-002  0.40625000000000000        0.0000000000000000     
   9.3750000000000000E-002  0.40625000000000000        0.0000000000000000     
  0.12500000000000000       0.40625000000000000        0.0000000000000000     
   0.0000000000000000       0.43750000000000000        0.0000000000000000     
   3.1250000000000000E-002  0.43750000000000000        0.0000000000000000     
   6.2500000000000000E-002  0.43750000000000000        0.0000000000000000     
   9.3750000000000000E-002  0.43750000000000000        0.0000000000000000     
  0.12500000000000000       0.43750000000000000        0.0000000000000000     
   0.0000000000000000       0.46875000000000000        0.0000000000000000     
   3.1250000000000000E-002  0.46875000000000000        0.0000000000000000     
   6.2500000000000000E-002  0.46875000000000000        0.0000000000000000     
   9.3750000000000000E-002  0.46875000000000000        0.0000000000000000     
  0.12500000000000000       0.46875000000000000        0.0000000000000000     
   0.0000000000000000       0.50000000000000000        0.0000000000000000     
   3.1250000000000000E-002  0.50000000000000000        0.0000000000000000     
   6.2500000000000000E-002  0.50000000000000000        0.0000000000000000     
   9.3750000000000000E-002  0.50000000000000000        0.0000000000000000     
  0.12500000000000000       0.50000000000000000        0.0000000000000000     
  0.12500000000000000       0.37500000000000000        0.0000000000000000     
  0.15625000000000000       0.37500000000000000        0.0000000000000000     
  0.18750000000000000       0.37500000000000000        0.0000000000000000     
  0.21875000000000000       0.37500000000000000        0.0000000000000000     
  0.25000000000000000       0.37500000000000000        0.0000000000000000     
  0.12500000000000000       0.40625000000000000        0.0000000000000000     
  0.15625000000000000       0.40625000000000000        0.0000000000000000     
  0.18750000000000000       0.40625000000000000        0.0000000000000000     
  0.21875000000000000       0.40625000000000000        0.0000000000000000     
  0.25000000000000000       0.40625000000000000        0.0000000000000000     
  0.12500000000000000       0.43750000000000000        0.0000000000000000     
  0.15625000000000000       0.43750000000000000        0.0000000000000000     
  0.18750000000000000       0.43750000000000000        0.0000000000000000     
  0.21875000000000000       0.43750000000000000        0.0000000000000000     
  0.25000000000000000       0.43750000000000000        0.0000000000000000     
  0.12500000000000000       0.46875000000000000        0.0000000000000000     
  0.15625000000000000       0.46875000000000000        0.0000000000000000     
  0.18750000000000000       0.46875000000000000        0.0000000000000000     
  0.21875000000000000       0.46875000000000000        0.0000000000000000     
  0.25000000000000000       0.46875000000000000        0.0000000000000000     
  0.12500000000000000       0.50000000000000000        0.0000000000000000     
  0.15625000000000000       0.50000000000000000        0.0000000000000000     
  0.18750000000000000       0.50000000000000000        0.0000000000000000     
  0.21875000000000000       0.50000000000000000        0.0000000000000000     
  0.25000000000000000       0.50000000000000000        0.0000000000000000     
  0.25000000000000000       0.37500000000000000        0.0000000000000000     
  0.28125000000000000       0.37500000000000000        0.0000000000000000     
  0.31250000000000000       0.37500000000000000        0.0000000000000000     
  0.34375000000000000       0.37500000000000000        0.0000000000000000     
  0.37500000000000000       0.37500000000000000        0.0000000000000000     
  0.25000000000000000       0.40625000000000000        0.0000000000000000     
  0.28125000000000000       0.40625000000000000        0.0000000000000000     
  0.31250000000000000       0.40625000000000000        0.0000000000000000     
  0.34375000000000000       0.40625000000000000        0.0000000000000000     
  0.37500000000000000       0.40625000000000000        0.0000000000000000     
  0.25000000000000000       0.43750000000000000        0.0000000000000000     
  0.28125000000000000       0.43750000000000000        0.0000000000000000     
  0.31250000000000000       0.43750000000000000        0.0000000000000000     
  0.34375000000000000       0.43750000000000000        0.0000000000000000     
  0.37500000000000000       0.43750000000000000        0.0000000000000000     
  0.25000000000000000       0.46875000000000000        0.0000000000000000     
  0.28125000000000000       0.46875000000000000        0.0000000000000000     
  0.31250000000000000       0.46875000000000000        0.0000000000000000     
  0.34375000000000000       0.46875000000000000        0.0000000000000000     
  0.37500000000000000       0.46875000000000000        0.0000000000000000     
  0.25000000000000000       0.50000000000000000        0.0000000000000000     
  0.28125000000000000       0.50000000000000000        0.0000000000000000     
  0.31250000000000000       0.50000000000000000        0.0000000000000000     
  0.34375000000000000       0.50000000000000000        0.0000000000000000     
  0.37500000000000000       0.50000000000000000        0.0000000000000000     
  0.37500000000000000       0.37500000000000000        0.0000000000000000     
  0.40625000000000000       0.37500000000000000        0.0000000000000000     
  0.43750000000000000       0.37500000000000000        0.0000000000000000     
  0.46875000000000000       0.37500000000000000        0.0000000000000000     
  0.50000000000000000       0.37500000000000000        0.0000000000000000     
  0.37500000000000000       0.40625000000000000        0.0000000000000000     
  0.40625000000000000       0.40625000000000000        0.0000000000000000     
  0.43750000000000000       0.40625000000000000        0.0000000000000000     
  0.46875000000000000       0.40625000000000000        0.0000000000000000     
  0.50000000000000000       0.40625000000000000        0.0000000000000000     
  0.37500000000000000       0.43750000000000000        0.0000000000000000     
  0.40625000000000000       0.43750000000000000        0.0000000000000000     
  0.43750000000000000       0.43750000000000000        0.0000000000000000     
  0.46875000000000000       0.43750000000000000        0.0000000000000000     
  0.50000000000000000       0.43750000000000000        0.0000000000000000     
  0.37500000000000000       0.46875000000000000        0.0000000000000000     
  0.40625000000000000       0.46875000000000000        0.0000000000000000     
  0.43750000000000000       0.46875000000000000        0.0000000000000000     
  0.46875000000000000       0.46875000000000000        0.0000000000000000     
  0.50000000000000000       0.46875000000000000        0.0000000000000000     
  0.37500000000000000       0.50000000000000000        0.0000000000000000     
  0.40625000000000000       0.50000000000000000        0.0000000000000000     
  0.43750000000000000       0.50000000000000000        0.0000000000000000     
  0.46875000000000000       0.50000000000000000        0.0000000000000000     
  0.50000000000000000       0.50000000000000000        0.0000000000000000     
  0.50000000000000000       0.37500000000000000        0.0000000000000000     
  0.53125000000000000       0.37500000000000000        0.0000000000000000     
  0.56250000000000000       0.37500000000000000        0.0000000000000000     
  0.59375000000000000       0.37500000000000000        0.0000000000000000     
  0.62500000000000000       0.37500000000000000        0.0000000000000000     
  0.50000000000000000       0.40625000000000000        0.0000000000000000     
  0.53125000000000000       0.40625000000000000        0.0000000000000000     
  0.56250000000000000       0.40625000000000000        0.0000000000000000     
  0.59375000000000000       0.40625000000000000        0.0000000000000000     
  0.62500000000000000       0.40625000000000000        0.0000000000000000     
  0.50000000000000000       0.43750000000000000        0.0000000000000000     
  0.53125000000000000       0.43750000000000000        0.0000000000000000     
  0.56250000000000000       0.43750000000000000        0.0000000000000000     
  0.59375000000000000       0.43750000000000000        0.0000000000000000     
  0.62500000000000000       0.43750000000000000        0.0000000000000000     
  0.50000000000000000       0.46875000000000000        0.0000000000000000     
  0.53125000000000000       0.46875000000000000        0.0000000000000000     
  0.56250000000000000       0.46875000000000000        0.0000000000000000     
  0.59375000000000000       0.46875000000000000        0.0000000000000000     
  0.62500000000000000       0.46875000000000000        0.0000000000000000     
  0.50000000000000000       0.50000000000000000        0.0000000000000000     
  0.53125000000000000       0.50000000000000000        0.0000000000000000     
  0.56250000000000000       0.50000000000000000        0.0000000000000000     
  0.59375000000000000       0.50000000000000000        0.0000000000000000     
  0.62500000000000000       0.50000000000000000        0.0000000000000000     
  0.62500000000000000       0.37500000000000000        0.0000000000000000     
  0.65625000000000000       0.37500000000000000        0.0000000000000000     
  0.68750000000000000       0.37500000000000000        0.0000000000000000     
  0.71875000000000000       0.37500000000000000        0.0000000000000000     
  0.75000000000000000       0.37500000000000000        0.0000000000000000     
  0.62500000000000000       0.40625000000000000        0.0000000000000000     
  0.65625000000000000       0.40625000000000000        0.0000000000000000     
  0.68750000000000000       0.40625000000000000        0.0000000000000000     
  0.71875000000000000       0.40625000000000000        0.0000000000000000     
  0.75000000000000000       0.40625000000000000        0.0000000000000000     
  0.62500000000000000       0.43750000000000000        0.0000000000000000     
  0.65625000000000000       0.43750000000000000        0.0000000000000000     
  0.68750000000000000       0.43750000000000000        0.0000000000000000     
  0.71875000000000000       0.43750000000000000        0.0000000000000000     
  0.75000000000000000       0.43750000000000000        0.0000000000000000     
  0.62500000000000000       0.46875000000000000        0.0000000000000000     
  0.65625000000000000       0.46875000000000000        0.0000000000000000     
  0.68750000000000000       0.46875000000000000        0.0000000000000000     
  0.71875000000000000       0.46875000000000000        0.0000000000000000     
  0.75000000000000000       0.46875000000000000        0.0000000000000000     
  0.62500000000000000       0.50000000000000000        0.0000000000000000     
  0.65625000000000000       0.50000000000000000        0.0000000000000000     
  0.68750000000000000       0.50000000000000000        0.0000000000000000     
  0.71875000000000000       0.50000000000000000        0.0000000000000000     
  0.75000000000000000       0.50000000000000000        0.0000000000000000     
  0.75000000000000000       0.37500000000000000        0.0000000000000000     
  0.78125000000000000       0.37500000000000000        0.0000000000000000     
  0.81250000000000000       0.37500000000000000        0.0000000000000000     
  0.84375000000000000       0.37500000000000000        0.0000000000000000     
  0.87500000000000000       0.37500000000000000        0.0000000000000000     
  0.75000000000000000       0.40625000000000000        0.0000000000000000     
  0.78125000000000000       0.40625000000000000        0.0000000000000000     
  0.81250000000000000       0.40625000000000000        0.0000000000000000     
  0.84375000000000000       0.40625000000000000        0.0000000000000000     
  0.87500000000000000       0.40625000000000000        0.0000000000000000     
  0.75000000000000000       0.43750000000000000        0.0000000000000000     
  0.78125000000000000       0.43750000000000000        0.0000000000000000     
  0.81250000000000000       0.43750000000000000        0.0000000000000000     
  0.84375000000000000       0.43750000000000000        0.0000000000000000     
  0.87500000000000000       0.43750000000000000        0.0000000000000000     
  0.75000000000000000       0.46875000000000000        0.0000000000000000     
  0.78125000000000000       0.46875000000000000        0.0000000000000000     
  0.81250000000000000       0.46875000000000000        0.0000000000000000     
  0.84375000000000000       0.46875000000000000        0.0000000000000000     
  0.87500000000000000       0.46875000000000000        0.0000000000000000     
  0.75000000000000000       0.50000000000000000        0.0000000000000000     
  0.78125000000000000       0.50000000000000000        0.0000000000000000     
  0.81250000000000000       0.50000000000000000        0.0000000000000000     
  0.84375000000000000       0.50000000000000000        0.0000000000000000     
  0.87500000000000000       0.50000000000000000        0.0000000000000000     
  0.87500000000000000       0.37500000000000000        0.0000000000000000     
  0.90625000000000000       0.37500000000000000        0.0000000000000000     
  0.93750000000000000       0.37500000000000000        0.0000000000000000     
  0.96875000000000000       0.37500000000000000        0.0000000000000000     
   1.0000000000000000       0.37500000000000000        0.0000000000000000     
  0.87500000000000000       0.40625000000000000        0.0000000000000000     
  0.90625000000000000       0.40625000000000000        0.0000000000000000     
  0.93750000000000000       0.40625000000000000        0.0000000000000000     
  0.96875000000000000       0.40625000000000000        0.0000000000000000     
   1.0000000000000000       0.40625000000000000        0.0000000000000000     
  0.87500000000000000       0.43750000000000000        0.0000000000000000     
  0.90625000000000000       0.43750000000000000        0.0000000000000000     
  0.93750000000000000       0.43750000000000000        0.0000000000000000     
  0.96875000000000000       0.43750000000000000        0.0000000000000000     
   1.0000000000000000       0.43750000000000000        0.0000000000000000     
  0.87500000000000000       0.46875000000000000        0.0000000000000000     
  0.90625000000000000       0.46875000000000000        0.0000000000000000     
  0.93750000000000000       0.46875000000000000        0.0000000000000000     
  0.96875000000000000       0.46875000000000000        0.0000000000000000     
   1.0000000000000000       0.46875000000000000        0.0000000000000000     
  0.87500000000000000       0.50000000000000000        0.0000000000000000     
  0.90625000000000000       0.50000000000000000        0.0000000000000000     
  0.93750000000000000       0.50000000000000000        0.0000000000000000     
  0.96875000000000000       0.50000000000000000        0.0000000000000000     
   1.0000000000000000       0.50000000000000000        0.0000000000000000     
   0.0000000000000000       0.50000000000000000        0.0000000000000000     
   3.1250000000000000E-002  0.50000000000000000        0.0000000000000000     
   6.2500000000000000E-002  0.50000000000000000        0.0000000000000000     
   9.3750000000000000E-002  0.50000000000000000        0.0000000000000000     
  0.12500000000000000       0.50000000000000000        0.0000000000000000     
   0.0000000000000000       0.53125000000000000        0.0000000000000000     
   3.1250000000000000E-002  0.53125000000000000        0.0000000000000000     
   6.2500000000000000E-002  0.53125000000000000        0.0000000000000000     
   9.3750000000000000E-002  0.53125000000000000        0.0000000000000000     
  0.12500000000000000       0.53125000000000000        0.0000000000000000     
   0.0000000000000000       0.56250000000000000        0.0000000000000000     
   3.1250000000000000E-002  0.56250000000000000        0.0000000000000000     
   6.2500000000000000E-002  0.56250000000000000        0.0000000000000000     
   9.3750000000000000E-002  0.56250000000000000        0.0000000000000000     
  0.12500000000000000       0.56250000000000000        0.0000000000000000     
   0.0000000000000000       0.59375000000000000        0.0000000000000000     
   3.1250000000000000E-002  0.59375000000000000        0.0000000000000000     
   6.2500000000000000E-002  0.59375000000000000        0.0000000000000000     
   9.3750000000000000E-002  0.59375000000000000        0.0000000000000000     
  0.12500000000000000       0.59375000000000000        0.0000000000000000     
   0.0000000000000000       0.62500000000000000        0.0000000000000000     
   3.1250000000000000E-002  0.62500000000000000        0.0000000000000000     
   6.2500000000000000E-002  0.62500000000000000        0.0000000000000000     
   9.3750000000000000E-002  0.62500000000000000        0.0000000000000000     
  0.12500000000000000       0.62500000000000000        0.0000000000000000     
  0.12500000000000000       0.50000000000000000        0.0000000000000000     
  0.15625000000000000       0.50000000000000000        0.0000000000000000     
  0.18750000000000000       0.50000000000000000        0.0000000000000000     
  0.21875000000000000       0.50000000000000000        0.0000000000000000     
  0.25000000000000000       0.50000000000000000        0.0000000000000000     
  0.12500000000000000       0.53125000000000000        0.0000000000000000     
  0.15625000000000000       0.53125000000000000        0.0000000000000000     
  0.18750000000000000       0.53125000000000000        0.0000000000000000     
  0.21875000000000000       0.53125000000000000        0.0000000000000000     
  0.25000000000000000       0.53125000000000000        0.0000000000000000     
  0.12500000000000000       0.56250000000000000        0.0000000000000000     
  0.15625000000000000       0.56250000000000000        0.0000000000000000     
  0.18750000000000000       0.56250000000000000        0.0000000000000000     
  0.21875000000000000       0.56250000000000000        0.0000000000000000     
  0.25000000000000000       0.56250000000000000        0.0000000000000000     
  0.12500000000000000       0.59375000000000000        0.0000000000000000     
  0.15625000000000000       0.59375000000000000        0.0000000000000000     
  0.18750000000000000       0.59375000000000000        0.0000000000000000     
  0.21875000000000000       0.59375000000000000        0.0000000000000000     
  0.25000000000000000       0.59375000000000000        0.0000000000000000     
  0.12500000000000000       0.62500000000000000        0.0000000000000000     
  0.15625000000000000       0.62500000000000000        0.0000000000000000     
  0.18750000000000000       0.62500000000000000        0.0000000000000000     
  0.21875000000000000       0.62500000000000000        0.0000000000000000     
  0.25000000000000000       0.62500000000000000        0.0000000000000000     
  0.25000000000000000       0.50000000000000000        0.0000000000000000     
  0.28125000000000000       0.50000000000000000        0.0000000000000000     
  0.31250000000000000       0.50000000000000000        0.0000000000000000     
  0.34375000000000000       0.50000000000000000        0.0000000000000000     
  0.37500000000000000       0.50000000000000000        0.0000000000000000     
  0.25000000000000000       0.53125000000000000        0.0000000000000000     
  0.28125000000000000       0.53125000000000000        0.0000000000000000     
  0.31250000000000000       0.53125000000000000        0.0000000000000000     
  0.34375000000000000       0.53125000000000000        0.0000000000000000     
  0.37500000000000000       0.53125000000000000        0.0000000000000000     
  0.25000000000000000       0.56250000000000000        0.0000000000000000     
  0.28125000000000000       0.56250000000000000        0.0000000000000000     
  0.31250000000000000       0.56250000000000000        0.0000000000000000     
  0.34375000000000000       0.56250000000000000        0.0000000000000000     
  0.37500000000000000       0.56250000000000000        0.0000000000000000     
  0.25000000000000000       0.59375000000000000        0.0000000000000000     
  0.28125000000000000       0.59375000000000000        0.0000000000000000     
  0.31250000000000000       0.59375000000000000        0.0000000000000000     
  0.34375000000000000       0.59375000000000000        0.0000000000000000     
  0.37500000000000000       0.59375000000000000        0.0000000000000000     
  0.25000000000000000       0.62500000000000000        0.0000000000000000     
  0.28125000000000000       0.62500000000000000        0.0000000000000000     
  0.31250000000000000       0.62500000000000000        0.0000000000000000     
  0.34375000000000000       0.62500000000000000        0.0000000000000000     
  0.37500000000000000       0.62500000000000000        0.0000000000000000     
  0.37500000000000000       0.50000000000000000        0.0000000000000000     
  0.40625000000000000       0.50000000000000000        0.0000000000000000     
  0.43750000000000000       0.50000000000000000        0.0000000000000000     
  0.46875000000000000       0.50000000000000000        0.0000000000000000     
  0.50000000000000000       0.50000000000000000        0.0000000000000000     
  0.37500000000000000       0.53125000000000000        0.0000000000000000     
  0.40625000000000000       0.53125000000000000        0.0000000000000000     
  0.43750000000000000       0.53125000000000000        0.0000000000000000     
  0.46875000000000000       0.53125000000000000        0.0000000000000000     
  0.50000000000000000       0.53125000000000000        0.0000000000000000     
  0.37500000000000000       0.56250000000000000        0.0000000000000000     
  0.40625000000000000       0.56250000000000000        0.0000000000000000     
  0.43750000000000000       0.56250000000000000        0.0000000000000000     
  0.46875000000000000       0.56250000000000000        0.0000000000000000     
  0.50000000000000000       0.56250000000000000        0.0000000000000000     
  0.37500000000000000       0.59375000000000000        0.0000000000000000     
  0.40625000000000000       0.59375000000000000        0.0000000000000000     
  0.43750000000000000       0.59375000000000000        0.0000000000000000     
  0.46875000000000000       0.59375000000000000        0.0000000000000000     
  0.50000000000000000       0.59375000000000000        0.0000000000000000     
  0.37500000000000000       0.62500000000000000        0.0000000000000000     
  0.40625000000000000       0.62500000000000000        0.0000000000000000     
  0.43750000000000000       0.62500000000000000        0.0000000000000000     
  0.46875000000000000       0.62500000000000000        0.0000000000000000     
  0.50000000000000000       0.62500000000000000        0.0000000000000000     
  0.50000000000000000       0.50000000000000000        0.0000000000000000     
  0.53125000000000000       0.50000000000000000        0.0000000000000000     
  0.56250000000000000       0.50000000000000000        0.0000000000000000     
  0.59375000000000000       0.50000000000000000        0.0000000000000000     
  0.62500000000000000       0.50000000000000000        0.0000000000000000     
  0.50000000000000000       0.53125000000000000        0.0000000000000000     
  0.53125000000000000       0.53125000000000000        0.0000000000000000     
  0.56250000000000000       0.53125000000000000        0.0000000000000000     
  0.59375000000000000       0.53125000000000000        0.0000000000000000     
  0.62500000000000000       0.53125000000000000        0.0000000000000000     
  0.50000000000000000       0.56250000000000000        0.0000000000000000     
  0.53125000000000000       0.56250000000000000        0.0000000000000000     
  0.56250000000000000       0.56250000000000000        0.0000000000000000     
  0.59375000000000000       0.56250000000000000        0.0000000000000000     
  0.62500000000000000       0.56250000000000000        0.0000000000000000     
  0.50000000000000000       0.59375000000000000        0.0000000000000000     
  0.53125000000000000       0.59375000000000000        0.0000000000000000     
  0.56250000000000000       0.59375000000000000        0.0000000000000000     
  0.59375000000000000       0.59375000000000000        0.0000000000000000     
  0.62500000000000000       0.59375000000000000        0.0000000000000000     
  0.50000000000000000       0.62500000000000000        0.0000000000000000     
  0.53125000000000000       0.62500000000000000        0.0000000000000000     
  0.56250000000000000       0.62500000000000000        0.0000000000000000     
  0.59375000000000000       0.62500000000000000        0.0000000000000000     
  0.62500000000000000       0.62500000000000000        0.0000000000000000     
  0.62500000000000000       0.50000000000000000        0.0000000000000000     
  0.65625000000000000       0.50000000000000000        0.0000000000000000     
  0.68750000000000000       0.50000000000000000        0.0000000000000000     
  0.71875000000000000       0.50000000000000000        0.0000000000000000     
  0.75000000000000000       0.50000000000000000        0.0000000000000000     
  0.62500000000000000       0.53125000000000000        0.0000000000000000     
  0.65625000000000000       0.53125000000000000        0.0000000000000000     
  0.68750000000000000       0.53125000000000000        0.0000000000000000     
  0.71875000000000000       0.53125000000000000        0.0000000000000000     
  0.75000000000000000       0.53125000000000000        0.0000000000000000     
  0.62500000000000000       0.56250000000000000        0.0000000000000000     
  0.65625000000000000       0.56250000000000000        0.0000000000000000     
  0.68750000000000000       0.56250000000000000        0.0000000000000000     
  0.71875000000000000       0.56250000000000000        0.0000000000000000     
  0.75000000000000000       0.56250000000000000        0.0000000000000000     
  0.62500000000000000       0.59375000000000000        0.0000000000000000     
  0.65625000000000000       0.59375000000000000        0.0000000000000000     
  0.68750000000000000       0.59375000000000000        0.0000000000000000     
  0.71875000000000000       0.59375000000000000        0.0000000000000000     
  0.75000000000000000       0.59375000000000000        0.0000000000000000     
  0.62500000000000000       0.62500000000000000        0.0000000000000000     
  0.65625000000000000       0.62500000000000000        0.0000000000000000     
  0.68750000000000000       0.62500000000000000        0.0000000000000000     
  0.71875000000000000       0.62500000000000000        0.0000000000000000     
  0.75000000000000000       0.62500000000000000        0.0000000000000000     
  0.75000000000000000       0.50000000000000000        0.0000000000000000     
  0.78125000000000000       0.50000000000000000        0.0000000000000000     
  0.81250000000000000       0.50000000000000000        0.0000000000000000     
  0.84375000000000000       0.50000000000000000        0.0000000000000000     
  0.87500000000000000       0.50000000000000000        0.0000000000000000     
  0.75000000000000000       0.53125000000000000        0.0000000000000000     
  0.78125000000000000       0.53125000000000000        0.0000000000000000     
  0.81250000000000000       0.53125000000000000        0.0000000000000000     
  0.84375000000000000       0.53125000000000000        0.0000000000000000     
  0.87500000000000000       0.53125000000000000        0.0000000000000000     
  0.75000000000000000       0.56250000000000000        0.0000000000000000     
  0.78125000000000000       0.56250000000000000        0.0000000000000000     
  0.81250000000000000       0.56250000000000000        0.0000000000000000     
  0.84375000000000000       0.56250000000000000        0.0000000000000000     
  0.87500000000000000       0.56250000000000000        0.0000000000000000     
  0.75000000000000000       0.59375000000000000        0.0000000000000000     
  0.78125000000000000       0.59375000000000000        0.0000000000000000     
  0.81250000000000000       0.59375000000000000        0.0000000000000000     
  0.84375000000000000       0.59375000000000000        0.0000000000000000     
  0.87500000000000000       0.59375000000000000        0.0000000000000000     
  0.75000000000000000       0.62500000000000000        0.0000000000000000     
  0.78125000000000000       0.62500000000000000        0.0000000000000000     
  0.81250000000000000       0.62500000000000000        0.0000000000000000     
  0.84375000000000000       0.62500000000000000        0.0000000000000000     
  0.87500000000000000       0.62500000000000000        0.0000000000000000     
  0.87500000000000000       0.50000000000000000        0.0000000000000000     
  0.90625000000000000       0.50000000000000000        0.0000000000000000     
  0.93750000000000000       0.50000000000000000        0.0000000000000000     
  0.96875000000000000       0.50000000000000000        0.0000000000000000     
   1.0000000000000000       0.50000000000000000        0.0000000000000000     
  0.87500000000000000       0.53125000000000000        0.0000000000000000     
  0.90625000000000000       0.53125000000000000        0.0000000000000000     
  0.93750000000000000       0.53125000000000000        0.0000000000000000     
  0.96875000000000000       0.53125000000000000        0.0000000000000000     
   1.0000000000000000       0.53125000000000000        0.0000000000000000     
  0.87500000000000000       0.56250000000000000        0.0000000000000000     
  0.90625000000000000       0.56250000000000000        0.0000000000000000     
  0.93750000000000000       0.56250000000000000        0.0000000000000000     
  0.96875000000000000       0.56250000000000000        0.0000000000000000     
   1.0000000000000000       0.56250000000000000        0.0000000000000000     
  0.87500000000000000       0.59375000000000000        0.0000000000000000     
  0.90625000000000000       0.59375000000000000        0.0000000000000000     
  0.93750000000000000       0.59375000000000000        0.0000000000000000     
  0.96875000000000000       0.59375000000000000        0.0000000000000000     
   1.0000000000000000       0.59375000000000000        0.0000000000000000     
  0.87500000000000000       0.62500000000000000        0.0000000000000000     
  0.90625000000000000       0.62500000000000000        0.0000000000000000     
  0.93750000000000000       0.62500000000000000        0.0000000000000000     
  0.96875000000000000       0.62500000000000000        0.0000000000000000     
   1.0000000000000000       0.62500000000000000        0.0000000000000000     
   0.0000000000000000       0.62500000000000000        0.0000000000000000     
   3.1250000000000000E-002  0.62500000000000000        0.0000000000000000     
   6.2500000000000000E-002  0.62500000000000000        0.0000000000000000     
   9.3750000000000000E-002  0.62500000000000000        0.0000000000000000     
  0.12500000000000000       0.62500000000000000        0.0000000000000000     
   0.0000000000000000       0.65625000000000000        0.0000000000000000     
   3.1250000000000000E-002  0.65625000000000000        0.0000000000000000     
   6.2500000000000000E-002  0.65625000000000000        0.0000000000000000     
   9.3750000000000000E-002  0.65625000000000000        0.0000000000000000     
  0.12500000000000000       0.65625000000000000        0.0000000000000000     
   0.0000000000000000       0.68750000000000000        0.0000000000000000     
   3.1250000000000000E-002  0.68750000000000000        0.0000000000000000     
   6.2500000000000000E-002  0.68750000000000000        0.0000000000000000     
   9.3750000000000000E-002  0.68750000000000000        0.0000000000000000     
  0.12500000000000000       0.68750000000000000        0.0000000000000000     
   0.0000000000000000       0.71875000000000000        0.0000000000000000     
   3.1250000000000000E-002  0.71875000000000000        0.0000000000000000     
   6.2500000000000000E-002  0.71875000000000000        0.0000000000000000     
   9.3750000000000000E-002  0.71875000000000000        0.0000000000000000     
  0.12500000000000000       0.71875000000000000        0.0000000000000000     
   0.0000000000000000       0.75000000000000000        0.0000000000000000     
   3.1250000000000000E-002  0.75000000000000000        0.0000000000000000     
   6.2500000000000000E-002  0.75000000000000000        0.0000000000000000     
   9.3750000000000000E-002  0.75000000000000000        0.0000000000000000     
  0.12500000000000000       0.75000000000000000        0.0000000000000000     
  0.12500000000000000       0.62500000000000000        0.0000000000000000     
  0.15625000000000000       0.62500000000000000        0.0000000000000000     
  0.18750000000000000       0.62500000000000000        0.0000000000000000     
  0.21875000000000000       0.62500000000000000        0.0000000000000000     
  0.25000000000000000       0.62500000000000000        0.0000000000000000     
  0.12500000000000000       0.65625000000000000        0.0000000000000000     
  0.15625000000000000       0.65625000000000000        0.0000000000000000     
  0.18750000000000000       0.65625000000000000        0.0000000000000000     
  0.21875000000000000       0.65625000000000000        0.0000000000000000     
  0.25000000000000000       0.65625000000000000        0.0000000000000000     
  0.12500000000000000       0.68750000000000000        0.0000000000000000     
  0.15625000000000000       0.68750000000000000        0.0000000000000000     
  0.18750000000000000       0.68750000000000000        0.0000000000000000     
  0.21875000000000000       0.68750000000000000        0.0000000000000000     
  0.25000000000000000       0.68750000000000000        0.0000000000000000     
  0.12500000000000000       0.71875000000000000        0.0000000000000000     
  0.15625000000000000       0.71875000000000000        0.0000000000000000     
  0.18750000000000000       0.71875000000000000        0.0000000000000000     
  0.21875000000000000       0.71875000000000000        0.0000000000000000     
  0.25000000000000000       0.71875000000000000        0.0000000000000000     
  0.12500000000000000       0.75000000000000000        0.0000000000000000     
  0.15625000000000000       0.75000000000000000        0.0000000000000000     
  0.18750000000000000       0.75000000000000000        0.0000000000000000     
  0.21875000000000000       0.75000000000000000        0.0000000000000000     
  0.25000000000000000       0.75000000000000000        0.0000000000000000     
  0.25000000000000000       0.62500000000000000        0.0000000000000000     
  0.28125000000000000       0.62500000000000000        0.0000000000000000     
  0.31250000000000000       0.62500000000000000        0.0000000000000000     
  0.34375000000000000       0.62500000000000000        0.0000000000000000     
  0.37500000000000000       0.62500000000000000        0.0000000000000000     
  0.25000000000000000       0.65625000000000000        0.0000000000000000     
  0.28125000000000000       0.65625000000000000        0.0000000000000000     
  0.31250000000000000       0.65625000000000000        0.0000000000000000     
  0.34375000000000000       0.65625000000000000        0.0000000000000000     
  0.37500000000000000       0.65625000000000000        0.0000000000000000     
  0.25000000000000000       0.68750000000000000        0.0000000000000000     
  0.28125000000000000       0.68750000000000000        0.0000000000000000     
  0.31250000000000000       0.68750000000000000        0.0000000000000000     
  0.34375000000000000       0.68750000000000000        0.0000000000000000     
  0.37500000000000000       0.68750000000000000        0.0000000000000000     
  0.25000000000000000       0.71875000000000000        0.0000000000000000     
  0.28125000000000000       0.71875000000000000        0.0000000000000000     
  0.31250000000000000       0.71875000000000000        0.0000000000000000     
  0.34375000000000000       0.71875000000000000        0.0000000000000000     
  0.37500000000000000       0.71875000000000000        0.0000000000000000     
  0.25000000000000000       0.75000000000000000        0.0000000000000000     
  0.28125000000000000       0.75000000000000000        0.0000000000000000     
  0.31250000000000000       0.75000000000000000        0.0000000000000000     
  0.34375000000000000       0.75000000000000000        0.0000000000000000     
  0.37500000000000000       0.75000000000000000        0.0000000000000000     
  0.37500000000000000       0.62500000000000000        0.0000000000000000     
  0.40625000000000000       0.62500000000000000        0.0000000000000000     
  0.43750000000000000       0.62500000000000000        0.0000000000000000     
  0.46875000000000000       0.62500000000000000        0.0000000000000000     
  0.50000000000000000       0.62500000000000000        0.0000000000000000     
  0.37500000000000000       0.65625000000000000        0.0000000000000000     
  0.40625000000000000       0.65625000000000000        0.0000000000000000     
  0.43750000000000000       0.65625000000000000        0.0000000000000000     
  0.46875000000000000       0.65625000000000000        0.0000000000000000     
  0.50000000000000000       0.65625000000000000        0.0000000000000000     
  0.37500000000000000       0.68750000000000000        0.0000000000000000     
  0.40625000000000000       0.68750000000000000        0.0000000000000000     
  0.43750000000000000       0.68750000000000000        0.0000000000000000     
  0.46875000000000000       0.68750000000000000        0.0000000000000000     
  0.50000000000000000       0.68750000000000000        0.0000000000000000     
  0.37500000000000000       0.71875000000000000        0.0000000000000000     
  0.40625000000000000       0.71875000000000000        0.0000000000000000     
  0.43750000000000000       0.71875000000000000        0.0000000000000000     
  0.46875000000000000       0.71875000000000000        0.0000000000000000     
  0.50000000000000000       0.71875000000000000        0.0000000000000000     
  0.37500000000000000       0.75000000000000000        0.0000000000000000     
  0.40625000000000000       0.75000000000000000        0.0000000000000000     
  0.43750000000000000       0.75000000000000000        0.0000000000000000     
  0.46875000000000000       0.75000000000000000        0.0000000000000000     
  0.50000000000000000       0.75000000000000000        0.0000000000000000     
  0.50000000000000000       0.62500000000000000        0.0000000000000000     
  0.53125000000000000       0.62500000000000000        0.0000000000000000     
  0.56250000000000000       0.62500000000000000        0.0000000000000000     
  0.59375000000000000       0.62500000000000000        0.0000000000000000     
  0.62500000000000000       0.62500000000000000        0.0000000000000000     
  0.50000000000000000       0.65625000000000000        0.0000000000000000     
  0.53125000000000000       0.65625000000000000        0.0000000000000000     
  0.56250000000000000       0.65625000000000000        0.0000000000000000     
  0.59375000000000000       0.65625000000000000        0.0000000000000000     
  0.62500000000000000       0.65625000000000000        0.0000000000000000     
  0.50000000000000000       0.68750000000000000        0.0000000000000000     
  0.53125000000000000       0.68750000000000000        0.0000000000000000     
  0.56250000000000000       0.68750000000000000        0.0000000000000000     
  0.59375000000000000       0.68750000000000000        0.0000000000000000     
  0.62500000000000000       0.68750000000000000        0.0000000000000000     
  0.50000000000000000       0.71875000000000000        0.0000000000000000     
  0.53125000000000000       0.71875000000000000        0.0000000000000000     
  0.56250000000000000       0.71875000000000000        0.0000000000000000     
  0.59375000000000000       0.71875000000000000        0.0000000000000000     
  0.62500000000000000       0.71875000000000000        0.0000000000000000     
  0.50000000000000000       0.75000000000000000        0.0000000000000000     
  0.53125000000000000       0.75000000000000000        0.0000000000000000     
  0.56250000000000000       0.75000000000000000        0.0000000000000000     
  0.59375000000000000       0.75000000000000000        0.0000000000000000     
  0.62500000000000000       0.75000000000000000        0.0000000000000000     
  0.62500000000000000       0.62500000000000000        0.0000000000000000     
  0.65625000000000000       0.62500000000000000        0.0000000000000000     
  0.68750000000000000       0.62500000000000000        0.0000000000000000     
  0.71875000000000000       0.62500000000000000        0.0000000000000000     
  0.75000000000000000       0.62500000000000000        0.0000000000000000     
  0.62500000000000000       0.65625000000000000        0.0000000000000000     
  0.65625000000000000       0.65625000000000000        0.0000000000000000     
  0.68750000000000000       0.65625000000000000        0.0000000000000000     
  0.71875000000000000       0.65625000000000000        0.0000000000000000     
  0.75000000000000000       0.65625000000000000        0.0000000000000000     
  0.62500000000000000       0.68750000000000000        0.0000000000000000     
  0.65625000000000000       0.68750000000000000        0.0000000000000000     
  0.68750000000000000       0.68750000000000000        0.0000000000000000     
  0.71875000000000000       0.68750000000000000        0.0000000000000000     
  0.75000000000000000       0.68750000000000000        0.0000000000000000     
  0.62500000000000000       0.71875000000000000        0.0000000000000000     
  0.65625000000000000       0.71875000000000000        0.0000000000000000     
  0.68750000000000000       0.71875000000000000        0.0000000000000000     
  0.71875000000000000       0.71875000000000000        0.0000000000000000     
  0.75000000000000000       0.71875000000000000        0.0000000000000000     
  0.62500000000000000       0.75000000000000000        0.0000000000000000     
  0.65625000000000000       0.75000000000000000        0.0000000000000000     
  0.68750000000000000       0.75000000000000000        0.0000000000000000     
  0.71875000000000000       0.75000000000000000        0.0000000000000000     
  0.75000000000000000       0.75000000000000000        0.0000000000000000     
  0.75000000000000000       0.62500000000000000        0.0000000000000000     
  0.78125000000000000       0.62500000000000000        0.0000000000000000     
  0.81250000000000000       0.62500000000000000        0.0000000000000000     
  0.84375000000000000       0.62500000000000000        0.0000000000000000     
  0.87500000000000000       0.62500000000000000        0.0000000000000000     
  0.75000000000000000       0.65625000000000000        0.0000000000000000     
  0.78125000000000000       0.65625000000000000        0.0000000000000000     
  0.81250000000000000       0.65625000000000000        0.0000000000000000     
  0.84375000000000000       0.65625000000000000        0.0000000000000000     
  0.87500000000000000       0.65625000000000000        0.0000000000000000     
  0.75000000000000000       0.68750000000000000        0.0000000000000000     
  0.78125000000000000       0.68750000000000000        0.0000000000000000     
  0.81250000000000000       0.68750000000000000        0.0000000000000000     
  0.84375000000000000       0.68750000000000000        0.0000000000000000     
  0.87500000000000000       0.68750000000000000        0.0000000000000000     
  0.75000000000000000       0.71875000000000000        0.0000000000000000     
  0.78125000000000000       0.71875000000000000        0.0000000000000000     
  0.81250000000000000       0.71875000000000000        0.0000000000000000     
  0.84375000000000000       0.71875000000000000        0.0000000000000000     
  0.87500000000000000       0.71875000000000000        0.0000000000000000     
  0.75000000000000000       0.75000000000000000        0.0000000000000000     
  0.78125000000000000       0.75000000000000000        0.0000000000000000     
  0.81250000000000000       0.75000000000000000        0.0000000000000000     
  0.84375000000000000       0.75000000000000000        0.0000000000000000     
  0.87500000000000000       0.75000000000000000        0.0000000000000000     
  0.87500000000000000       0.62500000000000000        0.0000000000000000     
  0.90625000000000000       0.62500000000000000        0.0000000000000000     
  0.93750000000000000       0.62500000000000000        0.0000000000000000     
  0.96875000000000000       0.62500000000000000        0.0000000000000000     
   1.0000000000000000       0.62500000000000000        0.0000000000000000     
  0.87500000000000000       0.65625000000000000        0.0000000000000000     
  0.90625000000000000       0.65625000000000000        0.0000000000000000     
  0.93750000000000000       0.65625000000000000        0.0000000000000000     
  0.96875000000000000       0.65625000000000000        0.0000000000000000     
   1.0000000000000000       0.65625000000000000        0.0000000000000000     
  0.87500000000000000       0.68750000000000000        0.0000000000000000     
  0.90625000000000000       0.68750000000000000        0.0000000000000000     
  0.93750000000000000       0.68750000000000000        0.0000000000000000     
  0.96875000000000000       0.68750000000000000        0.0000000000000000     
   1.0000000000000000       0.68750000000000000        0.0000000000000000     
  0.87500000000000000       0.71875000000000000        0.0000000000000000     
  0.90625000000000000       0.71875000000000000        0.0000000000000000     
  0.93750000000000000       0.71875000000000000        0.0000000000000000     
  0.96875000000000000       0.71875000000000000        0.0000000000000000     
   1.0000000000000000       0.71875000000000000        0.0000000000000000     
  0.87500000000000000       0.75000000000000000        0.0000000000000000     
  0.90625000000000000       0.75000000000000000        0.0000000000000000     
  0.93750000000000000       0.75000000000000000        0.0000000000000000     
  0.96875000000000000       0.75000000000000000        0.0000000000000000     
   1.0000000000000000       0.75000000000000000        0.0000000000000000     
   0.0000000000000000       0.75000000000000000        0.0000000000000000     
   3.1250000000000000E-002  0.75000000000000000        0.0000000000000000     
   6.2500000000000000E-002  0.75000000000000000        0.0000000000000000     
   9.3750000000000000E-002  0.75000000000000000        0.0000000000000000     
  0.12500000000000000       0.75000000000000000        0.0000000000000000     
   0.0000000000000000       0.78125000000000000        0.0000000000000000     
   3.1250000000000000E-002  0.78125000000000000        0.0000000000000000     
   6.2500000000000000E-002  0.78125000000000000        0.0000000000000000     
   9.3750000000000000E-002  0.78125000000000000        0.0000000000000000     
  0.12500000000000000       0.78125000000000000        0.0000000000000000     
   0.0000000000000000       0.81250000000000000        0.0000000000000000     
   3.1250000000000000E-002  0.81250000000000000        0.0000000000000000     
   6.2500000000000000E-002  0.81250000000000000        0.0000000000000000     
   9.3750000000000000E-002  0.81250000000000000        0.0000000000000000     
  0.12500000000000000       0.81250000000000000        0.0000000000000000     
   0.0000000000000000       0.84375000000000000        0.0000000000000000     
   3.1250000000000000E-002  0.84375000000000000        0.0000000000000000     
   6.2500000000000000E-002  0.84375000000000000        0.0000000000000000     
   9.3750000000000000E-002  0.84375000000000000        0.0000000000000000     
  0.12500000000000000       0.84375000000000000        0.0000000000000000     
   0.0000000000000000       0.87500000000000000        0.0000000000000000     
   3.1250000000000000E-002  0.87500000000000000        0.0000000000000000     
   6.2500000000000000E-002  0.87500000000000000        0.0000000000000000     
   9.3750000000000000E-002  0.87500000000000000        0.0000000000000000     
  0.12500000000000000       0.87500000000000000        0.0000000000000000     
  0.12500000000000000       0.75000000000000000        0.0000000000000000     
  0.15625000000000000       0.75000000000000000        0.0000000000000000     
  0.18750000000000000       0.75000000000000000        0.0000000000000000     
  0.21875000000000000       0.75000000000000000        0.0000000000000000     
  0.25000000000000000       0.75000000000000000        0.0000000000000000     
  0.12500000000000000       0.78125000000000000        0.0000000000000000     
  0.15625000000000000       0.78125000000000000        0.0000000000000000     
  0.18750000000000000       0.78125000000000000        0.0000000000000000     
  0.21875000000000000       0.78125000000000000        0.0000000000000000     
  0.25000000000000000       0.78125000000000000        0.0000000000000000     
  0.12500000000000000       0.81250000000000000        0.0000000000000000     
  0.15625000000000000       0.81250000000000000        0.0000000000000000     
  0.18750000000000000       0.81250000000000000        0.0000000000000000     
  0.21875000000000000       0.81250000000000000        0.0000000000000000     
  0.25000000000000000       0.81250000000000000        0.0000000000000000     
  0.12500000000000000       0.84375000000000000        0.0000000000000000     
  0.15625000000000000       0.84375000000000000        0.0000000000000000     
  0.18750000000000000       0.84375000000000000        0.0000000000000000     
  0.21875000000000000       0.84375000000000000        0.0000000000000000     
  0.25000000000000000       0.84375000000000000        0.0000000000000000     
  0.12500000000000000       0.87500000000000000        0.0000000000000000     
  0.15625000000000000       0.87500000000000000        0.0000000000000000     
  0.18750000000000000       0.87500000000000000        0.0000000000000000     
  0.21875000000000000       0.87500000000000000        0.0000000000000000     
  0.25000000000000000       0.87500000000000000        0.0000000000000000     
  0.25000000000000000       0.75000000000000000        0.0000000000000000     
  0.28125000000000000       0.75000000000000000        0.0000000000000000     
  0.31250000000000000       0.75000000000000000        0.0000000000000000     
  0.34375000000000000       0.75000000000000000        0.0000000000000000     
  0.37500000000000000       0.75000000000000000        0.0000000000000000     
  0.25000000000000000       0.78125000000000000        0.0000000000000000     
  0.28125000000000000       0.78125000000000000        0.0000000000000000     
  0.31250000000000000       0.78125000000000000        0.0000000000000000     
  0.34375000000000000       0.78125000000000000        0.0000000000000000     
  0.37500000000000000       0.78125000000000000        0.0000000000000000     
  0.25000000000000000       0.81250000000000000        0.0000000000000000     
  0.28125000000000000       0.81250000000000000        0.0000000000000000     
  0.31250000000000000       0.81250000000000000        0.0000000000000000     
  0.34375000000000000       0.81250000000000000        0.0000000000000000     
  0.37500000000000000       0.81250000000000000        0.0000000000000000     
  0.25000000000000000       0.84375000000000000        0.0000000000000000     
  0.28125000000000000       0.84375000000000000        0.0000000000000000     
  0.31250000000000000       0.84375000000000000        0.0000000000000000     
  0.34375000000000000       0.84375000000000000        0.0000000000000000     
  0.37500000000000000       0.84375000000000000        0.0000000000000000     
  0.25000000000000000       0.87500000000000000        0.0000000000000000     
  0.28125000000000000       0.87500000000000000        0.0000000000000000     
  0.31250000000000000       0.87500000000000000        0.0000000000000000     
  0.34375000000000000       0.87500000000000000        0.0000000000000000     
  0.37500000000000000       0.87500000000000000        0.0000000000000000     
  0.37500000000000000       0.75000000000000000        0.0000000000000000     
  0.40625000000000000       0.75000000000000000        0.0000000000000000     
  0.43750000000000000       0.75000000000000000        0.0000000000000000     
  0.46875000000000000       0.75000000000000000        0.0000000000000000     
  0.50000000000000000       0.75000000000000000        0.0000000000000000     
  0.37500000000000000       0.78125000000000000        0.0000000000000000     
  0.40625000000000000       0.78125000000000000        0.0000000000000000     
  0.43750000000000000       0.78125000000000000        0.0000000000000000     
  0.46875000000000000       0.78125000000000000        0.0000000000000000     
  0.50000000000000000       0.78125000000000000        0.0000000000000000     
  0.37500000000000000       0.81250000000000000        0.0000000000000000     
  0.40625000000000000       0.81250000000000000        0.0000000000000000     
  0.43750000000000000       0.81250000000000000        0.0000000000000000     
  0.46875000000000000       0.81250000000000000        0.0000000000000000     
  0.50000000000000000       0.81250000000000000        0.0000000000000000     
  0.37500000000000000       0.84375000000000000        0.0000000000000000     
  0.40625000000000000       0.84375000000000000        0.0000000000000000     
  0.43750000000000000       0.84375000000000000        0.0000000000000000     
  0.46875000000000000       0.84375000000000000        0.0000000000000000     
  0.50000000000000000       0.84375000000000000        0.0000000000000000     
  0.37500000000000000       0.87500000000000000        0.0000000000000000     
  0.40625000000000000       0.87500000000000000        0.0000000000000000     
  0.43750000000000000       0.87500000000000000        0.0000000000000000     
  0.46875000000000000       0.87500000000000000        0.0000000000000000     
  0.50000000000000000       0.87500000000000000        0.0000000000000000     
  0.50000000000000000       0.75000000000000000        0.0000000000000000     
  0.53125000000000000       0.75000000000000000        0.0000000000000000     
  0.56250000000000000       0.75000000000000000        0.0000000000000000     
  0.59375000000000000       0.75000000000000000        0.0000000000000000     
  0.62500000000000000       0.75000000000000000        0.0000000000000000     
  0.50000000000000000       0.78125000000000000        0.0000000000000000     
  0.53125000000000000       0.78125000000000000        0.0000000000000000     
  0.56250000000000000       0.78125000000000000        0.0000000000000000     
  0.59375000000000000       0.78125000000000000        0.0000000000000000     
  0.62500000000000000       0.78125000000000000        0.0000000000000000     
  0.50000000000000000       0.81250000000000000        0.0000000000000000     
  0.53125000000000000       0.81250000000000000        0.0000000000000000     
  0.56250000000000000       0.81250000000000000        0.0000000000000000     
  0.59375000000000000       0.81250000000000000        0.0000000000000000     
  0.62500000000000000       0.81250000000000000        0.0000000000000000     
  0.50000000000000000       0.84375000000000000        0.0000000000000000     
  0.53125000000000000       0.84375000000000000        0.0000000000000000     
  0.56250000000000000       0.84375000000000000        0.0000000000000000     
  0.59375000000000000       0.84375000000000000        0.0000000000000000     
  0.62500000000000000       0.84375000000000000        0.0000000000000000     
  0.50000000000000000       0.87500000000000000        0.0000000000000000     
  0.53125000000000000       0.87500000000000000        0.0000000000000000     
  0.56250000000000000       0.87500000000000000        0.0000000000000000     
  0.59375000000000000       0.87500000000000000        0.0000000000000000     
  0.62500000000000000       0.87500000000000000        0.0000000000000000     
  0.62500000000000000       0.75000000000000000        0.0000000000000000     
  0.65625000000000000       0.75000000000000000        0.0000000000000000     
  0.68750000000000000       0.75000000000000000        0.0000000000000000     
  0.71875000000000000       0.75000000000000000        0.0000000000000000     
  0.75000000000000000       0.75000000000000000        0.0000000000000000     
  0.62500000000000000       0.78125000000000000        0.0000000000000000     
  0.65625000000000000       0.78125000000000000        0.0000000000000000     
  0.68750000000000000       0.78125000000000000        0.0000000000000000     
  0.71875000000000000       0.78125000000000000        0.0000000000000000     
  0.75000000000000000       0.78125000000000000        0.0000000000000000     
  0.62500000000000000       0.81250000000000000        0.0000000000000000     
  0.65625000000000000       0.81250000000000000        0.0000000000000000     
  0.68750000000000000       0.81250000000000000        0.0000000000000000     
  0.71875000000000000       0.81250000000000000        0.0000000000000000     
  0.75000000000000000       0.81250000000000000        0.0000000000000000     
  0.62500000000000000       0.84375000000000000        0.0000000000000000     
  0.65625000000000000       0.84375000000000000        0.0000000000000000     
  0.68750000000000000       0.84375000000000000        0.0000000000000000     
  0.71875000000000000       0.84375000000000000        0.0000000000000000     
  0.75000000000000000       0.84375000000000000        0.0000000000000000     
  0.62500000000000000       0.87500000000000000        0.0000000000000000     
  0.65625000000000000       0.87500000000000000        0.0000000000000000     
  0.68750000000000000       0.87500000000000000        0.0000000000000000     
  0.71875000000000000       0.87500000000000000        0.0000000000000000     
  0.75000000000000000       0.87500000000000000        0.0000000000000000     
  0.75000000000000000       0.75000000000000000        0.0000000000000000     
  0.78125000000000000       0.75000000000000000        0.0000000000000000     
  0.81250000000000000       0.75000000000000000        0.0000000000000000     
  0.84375000000000000       0.75000000000000000        0.0000000000000000     
  0.87500000000000000       0.75000000000000000        0.0000000000000000     
  0.75000000000000000       0.78125000000000000        0.0000000000000000     
  0.78125000000000000       0.78125000000000000        0.0000000000000000     
  0.81250000000000000       0.78125000000000000        0.0000000000000000     
  0.84375000000000000       0.78125000000000000        0.0000000000000000     
  0.87500000000000000       0.78125000000000000        0.0000000000000000     
  0.75000000000000000       0.81250000000000000        0.0000000000000000     
  0.78125000000000000       0.81250000000000000        0.0000000000000000     
  0.81250000000000000       0.81250000000000000        0.0000000000000000     
  0.84375000000000000       0.81250000000000000        0.0000000000000000     
  0.87500000000000000       0.81250000000000000        0.0000000000000000     
  0.75000000000000000       0.84375000000000000        0.0000000000000000     
  0.78125000000000000       0.84375000000000000        0.0000000000000000     
  0.81250000000000000       0.84375000000000000        0.0000000000000000     
  0.84375000000000000       0.84375000000000000        0.0000000000000000     
  0.87500000000000000       0.84375000000000000        0.0000000000000000     
  0.75000000000000000       0.87500000000000000        0.0000000000000000     
  0.78125000000000000       0.87500000000000000        0.0000000000000000     
  0.81250000000000000       0.87500000000000000        0.0000000000000000     
  0.84375000000000000       0.87500000000000000        0.0000000000000000     
  0.87500000000000000       0.87500000000000000        0.0000000000000000     
  0.87500000000000000       0.75000000000000000        0.0000000000000000     
  0.90625000000000000       0.75000000000000000        0.0000000000000000     
  0.93750000000000000       0.75000000000000000        0.0000000000000000     
  0.96875000000000000       0.75000000000000000        0.0000000000000000     
   1.0000000000000000       0.75000000000000000        0.0000000000000000     
  0.87500000000000000       0.78125000000000000        0.0000000000000000     
  0.90625000000000000       0.78125000000000000        0.0000000000000000     
  0.93750000000000000       0.78125000000000000        0.0000000000000000     
  0.96875000000000000       0.78125000000000000        0.0000000000000000     
   1.0000000000000000       0.78125000000000000        0.0000000000000000     
  0.87500000000000000       0.81250000000000000        0.0000000000000000     
  0.90625000000000000       0.81250000000000000        0.0000000000000000     
  0.93750000000000000       0.81250000000000000        0.0000000000000000     
  0.96875000000000000       0.81250000000000000        0.0000000000000000     
   1.0000000000000000       0.81250000000000000        0.0000000000000000     
  0.87500000000000000       0.84375000000000000        0.0000000000000000     
  0.90625000000000000       0.84375000000000000        0.0000000000000000     
  0.93750000000000000       0.84375000000000000        0.0000000000000000     
  0.96875000000000000       0.84375000000000000        0.0000000000000000     
   1.0000000000000000       0.84375000000000000        0.0000000000000000     
  0.87500000000000000       0.87500000000000000        0.0000000000000000     
  0.90625000000000000       0.87500000000000000        0.0000000000000000     
  0.93750000000000000       0.87500000000000000        0.0000000000000000     
  0.96875000000000000       0.87500000000000000        0.0000000000000000     
   1.0000000000000000       0.87500000000000000        0.0000000000000000     
   0.0000000000000000       0.87500000000000000        0.0000000000000000     
   3.1250000000000000E-002  0.87500000000000000        0.0000000000000000     
   6.2500000000000000E-002  0.87500000000000000        0.0000000000000000     
   9.3750000000000000E-002  0.87500000000000000        0.0000000000000000     
  0.12500000000000000       0.87500000000000000        0.0000000000000000     
   0.0000000000000000       0.90625000000000000        0.0000000000000000     
   3.1250000000000000E-002  0.90625000000000000        0.0000000000000000     
   6.2500000000000000E-002  0.90625000000000000        0.0000000000000000     
   9.3750000000000000E-002  0.90625000000000000        0.0000000000000000     
  0.12500000000000000       0.90625000000000000        0.0000000000000000     
   0.0000000000000000       0.93750000000000000        0.0000000000000000     
   3.1250000000000000E-002  0.93750000000000000        0.0000000000000000     
   6.2500000000000000E-002  0.93750000000000000        0.0000000000000000     
   9.3750000000000000E-002  0.93750000000000000        0.0000000000000000     
  0.12500000000000000       0.93750000000000000        0.0000000000000000     
   0.0000000000000000       0.96875000000000000        0.0000000000000000     
   3.1250000000000000E-002  0.96875000000000000        0.0000000000000000     
   6.2500000000000000E-002  0.96875000000000000        0.0000000000000000     
   9.3750000000000000E-002  0.96875000000000000        0.0000000000000000     
  0.12500000000000000       0.96875000000000000        0.0000000000000000     
   0.0000000000000000        1.0000000000000000        0.0000000000000000     
   3.1250000000000000E-002   1.0000000000000000        0.0000000000000000     
   6.2500000000000000E-002   1.0000000000000000        0.0000000000000000     
   9.3750000000000000E-002   1.0000000000000000        0.0000000000000000     
  0.12500000000000000        1.0000000000000000        0.0000000000000000     
  0.12500000000000000       0.87500000000000000        0.0000000000000000     
  0.15625000000000000       0.87500000000000000        0.0000000000000000     
  0.18750000000000000       0.87500000000000000        0.0000000000000000     
  0.21875000000000000       0.87500000000000000        0.0000000000000000     
  0.25000000000000000       0.87500000000000000        0.0000000000000000     
  0.12500000000000000       0.90625000000000000        0.0000000000000000     
  0.15625000000000000       0.90625000000000000        0.0000000000000000     
  0.18750000000000000       0.90625000000000000        0.0000000000000000     
  0.21875000000000000       0.90625000000000000        0.0000000000000000     
  0.25000000000000000       0.90625000000000000        0.0000000000000000     
  0.12500000000000000       0.93750000000000000        0.0000000000000000     
  0.15625000000000000       0.93750000000000000        0.0000000000000000     
  0.18750000000000000       0.93750000000000000        0.0000000000000000     
  0.21875000000000000       0.93750000000000000        0.0000000000000000     
  0.25000000000000000       0.93750000000000000        0.0000000000000000     
  0.12500000000000000       0.96875000000000000        0.0000000000000000     
  0.15625000000000000       0.96875000000000000        0.0000000000000000     
  0.18750000000000000       0.96875000000000000        0.0000000000000000     
  0.21875000000000000       0.96875000000000000        0.0000000000000000     
  0.25000000000000000       0.96875000000000000        0.0000000000000000     
  0.12500000000000000        1.0000000000000000        0.0000000000000000     
  0.15625000000000000        1.0000000000000000        0.0000000000000000     
  0.18750000000000000        1.0000000000000000        0.0000000000000000     
  0.21875000000000000        1.0000000000000000        0.0000000000000000     
  0.25000000000000000        1.0000000000000000        0.0000000000000000     
  0.25000000000000000       0.87500000000000000        0.0000000000000000     
  0.28125000000000000       0.87500000000000000        0.0000000000000000     
  0.31250000000000000       0.87500000000000000        0.0000000000000000     
  0.34375000000000000       0.87500000000000000        0.0000000000000000     
  0.37500000000000000       0.87500000000000000        0.0000000000000000     
  0.25000000000000000       0.90625000000000000        0.0000000000000000     
  0.28125000000000000       0.90625000000000000        0.0000000000000000     
  0.31250000000000000       0.90625000000000000        0.0000000000000000     
  0.34375000000000000       0.90625000000000000        0.0000000000000000     
  0.37500000000000000       0.90625000000000000        0.0000000000000000     
  0.25000000000000000       0.93750000000000000        0.0000000000000000     
  0.28125000000000000       0.93750000000000000        0.0000000000000000     
  0.31250000000000000       0.93750000000000000        0.0000000000000000     
  0.34375000000000000       0.93750000000000000        0.0000000000000000     
  0.37500000000000000       0.93750000000000000        0.0000000000000000     
  0.25000000000000000       0.96875000000000000        0.0000000000000000     
  0.28125000000000000       0.96875000000000000        0.0000000000000000     
  0.31250000000000000       0.96875000000000000        0.0000000000000000     
  0.34375000000000000       0.96875000000000000        0.0000000000000000     
  0.37500000000000000       0.96875000000000000        0.0000000000000000     
  0.25000000000000000        1.0000000000000000        0.0000000000000000     
  0.28125000000000000        1.0000000000000000        0.0000000000000000     
  0.31250000000000000        1.0000000000000000        0.0000000000000000     
  0.34375000000000000        1.0000000000000000        0.0000000000000000     
  0.37500000000000000        1.0000000000000000        0.0000000000000000     
  0.37500000000000000       0.87500000000000000        0.0000000000000000     
  0.40625000000000000       0.87500000000000000        0.0000000000000000     
  0.43750000000000000       0.87500000000000000        0.0000000000000000     
  0.46875000000000000       0.87500000000000000        0.0000000000000000     
  0.50000000000000000       0.87500000000000000        0.0000000000000000     
  0.37500000000000000       0.90625000000000000        0.0000000000000000     
  0.40625000000000000       0.90625000000000000        0.0000000000000000     
  0.43750000000000000       0.90625000000000000        0.0000000000000000     
  0.46875000000000000       0.90625000000000000        0.0000000000000000     
  0.50000000000000000       0.90625000000000000        0.0000000000000000     
  0.37500000000000000       0.93750000000000000        0.0000000000000000     
  0.40625000000000000       0.93750000000000000        0.0000000000000000     
  0.43750000000000000       0.93750000000000000        0.0000000000000000     
  0.46875000000000000       0.93750000000000000        0.0000000000000000     
  0.50000000000000000       0.93750000000000000        0.0000000000000000     
  0.37500000000000000       0.96875000000000000        0.0000000000000000     
  0.40625000000000000       0.96875000000000000        0.0000000000000000     
  0.43750000000000000       0.96875000000000000        0.0000000000000000     
  0.46875000000000000       0.96875000000000000        0.0000000000000000     
  0.50000000000000000       0.96875000000000000        0.0000000000000000     
  0.37500000000000000        1.0000000000000000        0.0000000000000000     
  0.40625000000000000        1.0000000000000000        0.0000000000000000     
  0.43750000000000000        1.0000000000000000        0.0000000000000000     
  0.46875000000000000        1.0000000000000000        0.0000000000000000     
  0.50000000000000000        1.0000000000000000        0.0000000000000000     
  0.50000000000000000       0.87500000000000000        0.0000000000000000     
  0.53125000000000000       0.87500000000000000        0.0000000000000000     
  0.56250000000000000       0.87500000000000000        0.0000000000000000     
  0.59375000000000000       0.87500000000000000        0.0000000000000000     
  0.62500000000000000       0.87500000000000000        0.0000000000000000     
  0.50000000000000000       0.90625000000000000        0.0000000000000000     
  0.53125000000000000       0.90625000000000000        0.0000000000000000     
  0.56250000000000000       0.90625000000000000        0.0000000000000000     
  0.59375000000000000       0.90625000000000000        0.0000000000000000     
  0.62500000000000000       0.90625000000000000        0.0000000000000000     
  0.50000000000000000       0.93750000000000000        0.0000000000000000     
  0.53125000000000000       0.93750000000000000        0.0000000000000000     
  0.56250000000000000       0.93750000000000000        0.0000000000000000     
  0.59375000000000000       0.93750000000000000        0.0000000000000000     
  0.62500000000000000       0.93750000000000000        0.0000000000000000     
  0.50000000000000000       0.96875000000000000        0.0000000000000000     
  0.53125000000000000       0.96875000000000000        0.0000000000000000     
  0.56250000000000000       0.96875000000000000        0.0000000000000000     
  0.59375000000000000       0.96875000000000000        0.0000000000000000     
  0.62500000000000000       0.96875000000000000        0.0000000000000000     
  0.50000000000000000        1.0000000000000000        0.0000000000000000     
  0.53125000000000000        1.0000000000000000        0.0000000000000000     
  0.56250000000000000        1.0000000000000000        0.0000000000000000     
  0.59375000000000000        1.0000000000000000        0.0000000000000000     
  0.62500000000000000        1.0000000000000000        0.0000000000000000     
  0.62500000000000000       0.87500000000000000        0.0000000000000000     
  0.65625000000000000       0.87500000000000000        0.0000000000000000     
  0.68750000000000000       0.87500000000000000        0.0000000000000000     
  0.71875000000000000       0.87500000000000000        0.0000000000000000     
  0.75000000000000000       0.87500000000000000        0.0000000000000000     
  0.62500000000000000       0.90625000000000000        0.0000000000000000     
  0.65625000000000000       0.90625000000000000        0.0000000000000000     
  0.68750000000000000       0.90625000000000000        0.0000000000000000     
  0.71875000000000000       0.90625000000000000        0.0000000000000000     
  0.75000000000000000       0.90625000000000000        0.0000000000000000     
  0.62500000000000000       0.93750000000000000        0.0000000000000000     
  0.65625000000000000       0.93750000000000000        0.0000000000000000     
  0.68750000000000000       0.93750000000000000        0.0000000000000000     
  0.71875000000000000       0.93750000000000000        0.0000000000000000     
  0.75000000000000000       0.93750000000000000        0.0000000000000000     
  0.62500000000000000       0.96875000000000000        0.0000000000000000     
  0.65625000000000000       0.96875000000000000        0.0000000000000000     
  0.68750000000000000       0.96875000000000000        0.0000000000000000     
  0.71875000000000000       0.96875000000000000        0.0000000000000000     
  0.75000000000000000       0.96875000000000000        0.0000000000000000     
  0.62500000000000000        1.0000000000000000        0.0000000000000000     
  0.65625000000000000        1.0000000000000000        0.0000000000000000     
  0.68750000000000000        1.0000000000000000        0.0000000000000000     
  0.71875000000000000        1.0000000000000000        0.0000000000000000     
  0.75000000000000000        1.0000000000000000        0.0000000000000000     
  0.75000000000000000       0.87500000000000000        0.0000000000000000     
  0.78125000000000000       0.87500000000000000        0.0000000000000000     
  0.81250000000000000       0.87500000000000000        0.0000000000000000     
  0.84375000000000000       0.87500000000000000        0.0000000000000000     
  0.87500000000000000       0.87500000000000000        0.0000000000000000     
  0.75000000000000000       0.90625000000000000        0.0000000000000000     
  0.78125000000000000       0.90625000000000000        0.0000000000000000     
  0.81250000000000000       0.90625000000000000        0.0000000000000000     
  0.84375000000000000       0.90625000000000000        0.0000000000000000     
  0.87500000000000000       0.90625000000000000        0.0000000000000000     
  0.75000000000000000       0.93750000000000000        0.0000000000000000     
  0.78125000000000000       0.93750000000000000        0.0000000000000000     
  0.81250000000000000       0.93750000000000000        0.0000000000000000     
  0.84375000000000000       0.93750000000000000        0.0000000000000000     
  0.87500000000000000       0.93750000000000000        0.0000000000000000     
  0.75000000000000000       0.96875000000000000        0.0000000000000000     
  0.78125000000000000       0.96875000000000000        0.0000000000000000     
  0.81250000000000000       0.96875000000000000        0.0000000000000000     
  0.84375000000000000       0.96875000000000000        0.0000000000000000     
  0.87500000000000000       0.96875000000000000        0.0000000000000000     
  0.75000000000000000        1.0000000000000000        0.0000000000000000     
  0.78125000000000000        1.0000000000000000        0.0000000000000000     
  0.81250000000000000        1.0000000000000000        0.0000000000000000     
  0.84375000000000000        1.0000000000000000        0.0000000000000000     
  0.87500000000000000        1.0000000000000000        0.0000000000000000     
  0.87500000000000000       0.87500000000000000        0.0000000000000000     
  0.90625000000000000       0.87500000000000000        0.0000000000000000     
  0.93750000000000000       0.87500000000000000        0.0000000000000000     
  0.96875000000000000       0.87500000000000000        0.0000000000000000     
   1.0000000000000000       0.87500000000000000        0.0000000000000000     
  0.87500000000000000       0.90625000000000000        0.0000000000000000     
  0.90625000000000000       0.90625000000000000        0.0000000000000000     
  0.93750000000000000       0.90625000000000000        0.0000000000000000     
  0.96875000000000000       0.90625000000000000        0.0000000000000000     
   1.0000000000000000       0.90625000000000000        0.0000000000000000     
  0.87500000000000000       0.93750000000000000        0.0000000000000000     
  0.90625000000000000       0.93750000000000000        0.0000000000000000     
  0.93750000000000000       0.93750000000000000        0.0000000000000000     
  0.96875000000000000       0.93750000000000000        0.0000000000000000     
   1.0000000000000000       0.93750000000000000        0.0000000000000000     
  0.87500000000000000       0.96875000000000000        0.0000000000000000     
  0.90625000000000000       0.96875000000000000        0.0000000000000000     
  0.93750000000000000       0.96875000000000000        0.0000000000000000     
  0.96875000000000000       0.96875000000000000        0.0000000000000000     
   1.0000000000000000       0.96875000000000000        0.0000000000000000     
  0.87500000000000000        1.0000000000000000        0.0000000000000000     
  0.90625000000000000        1.0000000000000000        0.0000000000000000     
  0.93750000000000000        1.0000000000000000        0.0000000000000000     
  0.96875000000000000        1.0000000000000000        0.0000000000000000     
   1.0000000000000000        1.0000000000000000        0.0000000000000000     
 </DataArray>
 </Points>
 <Cells>
 <DataArray  type="Int32"  Name="connectivity"  format="ascii">
           0           1           6           5
           1           2           7           6
           2           3           8           7
           3           4           9           8
           5           6          11          10
           6           7          12          11
           7           8          13          12
           8           9          14          13
          10          11          16          15
          11          12          17          16
          12          13          18          17
          13          14          19          18
          15          16          21          20
          16          17          22          21
          17          18          23          22
          18          19          24          23
          25          26          31          30
          26          27          32          31
          27          28          33          32
          28          29          34          33
          30          31          36          35
          31          32          37          36
          32          33          38          37
          33          34          39          38
          35          36          41          40
          36          37          42          41
          37          38          43          42
          38          39          44          43
          40          41          46          45
          41          42          47          46
          42          43          48          47
          43          44          49          48
          50          51          56          55
          51          52          57          56
          52          53          58          57
          53          54          59          58
          55          56          61          60
          56          57          62          61
          57          58          63          62
          58          59          64          63
          60          61          66          65
          61          62          67          66
          62          63          68          67
          63          64          69          68
          65          66          71          70
          66          67          72          71
          67          68          73          72
          68          69          74          73
          75          76          81          80
          76          77          82          81
          77          78          83          82
          78          79          84          83
          80          81          86          85
          81          82          87          86
          82          83          88          87
          83          84          89          88
          85          86          91          90
          86          87          92          91
          87          88          93          92
          88          89          94          93
          90          91          96          95
          91          92          97          96
          92          93          98          97
          93          94          99          98
         100         101         106         105
         101         102         107         106
         102         103         108         107
         103         104         109         108
         105         106         111         110
         106         107         112         111
         107         108         113         112
         108         109         114         113
         110         111         116         115
         111         112         117         116
         112         113         118         117
         113         114         119         118
         115         116         121         120
         116         117         122         121
         117         118         123         122
         118         119         124         123
         125         126         131         130
         126         127         132         131
         127         128         133         132
         128         129         134         133
         130         131         136         135
         131         132         137         136
         132         133         138         137
         133         134         139         138
         135         136         141         140
         136         137         142         141
         137         138         143         142
         138         139         144         143
         140         141         146         145
         141         142         147         146
         142         143         148         147
         143         144         149         148
         150         151         156         155
         151         152         157         156
         152         153         158         157
         153         154         159         158
         155         156         161         160
         156         157         162         161
         157         158         163         162
         158         159         164         163
         160         161         166         165
         161         162         167         166
         162         163         168         167
         163         164         169         168
         165         166         171         170
         166         167         172         171
         167         168         173         172
         168         169         174         173
         175         176         181         180
         176         177         182         181
         177         178         183         182
         178         179         184         183
         180         181         186         185
         181         182         187         186
         182         183         188         187
         183         184         189         188
         185         186         191         190
         186         187         192         191
         187         188         193         192
         188         189         194         193
         190         191         196         195
         191         192         197         196
         192         193         198         197
         193         194         199         198
         200         201         206         205
         201         202         207         206
         202         203         208         207
         203         204         209         208
         205         206         211         210
         206         207         212         211
         207         208         213         212
         208         209         214         213
         210         211         216         215
         211         212         217         216
         212         213         218         217
         213         214         219         218
         215         216         221         220
         216         217         222         221
         217         218         223         222
         218         219         224         223
         225         226         231         230
         226         227         232         231
         227         228         233         232
         228         229         234         233
         230         231         236         235
         231         232         237         236
         232         233         238         237
         233         234         239         238
         235         236         241         240
         236         237         242         241
         237         238         243         242
         238         239         244         243
         240         241         246         245
         241         242         247         246
         242         243         248         247
         243         244         249         248
         250         251         256         255
         251         252         257         256
         252         253         258         257
         253         254         259         258
         255         256         261         260
         256         257         262         261
         257         258         263         262
         258         259         264         263
         260         261         266         265
         261         262         267         266
         262         263         268         267
         263         264         269         268
         265         266         271         270
         266         267         272         271
         267         268         273         272
         268         269         274         273
         275         276         281         280
         276         277         282         281
         277         278         283         282
         278         279         284         283
         280         281         286         285
         281         282         287         286
         282         283         288         287
         283         284         289         288
         285         286         291         290
         286         287         292         291
         287         288         293         292
         288         289         294         293
         290         291         296         295
         291         292         297         296
         292         293         298         297
         293         294         299         298
         300         301         306         305
         301         302         307         306
         302         303         308         307
         303         304         309         308
         305         306         311         310
         306         307         312         311
         307         308         313         312
         308         309         314         313
         310         311         316         315
         311         312         317         316
         312         313         318         317
         313         314         319         318
         315         316         321         320
         316         317         322         321
         317         318         323         322
         318         319         324         323
         325         326         331         330
         326         327         332         331
         327         328         333         332
         328         329         334         333
         330         331         336         335
         331         332         337         336
         332         333         338         337
         333         334         339         338
         335         336         341         340
         336         337         342         341
         337         338         343         342
         338         339         344         343
         340         341         346         345
         341         342         347         346
         342         343         348         347
         343         344         349         348
         350         351         356         355
         351         352         357         356
         352         353         358         357
         353         354         359         358
         355         356         361         360
         356         357         362         361
         357         358         363         362
         358         359         364         363
         360         361         366         365
         361         362         367         366
         362         363         368         367
         363         364         369         368
         365         366         371         370
         366         367         372         371
         367         368         373         372
         368         369         374         373
         375         376         381         380
         376         377         382         381
         377         378         383         382
         378         379         384         383
         380         381         386         385
         381         382         387         386
         382         383         388         387
         383         384         389         388
         385         386         391         390
         386         387         392         391
         387         388         393         392
         388         389         394         393
         390         391         396         395
         391         392         397         396
         392         393         398         397
         393         394         399         398
         400         401         406         405
         401         402         407         406
         402         403         408         407
         403         404         409         408
         405         406         411         410
         406         407         412         411
         407         408         413         412
         408         409         414         413
         410         411         416         415
         411         412         417         416
         412         413         418         417
         413         414         419         418
         415         416         421         420
         416         417         422         421
         417         418         423         422
         418         419         424         423
         425         426         431         430
         426         427         432         431
         427         428         433         432
         428         429         434         433
         430         431         436         435
         431         432         437         436
         432         433         438         437
         433         434         439         438
         435         436         441         440
         436         437         442         441
         437         438         443         442
         438         439         444         443
         440         441         446         445
         441         442         447         446
         442         443         448         447
         443         444         449         448
         450         451         456         455
         451         452         457         456
         452         453         458         457
         453         454         459         458
         455         456         461         460
         456         457         462         461
         457         458         463         462
         458         459         464         463
         460         461         466         465
         461         462         467         466
         462         463         468         467
         463         464         469         468
         465         466         471         470
         466         467         472         471
         467         468         473         472
         468         469         474         473
         475         476         481         480
         476         477         482         481
         477         478         483         482
         478         479         484         483
         480         481         486         485
         481         482         487         486
         482         483         488         487
         483         484         489         488
         485         486         491         490
         486         487         492         491
         487         488         493         492
         488         489         494         493
         490         491         496         495
         491         492         497         496
         492         493         498         497
         493         494         499         498
         500         501         506         505
         501         502         507         506
         502         503         508         507
         503         504         509         508
         505         506         511         510
         506         507         512         511
         507         508         513         512
         508         509         514         513
         510         511         516         515
         511         512         517         516
         512         513         518         517
         513         514         519         518
         515         516         521         520
         516         517         522         521
         517         518         523         522
         518         519         524         523
         525         526         531         530
         526         527         532         531
         527         528         533         532
         528         529         534         533
         530         531         536         535
         531         532         537         536
         532         533         538         537
         533         534         539         538
         535         536         541         540
         536         537         542         541
         537         538         543         542
         538         539         544         543
         540         541         546         545
         541         542         547         546
         542         543         548         547
         543         544         549         548
         550         551         556         555
         551         552         557         556
         552         553         558         557
         553         554         559         558
         555         556         561         560
         556         557         562         561
         557         558         563         562
         558         559         564         563
         560         561         566         565
         561         562         567         566
         562         563         568         567
         563         564         569         568
         565         566         571         570
         566         567         572         571
         567         568         573         572
         568         569         574         573
         575         576         581         580
         576         577         582         581
         577         578         583         582
         578         579         584         583
         580         581         586         585
         581         582         587         586
         582         583         588         587
         583         584         589         588
         585         586         591         590
         586         587         592         591
         587         588         593         592
         588         589         594         593
         590         591         596         595
         591         592         597         596
         592         593         598         597
         593         594         599         598
         600         601         606         605
         601         602         607         606
         602         603         608         607
         603         604         609         608
         605         606         611         610
         606         607         612         611
         607         608         613         612
         608         609         614         613
         610         611         616         615
         611         612         617         616
         612         613         618         617
         613         614         619         618
         615         616         621         620
         616         617         622         621
         617         618         623         622
         618         619         624         623
         625         626         631         630
         626         627         632         631
         627         628         633         632
         628         629         634         633
         630         631         636         635
         631         632         637         636
         632         633         638         637
         633         634         639         638
         635         636         641         640
         636         637         642         641
         637         638         643         642
         638         639         644         643
         640         641         646         645
         641         642         647         646
         642         643         648         647
         643         644         649         648
         650         651         656         655
         651         652         657         656
         652         653         658         657
         653         654         659         658
         655         656         661         660
         656         657         662         661
         657         658         663         662
         658         659         664         663
         660         661         666         665
         661         662         667         666
         662         663         668         667
         663         664         669         668
         665         666         671         670
         666         667         672         671
         667         668         673         672
         668         669         674         673
         675         676         681         680
         676         677         682         681
         677         678         683         682
         678         679         684         683
         680         681         686         685
         681         682         687         686
         682         683         688         687
         683         684         689         688
         685         686         691         690
         686         687         692         691
         687         688         693         692
         688         689         694         693
         690         691         696         695
         691         692         697         696
         692         693         698         697
         693         694         699         698
         700         701         706         705
         701         702         707         706
         702         703         708         707
         703         704         709         708
         705         706         711         710
         706         707         712         711
         707         708         713         712
         708         709         714         713
         710         711         716         715
         711         712         717         716
         712         713         718         717
         713         714         719         718
         715         716         721         720
         716         717         722         721
         717         718         723         722
         718         719         724         723
         725         726         731         730
         726         727         732         731
         727         728         733         732
         728         729         734         733
         730         731         736         735
         731         732         737         736
         732         733         738         737
         733         734         739         738
         735         736         741         740
         736         737         742         741
         737         738         743         742
         738         739         744         743
         740         741         746         745
         741         742         747         746
         742         743         748         747
         743         744         749         748
         750         751         756         755
         751         752         757         756
         752         753         758         757
         753         754         759         758
         755         756         761         760
         756         757         762         761
         757         758         763         762
         758         759         764         763
         760         761         766         765
         761         762         767         766
         762         763         768         767
         763         764         769         768
         765         766         771         770
         766         767         772         771
         767         768         773         772
         768         769         774         773
         775         776         781         780
         776         777         782         781
         777         778         783         782
         778         779         784         783
         780         781         786         785
         781         782         787         786
         782         783         788         787
         783         784         789         788
         785         786         791         790
         786         787         792         791
         787         788         793         792
         788         789         794         793
         790         791         796         795
         791         792         797         796
         792         793         798         797
         793         794         799         798
         800         801         806         805
         801         802         807         806
         802         803         808         807
         803         804         809         808
         805         806         811         810
         806         807         812         811
         807         808         813         812
         808         809         814         813
         810         811         816         815
         811         812         817         816
         812         813         818         817
         813         814         819         818
         815         816         821         820
         816         817         822         821
         817         818         823         822
         818         819         824         823
         825         826         831         830
         826         827         832         831
         827         828         833         832
         828         829         834         833
         830         831         836         835
         831         832         837         836
         832         833         838         837
         833         834         839         838
         835         836         841         840
         836         837         842         841
         837         838         843         842
         838         839         844         843
         840         841         846         845
         841         842         847         846
         842         843         848         847
         843         844         849         848
         850         851         856         855
         851         852         857         856
         852         853         858         857
         853         854         859         858
         855         856         861         860
         856         857         862         861
         857         858         863         862
         858         859         864         863
         860         861         866         865
         861         862         867         866
         862         863         868         867
         863         864         869         868
         865         866         871         870
         866         867         872         871
         867         868         873         872
         868         869         874         873
         875         876         881         880
         876         877         882         881
         877         878         883         882
         878         879         884         883
         880         881         886         885
         881         882         887         886
         882         883         888         887
         883         884         889         888
         885         886         891         890
         886         887         892         891
         887         888         893         892
         888         889         894         893
         890         891         896         895
         891         892         897         896
         892         893         898         897
         893         894         899         898
         900         901         906         905
         901         902         907         906
         902         903         908         907
         903         904         909         908
         905         906         911         910
         906         907         912         911
         907         908         913         912
         908         909         914         913
         910         911         916         915
         911         912         917         916
         912         913         918         917
         913         914         919         918
         915         916         921         920
         916         917         922         921
         917         918         923         922
         918         919         924         923
         925         926         931         930
         926         927         932         931
         927         928         933         932
         928         929         934         933
         930         931         936         935
         931         932         937         936
         932         933         938         937
         933         934         939         938
         935         936         941         940
         936         937         942         941
         937         938         943         942
         938         939         944         943
         940         941         946         945
         941         942         947         946
         942         943         948         947
         943         944         949         948
         950         951         956         955
         951         952         957         956
         952         953         958         957
         953         954         959         958
         955         956         961         960
         956         957         962         961
         957         958         963         962
         958         959         964         963
         960         961         966         965
         961         962         967         966
         962         963         968         967
         963         964         969         968
         965         966         971         970
         966         967         972         971
         967         968         973         972
         968         969         974         973
         975         976         981         980
         976         977         982         981
         977         978         983         982
         978         979         984         983
         980         981         986         985
         981         982         987         986
         982         983         988         987
         983         984         989         988
         985         986         991         990
         986         987         992         991
         987         988         993         992
         988         989         994         993
         990         991         996         995
         991         992         997         996
         992         993         998         997
         993         994         999         998
        1000        1001        1006        1005
        1001        1002        1007        1006
        1002        1003        1008        1007
        1003        1004        1009        1008
        1005        1006        1011        1010
        1006        1007        1012        1011
        1007        1008        1013        1012
        1008        1009        1014        1013
        1010        1011        1016        1015
        1011        1012        1017        1016
        1012        1013        1018        1017
        1013        1014        1019        1018
        1015        1016        1021        1020
        1016        1017        1022        1021
        1017        1018        1023        1022
        1018        1019        1024        1023
        1025        1026        1031        1030
        1026        1027        1032        1031
        1027        1028        1033        1032
        1028        1029        1034        1033
        1030        1031        1036        1035
        1031        1032        1037        1036
        1032        1033        1038        1037
        1033        1034        1039        1038
        1035        1036        1041        1040
        1036        1037        1042        1041
        1037        1038        1043        1042
        1038        1039        1044        1043
        1040        1041        1046        1045
        1041        1042        1047        1046
        1042        1043        1048        1047
        1043        1044        1049        1048
        1050        1051        1056        1055
        1051        1052        1057        1056
        1052        1053        1058        1057
        1053        1054        1059        1058
        1055        1056        1061        1060
        1056        1057        1062        1061
        1057        1058        1063        1062
        1058        1059        1064        1063
        1060        1061        1066        1065
        1061        1062        1067        1066
        1062        1063        1068        1067
        1063        1064        1069        1068
        1065        1066        1071        1070
        1066        1067        1072        1071
        1067        1068        1073        1072
        1068        1069        1074        1073
        1075        1076        1081        1080
        1076        1077        1082        1081
        1077        1078        1083        1082
        1078        1079        1084        1083
        1080        1081        1086        1085
        1081        1082        1087        1086
        1082        1083        1088        1087
        1083        1084        1089        1088
        1085        1086        1091        1090
        1086        1087        1092        1091
        1087        1088        1093        1092
        1088        1089        1094        1093
        1090        1091        1096        1095
        1091        1092        1097        1096
        1092        1093        1098        1097
        1093        1094        1099        1098
        1100        1101        1106        1105
        1101        1102        1107        1106
        1102        1103        1108        1107
        1103        1104        1109        1108
        1105        1106        1111        1110
        1106        1107        1112        1111
        1107        1108        1113        1112
        1108        1109        1114        1113
        1110        1111        1116        1115
        1111        1112        1117        1116
        1112        1113        1118        1117
        1113        1114        1119        1118
        1115        1116        1121        1120
        1116        1117        1122        1121
        1117        1118        1123        1122
        1118        1119        1124        1123
        1125        1126        1131        1130
        1126        1127        1132        1131
        1127        1128        1133        1132
        1128        1129        1134        1133
        1130        1131        1136        1135
        1131        1132        1137        1136
        1132        1133        1138        1137
        1133        1134        1139        1138
        1135        1136        1141        1140
        1136        1137        1142        1141
        1137        1138        1143        1142
        1138        1139        1144        1143
        1140        1141        1146        1145
        1141        1142        1147        1146
        1142        1143        1148        1147
        1143        1144        1149        1148
        1150        1151        1156        1155
        1151        1152        1157        1156
        1152        1153        1158        1157
        1153        1154        1159        1158
        1155        1156        1161        1160
        1156        1157        1162        1161
        1157        1158        1163        1162
        1158        1159        1164        1163
        1160        1161        1166        1165
        1161        1162        1167        1166
        1162        1163        1168        1167
        1163        1164        1169        1168
        1165        1166        1171        1170
        1166        1167        1172        1171
        1167        1168        1173        1172
        1168        1169        1174        1173
        1175        1176        1181        1180
        1176        1177        1182        1181
        1177        1178        1183        1182
        1178        1179        1184        1183
        1180        1181        1186        1185
        1181        1182        1187        1186
        1182        1183        1188        1187
        1183        1184        1189        1188
        1185        1186        1191        1190
        1186        1187        1192        1191
        1187        1188        1193        1192
        1188        1189        1194        1193
        1190        1191        1196        1195
        1191        1192        1197        1196
        1192        1193        1198        1197
        1193        1194        1199        1198
        1200        1201        1206        1205
        1201        1202        1207        1206
        1202        1203        1208        1207
        1203        1204        1209        1208
        1205        1206        1211        1210
        1206        1207        1212        1211
        1207        1208        1213        1212
        1208        1209        1214        1213
        1210        1211        1216        1215
        1211        1212        1217        1216
        1212        1213        1218        1217
        1213        1214        1219        1218
        1215        1216        1221        1220
        1216        1217        1222        1221
        1217        1218        1223        1222
        1218        1219        1224        1223
        1225        1226        1231        1230
        1226        1227        1232        1231
        1227        1228        1233        1232
        1228        1229        1234        1233
        1230        1231        1236        1235
        1231        1232        1237        1236
        1232        1233        1238        1237
        1233        1234        1239        1238
        1235        1236        1241        1240
        1236        1237        1242        1241
        1237        1238        1243        1242
        1238        1239        1244        1243
        1240        1241        1246        1245
        1241        1242        1247        1246
        1242        1243        1248        1247
        1243        1244        1249        1248
        1250        1251        1256        1255
        1251        1252        1257        1256
        1252        1253        1258        1257
        1253        1254        1259        1258
        1255        1256        1261        1260
        1256        1257        1262        1261
        1257        1258        1263        1262
        1258        1259        1264        1263
        1260        1261        1266        1265
        1261        1262        1267        1266
        1262        1263        1268        1267
        1263        1264        1269        1268
        1265        1266        1271        1270
        1266        1267        1272        1271
        1267        1268        1273        1272
        1268        1269        1274        1273
        1275        1276        1281        1280
        1276        1277        1282        1281
        1277        1278        1283        1282
        1278        1279        1284        1283
        1280        1281        1286        1285
        1281        1282        1287        1286
        1282        1283        1288        1287
        1283        1284        1289        1288
        1285        1286        1291        1290
        1286        1287        1292        1291
        1287        1288        1293        1292
        1288        1289        1294        1293
        1290        1291        1296        1295
        1291        1292        1297        1296
        1292        1293        1298        1297
        1293        1294        1299        1298
        1300        1301        1306        1305
        1301        1302        1307        1306
        1302        1303        1308        1307
        1303        1304        1309        1308
        1305        1306        1311        1310
        1306        1307        1312        1311
        1307        1308        1313        1312
        1308        1309        1314        1313
        1310        1311        1316        1315
        1311        1312        1317        1316
        1312        1313        1318        1317
        1313        1314        1319        1318
        1315        1316        1321        1320
        1316        1317        1322        1321
        1317        1318        1323        1322
        1318        1319        1324        1323
        1325        1326        1331        1330
        1326        1327        1332        1331
        1327        1328        1333        1332
        1328        1329        1334        1333
        1330        1331        1336        1335
        1331        1332        1337        1336
        1332        1333        1338        1337
        1333        1334        1339        1338
        1335        1336        1341        1340
        1336        1337        1342        1341
        1337        1338        1343        1342
        1338        1339        1344        1343
        1340        1341        1346        1345
        1341        1342        1347        1346
        1342        1343        1348        1347
        1343        1344        1349        1348
        1350        1351        1356        1355
        1351        1352        1357        1356
        1352        1353        1358        1357
        1353        1354        1359        1358
        1355        1356        1361        1360
        1356        1357        1362        1361
        1357        1358        1363        1362
        1358        1359        1364        1363
        1360        1361        1366        1365
        1361        1362        1367        1366
        1362        1363        1368        1367
        1363        1364        1369        1368
        1365        1366        1371        1370
        1366        1367        1372        1371
        1367        1368        1373        1372
        1368        1369        1374        1373
        1375        1376        1381        1380
        1376        1377        1382        1381
        1377        1378        1383        1382
        1378        1379        1384        1383
        1380        1381        1386        1385
        1381        1382        1387        1386
        1382        1383        1388        1387
        1383        1384        1389        1388
        1385        1386        1391        1390
        1386        1387        1392        1391
        1387        1388        1393        1392
        1388        1389        1394        1393
        1390        1391        1396        1395
        1391        1392        1397        1396
        1392        1393        1398        1397
        1393        1394        1399        1398
        1400        1401        1406        1405
        1401        1402        1407        1406
        1402        1403        1408        1407
        1403        1404        1409        1408
        1405        1406        1411        1410
        1406        1407        1412        1411
        1407        1408        1413        1412
        1408        1409        1414        1413
        1410        1411        1416        1415
        1411        1412        1417        1416
        1412        1413        1418        1417
        1413        1414        1419        1418
        1415        1416        1421        1420
        1416        1417        1422        1421
        1417        1418        1423        1422
        1418        1419        1424        1423
        1425        1426        1431        1430
        1426        1427        1432        1431
        1427        1428        1433        1432
        1428        1429        1434        1433
        1430        1431        1436        1435
        1431        1432        1437        1436
        1432        1433        1438        1437
        1433        1434        1439        1438
        1435        1436        1441        1440
        1436        1437        1442        1441
        1437        1438        1443        1442
        1438        1439        1444        1443
        1440        1441        1446        1445
        1441        1442        1447        1446
        1442        1443        1448        1447
        1443        1444        1449        1448
        1450        1451        1456        1455
        1451        1452        1457        1456
        1452        1453        1458        1457
        1453        1454        1459        1458
        1455        1456        1461        1460
        1456        1457        1462        1461
        1457        1458        1463        1462
        1458        1459        1464        1463
        1460        1461        1466        1465
        1461        1462        1467        1466
        1462        1463        1468        1467
        1463        1464        1469        1468
        1465        1466        1471        1470
        1466        1467        1472        1471
        1467        1468        1473        1472
        1468        1469        1474        1473
        1475        1476        1481        1480
        1476        1477        1482        1481
        1477        1478        1483        1482
        1478        1479        1484        1483
        1480        1481        1486        1485
        1481        1482        1487        1486
        1482        1483        1488        1487
        1483        1484        1489        1488
        1485        1486        1491        1490
        1486        1487        1492        1491
        1487        1488        1493        1492
        1488        1489        1494        1493
        1490        1491        1496        1495
        1491        1492        1497        1496
        1492        1493        1498        1497
        1493        1494        1499        1498
        1500        1501        1506        1505
        1501        1502        1507        1506
        1502        1503        1508        1507
        1503        1504        1509        1508
        1505        1506        1511        1510
        1506        1507        1512        1511
        1507        1508        1513        1512
        1508        1509        1514        1513
        1510        1511        1516        1515
        1511        1512        1517        1516
        1512        1513        1518        1517
        1513        1514        1519        1518
        1515        1516        1521        1520
        1516        1517        1522        1521
        1517        1518        1523        1522
        1518        1519        1524        1523
        1525        1526        1531        1530
        1526        1527        1532        1531
        1527        1528        1533        1532
        1528        1529        1534        1533
        1530        1531        1536        1535
        1531        1532        1537        1536
        1532        1533        1538        1537
        1533        1534        1539        1538
        1535        1536        1541        1540
        1536        1537        1542        1541
        1537        1538        1543        1542
        1538        1539        1544        1543
        1540        1541        1546        1545
        1541        1542        1547        1546
        1542        1543        1548        1547
        1543        1544        1549        1548
        1550        1551        1556        1555
        1551        1552        1557        1556
        1552        1553        1558        1557
        1553        1554        1559        1558
        1555        1556        1561        1560
        1556        1557        1562        1561
        1557        1558        1563        1562
        1558        1559        1564        1563
        1560        1561        1566        1565
        1561        1562        1567        1566
        1562        1563        1568        1567
        1563        1564        1569        1568
        1565        1566        1571        1570
        1566        1567        1572        1571
        1567        1568        1573        1572
        1568        1569        1574        1573
        1575        1576        1581        1580
        1576        1577        1582        1581
        1577        1578        1583        1582
        1578        1579        1584        1583
        1580        1581        1586        1585
        1581        1582        1587        1586
        1582        1583        1588        1587
        1583        1584        1589        1588
        1585        1586        1591        1590
        1586        1587        1592        1591
        1587        1588        1593        1592
        1588        1589        1594        1593
        1590        1591        1596        1595
        1591        1592        1597        1596
        1592        1593        1598        1597
        1593        1594        1599        1598
 </DataArray>
 <DataArray  type="Int32"  Name="offsets"  format="ascii"> 
           4
           8
          12
          16
          20
          24
          28
          32
          36
          40
          44
          48
          52
          56
          60
          64
          68
          72
          76
          80
          84
          88
          92
          96
         100
         104
         108
         112
         116
         120
         124
         128
         132
         136
         140
         144
         148
         152
         156
         160
         164
         168
         172
         176
         180
         184
         188
         192
         196
         200
         204
         208
         212
         216
         220
         224
         228
         232
         236
         240
         244
         248
         252
         256
         260
         264
         268
         272
         276
         280
         284
         288
         292
         296
         300
         304
         308
         312
         316
         320
         324
         328
         332
         336
         340
         344
         348
         352
         356
         360
         364
         368
         372
         376
         380
         384
         388
         392
         396
         400
         404
         408
         412
         416
         420
         424
         428
         432
         436
         440
         444
         448
         452
         456
         460
         464
         468
         472
         476
         480
         484
         488
         492
         496
         500
         504
         508
         512
         516
         520
         524
         528
         532
         536
         540
         544
         548
         552
         556
         560
         564
         568
         572
         576
         580
         584
         588
         592
         596
         600
         604
         608
         612
         616
         620
         624
         628
         632
         636
         640
         644
         648
         652
         656
         660
         664
         668
         672
         676
         680
         684
         688
         692
         696
         700
         704
         708
         712
         716
         720
         724
         728
         732
         736
         740
         744
         748
         752
         756
         760
         764
         768
         772
         776
         780
         784
         788
         792
         796
         800
         804
         808
         812
         816
         820
         824
         828
         832
         836
         840
         844
         848
         852
         856
         860
         864
         868
         872
         876
         880
         884
         888
         892
         896
         900
         904
         908
         912
         916
         920
         924
         928
         932
         936
         940
         944
         948
         952
         956
         960
         964
         968
         972
         976
         980
         984
         988
         992
         996
        1000
        1004
        1008
        1012
        1016
        1020
        1024
        1028
        1032
        1036
        1040
        1044
        1048
        1052
        1056
        1060
        1064
        1068
        1072
        1076
        1080
        1084
        1088
        1092
        1096
        1100
        1104
        1108
        1112
        1116
        1120
        1124
        1128
        1132
        1136
        1140
        1144
        1148
        1152
        1156
        1160
        1164
        1168
        1172
        1176
        1180
        1184
        1188
        1192
        1196
        1200
        1204
        1208
        1212
        1216
        1220
        1224
        1228
        1232
        1236
        1240
        1244
        1248
        1252
        1256
        1260
        1264
        1268
        1272
        1276
        1280
        1284
        1288
        1292
        1296
        1300
        1304
        1308
        1312
        1316
        1320
        1324
        1328
        1332
        1336
        1340
        1344
        1348
        1352
        1356
        1360
        1364
        1368
        1372
        1376
        1380
        1384
        1388
        1392
        1396
        1400
        1404
        1408
        1412
        1416
        1420
        1424
        1428
        1432
        1436
        1440
        1444
        1448
        1452
        1456
        1460
        1464
        1468
        1472
        1476
        1480
        1484
        1488
        1492
        1496
        1500
        1504
        1508
        1512
        1516
        1520
        1524
        1528
        1532
        1536
        1540
        1544
        1548
        1552
        1556
        1560
        1564
        1568
        1572
        1576
        1580
        1584
        1588
        1592
        1596
        1600
        1604
        1608
        1612
        1616
        1620
        1624
        1628
        1632
        1636
        1640
        1644
        1648
        1652
        1656
        1660
        1664
        1668
        1672
        1676
        1680
        1684
        1688
        1692
        1696
        1700
        1704
        1708
        1712
        1716
        1720
        1724
        1728
        1732
        1736
        1740
        1744
        1748
        1752
        1756
        1760
        1764
        1768
        1772
        1776
        1780
        1784
        1788
        1792
        1796
        1800
        1804
        1808
        1812
        1816
        1820
        1824
        1828
        1832
        1836
        1840
        1844
        1848
        1852
        1856
        1860
        1864
        1868
        1872
        1876
        1880
        1884
        1888
        1892
        1896
        1900
        1904
        1908
        1912
        1916
        1920
        1924
        1928
        1932
        1936
        1940
        1944
        1948
        1952
        1956
        1960
        1964
        1968
        1972
        1976
        1980
        1984
        1988
        1992
        1996
        2000
        2004
        2008
        2012
        2016
        2020
        2024
        2028
        2032
        2036
        2040
        2044
        2048
        2052
        2056
        2060
        2064
        2068
        2072
        2076
        2080
        2084
        2088
        2092
        2096
        2100
        2104
        2108
        2112
        2116
        2120
        2124
        2128
        2132
        2136
        2140
        2144
        2148
        2152
        2156
        2160
        2164
        2168
        2172
        2176
        2180
        2184
        2188
        2192
        2196
        2200
        2204
        2208
        2212
        2216
        2220
        2224
        2228
        2232
        2236
        2240
        2244
        2248
        2252
        2256
        2260
        2264
        2268
        2272
        2276
        2280
        2284
        2288
        2292
        2296
        2300
        2304
        2308
        2312
        2316
        2320
        2324
        2328
        2332
        2336
        2340
        2344
        2348
        2352
        2356
        2360
        2364
        2368
        2372
        2376
        2380
        2384
        2388
        2392
        2396
        2400
        2404
        2408
        2412
        2416
        2420
        2424
        2428
        2432
        2436
        2440
        2444
        2448
        2452
        2456
        2460
        2464
        2468
        2472
        2476
        2480
        2484
        2488
        2492
        2496
        2500
        2504
        2508
        2512
        2516
        2520
        2524
        2528
        2532
        2536
        2540
        2544
        2548
        2552
        2556
        2560
        2564
        2568
        2572
        2576
        2580
        2584
        2588
        2592
        2596
        2600
        2604
        2608
        2612
        2616
        2620
        2624
        2628
        2632
        2636
        2640
        2644
        2648
        2652
        2656
        2660
        2664
        2668
        2672
        2676
        2680
        2684
        2688
        2692
        2696
        2700
        2704
        2708
        2712
        2716
        2720
        2724
        2728
        2732
        2736
        2740
        2744
        2748
        2752
        2756
        2760
        2764
        2768
        2772
        2776
        2780
        2784
        2788
        2792
        2796
        2800
        2804
        2808
        2812
        2816
        2820
        2824
        2828
        2832
        2836
        2840
        2844
        2848
        2852
        2856
        2860
        2864
        2868
        2872
        2876
        2880
        2884
        2888
        2892
        2896
        2900
        2904
        2908
        2912
        2916
        2920
        2924
        2928
        2932
        2936
        2940
        2944
        2948
        2952
        2956
        2960
        2964
        2968
        2972
        2976
        2980
        2984
        2988
        2992
        2996
        3000
        3004
        3008
        3012
        3016
        3020
        3024
        3028
        3032
        3036
        3040
        3044
        3048
        3052
        3056
        3060
        3064
        3068
        3072
        3076
        3080
        3084
        3088
        3092
        3096
        3100
        3104
        3108
        3112
        3116
        3120
        3124
        3128
        3132
        3136
        3140
        3144
        3148
        3152
        3156
        3160
        3164
        3168
        3172
        3176
        3180
        3184
        3188
        3192
        3196
        3200
        3204
        3208
        3212
        3216
        3220
        3224
        3228
        3232
        3236
        3240
        3244
        3248
        3252
        3256
        3260
        3264
        3268
        3272
        3276
        3280
        3284
        3288
        3292
        3296
        3300
        3304
        3308
        3312
        3316
        3320
        3324
        3328
        3332
        3336
        3340
        3344
        3348
        3352
        3356
        3360
        3364
        3368
        3372
        3376
        3380
        3384
        3388
        3392
        3396
        3400
        3404
        3408
        3412
        3416
        3420
        3424
        3428
        3432
        3436
        3440
        3444
        3448
        3452
        3456
        3460
        3464
        3468
        3472
        3476
        3480
        3484
        3488
        3492
        3496
        3500
        3504
        3508
        3512
        3516
        3520
        3524
        3528
        3532
        3536
        3540
        3544
        3548
        3552
        3556
        3560
        3564
        3568
        3572
        3576
        3580
        3584
        3588
        3592
        3596
        3600
        3604
        3608
        3612
        3616
        3620
        3624
        3628
        3632
        3636
        3640
        3644
        3648
        3652
        3656
        3660
        3664
        3668
        3672
        3676
        3680
        3684
        3688
        3692
        3696
        3700
        3704
        3708
        3712
        3716
        3720
        3724
        3728
        3732
        3736
        3740
        3744
        3748
        3752
        3756
        3760
        3764
        3768
        3772
        3776
        3780
        3784
        3788
        3792
        3796
        3800
        3804
        3808
        3812
        3816
        3820
        3824
        3828
        3832
        3836
        3840
        3844
        3848
        3852
        3856
        3860
        3864
        3868
        3872
        3876
        3880
        3884
        3888
        3892
        3896
        3900
        3904
        3908
        3912
        3916
        3920
        3924
        3928
        3932
        3936
        3940
        3944
        3948
        3952
        3956
        3960
        3964
        3968
        3972
        3976
        3980
        3984
        3988
        3992
        3996
        4000
        4004
        4008
        4012
        4016
        4020
        4024
        4028
        4032
        4036
        4040
        4044
        4048
        4052
        4056
        4060
        4064
        4068
        4072
        4076
        4080
        4084
        4088
        4092
        4096
 </DataArray>
 <DataArray  type="UInt8"  Name="types"  format="ascii">
 9
 9
 9
 9
 9
 9
 9
 9
 9
 9
 9
 9
 9
 9
 9
 9
 9
 9
 9
 9
 9
 9
 9
 9
 9
 9
 9
 9
 9
 9
 9
 9
 9
 9
 9
 9
 9
 9
 9
 9
 9
 9
 9
 9
 9
 9
 9
 9
 9
 9
 9
 9
 9
 9
 9
 9
 9
 9
 9
 9
 9
 9
 9
 9
 9
 9
 9
 9
 9
 9
 9
 9
 9
 9
 9
 9
 9
 9
 9
 9
 9
 9
 9
 9
 9
 9
 9
 9
 9
 9
 9
 9
 9
 9
 9
 9
 9
 9
 9
 9
 9
 9
 9
 9
 9
 9
 9
 9
 9
 9
 9
 9
 9
 9
 9
 9
 9
 9
 9
 9
 9
 9
 9
 9
 9
 9
 9
 9
 9
 9
 9
 9
 9
 9
 9
 9
 9
 9
 9
 9
 9
 9
 9
 9
 9
 9
 9
 9
 9
 9
 9
 9
 9
 9
 9
 9
 9
 9
 9
 9
 9
 9
 9
 9
 9
 9
 9
 9
 9
 9
 9
 9
 9
 9
 9
 9
 9
 9
 9
 9
 9
 9
 9
 9
 9
 9
 9
 9
 9
 9
 9
 9
 9
 9
 9
 9
 9
 9
 9
 9
 9
 9
 9
 9
 9
 9
 9
 9
 9
 9
 9
 9
 9
 9
 9
 9
 9
 9
 9
 9
 9
 9
 9
 9
 9
 9
 9
 9
 9
 9
 9
 9
 9
 9
 9
 9
 9
 9
 9
 9
 9
 9
 9
 9
 9
 9
 9
 9
 9
 9
 9
 9
 9
 9
 9
 9
 9
 9
 9
 9
 9
 9
 9
 9
 9
 9
 9
 9
 9
 9
 9
 9
 9
 9
 9
 9
 9
 9
 9
 9
 9
 9
 9
 9
 9
 9
 9
 9
 9
 9
 9
 9
 9
 9
 9
 9
 9
 9
 9
 9
 9
 9
 9
 9
 9
 9
 9
 9
 9
 9
 9
 9
 9
 9
 9
 9
 9
 9
 9
 9
 9
 9
 9
 9
 9
 9
 9
 9
 9
 9
 9
 9
 9
 9
 9
 9
 9
 9
 9
 9
 9
 9
 9
 9
 9
 9
 9
 9
 9
 9
 9
 9
 9
 9
 9
 9
 9
 9
 9
 9
 9
 9
 9
 9
 9
 9
 9
 9
 9
 9
 9
 9
 9
 9
 9
 9
 9
 9
 9
 9
 9
 9
 9
 9
 9
 9
 9
 9
 9
 9
 9
 9
 9
 9
 9
 9
 9
 9
 9
 9
 9
 9
 9
 9
 9
 9
 9
 9
 9
 9
 9
 9
 9
 9
 9
 9
 9
 9
 9
 9
 9
 9
 9
 9
 9
 9
 9
 9
 9
 9
 9
 9
 9
 9
 9
 9
 9
 9
 9
 9
 9
 9
 9
 9
 9
 9
 9
 9
 9
 9
 9
 9
 9
 9
 9
 9
 9
 9
 9
 9
 9
 9
 9
 9
 9
 9
 9
 9
 9
 9
 9
 9
 9
 9
 9
 9
 9
 9
 9
 9
 9
 9
 9
 9
 9
 9
 9
 9
 9
 9
 9
 9
 9
 9
 9
 9
 9
 9
 9
 9
 9
 9
 9
 9
 9
 9
 9
 9
 9
 9
 9
 9
 9
 9
 9
 9
 9
 9
 9
 9
 9
 9
 9
 9
 9
 9
 9
 9
 9
 9
 9
 9
 9
 9
 9
 9
 9
 9
 9
 9
 9
 9
 9
 9
 9
 9
 9
 9
 9
 9
 9
 9
 9
 9
 9
 9
 9
 9
 9
 9
 9
 9
 9
 9
 9
 9
 9
 9
 9
 9
 9
 9
 9
 9
 9
 9
 9
 9
 9
 9
 9
 9
 9
 9
 9
 9
 9
 9
 9
 9
 9
 9
 9
 9
 9
 9
 9
 9
 9
 9
 9
 9
 9
 9
 9
 9
 9
 9
 9
 9
 9
 9
 9
 9
 9
 9
 9
 9
 9
 9
 9
 9
 9
 9
 9
 9
 9
 9
 9
 9
 9
 9
 9
 9
 9
 9
 9
 9
 9
 9
 9
 9
 9
 9
 9
 9
 9
 9
 9
 9
 9
 9
 9
 9
 9
 9
 9
 9
 9
 9
 9
 9
 9
 9
 9
 9
 9
 9
 9
 9
 9
 9
 9
 9
 9
 9
 9
 9
 9
 9
 9
 9
 9
 9
 9
 9
 9
 9
 9
 9
 9
 9
 9
 9
 9
 9
 9
 9
 9
 9
 9
 9
 9
 9
 9
 9
 9
 9
 9
 9
 9
 9
 9
 9
 9
 9
 9
 9
 9
 9
 9
 9
 9
 9
 9
 9
 9
 9
 9
 9
 9
 9
 9
 9
 9
 9
 9
 9
 9
 9
 9
 9
 9
 9
 9
 9
 9
 9
 9
 9
 9
 9
 9
 9
 9
 9
 9
 9
 9
 9
 9
 9
 9
 9
 9
 9
 9
 9
 9
 9
 9
 9
 9
 9
 9
 9
 9
 9
 9
 9
 9
 9
 9
 9
 9
 9
 9
 9
 9
 9
 9
 9
 9
 9
 9
 9
 9
 9
 9
 9
 9
 9
 9
 9
 9
 9
 9
 9
 9
 9
 9
 9
 9
 9
 9
 9
 9
 9
 9
 9
 9
 9
 9
 9
 9
 9
 9
 9
 9
 9
 9
 9
 9
 9
 9
 9
 9
 9
 9
 9
 9
 9
 9
 9
 9
 9
 9
 9
 9
 9
 9
 9
 9
 9
 9
 9
 9
 9
 9
 9
 9
 9
 9
 9
 9
 9
 9
 9
 9
 9
 9
 9
 9
 9
 9
 9
 9
 9
 9
 9
 9
 9
 9
 9
 9
 9
 9
 9
 9
 9
 9
 9
 9
 9
 9
 9
 9
 9
 9
 9
 9
 9
 9
 9
 9
 9
 9
 9
 9
 9
 9
 9
 9
 9
 9
 9
 9
 9
 9
 9
 9
 9
 9
 9
 9
 9
 9
 9
 9
 9
 9
 9
 9
 9
 9
 9
 9
 9
 9
 9
 9
 9
 9
 9
 9
 9
 9
 9
 9
 9
 9
 9
 9
 9
 9
 9
 9
 9
 9
 9
 9
 9
 9
 9
 9
 9
 9
 9
 9
 9
 9
 9
 9
 9
 9
 9
 9
 9
 9
 9
 9
 9
 9
 9
 9
 9
 9
 9
 9
 9
 9
 9
 9
 9
 9
 9
 9
 9
 9
 9
 9
 9
 9
 9
 9
 9
 9
 9
 9
 9
 9
 9
 9
 9
 9
 9
 9
 9
 9
 9
 9
 9
 9
 9
 </DataArray>
 </Cells> 
 <PointData>
 <DataArray  type="Float64" Name="disp" NumberOfComponents="3" format="ascii">
   0.0000000000000000        0.0000000000000000        0.0000000000000000     
   6.0961291778779932E-003   3.7904505825139901E-003   0.0000000000000000     
   1.1666205876492133E-002   7.3240604339434891E-003   0.0000000000000000     
   1.6710230095842424E-002   1.0600829554288496E-002   0.0000000000000000     
   2.1228201835928856E-002   1.3620757943549012E-002   0.0000000000000000     
   0.0000000000000000        0.0000000000000000        0.0000000000000000     
   4.8911505399943378E-003   3.0222966348767313E-003   0.0000000000000000     
   9.5735984041274286E-003   6.0609062676293748E-003   0.0000000000000000     
   1.4047343592399272E-002   9.1158288982579293E-003   0.0000000000000000     
   1.8312386104809873E-002   1.2187064526762397E-002   0.0000000000000000     
   0.0000000000000000        0.0000000000000000        0.0000000000000000     
   3.9534673811592964E-003   2.4253518746354661E-003   0.0000000000000000     
   7.9104483607200550E-003   5.0633592164948619E-003   0.0000000000000000     
   1.1870942938682278E-002   7.9140220255781886E-003   0.0000000000000000     
   1.5834951115045962E-002   1.0977340301885444E-002   0.0000000000000000     
   0.0000000000000000        0.0000000000000000        0.0000000000000000     
   3.2830797013728712E-003   1.9996163017901936E-003   0.0000000000000000     
   6.6767557462700166E-003   4.3314192805399519E-003   0.0000000000000000     
   1.0181028134691435E-002   6.9954089362492724E-003   0.0000000000000000     
   1.3795896866637125E-002   9.9915852689181558E-003   0.0000000000000000     
   0.0000000000000000        0.0000000000000000        0.0000000000000000     
   2.8799875006350617E-003   1.7450899163409142E-003   0.0000000000000000     
   5.8725205607773091E-003   3.8650864597646415E-003   0.0000000000000000     
   8.9775991804267440E-003   6.3599896302711824E-003   0.0000000000000000     
   1.2195223359583365E-002   9.2297994278605355E-003   0.0000000000000000     
   2.1228201835928856E-002   1.3620757943549012E-002   0.0000000000000000     
   2.5433115540088258E-002   1.6614247930065152E-002   0.0000000000000000     
   2.9537965651657439E-002   1.9811701842177024E-002   0.0000000000000000     
   3.3542752170636396E-002   2.3213119679884639E-002   0.0000000000000000     
   3.7447475097025146E-002   2.6818501443187981E-002   0.0000000000000000     
   1.8312386104809873E-002   1.2187064526762397E-002   0.0000000000000000     
   2.2406936282548407E-002   1.5342923386707348E-002   0.0000000000000000     
   2.6369204466804054E-002   1.8651715711657364E-002   0.0000000000000000     
   3.0199190657576820E-002   2.2113441501612440E-002   0.0000000000000000     
   3.3896894854866702E-002   2.5728100756572579E-002   0.0000000000000000     
   1.5834951115045962E-002   1.0977340301885444E-002   0.0000000000000000     
   1.9730626424130215E-002   1.4212200401776965E-002   0.0000000000000000     
   2.3486122400254140E-002   1.7577488681613088E-002   0.0000000000000000     
   2.7101439043417736E-002   2.1073205141393814E-002   0.0000000000000000     
   3.0576576353621009E-002   2.4699349781119137E-002   0.0000000000000000     
   1.3795896866637125E-002   9.9915852689181558E-003   0.0000000000000000     
   1.7404185964833684E-002   1.3222078975274002E-002   0.0000000000000000     
   2.0888719452007692E-002   1.6589020752044201E-002   0.0000000000000000     
   2.4249497328159151E-002   2.0092410599228755E-002   0.0000000000000000     
   2.7486519593288065E-002   2.3732248516827665E-002   0.0000000000000000     
   1.2195223359583365E-002   9.2297994278605355E-003   0.0000000000000000     
   1.5427614904658807E-002   1.2372559107198460E-002   0.0000000000000000     
   1.8576995622064704E-002   1.5686311922950700E-002   0.0000000000000000     
   2.1643365511801061E-002   1.9171057875117269E-002   0.0000000000000000     
   2.4626724573867876E-002   2.2826796963698159E-002   0.0000000000000000     
   3.7447475097025146E-002   2.6818501443187981E-002   0.0000000000000000     
   4.1255688857109535E-002   3.0623972311537330E-002   0.0000000000000000     
   4.4970947877175420E-002   3.4625657464382925E-002   0.0000000000000000     
   4.8593252157222808E-002   3.8823556901724787E-002   0.0000000000000000     
   5.2122601697251705E-002   4.3217670623562909E-002   0.0000000000000000     
   3.3896894854866702E-002   2.5728100756572579E-002   0.0000000000000000     
   3.7485161272601562E-002   2.9524947553978630E-002   0.0000000000000000     
   4.0986834124709257E-002   3.3533235971271440E-002   0.0000000000000000     
   4.4401913411189799E-002   3.7752966008451010E-002   0.0000000000000000     
   4.7730399132043175E-002   4.2184137665517346E-002   0.0000000000000000     
   3.0576576353621009E-002   2.4699349781119137E-002   0.0000000000000000     
   3.3940952920258421E-002   2.8500606726963435E-002   0.0000000000000000     
   3.7223987332724438E-002   3.2521660105101088E-002   0.0000000000000000     
   4.0425679591019073E-002   3.6762509915532079E-002   0.0000000000000000     
   4.3546029695142312E-002   4.1223156158256426E-002   0.0000000000000000     
   2.7486519593288065E-002   2.3732248516827665E-002   0.0000000000000000     
   3.0623063800080105E-002   2.7550949830491760E-002   0.0000000000000000     
   3.3682407501220965E-002   3.1590929865871864E-002   0.0000000000000000     
   3.6664550696710617E-002   3.5852188622967983E-002   0.0000000000000000     
   3.9569493386549089E-002   4.0334726101780106E-002   0.0000000000000000     
   2.4626724573867876E-002   2.2826796963698159E-002   0.0000000000000000     
   2.7531493912066635E-002   2.6675976864563591E-002   0.0000000000000000     
   3.0362094630198830E-002   3.0741045253583781E-002   0.0000000000000000     
   3.3118526728264458E-002   3.5022002130758720E-002   0.0000000000000000     
   3.5800790206263519E-002   3.9518847496088423E-002   0.0000000000000000     
   5.2122601697251705E-002   4.3217670623562909E-002   0.0000000000000000     
   5.5554088633861076E-002   4.7808426808627708E-002   0.0000000000000000     
   5.8882805103649877E-002   5.2596253635649577E-002   0.0000000000000000     
   6.2108751106618121E-002   5.7581151104628532E-002   0.0000000000000000     
   6.5231926642765808E-002   6.2763119215564572E-002   0.0000000000000000     
   4.7730399132043175E-002   4.2184137665517346E-002   0.0000000000000000     
   5.0968304593023595E-002   4.6817257049032057E-002   0.0000000000000000     
   5.4111643099885226E-002   5.1642830265556716E-002   0.0000000000000000     
   5.7160414652628069E-002   5.6660857315091344E-002   0.0000000000000000     
   6.0114619251252117E-002   6.1871338197635926E-002   0.0000000000000000     
   4.3546029695142312E-002   4.1223156158256426E-002   0.0000000000000000     
   4.6582309140844110E-002   4.5889088809019048E-002   0.0000000000000000     
   4.9531789423874428E-002   5.0745797843564887E-002   0.0000000000000000     
   5.2394470544233268E-002   5.5793283261893943E-002   0.0000000000000000     
   5.5170352501920629E-002   6.1031545064006217E-002   0.0000000000000000     
   3.9569493386549089E-002   4.0334726101780106E-002   0.0000000000000000     
   4.2396102277322635E-002   4.5023922088588679E-002   0.0000000000000000     
   4.5143244075617511E-002   4.9905156369674075E-002   0.0000000000000000     
   4.7810918781433752E-002   5.4978428945036358E-002   0.0000000000000000     
   5.0399126394771322E-002   6.0243739814675457E-002   0.0000000000000000     
   3.5800790206263519E-002   3.9518847496088423E-002   0.0000000000000000     
   3.8409684002459143E-002   4.4221756887740937E-002   0.0000000000000000     
   4.0946007055114468E-002   4.9120905843884309E-002   0.0000000000000000     
   4.3409759364229493E-002   5.4216294364518552E-002   0.0000000000000000     
   4.5800940929804218E-002   5.9507922449643653E-002   0.0000000000000000     
   6.5231926642765808E-002   6.2763119215564572E-002   0.0000000000000000     
   6.8260033684466842E-002   6.8138593086725263E-002   0.0000000000000000     
   7.1200774204095138E-002   7.3704007836378135E-002   0.0000000000000000     
   7.4054148201650710E-002   7.9459363464523203E-002   0.0000000000000000     
   7.6820155677133559E-002   8.5404659971160451E-002   0.0000000000000000     
   6.0114619251252117E-002   6.1871338197635926E-002   0.0000000000000000     
   6.2978117946717371E-002   6.7272888826094751E-002   0.0000000000000000     
   6.5754771789983818E-002   7.2864125113372091E-002   0.0000000000000000     
   6.8444580781051451E-002   7.8645047059467940E-002   0.0000000000000000     
   7.1047544919920255E-002   8.4615654664382312E-002   0.0000000000000000     
   5.5170352501920629E-002   6.1031545064006217E-002   0.0000000000000000     
   5.7860493290099568E-002   6.6459497128488296E-002   0.0000000000000000     
   6.0465950901933137E-002   7.2076053333926762E-002   0.0000000000000000     
   6.2986725337421348E-002   7.7881213680321651E-002   0.0000000000000000     
   6.5422816596564196E-002   8.3874978167672906E-002   0.0000000000000000     
   5.0399126394771322E-002   6.0243739814675457E-002   0.0000000000000000     
   5.2907159714613385E-002   6.5698417993905911E-002   0.0000000000000000     
   5.5334311539943094E-002   7.1339792498042190E-002   0.0000000000000000     
   5.7680581870760431E-002   7.7167863327084266E-002   0.0000000000000000     
   5.9945970707065407E-002   8.3182630481032194E-002   0.0000000000000000     
   4.5800940929804218E-002   5.9507922449643653E-002   0.0000000000000000     
   4.8118117220258869E-002   6.4989651422347583E-002   0.0000000000000000     
   5.0359853704013691E-002   7.0655342605718333E-002   0.0000000000000000     
   5.2526150381068691E-002   7.6504995999755881E-002   0.0000000000000000     
   5.4617007251423863E-002   8.2538611604460230E-002   0.0000000000000000     
   7.6820155677133559E-002   8.5404659971160451E-002   0.0000000000000000     
   7.9492424540021894E-002   9.1518004735531455E-002   0.0000000000000000     
   8.2064582699793956E-002   9.7777505136877760E-002   0.0000000000000000     
   8.4536630156449716E-002  0.10418316117519935        0.0000000000000000     
   8.6908566909989216E-002  0.11073497285049624        0.0000000000000000     
   7.1047544919920255E-002   8.4615654664382312E-002   0.0000000000000000     
   7.3561201382661576E-002   9.0754901852648520E-002   0.0000000000000000     
   7.5983087345346770E-002   9.7041742548799811E-002   0.0000000000000000     
   7.8313202807975810E-002  0.10347617675283621        0.0000000000000000     
   8.0551547770548709E-002  0.11005820446475771        0.0000000000000000     
   6.5422816596564196E-002   8.3874978167672906E-002   0.0000000000000000     
   6.7774461189792481E-002   9.0037818515127072E-002   0.0000000000000000     
   7.0041895627536960E-002   9.6350206441830663E-002   0.0000000000000000     
   7.2225119909797658E-002  0.10281214194778367        0.0000000000000000     
   7.4324134036574549E-002  0.10942362503298611        0.0000000000000000     
   5.9945970707065407E-002   8.3182630481032194E-002   0.0000000000000000     
   6.2132203961414584E-002   8.9366754722967165E-002   0.0000000000000000     
   6.4241007546364526E-002   9.5702896815970342E-002   0.0000000000000000     
   6.6272381461915233E-002  0.10219105676004173        0.0000000000000000     
   6.8226325708066721E-002  0.10883123455518137        0.0000000000000000     
   5.4617007251423863E-002   8.2538611604460230E-002   0.0000000000000000     
   5.6634429697527890E-002   8.8741710476168745E-002   0.0000000000000000     
   5.8580423101829447E-002   9.5099813671218822E-002   0.0000000000000000     
   6.0454987464328563E-002  0.10161292118961041        0.0000000000000000     
   6.2258122785025224E-002  0.10828103303134354        0.0000000000000000     
   8.6908566909989216E-002  0.11073497285049624        0.0000000000000000     
   8.9177593466460564E-002  0.11743380532836484        0.0000000000000000     
   9.1340910331911954E-002  0.12428052377440160        0.0000000000000000     
   9.3398517506343343E-002  0.13127512818860651        0.0000000000000000     
   9.5350414989754773E-002  0.13841761857097956        0.0000000000000000     
   8.0551547770548709E-002  0.11005820446475771        0.0000000000000000     
   8.2697360009712492E-002  0.11678701418287098        0.0000000000000000     
   8.4749877302114168E-002  0.12366179440548267        0.0000000000000000     
   8.6709099647753737E-002  0.13068254513259275        0.0000000000000000     
   8.8575027046631255E-002  0.13784926636420122        0.0000000000000000     
   7.4324134036574549E-002  0.10942362503298611        0.0000000000000000     
   7.6339202754979310E-002  0.11618160471891467        0.0000000000000000     
   7.8270590812123619E-002  0.12308303002704617        0.0000000000000000     
   8.0118298208007463E-002  0.13012790095738055        0.0000000000000000     
   8.1882324942630855E-002  0.13731621750991785        0.0000000000000000     
   6.8226325708066721E-002  0.10883123455518137        0.0000000000000000     
   7.0103121702261045E-002  0.11561757693649592        0.0000000000000000     
   7.1903050861940307E-002  0.12254423063909213        0.0000000000000000     
   7.3626113187104478E-002  0.12961119566296994        0.0000000000000000     
   7.5272308677753585E-002  0.13681847200812944        0.0000000000000000     
   6.2258122785025224E-002  0.10828103303134354        0.0000000000000000     
   6.3989116851557684E-002  0.11509493083561473        0.0000000000000000     
   6.5647257451564203E-002  0.12204539624162053        0.0000000000000000     
   6.7232544585044809E-002  0.12913242924936094        0.0000000000000000     
   6.8744978251999461E-002  0.13635602985883591        0.0000000000000000     
   9.5350414989754773E-002  0.13841761857097956        0.0000000000000000     
   9.7158524345978770E-002  0.14567351435796866        0.0000000000000000     
   9.8784767138847943E-002  0.15300833498602170        0.0000000000000000     
  0.10022914336836224       0.16042208045513875        0.0000000000000000     
  0.10149165303452172       0.16791475076531973        0.0000000000000000     
   8.8575027046631255E-002  0.13784926636420122        0.0000000000000000     
   9.0338345019058935E-002  0.14513029981428627        0.0000000000000000     
   9.1989739085349076E-002  0.15249398719682591        0.0000000000000000     
   9.3529209245501704E-002  0.15994032851182016        0.0000000000000000     
   9.4956755499516821E-002  0.16746932375926910        0.0000000000000000     
   8.1882324942630855E-002  0.13731621750991785        0.0000000000000000     
   8.3571249974736750E-002  0.14462019525031930        0.0000000000000000     
   8.5193652263068104E-002  0.15201204974424609        0.0000000000000000     
   8.6749531807624958E-002  0.15949178099169822        0.0000000000000000     
   8.8238888608407257E-002  0.16705938899267569        0.0000000000000000     
   7.5272308677753585E-002  0.13681847200812944        0.0000000000000000     
   7.6857239213012227E-002  0.14414320066606776        0.0000000000000000     
   7.8396506672005026E-002  0.15156252262828224        0.0000000000000000     
   7.9890111054731941E-002  0.15907643789477285        0.0000000000000000     
   8.1338052361193028E-002  0.16668494646553961        0.0000000000000000     
   6.8744978251999461E-002  0.13635602985883591        0.0000000000000000     
   7.0196312733885394E-002  0.14369931606153166        0.0000000000000000     
   7.1598302312159828E-002  0.15114540584893441        0.0000000000000000     
   7.2950946986822737E-002  0.15869429922104411        0.0000000000000000     
   7.4254246757874134E-002  0.16634599617786072        0.0000000000000000     
   0.0000000000000000        0.0000000000000000        0.0000000000000000     
   2.8799875006350617E-003   1.7450899163409142E-003   0.0000000000000000     
   5.8725205607773091E-003   3.8650864597646415E-003   0.0000000000000000     
   8.9775991804267440E-003   6.3599896302711824E-003   0.0000000000000000     
   1.2195223359583365E-002   9.2297994278605355E-003   0.0000000000000000     
   0.0000000000000000        0.0000000000000000        0.0000000000000000     
   2.6103057757455145E-003   1.5891357670958697E-003   0.0000000000000000     
   5.2897023147926592E-003   3.5570744397617959E-003   0.0000000000000000     
   8.0381896171414346E-003   5.9038160179977787E-003   0.0000000000000000     
   1.0855767682791838E-002   8.6293605018038198E-003   0.0000000000000000     
   0.0000000000000000        0.0000000000000000        0.0000000000000000     
   2.3401495235038780E-003   1.4591169028633016E-003   0.0000000000000000     
   4.7202605188667894E-003   3.3000969061242761E-003   0.0000000000000000     
   7.1403329860887316E-003   5.5229400097829241E-003   0.0000000000000000     
   9.6003669251697107E-003   8.1276462138392437E-003   0.0000000000000000     
   0.0000000000000000        0.0000000000000000        0.0000000000000000     
   2.0695187439101512E-003   1.3550333236432100E-003   0.0000000000000000     
   4.1641951729996978E-003   3.0941538588520824E-003   0.0000000000000000     
   6.2840292872686403E-003   5.2173616056266168E-003   0.0000000000000000     
   8.4290210867169774E-003   7.7246565639668132E-003   0.0000000000000000     
   0.0000000000000000        0.0000000000000000        0.0000000000000000     
   1.7984134369643345E-003   1.2768850294355952E-003   0.0000000000000000     
   3.6215062771913862E-003   2.9392452979452146E-003   0.0000000000000000     
   5.4692785206811555E-003   4.9870808055288585E-003   0.0000000000000000     
   7.3417301674336419E-003   7.4203915521865267E-003   0.0000000000000000     
   1.2195223359583365E-002   9.2297994278605355E-003   0.0000000000000000     
   1.5427614904658807E-002   1.2372559107198460E-002   0.0000000000000000     
   1.8576995622064704E-002   1.5686311922950700E-002   0.0000000000000000     
   2.1643365511801061E-002   1.9171057875117269E-002   0.0000000000000000     
   2.4626724573867876E-002   2.2826796963698159E-002   0.0000000000000000     
   1.0855767682791838E-002   8.6293605018038198E-003   0.0000000000000000     
   1.3689117234413002E-002   1.1651531780734555E-002   0.0000000000000000     
   1.6484918994674060E-002   1.4888153744344632E-002   0.0000000000000000     
   1.9243172963575004E-002   1.8339226392634047E-002   0.0000000000000000     
   2.1963879141115840E-002   2.2004749725602797E-002   0.0000000000000000     
   9.6003669251697107E-003   8.1276462138392437E-003   0.0000000000000000     
   1.2076896944903683E-002   1.1046887979066519E-002   0.0000000000000000     
   1.4546457654084617E-002   1.4213337766238031E-002   0.0000000000000000     
   1.7009049052712513E-002   1.7626995575353775E-002   0.0000000000000000     
   1.9464671140787364E-002   2.1287861406413755E-002   0.0000000000000000     
   8.4290210867169774E-003   7.7246565639668132E-003   0.0000000000000000     
   1.0590954036130844E-002   1.0558627702194349E-002   0.0000000000000000     
   1.2761611600296379E-002   1.3661863988630897E-002   0.0000000000000000     
   1.4940993779213584E-002   1.7034365423276462E-002   0.0000000000000000     
   1.7129100572882451E-002   2.0676132006131047E-002   0.0000000000000000     
   7.3417301674336419E-003   7.4203915521865267E-003   0.0000000000000000     
   9.2312885080944908E-003   1.0186750950118045E-002   0.0000000000000000     
   1.1130380833309349E-002   1.3233732411523237E-002   0.0000000000000000     
   1.3039007143078218E-002   1.6561335936402105E-002   0.0000000000000000     
   1.4957167437401093E-002   2.0169561524754649E-002   0.0000000000000000     
   2.4626724573867876E-002   2.2826796963698159E-002   0.0000000000000000     
   2.7531493912066635E-002   2.6675976864563591E-002   0.0000000000000000     
   3.0362094630198830E-002   3.0741045253583781E-002   0.0000000000000000     
   3.3118526728264458E-002   3.5022002130758720E-002   0.0000000000000000     
   3.5800790206263519E-002   3.9518847496088423E-002   0.0000000000000000     
   2.1963879141115840E-002   2.2004749725602797E-002   0.0000000000000000     
   2.4630682384097539E-002   2.5882356752377413E-002   0.0000000000000000     
   2.7227227549321064E-002   2.9969680482084426E-002   0.0000000000000000     
   2.9753514636786417E-002   3.4266720914723825E-002   0.0000000000000000     
   3.2209543646493602E-002   3.8773478050295622E-002   0.0000000000000000     
   1.9464671140787364E-002   2.1287861406413755E-002   0.0000000000000000     
   2.1885068344052367E-002   2.5176758417131725E-002   0.0000000000000000     
   2.4241985088250699E-002   2.9274509765221415E-002   0.0000000000000000     
   2.6535421373382353E-002   3.3581115450682833E-002   0.0000000000000000     
   2.8765377199447342E-002   3.8096575473515963E-002   0.0000000000000000     
   1.7129100572882451E-002   2.0676132006131047E-002   0.0000000000000000     
   1.9294651791931121E-002   2.4559181858826506E-002   0.0000000000000000     
   2.1406367246987728E-002   2.8655533102994731E-002   0.0000000000000000     
   2.3464246938052265E-002   3.2965185738635709E-002   0.0000000000000000     
   2.5468290865124744E-002   3.7488139765749447E-002   0.0000000000000000     
   1.4957167437401093E-002   2.0169561524754649E-002   0.0000000000000000     
   1.6859432727733801E-002   2.4029627077461774E-002   0.0000000000000000     
   1.8720374025532151E-002   2.8112750495404383E-002   0.0000000000000000     
   2.0539991330796151E-002   3.2418931778582488E-002   0.0000000000000000     
   2.2318284643525799E-002   3.6948170926996080E-002   0.0000000000000000     
   3.5800790206263519E-002   3.9518847496088423E-002   0.0000000000000000     
   3.8409684002459143E-002   4.4221756887740937E-002   0.0000000000000000     
   4.0946007055114468E-002   4.9120905843884309E-002   0.0000000000000000     
   4.3409759364229493E-002   5.4216294364518552E-002   0.0000000000000000     
   4.5800940929804218E-002   5.9507922449643653E-002   0.0000000000000000     
   3.2209543646493602E-002   3.8773478050295622E-002   0.0000000000000000     
   3.4597452132588843E-002   4.3485659691671022E-002   0.0000000000000000     
   3.6919377649218356E-002   4.8398973641721250E-002   0.0000000000000000     
   3.9175320196382160E-002   5.3513419900446280E-002   0.0000000000000000     
   4.1365279774080228E-002   5.8828998467846144E-002   0.0000000000000000     
   2.8765377199447342E-002   3.8096575473515963E-002   0.0000000000000000     
   3.0933804484046895E-002   4.2818696985574112E-002   0.0000000000000000     
   3.3042655144782239E-002   4.7745287138710554E-002   0.0000000000000000     
   3.5091929181653381E-002   5.2876345932925277E-002   0.0000000000000000     
   3.7081626594660307E-002   5.8211873368218287E-002   0.0000000000000000     
   2.5468290865124744E-002   3.7488139765749447E-002   0.0000000000000000     
   2.7418741056833312E-002   4.2220868769450200E-002   0.0000000000000000     
   2.9315839541806117E-002   4.7159846334852221E-002   0.0000000000000000     
   3.1159586320043169E-002   5.2305072461955517E-002   0.0000000000000000     
   3.2949981391544446E-002   5.7656547150760067E-002   0.0000000000000000     
   2.2318284643525799E-002   3.6948170926996080E-002   0.0000000000000000     
   2.4052261850948085E-002   4.1692175043299293E-002   0.0000000000000000     
   2.5738930840289987E-002   4.6642651230146284E-002   0.0000000000000000     
   2.7378291611551513E-002   5.1799599487537012E-002   0.0000000000000000     
   2.8970344164732657E-002   5.7163019815471505E-002   0.0000000000000000     
   4.5800940929804218E-002   5.9507922449643653E-002   0.0000000000000000     
   4.8118117220258869E-002   6.4989651422347583E-002   0.0000000000000000     
   5.0359853704013691E-002   7.0655342605718333E-002   0.0000000000000000     
   5.2526150381068691E-002   7.6504995999755881E-002   0.0000000000000000     
   5.4617007251423863E-002   8.2538611604460230E-002   0.0000000000000000     
   4.1365279774080228E-002   5.8828998467846144E-002   0.0000000000000000     
   4.3487678020698264E-002   6.4335867471109226E-002   0.0000000000000000     
   4.5540936574621951E-002   7.0024185037423969E-002   0.0000000000000000     
   4.7525055435851296E-002   7.5893951166790374E-002   0.0000000000000000     
   4.9440034604386278E-002   8.1945165859208413E-002   0.0000000000000000     
   3.7081626594660307E-002   5.8211873368218287E-002   0.0000000000000000     
   3.9010154329593871E-002   6.3739736197486768E-002   0.0000000000000000     
   4.0875919332244895E-002   6.9447801173627921E-002   0.0000000000000000     
   4.2678921602613405E-002   7.5336068296641731E-002   0.0000000000000000     
   4.4419161140699367E-002   8.1404537566528171E-002   0.0000000000000000     
   3.2949981391544446E-002   5.7656547150760067E-002   0.0000000000000000     
   3.4685546146945676E-002   6.3201257601480182E-002   0.0000000000000000     
   3.6364801976882542E-002   6.8926191014330146E-002   0.0000000000000000     
   3.7987748881355025E-002   7.4831347389309896E-002   0.0000000000000000     
   3.9554386860363139E-002   8.0916726726419530E-002   0.0000000000000000     
   2.8970344164732657E-002   5.7163019815471505E-002   0.0000000000000000     
   3.0513853472753684E-002   6.2720431683089481E-002   0.0000000000000000     
   3.2007584508534845E-002   6.8459354559530630E-002   0.0000000000000000     
   3.3451537272076143E-002   7.4379788444794953E-002   0.0000000000000000     
   3.4845711763377585E-002   8.0481733338882477E-002   0.0000000000000000     
   5.4617007251423863E-002   8.2538611604460230E-002   0.0000000000000000     
   5.6634429697527890E-002   8.8741710476168745E-002   0.0000000000000000     
   5.8580423101829447E-002   9.5099813671218822E-002   0.0000000000000000     
   6.0454987464328563E-002  0.10161292118961041        0.0000000000000000     
   6.2258122785025224E-002  0.10828103303134354        0.0000000000000000     
   4.9440034604386278E-002   8.1945165859208413E-002   0.0000000000000000     
   5.1287530395696293E-002   8.8165957814174856E-002   0.0000000000000000     
   5.3069199125250710E-002   9.4544455731186416E-002   0.0000000000000000     
   5.4785040793049522E-002  0.10108065961024316        0.0000000000000000     
   5.6435055399092743E-002  0.10777456945134502        0.0000000000000000     
   4.4419161140699367E-002   8.1404537566528171E-002   0.0000000000000000     
   4.6097898053483688E-002   8.7642768776428390E-002   0.0000000000000000     
   4.7716392447947210E-002   9.4040321719483483E-002   0.0000000000000000     
   4.9274644324089976E-002  0.10059719639569344        0.0000000000000000     
   5.0772653681911951E-002  0.10731339280505825        0.0000000000000000     
   3.9554386860363139E-002   8.0916726726419530E-002   0.0000000000000000     
   4.1065532670890074E-002   8.7172143362929388E-002   0.0000000000000000     
   4.2522003069919004E-002   9.3587411636109979E-002   0.0000000000000000     
   4.3923798057449934E-002  0.10016253154596126        0.0000000000000000     
   4.5270917633482850E-002  0.10689750309248322        0.0000000000000000     
   3.4845711763377585E-002   8.0481733338882477E-002   0.0000000000000000     
   3.6190434247915459E-002   8.6754081573677880E-002   0.0000000000000000     
   3.7486030991166056E-002   9.3185725481065920E-002   0.0000000000000000     
   3.8732501993129380E-002   9.9776665061046613E-002   0.0000000000000000     
   3.9929847253805439E-002  0.10652690031361992        0.0000000000000000     
   6.2258122785025224E-002  0.10828103303134354        0.0000000000000000     
   6.3989116851557684E-002  0.11509493083561473        0.0000000000000000     
   6.5647257451564203E-002  0.12204539624162053        0.0000000000000000     
   6.7232544585044809E-002  0.12913242924936094        0.0000000000000000     
   6.8744978251999461E-002  0.13635602985883591        0.0000000000000000     
   5.6435055399092743E-002  0.10777456945134502        0.0000000000000000     
   5.8017330071295149E-002  0.11461398668234979        0.0000000000000000     
   5.9529951937571504E-002  0.12158671273111520        0.0000000000000000     
   6.0972920997921828E-002  0.12869274759764129        0.0000000000000000     
   6.2346237252346108E-002  0.13593209128192799        0.0000000000000000     
   5.0772653681911951E-002  0.10731339280505825        0.0000000000000000     
   5.2207903229899343E-002  0.11417506474277982        0.0000000000000000     
   5.3577875676538336E-002  0.12116836600406002        0.0000000000000000     
   5.4882571021828939E-002  0.12829329658889882        0.0000000000000000     
   5.6121989265771159E-002  0.13554985649729631        0.0000000000000000     
   4.5270917633482850E-002  0.10689750309248322        0.0000000000000000     
   4.6560836327370271E-002  0.11377816501690478        0.0000000000000000     
   4.7791028668464713E-002  0.12079035606045493        0.0000000000000000     
   4.8961494656766150E-002  0.12793407622313360        0.0000000000000000     
   5.0072234292274614E-002  0.13520932550494080        0.0000000000000000     
   3.9929847253805439E-002  0.10652690031361992        0.0000000000000000     
   4.1076129363707942E-002  0.11342328750472473        0.0000000000000000     
   4.2169410913350622E-002  0.12045268290029995        0.0000000000000000     
   4.3209691902733459E-002  0.12761508650034559        0.0000000000000000     
   4.4196972331856474E-002  0.13491049830486157        0.0000000000000000     
   6.8744978251999461E-002  0.13635602985883591        0.0000000000000000     
   7.0196312733885394E-002  0.14369931606153166        0.0000000000000000     
   7.1598302312159828E-002  0.15114540584893441        0.0000000000000000     
   7.2950946986822737E-002  0.15869429922104411        0.0000000000000000     
   7.4254246757874134E-002  0.16634599617786072        0.0000000000000000     
   6.2346237252346108E-002  0.13593209128192799        0.0000000000000000     
   6.3653882176073193E-002  0.14329318927238910        0.0000000000000000     
   6.4899837244331945E-002  0.15076448705743845        0.0000000000000000     
   6.6084102457122332E-002  0.15834598463707600        0.0000000000000000     
   6.7206677814444407E-002  0.16603768201130176        0.0000000000000000     
   5.6121989265771159E-002  0.13554985649729631        0.0000000000000000     
   5.7295359178292572E-002  0.14292946813431817        0.0000000000000000     
   5.8401909529320804E-002  0.15042355390503029        0.0000000000000000     
   5.9441640318855821E-002  0.15803211380943269        0.0000000000000000     
   6.0414551546897656E-002  0.16575514784752526        0.0000000000000000     
   5.0072234292274614E-002  0.13520932550494080        0.0000000000000000     
   5.1120743740543546E-002  0.14260815264731885        0.0000000000000000     
   5.2104519167126398E-002  0.15012260639170993        0.0000000000000000     
   5.3023560572023183E-002  0.15775268673811402        0.0000000000000000     
   5.3877867955233902E-002  0.16549839368653121        0.0000000000000000     
   4.4196972331856474E-002  0.13491049830486157        0.0000000000000000     
   4.5130035862826087E-002  0.14232924281139109        0.0000000000000000     
   4.6007666157748726E-002  0.14986164451747730        0.0000000000000000     
   4.6829863216624412E-002  0.15750770342312012        0.0000000000000000     
   4.7596627039453124E-002  0.16526741952831964        0.0000000000000000     
   0.0000000000000000        0.0000000000000000        0.0000000000000000     
   1.7984134369643345E-003   1.2768850294355952E-003   0.0000000000000000     
   3.6215062771913862E-003   2.9392452979452146E-003   0.0000000000000000     
   5.4692785206811555E-003   4.9870808055288585E-003   0.0000000000000000     
   7.3417301674336419E-003   7.4203915521865267E-003   0.0000000000000000     
   0.0000000000000000        0.0000000000000000        0.0000000000000000     
   1.5351132772550536E-003   1.2175596804581000E-003   0.0000000000000000     
   3.0995527671074368E-003   2.8208635771008691E-003   0.0000000000000000     
   4.6933184695571485E-003   4.8099116899283072E-003   0.0000000000000000     
   6.3164103846041902E-003   7.1847040189404144E-003   0.0000000000000000     
   0.0000000000000000        0.0000000000000000        0.0000000000000000     
   1.2878979393709333E-003   1.1699449369283685E-003   0.0000000000000000     
   2.6056935784134296E-003   2.7245010500162431E-003   0.0000000000000000     
   3.9533869171274882E-003   4.6636683392636243E-003   0.0000000000000000     
   5.3309779555131085E-003   6.9874468046705104E-003   0.0000000000000000     
   0.0000000000000000        0.0000000000000000        0.0000000000000000     
   1.0567674233119744E-003   1.1340407988464001E-003   0.0000000000000000     
   2.1399287111093660E-003   2.6501577166913354E-003   0.0000000000000000     
   3.2494838633921738E-003   4.5483507535348053E-003   0.0000000000000000     
   4.3854328801603976E-003   6.8286199093768093E-003   0.0000000000000000     
   0.0000000000000000        0.0000000000000000        0.0000000000000000     
   8.4172172907817655E-004   1.1098472662121948E-003   0.0000000000000000     
   1.7022581651952450E-003   2.5978335771261463E-003   0.0000000000000000     
   2.5816093083512051E-003   4.4639589327418539E-003   0.0000000000000000     
   3.4797751585460574E-003   6.7082233330593172E-003   0.0000000000000000     
   7.3417301674336419E-003   7.4203915521865267E-003   0.0000000000000000     
   9.2312885080944908E-003   1.0186750950118045E-002   0.0000000000000000     
   1.1130380833309349E-002   1.3233732411523237E-002   0.0000000000000000     
   1.3039007143078218E-002   1.6561335936402105E-002   0.0000000000000000     
   1.4957167437401093E-002   2.0169561524754649E-002   0.0000000000000000     
   6.3164103846041902E-003   7.1847040189404144E-003   0.0000000000000000     
   7.9562200380550521E-003   9.8956442412825706E-003   0.0000000000000000     
   9.6001389557162191E-003   1.2893136034100149E-002   0.0000000000000000     
   1.1248167137587695E-002   1.6177179397393156E-002   0.0000000000000000     
   1.2900304583669475E-002   1.9747774331161587E-002   0.0000000000000000     
   5.3309779555131085E-003   6.9874468046705104E-003   0.0000000000000000     
   6.7240683032729533E-003   9.6496940941328858E-003   0.0000000000000000     
   8.1182595701096791E-003   1.2604267855546742E-002   0.0000000000000000     
   9.5135517560232859E-003   1.5851168088912071E-002   0.0000000000000000     
   1.0909944861013779E-002   1.9390394794228882E-002   0.0000000000000000     
   4.3854328801603976E-003   6.8286199093768093E-003   0.0000000000000000     
   5.5348333037481988E-003   9.4489005086689989E-003   0.0000000000000000     
   6.6847426764897310E-003   1.2367127875863013E-002   0.0000000000000000     
   7.8351609983849987E-003   1.5583302010958856E-002   0.0000000000000000     
   8.9860882694339974E-003   1.9097422913956528E-002   0.0000000000000000     
   3.4797751585460574E-003   6.7082233330593172E-003   0.0000000000000000     
   4.3885150394807866E-003   9.2932634848908978E-003   0.0000000000000000     
   5.2995882748563755E-003   1.2181716095048962E-002   0.0000000000000000     
   6.2129948646728267E-003   1.5373581163533502E-002   0.0000000000000000     
   7.1287348089301384E-003   1.8868858690344527E-002   0.0000000000000000     
   1.4957167437401093E-002   2.0169561524754649E-002   0.0000000000000000     
   1.6859432727733801E-002   2.4029627077461774E-002   0.0000000000000000     
   1.8720374025532151E-002   2.8112750495404383E-002   0.0000000000000000     
   2.0539991330796151E-002   3.2418931778582488E-002   0.0000000000000000     
   2.2318284643525799E-002   3.6948170926996080E-002   0.0000000000000000     
   1.2900304583669475E-002   1.9747774331161587E-002   0.0000000000000000     
   1.4540012598233832E-002   2.3578723597578552E-002   0.0000000000000000     
   1.6150752485553019E-002   2.7643829958817132E-002   0.0000000000000000     
   1.7732524245627053E-002   3.1943093414877347E-002   0.0000000000000000     
   1.9285327878455914E-002   3.6476513965759197E-002   0.0000000000000000     
   1.0909944861013779E-002   1.9390394794228882E-002   0.0000000000000000     
   1.2296992850204642E-002   2.3197100943717869E-002   0.0000000000000000     
   1.3664249688719383E-002   2.7246439509599742E-002   0.0000000000000000     
   1.5011715376557988E-002   3.1538410491874502E-002   0.0000000000000000     
   1.6339389913720470E-002   3.6073013890542141E-002   0.0000000000000000     
   8.9860882694339974E-003   1.9097422913956528E-002   0.0000000000000000     
   1.0130373483646239E-002   2.2884759115879741E-002   0.0000000000000000     
   1.1260865635031231E-002   2.6920579147752203E-002   0.0000000000000000     
   1.2377564723588978E-002   3.1204883009573935E-002   0.0000000000000000     
   1.3480470749319469E-002   3.5737670701344905E-002   0.0000000000000000     
   7.1287348089301384E-003   1.8868858690344527E-002   0.0000000000000000     
   8.0401544985586187E-003   2.2641698114064156E-002   0.0000000000000000     
   8.9406003244885766E-003   2.6666248873274533E-002   0.0000000000000000     
   9.8300722867200093E-003   3.0942510967975650E-002   0.0000000000000000     
   1.0708570385252919E-002   3.5470484398167509E-002   0.0000000000000000     
   2.2318284643525799E-002   3.6948170926996080E-002   0.0000000000000000     
   2.4052261850948085E-002   4.1692175043299293E-002   0.0000000000000000     
   2.5738930840289987E-002   4.6642651230146284E-002   0.0000000000000000     
   2.7378291611551513E-002   5.1799599487537012E-002   0.0000000000000000     
   2.8970344164732657E-002   5.7163019815471505E-002   0.0000000000000000     
   1.9285327878455914E-002   3.6476513965759197E-002   0.0000000000000000     
   2.0803019016242888E-002   4.1230191805775300E-002   0.0000000000000000     
   2.2279453291191246E-002   4.6190227129238329E-002   0.0000000000000000     
   2.3714630703300987E-002   5.1356619936148241E-002   0.0000000000000000     
   2.5108551252572116E-002   5.6729370226505080E-002   0.0000000000000000     
   1.6339389913720470E-002   3.6073013890542141E-002   0.0000000000000000     
   1.7639664702569377E-002   4.0832495055532145E-002   0.0000000000000000     
   1.8904931145467270E-002   4.5799099336774000E-002   0.0000000000000000     
   2.0135189242414146E-002   5.0972826734267722E-002   0.0000000000000000     
   2.1330438993410011E-002   5.6353677248013288E-002   0.0000000000000000     
   1.3480470749319469E-002   3.5737670701344905E-002   0.0000000000000000     
   1.4562198909927550E-002   4.0499084792569806E-002   0.0000000000000000     
   1.5615364403118058E-002   4.5469267852753320E-002   0.0000000000000000     
   1.6639967228890988E-002   5.0648219881895405E-002   0.0000000000000000     
   1.7636007387246338E-002   5.6035940879996103E-002   0.0000000000000000     
   1.0708570385252919E-002   3.5470484398167509E-002   0.0000000000000000     
   1.1570621638317414E-002   4.0229961016888305E-002   0.0000000000000000     
   1.2410753064143612E-002   4.5200732677176253E-002   0.0000000000000000     
   1.3228964662731510E-002   5.0382799379031333E-002   0.0000000000000000     
   1.4025256434081104E-002   5.5776161122453552E-002   0.0000000000000000     
   2.8970344164732657E-002   5.7163019815471505E-002   0.0000000000000000     
   3.0513853472753684E-002   6.2720431683089481E-002   0.0000000000000000     
   3.2007584508534845E-002   6.8459354559530630E-002   0.0000000000000000     
   3.3451537272076143E-002   7.4379788444794953E-002   0.0000000000000000     
   3.4845711763377585E-002   8.0481733338882477E-002   0.0000000000000000     
   2.5108551252572116E-002   5.6729370226505080E-002   0.0000000000000000     
   2.6460199521926624E-002   6.2296892788981290E-002   0.0000000000000000     
   2.7768560094286496E-002   6.8047602412249317E-002   0.0000000000000000     
   2.9033632969651738E-002   7.3981499096309161E-002   0.0000000000000000     
   3.0255418148022351E-002   8.0098582841160865E-002   0.0000000000000000     
   2.1330438993410011E-002   5.6353677248013288E-002   0.0000000000000000     
   2.2489707509373218E-002   6.1930275265822232E-002   0.0000000000000000     
   2.3612021901222142E-002   6.7691245175506093E-002   0.0000000000000000     
   2.4697382168956769E-002   7.3636586977064863E-002   0.0000000000000000     
   2.5745788312577102E-002   7.9766300670498530E-002   0.0000000000000000     
   1.7636007387246338E-002   5.6035940879996103E-002   0.0000000000000000     
   1.8602377435093485E-002   6.1620579113612323E-002   0.0000000000000000     
   1.9537969929341776E-002   6.7390282849300959E-002   0.0000000000000000     
   2.0442784869991230E-002   7.3345052087062032E-002   0.0000000000000000     
   2.1316822257041835E-002   7.9484886826895529E-002   0.0000000000000000     
   1.4025256434081104E-002   5.5776161122453552E-002   0.0000000000000000     
   1.4798209299087404E-002   6.1367804332351547E-002   0.0000000000000000     
   1.5546404178645411E-002   6.7144715433633928E-002   0.0000000000000000     
   1.6269841072755122E-002   7.3106894426300681E-002   0.0000000000000000     
   1.6968519981416540E-002   7.9254341310351833E-002   0.0000000000000000     
   3.4845711763377585E-002   8.0481733338882477E-002   0.0000000000000000     
   3.6190434247915459E-002   8.6754081573677880E-002   0.0000000000000000     
   3.7486030991166056E-002   9.3185725481065920E-002   0.0000000000000000     
   3.8732501993129380E-002   9.9776665061046613E-002   0.0000000000000000     
   3.9929847253805439E-002  0.10652690031361992        0.0000000000000000     
   3.0255418148022351E-002   8.0098582841160865E-002   0.0000000000000000     
   3.1433823541964993E-002   8.6386481567860454E-002   0.0000000000000000     
   3.2568757064046314E-002   9.2832823197464109E-002   0.0000000000000000     
   3.3660218714266325E-002   9.9437607729971830E-002   0.0000000000000000     
   3.4708208492625001E-002  0.10620083516538355        0.0000000000000000     
   2.5745788312577102E-002   7.9766300670498530E-002   0.0000000000000000     
   2.6756921310443854E-002   8.6067241504663800E-002   0.0000000000000000     
   2.7730462140917726E-002   9.2526264728417351E-002   0.0000000000000000     
   2.8666410803998715E-002   9.9143370341759199E-002   0.0000000000000000     
   2.9564767299686833E-002  0.10591855834468927        0.0000000000000000     
   2.1316822257041835E-002   7.9484886826895529E-002   0.0000000000000000     
   2.2159727553352042E-002   8.5796361384087930E-002   0.0000000000000000     
   2.2971146221780286E-002   9.2266050073925673E-002   0.0000000000000000     
   2.3751078262326593E-002   9.8893952896408718E-002   0.0000000000000000     
   2.4499523674990930E-002  0.10568006985153713        0.0000000000000000     
   1.6968519981416540E-002   7.9254341310351833E-002   0.0000000000000000     
   1.7642242270689543E-002   8.5573841206132789E-002   0.0000000000000000     
   1.8290809306634001E-002   9.2052179233988979E-002   0.0000000000000000     
   1.8914221089249918E-002   9.8689355393920417E-002   0.0000000000000000     
   1.9512477618537291E-002  0.10548536968592710        0.0000000000000000     
   3.9929847253805439E-002  0.10652690031361992        0.0000000000000000     
   4.1076129363707942E-002  0.11342328750472473        0.0000000000000000     
   4.2169410913350622E-002  0.12045268290029995        0.0000000000000000     
   4.3209691902733459E-002  0.12761508650034559        0.0000000000000000     
   4.4196972331856474E-002  0.13491049830486157        0.0000000000000000     
   3.4708208492625001E-002  0.10620083516538355        0.0000000000000000     
   3.5711525539872183E-002  0.11311074689364618        0.0000000000000000     
   3.6668968996757659E-002  0.12015558430470663        0.0000000000000000     
   3.7580538863281450E-002  0.12733534739856486        0.0000000000000000     
   3.8446235139443542E-002  0.13465003617522084        0.0000000000000000     
   2.9564767299686833E-002  0.10591855834468927        0.0000000000000000     
   3.0424768056822822E-002  0.11284085787107569        0.0000000000000000     
   3.1245649504247453E-002  0.11989929805478643        0.0000000000000000     
   3.2027411641960719E-002  0.12709387889582152        0.0000000000000000     
   3.2770054469962617E-002  0.13442460039418092        0.0000000000000000     
   2.4499523674990930E-002  0.10568006985153713        0.0000000000000000     
   2.5215856914559874E-002  0.11261362043701324        0.0000000000000000     
   2.5899452435819988E-002  0.11968382415053939        0.0000000000000000     
   2.6550310238771264E-002  0.12689068099211559        0.0000000000000000     
   2.7168430323413706E-002  0.13423419096174177        0.0000000000000000     
   1.9512477618537291E-002  0.10548536968592710        0.0000000000000000     
   2.0084792113083342E-002  0.11242903459145885        0.0000000000000000     
   2.0630377791475273E-002  0.11950916259196548        0.0000000000000000     
   2.1149234653713087E-002  0.12672575368744704        0.0000000000000000     
   2.1641362699796791E-002  0.13407880787790349        0.0000000000000000     
   4.4196972331856474E-002  0.13491049830486157        0.0000000000000000     
   4.5130035862826087E-002  0.14232924281139109        0.0000000000000000     
   4.6007666157748726E-002  0.14986164451747730        0.0000000000000000     
   4.6829863216624412E-002  0.15750770342312012        0.0000000000000000     
   4.7596627039453124E-002  0.16526741952831964        0.0000000000000000     
   3.8446235139443542E-002  0.13465003617522084        0.0000000000000000     
   3.9267071426270984E-002  0.14208758176404965        0.0000000000000000     
   4.0044061324790804E-002  0.14963591529442635        0.0000000000000000     
   4.0777204835003036E-002  0.15729503676635087        0.0000000000000000     
   4.1466501956907653E-002  0.16506494617982326        0.0000000000000000     
   3.2770054469962617E-002  0.13442460039418092        0.0000000000000000     
   3.3475686312008979E-002  0.14187801264280922        0.0000000000000000     
   3.4146415491855625E-002  0.14944066573465095        0.0000000000000000     
   3.4782242009502563E-002  0.15711255966970611        0.0000000000000000     
   3.5383165864949787E-002  0.16489369444797469        0.0000000000000000     
   2.7168430323413706E-002  0.13423419096174177        0.0000000000000000     
   2.7755880520040081E-002  0.14170053544766975        0.0000000000000000     
   2.8314728658943175E-002  0.14927589583815107        0.0000000000000000     
   2.8844974740123003E-002  0.15696027213318584        0.0000000000000000     
   2.9346618763579541E-002  0.16475366433277400        0.0000000000000000     
   2.1641362699796791E-002  0.13407880787790349        0.0000000000000000     
   2.2107654050364283E-002  0.14155515017863121        0.0000000000000000     
   2.2549000826053465E-002  0.14914160560492676        0.0000000000000000     
   2.2965403026864339E-002  0.15683817415679005        0.0000000000000000     
   2.3356860652796907E-002  0.16464485583422112        0.0000000000000000     
   0.0000000000000000        0.0000000000000000        0.0000000000000000     
   8.4172172907817655E-004   1.1098472662121948E-003   0.0000000000000000     
   1.7022581651952450E-003   2.5978335771261463E-003   0.0000000000000000     
   2.5816093083512051E-003   4.4639589327418539E-003   0.0000000000000000     
   3.4797751585460574E-003   6.7082233330593172E-003   0.0000000000000000     
   0.0000000000000000        0.0000000000000000        0.0000000000000000     
   6.3386165851950194E-004   1.0938013150594414E-003   0.0000000000000000     
   1.2781494909556242E-003   2.5616833522970209E-003   0.0000000000000000     
   1.9328634973083667E-003   4.4036461117127387E-003   0.0000000000000000     
   2.5980036775777294E-003   6.6196895933065929E-003   0.0000000000000000     
   0.0000000000000000        0.0000000000000000        0.0000000000000000     
   4.2428801348591284E-004   1.0823399214218274E-003   0.0000000000000000     
   8.5307023867506001E-004   2.5358617631803036E-003   0.0000000000000000     
   1.2863466755674417E-003   4.3605655252754285E-003   0.0000000000000000     
   1.7241173241630582E-003   6.5564512077072035E-003   0.0000000000000000     
   0.0000000000000000        0.0000000000000000        0.0000000000000000     
   2.1300079397740907E-004   1.0754630852993531E-003   0.0000000000000000     
   4.2702040835355259E-004   2.5203688097759948E-003   0.0000000000000000     
   6.4205884312843061E-004   4.3347171734299268E-003   0.0000000000000000     
   8.5811609830204263E-004   6.5185081762611456E-003   0.0000000000000000     
   0.0000000000000000        0.0000000000000000        0.0000000000000000     
  -6.0091363308922841E-015   1.0731708066920185E-003   0.0000000000000000     
  -8.8982640700230320E-015   2.5152044920840953E-003   0.0000000000000000     
  -8.6673832173922438E-015   4.3261010561762292E-003   0.0000000000000000     
  -5.3164395628912953E-015   6.5058604989684217E-003   0.0000000000000000     
   3.4797751585460574E-003   6.7082233330593172E-003   0.0000000000000000     
   4.3885150394807866E-003   9.2932634848908978E-003   0.0000000000000000     
   5.2995882748563755E-003   1.2181716095048962E-002   0.0000000000000000     
   6.2129948646728267E-003   1.5373581163533502E-002   0.0000000000000000     
   7.1287348089301384E-003   1.8868858690344527E-002   0.0000000000000000     
   2.5980036775777294E-003   6.6196895933065929E-003   0.0000000000000000     
   3.2705879270355314E-003   9.1768370847708780E-003   0.0000000000000000     
   3.9476341409535910E-003   1.2042111873797881E-002   0.0000000000000000     
   4.6291423193319092E-003   1.5215513960387601E-002   0.0000000000000000     
   5.3151124621704845E-003   1.8697043344540039E-002   0.0000000000000000     
   1.7241173241630582E-003   6.5564512077072035E-003   0.0000000000000000     
   2.1665263829772495E-003   9.0936753702812161E-003   0.0000000000000000     
   2.6137180505253575E-003   1.1942394572803059E-002   0.0000000000000000     
   3.0656923268073807E-003   1.5102608815272736E-002   0.0000000000000000     
   3.5224492118233197E-003   1.8574318097690241E-002   0.0000000000000000     
   8.5811609830204263E-004   6.5185081762611456E-003   0.0000000000000000     
   1.0763304073059402E-003   9.0437783414219191E-003   0.0000000000000000     
   1.2978400035716731E-003   1.1882564192064505E-002   0.0000000000000000     
   1.5226448870992422E-003   1.5034865728188905E-002   0.0000000000000000     
   1.7507450578886465E-003   1.8500682949795122E-002   0.0000000000000000     
  -5.3164395628912953E-015   6.5058604989684217E-003   0.0000000000000000     
   2.1603134862588358E-014   9.0271459981929800E-003   0.0000000000000000     
   9.2539379479596173E-014   1.1862620731582211E-002   0.0000000000000000     
   2.0749325990569202E-013   1.5012284699136114E-002   0.0000000000000000     
   3.6646358690661796E-013   1.8476137900854690E-002   0.0000000000000000     
   7.1287348089301384E-003   1.8868858690344527E-002   0.0000000000000000     
   8.0401544985586187E-003   2.2641698114064156E-002   0.0000000000000000     
   8.9406003244885766E-003   2.6666248873274533E-002   0.0000000000000000     
   9.8300722867200093E-003   3.0942510967975650E-002   0.0000000000000000     
   1.0708570385252919E-002   3.5470484398167509E-002   0.0000000000000000     
   5.3151124621704845E-003   1.8697043344540039E-002   0.0000000000000000     
   5.9986307466564637E-003   2.2459330098987509E-002   0.0000000000000000     
   6.6727833499769899E-003   2.6475004296462313E-002   0.0000000000000000     
   7.3375702721320676E-003   3.0744065936964455E-002   0.0000000000000000     
   7.9929915131216923E-003   3.5266515020493931E-002   0.0000000000000000     
   3.5224492118233197E-003   1.8574318097690241E-002   0.0000000000000000     
   3.9780970796544531E-003   2.2329067231366181E-002   0.0000000000000000     
   4.4267443043820567E-003   2.6338401027611147E-002   0.0000000000000000     
   4.8683908860061281E-003   3.0602319486425139E-002   0.0000000000000000     
   5.3030368245266723E-003   3.5120822607808161E-002   0.0000000000000000     
   1.7507450578886465E-003   1.8500682949795122E-002   0.0000000000000000     
   1.9785534975525891E-003   2.2250909511200158E-002   0.0000000000000000     
   2.2024831877037721E-003   2.6256439066721021E-002   0.0000000000000000     
   2.4225341283421950E-003   3.0517271616357703E-002   0.0000000000000000     
   2.6387063194678578E-003   3.5033407160110205E-002   0.0000000000000000     
   3.6646358690661796E-013   1.8476137900854690E-002   0.0000000000000000     
   3.5087162125399529E-013   2.2224856938489461E-002   0.0000000000000000     
  -5.7861105230011534E-014   2.6229118413791944E-002   0.0000000000000000     
  -8.5973585293042804E-013   3.0488922326762147E-002   0.0000000000000000     
  -2.0547515511976089E-012   3.5004268677400058E-002   0.0000000000000000     
   1.0708570385252919E-002   3.5470484398167509E-002   0.0000000000000000     
   1.1570621638317414E-002   4.0229961016888305E-002   0.0000000000000000     
   1.2410753064143612E-002   4.5200732677176253E-002   0.0000000000000000     
   1.3228964662731510E-002   5.0382799379031333E-002   0.0000000000000000     
   1.4025256434081104E-002   5.5776161122453552E-002   0.0000000000000000     
   7.9929915131216923E-003   3.5266515020493931E-002   0.0000000000000000     
   8.6359830274162115E-003   4.0022603051238524E-002   0.0000000000000000     
   9.2634807694859725E-003   4.4992581533386006E-002   0.0000000000000000     
   9.8754847393309683E-003   5.0176450466936383E-002   0.0000000000000000     
   1.0471994936951206E-002   5.5574209851889662E-002   0.0000000000000000     
   5.3030368245266723E-003   3.5120822607808161E-002   0.0000000000000000     
   5.7293332169011859E-003   3.9874490218371333E-002   0.0000000000000000     
   6.1459311600871687E-003   4.4843902144725778E-002   0.0000000000000000     
   6.5528306540846197E-003   5.0029058386871481E-002   0.0000000000000000     
   6.9500316988935417E-003   5.5429958944808455E-002   0.0000000000000000     
   2.6387063194678578E-003   3.5033407160110205E-002   0.0000000000000000     
   2.8506722067723356E-003   3.9785622518286753E-002   0.0000000000000000     
   3.0581042359472048E-003   4.4754694511195549E-002   0.0000000000000000     
   3.2610024069924643E-003   4.9940623138836605E-002   0.0000000000000000     
   3.4593667199081151E-003   5.5343408401209923E-002   0.0000000000000000     
  -2.0547515511976089E-012   3.5004268677400058E-002   0.0000000000000000     
  -2.9703370839351262E-012   3.9755999950984763E-002   0.0000000000000000     
  -2.9339198171635106E-012   4.4724958632795332E-002   0.0000000000000000     
  -1.9455002387737397E-012   4.9911144722831778E-002   0.0000000000000000     
  -5.0775356141841144E-015   5.5314558221094080E-002   0.0000000000000000     
   1.4025256434081104E-002   5.5776161122453552E-002   0.0000000000000000     
   1.4798209299087404E-002   6.1367804332351547E-002   0.0000000000000000     
   1.5546404178645411E-002   6.7144715433633928E-002   0.0000000000000000     
   1.6269841072755122E-002   7.3106894426300681E-002   0.0000000000000000     
   1.6968519981416540E-002   7.9254341310351833E-002   0.0000000000000000     
   1.0471994936951206E-002   5.5574209851889662E-002   0.0000000000000000     
   1.1051380842879059E-002   6.1171529498918367E-002   0.0000000000000000     
   1.1612011937646912E-002   6.6954079218695048E-002   0.0000000000000000     
   1.2153888221254754E-002   7.2921859011219683E-002   0.0000000000000000     
   1.2677009693702595E-002   7.9074868876492316E-002   0.0000000000000000     
   6.9500316988935417E-003   5.5429958944808455E-002   0.0000000000000000     
   7.3360698079925233E-003   6.1031333190191238E-002   0.0000000000000000     
   7.7094804948601549E-003   6.6817910494674407E-002   0.0000000000000000     
   8.0702637594964339E-003   7.2789690858257927E-002   0.0000000000000000     
   8.4184196019013637E-003   7.8946674280941834E-002   0.0000000000000000     
   3.4593667199081151E-003   5.5343408401209923E-002   0.0000000000000000     
   3.6522761944277949E-003   6.0947215406170166E-002   0.0000000000000000     
   3.8388098502851434E-003   6.6736209261571977E-002   0.0000000000000000     
   4.0189676874801596E-003   7.2710389967415426E-002   0.0000000000000000     
   4.1927497060128462E-003   7.8869757523700415E-002   0.0000000000000000     
  -5.0775356141841144E-015   5.5314558221094080E-002   0.0000000000000000     
   2.1848726170295429E-012   6.0919176146855124E-002   0.0000000000000000     
   3.9218758991245439E-012   6.6708975519387800E-002   0.0000000000000000     
   5.2059329205345409E-012   7.2683956338692110E-002   0.0000000000000000     
   6.0370430442907574E-012   7.8844118604768046E-002   0.0000000000000000     
   1.6968519981416540E-002   7.9254341310351833E-002   0.0000000000000000     
   1.7642242270689543E-002   8.5573841206132789E-002   0.0000000000000000     
   1.8290809306634001E-002   9.2052179233988979E-002   0.0000000000000000     
   1.8914221089249918E-002   9.8689355393920417E-002   0.0000000000000000     
   1.9512477618537291E-002  0.10548536968592710        0.0000000000000000     
   1.2677009693702595E-002   7.9074868876492316E-002   0.0000000000000000     
   1.3181378845013704E-002   8.5400293524899820E-002   0.0000000000000000     
   1.3666998165211356E-002   9.1885317666829183E-002   0.0000000000000000     
   1.4133867654295551E-002   9.8529941302280391E-002   0.0000000000000000     
   1.4581987312266290E-002  0.10533416443125346        0.0000000000000000     
   8.4184196019013637E-003   7.8946674280941834E-002   0.0000000000000000     
   8.7540506588818616E-003   8.5276330894490437E-002   0.0000000000000000     
   9.0772595672448490E-003   9.1766130830668077E-002   0.0000000000000000     
   9.3880463269903295E-003   9.8416074089474739E-002   0.0000000000000000     
   9.6864109381182978E-003  0.10522616067091044        0.0000000000000000     
   4.1927497060128462E-003   7.8869757523700415E-002   0.0000000000000000     
   4.3602577122940156E-003   8.5201953314904613E-002   0.0000000000000000     
   4.5215935127344833E-003   9.1694618725505619E-002   0.0000000000000000     
   4.6767571073342501E-003   9.8347753755503461E-002   0.0000000000000000     
   4.8257484960933152E-003  0.10516135840489810        0.0000000000000000     
   6.0370430442907574E-012   7.8844118604768046E-002   0.0000000000000000     
   5.2501640188107324E-012   8.5177160786142389E-002   0.0000000000000000     
   1.6802541888231992E-012   9.1670781351341879E-002   0.0000000000000000     
  -4.6726865676445864E-012   9.8324980300366557E-002   0.0000000000000000     
  -1.3808659944658519E-011  0.10513975763321638        0.0000000000000000     
   1.9512477618537291E-002  0.10548536968592710        0.0000000000000000     
   2.0084792113083342E-002  0.11242903459145885        0.0000000000000000     
   2.0630377791475273E-002  0.11950916259196548        0.0000000000000000     
   2.1149234653713087E-002  0.12672575368744704        0.0000000000000000     
   2.1641362699796791E-002  0.13407880787790349        0.0000000000000000     
   1.4581987312266290E-002  0.10533416443125346        0.0000000000000000     
   1.5010386381388786E-002  0.11228618204274605        0.0000000000000000     
   1.5418094103928245E-002  0.11937418912575588        0.0000000000000000     
   1.5805110479884667E-002  0.12659818568028297        0.0000000000000000     
   1.6171435509258061E-002  0.13395817170632732        0.0000000000000000     
   9.6864109381182978E-003  0.10522616067091044        0.0000000000000000     
   9.9714524484717931E-003  0.11218414449920838        0.0000000000000000     
   1.0242269905893856E-002  0.11927777949860172        0.0000000000000000     
   1.0498863310384484E-002  0.12650706566909048        0.0000000000000000     
   1.0741232661943675E-002  0.13387200301067465        0.0000000000000000     
   4.8257484960933152E-003  0.10516135840489810        0.0000000000000000     
   4.9679903143323703E-003  0.11212292196084582        0.0000000000000000     
   5.1029051973721087E-003  0.11921993371050299        0.0000000000000000     
   5.2304931452125322E-003  0.12645239365386954        0.0000000000000000     
   5.3507541578536382E-003  0.13382030179094556        0.0000000000000000     
  -1.3808659944658519E-011  0.10513975763321638        0.0000000000000000     
  -2.1029488046775402E-011  0.11210251442765840        0.0000000000000000     
  -2.1636996231158556E-011  0.11920065176145968        0.0000000000000000     
  -1.5631183359395701E-011  0.12643416963462017        0.0000000000000000     
  -3.0120502446384645E-012  0.13380306804713993        0.0000000000000000     
   2.1641362699796791E-002  0.13407880787790349        0.0000000000000000     
   2.2107654050364283E-002  0.14155515017863121        0.0000000000000000     
   2.2549000826053465E-002  0.14914160560492676        0.0000000000000000     
   2.2965403026864339E-002  0.15683817415679005        0.0000000000000000     
   2.3356860652796907E-002  0.16464485583422112        0.0000000000000000     
   1.6171435509258061E-002  0.13395817170632732        0.0000000000000000     
   1.6516598065972145E-002  0.14144197828683697        0.0000000000000000     
   1.6840127023950657E-002  0.14903743650476003        0.0000000000000000     
   1.7142022383193598E-002  0.15674454636009655        0.0000000000000000     
   1.7422284143700964E-002  0.16456330785284645        0.0000000000000000     
   1.0741232661943675E-002  0.13387200301067465        0.0000000000000000     
   1.0968303729854224E-002  0.14136114122343019        0.0000000000000000     
   1.1179002283398928E-002  0.14896303000743299        0.0000000000000000     
   1.1373328322577786E-002  0.15667766936268304        0.0000000000000000     
   1.1551281847390795E-002  0.16450505928918038        0.0000000000000000     
   5.3507541578536382E-003  0.13382030179094556        0.0000000000000000     
   5.4627710420105209E-003  0.14131263898841090        0.0000000000000000     
   5.5656266043982751E-003  0.14891838611294558        0.0000000000000000     
   5.6593208450169017E-003  0.15663754316454959        0.0000000000000000     
   5.7438537638663982E-003  0.16447011014322294        0.0000000000000000     
  -3.0120502446384645E-012  0.13380306804713993        0.0000000000000000     
   2.4410339201363929E-012  0.14129647158177910        0.0000000000000000     
  -1.3051300708569191E-011  0.14890350482129786        0.0000000000000000     
  -4.9489054835486629E-011  0.15662416776569618        0.0000000000000000     
  -1.0687222547905995E-010  0.16445846041497411        0.0000000000000000     
   0.0000000000000000        0.0000000000000000        0.0000000000000000     
  -6.0091363308922841E-015   1.0731708066920185E-003   0.0000000000000000     
  -8.8982640700230320E-015   2.5152044920840953E-003   0.0000000000000000     
  -8.6673832173922438E-015   4.3261010561762292E-003   0.0000000000000000     
  -5.3164395628912953E-015   6.5058604989684217E-003   0.0000000000000000     
   0.0000000000000000        0.0000000000000000        0.0000000000000000     
  -2.1300079399034149E-004   1.0754630855325518E-003   0.0000000000000000     
  -4.2702040836746968E-004   2.5203688100275015E-003   0.0000000000000000     
  -6.4205884313138452E-004   4.3347171734848481E-003   0.0000000000000000     
  -8.5811609828208594E-004   6.5185081759045931E-003   0.0000000000000000     
   0.0000000000000000        0.0000000000000000        0.0000000000000000     
  -4.2428801350158737E-004   1.0823399217536804E-003   0.0000000000000000     
  -8.5307023867733879E-004   2.5358617635291110E-003   0.0000000000000000     
  -1.2863466755272542E-003   4.3605655253262914E-003   0.0000000000000000     
  -1.7241173240513329E-003   6.5564512071452233E-003   0.0000000000000000     
   0.0000000000000000        0.0000000000000000        0.0000000000000000     
  -6.3386165853974693E-004   1.0938013153554045E-003   0.0000000000000000     
  -1.2781494909385053E-003   2.5616833525889250E-003   0.0000000000000000     
  -1.9328634971962750E-003   4.4036461117005600E-003   0.0000000000000000     
  -2.5980036773130574E-003   6.6196895926903107E-003   0.0000000000000000     
   0.0000000000000000        0.0000000000000000        0.0000000000000000     
  -8.4172172910481973E-004   1.1098472663377246E-003   0.0000000000000000     
  -1.7022581651509696E-003   2.5978335772069423E-003   0.0000000000000000     
  -2.5816093081384491E-003   4.4639589326076531E-003   0.0000000000000000     
  -3.4797751580672586E-003   6.7082233325398578E-003   0.0000000000000000     
  -5.3164395628912953E-015   6.5058604989684217E-003   0.0000000000000000     
   2.1603134862588358E-014   9.0271459981929800E-003   0.0000000000000000     
   9.2539379479596173E-014   1.1862620731582211E-002   0.0000000000000000     
   2.0749325990569202E-013   1.5012284699136114E-002   0.0000000000000000     
   3.6646358690661796E-013   1.8476137900854690E-002   0.0000000000000000     
  -8.5811609828208594E-004   6.5185081759045931E-003   0.0000000000000000     
  -1.0763304072239660E-003   9.0437783407512125E-003   0.0000000000000000     
  -1.2978400033614149E-003   1.1882564191489180E-002   0.0000000000000000     
  -1.5226448866944330E-003   1.5034865728118499E-002   0.0000000000000000     
  -1.7507450572230208E-003   1.8500682950639169E-002   0.0000000000000000     
  -1.7241173240513329E-003   6.5564512071452233E-003   0.0000000000000000     
  -2.1665263827789711E-003   9.0936753692534254E-003   0.0000000000000000     
  -2.6137180502395605E-003   1.1942394571918423E-002   0.0000000000000000     
  -3.0656923264331033E-003   1.5102608815140209E-002   0.0000000000000000     
  -3.5224492113595986E-003   1.8574318098918789E-002   0.0000000000000000     
  -2.5980036773130574E-003   6.6196895926903107E-003   0.0000000000000000     
  -3.2705879266434110E-003   9.1768370836996203E-003   0.0000000000000000     
  -3.9476341405418995E-003   1.2042111872869930E-002   0.0000000000000000     
  -4.6291423190085177E-003   1.5215513960201241E-002   0.0000000000000000     
  -5.3151124620432703E-003   1.8697043345693561E-002   0.0000000000000000     
  -3.4797751580672586E-003   6.7082233325398578E-003   0.0000000000000000     
  -4.3885150388172887E-003   9.2932634840897973E-003   0.0000000000000000     
  -5.2995882742684266E-003   1.2181716094343712E-002   0.0000000000000000     
  -6.2129948644206769E-003   1.5373581163301604E-002   0.0000000000000000     
  -7.1287348092740344E-003   1.8868858690963469E-002   0.0000000000000000     
   3.6646358690661796E-013   1.8476137900854690E-002   0.0000000000000000     
   3.5087162125399529E-013   2.2224856938489461E-002   0.0000000000000000     
  -5.7861105230011534E-014   2.6229118413791944E-002   0.0000000000000000     
  -8.5973585293042804E-013   3.0488922326762147E-002   0.0000000000000000     
  -2.0547515511976089E-012   3.5004268677400058E-002   0.0000000000000000     
  -1.7507450572230208E-003   1.8500682950639169E-002   0.0000000000000000     
  -1.9785534969285301E-003   2.2250909512811657E-002   0.0000000000000000     
  -2.2024831877923137E-003   2.6256439068396437E-002   0.0000000000000000     
  -2.4225341298143698E-003   3.0517271617393499E-002   0.0000000000000000     
  -2.6387063229946998E-003   3.5033407159802854E-002   0.0000000000000000     
  -3.5224492113595986E-003   1.8574318098918789E-002   0.0000000000000000     
  -3.9780970792634481E-003   2.2329067233744334E-002   0.0000000000000000     
  -4.4267443043890528E-003   2.6338401030107005E-002   0.0000000000000000     
  -4.8683908867364154E-003   3.0602319488006808E-002   0.0000000000000000     
  -5.3030368263055324E-003   3.5120822607443730E-002   0.0000000000000000     
  -5.3151124620432703E-003   1.8697043345693561E-002   0.0000000000000000     
  -5.9986307466538824E-003   2.2459330101287492E-002   0.0000000000000000     
  -6.6727833498480835E-003   2.6475004298923653E-002   0.0000000000000000     
  -7.3375702716258718E-003   3.0744065938602058E-002   0.0000000000000000     
  -7.9929915119872491E-003   3.5266515020322700E-002   0.0000000000000000     
  -7.1287348092740344E-003   1.8868858690963469E-002   0.0000000000000000     
  -8.0401544990998334E-003   2.2641698115441127E-002   0.0000000000000000     
  -8.9406003241693996E-003   2.6666248874846393E-002   0.0000000000000000     
  -9.8300722844827416E-003   3.0942510969179254E-002   0.0000000000000000     
  -1.0708570380039847E-002   3.5470484398439722E-002   0.0000000000000000     
  -2.0547515511976089E-012   3.5004268677400058E-002   0.0000000000000000     
  -2.9703370839351262E-012   3.9755999950984763E-002   0.0000000000000000     
  -2.9339198171635106E-012   4.4724958632795332E-002   0.0000000000000000     
  -1.9455002387737397E-012   4.9911144722831778E-002   0.0000000000000000     
  -5.0775356141841144E-015   5.5314558221094080E-002   0.0000000000000000     
  -2.6387063229946998E-003   3.5033407159802854E-002   0.0000000000000000     
  -2.8506722119054717E-003   3.9785622516890960E-002   0.0000000000000000     
  -3.0581042411188548E-003   4.4754694509924253E-002   0.0000000000000000     
  -3.2610024106348471E-003   4.9940623138902747E-002   0.0000000000000000     
  -3.4593667204534518E-003   5.5343408403826434E-002   0.0000000000000000     
  -5.3030368263055324E-003   3.5120822607443730E-002   0.0000000000000000     
  -5.7293332196117087E-003   3.9874490216430900E-002   0.0000000000000000     
  -6.1459311631702502E-003   4.4843902142981423E-002   0.0000000000000000     
  -6.5528306569811560E-003   5.0029058387095315E-002   0.0000000000000000     
  -6.9500317010444262E-003   5.5429958948772555E-002   0.0000000000000000     
  -7.9929915119872491E-003   3.5266515020322700E-002   0.0000000000000000     
  -8.6359830260890474E-003   4.0022603049604609E-002   0.0000000000000000     
  -9.2634807690881067E-003   4.4992581531966863E-002   0.0000000000000000     
  -9.8754847409844252E-003   5.0176450467409449E-002   0.0000000000000000     
  -1.0471994941778001E-002   5.5574209855932394E-002   0.0000000000000000     
  -1.0708570380039847E-002   3.5470484398439722E-002   0.0000000000000000     
  -1.1570621631337489E-002   4.0229961016412068E-002   0.0000000000000000     
  -1.2410753058872424E-002   4.5200732676880566E-002   0.0000000000000000     
  -1.3228964662644650E-002   5.0382799379845196E-002   0.0000000000000000     
  -1.4025256442654175E-002   5.5776161125305979E-002   0.0000000000000000     
  -5.0775356141841144E-015   5.5314558221094080E-002   0.0000000000000000     
   2.1848726170295429E-012   6.0919176146855124E-002   0.0000000000000000     
   3.9218758991245439E-012   6.6708975519387800E-002   0.0000000000000000     
   5.2059329205345409E-012   7.2683956338692110E-002   0.0000000000000000     
   6.0370430442907574E-012   7.8844118604768046E-002   0.0000000000000000     
  -3.4593667204534518E-003   5.5343408403826434E-002   0.0000000000000000     
  -3.6522761916107089E-003   6.0947215411008386E-002   0.0000000000000000     
  -3.8388098451426636E-003   6.6736209266761604E-002   0.0000000000000000     
  -4.0189676810493125E-003   7.2710389971086142E-002   0.0000000000000000     
  -4.1927496993306602E-003   7.8869757523981940E-002   0.0000000000000000     
  -6.9500317010444262E-003   5.5429958948772555E-002   0.0000000000000000     
  -7.3360698098334188E-003   6.1031333197392151E-002   0.0000000000000000     
  -7.7094804978214884E-003   6.6817910502333142E-002   0.0000000000000000     
  -8.0702637650086426E-003   7.2789690863595533E-002   0.0000000000000000     
  -8.4184196113948756E-003   7.8946674281179310E-002   0.0000000000000000     
  -1.0471994941778001E-002   5.5574209855932394E-002   0.0000000000000000     
  -1.1051380852483254E-002   6.1171529506006447E-002   0.0000000000000000     
  -1.1612011954114607E-002   6.6954079226102442E-002   0.0000000000000000     
  -1.2153888246672056E-002   7.2921859016220308E-002   0.0000000000000000     
  -1.2677009730155602E-002   7.9074868876360130E-002   0.0000000000000000     
  -1.4025256442654175E-002   5.5776161125305979E-002   0.0000000000000000     
  -1.4798209319560218E-002   6.1367804336851267E-002   0.0000000000000000     
  -1.5546404214022012E-002   6.7144715438069436E-002   0.0000000000000000     
  -1.6269841126039554E-002   7.3106894428960484E-002   0.0000000000000000     
  -1.6968520055612845E-002   7.9254341309524398E-002   0.0000000000000000     
   6.0370430442907574E-012   7.8844118604768046E-002   0.0000000000000000     
   5.2501640188107324E-012   8.5177160786142389E-002   0.0000000000000000     
   1.6802541888231992E-012   9.1670781351341879E-002   0.0000000000000000     
  -4.6726865676445864E-012   9.8324980300366557E-002   0.0000000000000000     
  -1.3808659944658519E-011  0.10513975763321638        0.0000000000000000     
  -4.1927496993306602E-003   7.8869757523981940E-002   0.0000000000000000     
  -4.3602577077437310E-003   8.5201953309438180E-002   0.0000000000000000     
  -4.5215935140455604E-003   9.1694618711443951E-002   0.0000000000000000     
  -4.6767571182361415E-003   9.8347753729999238E-002   0.0000000000000000     
  -4.8257485203154812E-003  0.10516135836510407        0.0000000000000000     
  -8.4184196113948756E-003   7.8946674281179310E-002   0.0000000000000000     
  -8.7540506721817107E-003   8.5276330886026444E-002   0.0000000000000000     
  -9.0772595825706782E-003   9.1766130809078944E-002   0.0000000000000000     
  -9.3880463425617764E-003   9.8416074050336783E-002   0.0000000000000000     
  -9.6864109521550071E-003  0.10522616060979993        0.0000000000000000     
  -1.2677009730155602E-002   7.9074868876360130E-002   0.0000000000000000     
  -1.3181378888063778E-002   8.5400293515907194E-002   0.0000000000000000     
  -1.3666998203895105E-002   9.1885317644246858E-002   0.0000000000000000     
  -1.4133867677649596E-002   9.8529941261379095E-002   0.0000000000000000     
  -1.4581987309327233E-002  0.10533416436730396        0.0000000000000000     
  -1.6968520055612845E-002   7.9254341309524398E-002   0.0000000000000000     
  -1.7642242355389925E-002   8.5573841199080417E-002   0.0000000000000000     
  -1.8290809378018837E-002   9.2052179216947708E-002   0.0000000000000000     
  -1.8914221123499584E-002   9.8689355363126285E-002   0.0000000000000000     
  -1.9512477591832163E-002  0.10548536963761616        0.0000000000000000     
  -1.3808659944658519E-011  0.10513975763321638        0.0000000000000000     
  -2.1029488046775402E-011  0.11210251442765840        0.0000000000000000     
  -2.1636996231158556E-011  0.11920065176145968        0.0000000000000000     
  -1.5631183359395701E-011  0.12643416963462017        0.0000000000000000     
  -3.0120502446384645E-012  0.13380306804713993        0.0000000000000000     
  -4.8257485203154812E-003  0.10516135836510407        0.0000000000000000     
  -4.9679903484318349E-003  0.11212292191090864        0.0000000000000000     
  -5.1029052307334632E-003  0.11921993366156318        0.0000000000000000     
  -5.2304931672203627E-003  0.12645239361706764        0.0000000000000000     
  -5.3507541578925368E-003  0.13382030177742207        0.0000000000000000     
  -9.6864109521550071E-003  0.10522616060979993        0.0000000000000000     
  -9.9714524586927231E-003  0.11218414442185907        0.0000000000000000     
  -1.0242269909517290E-002  0.11927777942090485        0.0000000000000000     
  -1.0498863304628707E-002  0.12650706560693720        0.0000000000000000     
  -1.0741232644026972E-002  0.13387200297995622        0.0000000000000000     
  -1.4581987309327233E-002  0.10533416436730396        0.0000000000000000     
  -1.5010386351812158E-002  0.11228618196050974        0.0000000000000000     
  -1.5418094057988481E-002  0.11937418903948473        0.0000000000000000     
  -1.5805110427856216E-002  0.12659818560422889        0.0000000000000000     
  -1.6171435461415352E-002  0.13395817165474236        0.0000000000000000     
  -1.9512477591832163E-002  0.10548536963761616        0.0000000000000000     
  -2.0084792027790128E-002  0.11242903452686057        0.0000000000000000     
  -2.0630377676147039E-002  0.11950916251730274        0.0000000000000000     
  -2.1149234536902886E-002  0.12672575360894273        0.0000000000000000     
  -2.1641362610057679E-002  0.13407880780178050        0.0000000000000000     
  -3.0120502446384645E-012  0.13380306804713993        0.0000000000000000     
   2.4410339201363929E-012  0.14129647158177910        0.0000000000000000     
  -1.3051300708569191E-011  0.14890350482129786        0.0000000000000000     
  -4.9489054835486629E-011  0.15662416776569618        0.0000000000000000     
  -1.0687222547905995E-010  0.16445846041497411        0.0000000000000000     
  -5.3507541578925368E-003  0.13382030177742207        0.0000000000000000     
  -5.4627710353480716E-003  0.14131263899695126        0.0000000000000000     
  -5.5656266321850497E-003  0.14891838612997996        0.0000000000000000     
  -5.6593209484034701E-003  0.15663754317650821        0.0000000000000000     
  -5.7438539840033356E-003  0.16447011013653601        0.0000000000000000     
  -1.0741232644026972E-002  0.13387200297995622        0.0000000000000000     
  -1.0968303717850627E-002  0.14136114122734386        0.0000000000000000     
  -1.1179002316238213E-002  0.14896303003648217        0.0000000000000000     
  -1.1373328439189733E-002  0.15667766940737118        0.0000000000000000     
  -1.1551282086705188E-002  0.16450505934001083        0.0000000000000000     
  -1.6171435461415352E-002  0.13395817165474236        0.0000000000000000     
  -1.6516598045066631E-002  0.14144197827295688        0.0000000000000000     
  -1.6840127065210798E-002  0.14903743654080445        0.0000000000000000     
  -1.7142022521847849E-002  0.15674454645828501        0.0000000000000000     
  -1.7422284414977784E-002  0.16456330802539856        0.0000000000000000     
  -2.1641362610057679E-002  0.13407880780178050        0.0000000000000000     
  -2.2107654016996089E-002  0.14155515013379039        0.0000000000000000     
  -2.2549000879102804E-002  0.14914160564294682        0.0000000000000000     
  -2.2965403196377816E-002  0.15683817432924976        0.0000000000000000     
  -2.3356860968821128E-002  0.16464485619269922        0.0000000000000000     
   0.0000000000000000        0.0000000000000000        0.0000000000000000     
  -8.4172172910481973E-004   1.1098472663377246E-003   0.0000000000000000     
  -1.7022581651509696E-003   2.5978335772069423E-003   0.0000000000000000     
  -2.5816093081384491E-003   4.4639589326076531E-003   0.0000000000000000     
  -3.4797751580672586E-003   6.7082233325398578E-003   0.0000000000000000     
   0.0000000000000000        0.0000000000000000        0.0000000000000000     
  -1.0567674233459309E-003   1.1340407987701713E-003   0.0000000000000000     
  -2.1399287110442674E-003   2.6501577165232095E-003   0.0000000000000000     
  -3.2494838630950105E-003   4.5483507532591136E-003   0.0000000000000000     
  -4.3854328794981582E-003   6.8286199089778853E-003   0.0000000000000000     
   0.0000000000000000        0.0000000000000000        0.0000000000000000     
  -1.2878979394122044E-003   1.1699449367222764E-003   0.0000000000000000     
  -2.6056935783479352E-003   2.7245010496777717E-003   0.0000000000000000     
  -3.9533869168071924E-003   4.6636683388664854E-003   0.0000000000000000     
  -5.3309779547899769E-003   6.9874468042884193E-003   0.0000000000000000     
   0.0000000000000000        0.0000000000000000        0.0000000000000000     
  -1.5351132773036402E-003   1.2175596801940389E-003   0.0000000000000000     
  -3.0995527670619727E-003   2.8208635766706282E-003   0.0000000000000000     
  -4.6933184692749983E-003   4.8099116894297685E-003   0.0000000000000000     
  -6.3164103839427150E-003   7.1847040184714580E-003   0.0000000000000000     
   0.0000000000000000        0.0000000000000000        0.0000000000000000     
  -1.7984134370202386E-003   1.2768850291854602E-003   0.0000000000000000     
  -3.6215062771863802E-003   2.9392452975017806E-003   0.0000000000000000     
  -5.4692785204984240E-003   4.9870808049489613E-003   0.0000000000000000     
  -7.3417301669563718E-003   7.4203915515270022E-003   0.0000000000000000     
  -3.4797751580672586E-003   6.7082233325398578E-003   0.0000000000000000     
  -4.3885150388172887E-003   9.2932634840897973E-003   0.0000000000000000     
  -5.2995882742684266E-003   1.2181716094343712E-002   0.0000000000000000     
  -6.2129948644206769E-003   1.5373581163301604E-002   0.0000000000000000     
  -7.1287348092740344E-003   1.8868858690963469E-002   0.0000000000000000     
  -4.3854328794981582E-003   6.8286199089778853E-003   0.0000000000000000     
  -5.5348333028503805E-003   9.4489005081943092E-003   0.0000000000000000     
  -6.6847426757483449E-003   1.2367127875423172E-002   0.0000000000000000     
  -7.8351609981920523E-003   1.5583302010664471E-002   0.0000000000000000     
  -8.9860882701815002E-003   1.9097422913918211E-002   0.0000000000000000     
  -5.3309779547899769E-003   6.9874468042884193E-003   0.0000000000000000     
  -6.7240683022924677E-003   9.6496940937835195E-003   0.0000000000000000     
  -8.1182595693108494E-003   1.2604267855191727E-002   0.0000000000000000     
  -9.5135517558451194E-003   1.5851168088513039E-002   0.0000000000000000     
  -1.0909944861895279E-002   1.9390394793747469E-002   0.0000000000000000     
  -6.3164103839427150E-003   7.1847040184714580E-003   0.0000000000000000     
  -7.9562200371435538E-003   9.8956442408574177E-003   0.0000000000000000     
  -9.6001389549559418E-003   1.2893136033649368E-002   0.0000000000000000     
  -1.1248167137379880E-002   1.6177179396847308E-002   0.0000000000000000     
  -1.2900304584415366E-002   1.9747774330451238E-002   0.0000000000000000     
  -7.3417301669563718E-003   7.4203915515270022E-003   0.0000000000000000     
  -9.2312885074036320E-003   1.0186750949416012E-002   0.0000000000000000     
  -1.1130380832683619E-002   1.3233732410796105E-002   0.0000000000000000     
  -1.3039007142796330E-002   1.6561335935667280E-002   0.0000000000000000     
  -1.4957167437741767E-002   2.0169561524029531E-002   0.0000000000000000     
  -7.1287348092740344E-003   1.8868858690963469E-002   0.0000000000000000     
  -8.0401544990998334E-003   2.2641698115441127E-002   0.0000000000000000     
  -8.9406003241693996E-003   2.6666248874846393E-002   0.0000000000000000     
  -9.8300722844827416E-003   3.0942510969179254E-002   0.0000000000000000     
  -1.0708570380039847E-002   3.5470484398439722E-002   0.0000000000000000     
  -8.9860882701815002E-003   1.9097422913918211E-002   0.0000000000000000     
  -1.0130373484646278E-002   2.2884759116104290E-002   0.0000000000000000     
  -1.1260865634515966E-002   2.6920579148142609E-002   0.0000000000000000     
  -1.2377564719790565E-002   3.1204883010033161E-002   0.0000000000000000     
  -1.3480470740470075E-002   3.5737670701775956E-002   0.0000000000000000     
  -1.0909944861895279E-002   1.9390394793747469E-002   0.0000000000000000     
  -1.2296992851338194E-002   2.3197100943176022E-002   0.0000000000000000     
  -1.3664249688050733E-002   2.7246439509079703E-002   0.0000000000000000     
  -1.5011715372032891E-002   3.1538410491458529E-002   0.0000000000000000     
  -1.6339389903284679E-002   3.6073013890312498E-002   0.0000000000000000     
  -1.2900304584415366E-002   1.9747774330451238E-002   0.0000000000000000     
  -1.4540012599175584E-002   2.3578723596656321E-002   0.0000000000000000     
  -1.6150752484773698E-002   2.7643829957657698E-002   0.0000000000000000     
  -1.7732524241209722E-002   3.1943093413455366E-002   0.0000000000000000     
  -1.9285327868483644E-002   3.6476513964049342E-002   0.0000000000000000     
  -1.4957167437741767E-002   2.0169561524029531E-002   0.0000000000000000     
  -1.6859432728158444E-002   2.4029627076545188E-002   0.0000000000000000     
  -1.8720374024684870E-002   2.8112750493876570E-002   0.0000000000000000     
  -2.0539991327321056E-002   3.2418931776023674E-002   0.0000000000000000     
  -2.2318284636066988E-002   3.6948170922986502E-002   0.0000000000000000     
  -1.0708570380039847E-002   3.5470484398439722E-002   0.0000000000000000     
  -1.1570621631337489E-002   4.0229961016412068E-002   0.0000000000000000     
  -1.2410753058872424E-002   4.5200732676880566E-002   0.0000000000000000     
  -1.3228964662644650E-002   5.0382799379845196E-002   0.0000000000000000     
  -1.4025256442654175E-002   5.5776161125305979E-002   0.0000000000000000     
  -1.3480470740470075E-002   3.5737670701775956E-002   0.0000000000000000     
  -1.4562198897901444E-002   4.0499084793051185E-002   0.0000000000000000     
  -1.5615364393431619E-002   4.5469267853539032E-002   0.0000000000000000     
  -1.6639967227060595E-002   5.0648219883239504E-002   0.0000000000000000     
  -1.7636007398788376E-002   5.6035940882152593E-002   0.0000000000000000     
  -1.6339389903284679E-002   3.6073013890312498E-002   0.0000000000000000     
  -1.7639664688325334E-002   4.0832495055719835E-002   0.0000000000000000     
  -1.8904931133674106E-002   4.5799099337758789E-002   0.0000000000000000     
  -2.0135189239331015E-002   5.0972826736429354E-002   0.0000000000000000     
  -2.1330439005296031E-002   5.6353677251731529E-002   0.0000000000000000     
  -1.9285327868483644E-002   3.6476513964049342E-002   0.0000000000000000     
  -2.0803019002609148E-002   4.1230191804418032E-002   0.0000000000000000     
  -2.2279453279599900E-002   4.6190227129539831E-002   0.0000000000000000     
  -2.3714630699455896E-002   5.1356619939414754E-002   0.0000000000000000     
  -2.5108551262177144E-002   5.6729370234042800E-002   0.0000000000000000     
  -2.2318284636066988E-002   3.6948170922986502E-002   0.0000000000000000     
  -2.4052261840752893E-002   4.1692175039145761E-002   0.0000000000000000     
  -2.5738930831208984E-002   4.6642651228882157E-002   0.0000000000000000     
  -2.7378291607435250E-002   5.1799599492195696E-002   0.0000000000000000     
  -2.8970344169431710E-002   5.7163019829086385E-002   0.0000000000000000     
  -1.4025256442654175E-002   5.5776161125305979E-002   0.0000000000000000     
  -1.4798209319560218E-002   6.1367804336851267E-002   0.0000000000000000     
  -1.5546404214022012E-002   6.7144715438069436E-002   0.0000000000000000     
  -1.6269841126039554E-002   7.3106894428960484E-002   0.0000000000000000     
  -1.6968520055612845E-002   7.9254341309524398E-002   0.0000000000000000     
  -1.7636007398788376E-002   5.6035940882152593E-002   0.0000000000000000     
  -1.8602377464743868E-002   6.1620579116291360E-002   0.0000000000000000     
  -1.9537969981055985E-002   6.7390282851668828E-002   0.0000000000000000     
  -2.0442784947724720E-002   7.3345052088285012E-002   0.0000000000000000     
  -2.1316822364750073E-002   7.9484886826139897E-002   0.0000000000000000     
  -2.1330439005296031E-002   5.6353677251731529E-002   0.0000000000000000     
  -2.2489707541713765E-002   6.1930275270691448E-002   0.0000000000000000     
  -2.3612021958728798E-002   6.7691245180335230E-002   0.0000000000000000     
  -2.4697382256341133E-002   7.3636586980662846E-002   0.0000000000000000     
  -2.5745788434550766E-002   7.9766300671674326E-002   0.0000000000000000     
  -2.5108551262177144E-002   5.6729370234042800E-002   0.0000000000000000     
  -2.6460199550469906E-002   6.2296892800051559E-002   0.0000000000000000     
  -2.7768560147040461E-002   6.8047602424068640E-002   0.0000000000000000     
  -2.9033633051888802E-002   7.3981499106094042E-002   0.0000000000000000     
  -3.0255418265014926E-002   8.0098582846127739E-002   0.0000000000000000     
  -2.8970344169431710E-002   5.7163019829086385E-002   0.0000000000000000     
  -3.0513853491012297E-002   6.2720431704371679E-002   0.0000000000000000     
  -3.2007584545990966E-002   6.8459354582869059E-002   0.0000000000000000     
  -3.3451537334367717E-002   7.4379788464578531E-002   0.0000000000000000     
  -3.4845711856142547E-002   8.0481733349500081E-002   0.0000000000000000     
  -1.6968520055612845E-002   7.9254341309524398E-002   0.0000000000000000     
  -1.7642242355389925E-002   8.5573841199080417E-002   0.0000000000000000     
  -1.8290809378018837E-002   9.2052179216947708E-002   0.0000000000000000     
  -1.8914221123499584E-002   9.8689355363126285E-002   0.0000000000000000     
  -1.9512477591832163E-002  0.10548536963761616        0.0000000000000000     
  -2.1316822364750073E-002   7.9484886826139897E-002   0.0000000000000000     
  -2.2159727675226844E-002   8.5796361379962743E-002   0.0000000000000000     
  -2.2971146322249815E-002   9.2266050064482796E-002   0.0000000000000000     
  -2.3751078305818997E-002   9.8893952879700098E-002   0.0000000000000000     
  -2.4499523625934383E-002  0.10568006982561459        0.0000000000000000     
  -2.5745788434550766E-002   7.9766300671674326E-002   0.0000000000000000     
  -2.6756921448641217E-002   8.6067241502970820E-002   0.0000000000000000     
  -2.7730462253895981E-002   9.2526264724153498E-002   0.0000000000000000     
  -2.8666410850315075E-002   9.9143370335222303E-002   0.0000000000000000     
  -2.9564767237898491E-002  0.10591855833617729        0.0000000000000000     
  -3.0255418265014926E-002   8.0098582846127739E-002   0.0000000000000000     
  -3.1433823675633049E-002   8.6386481568104675E-002   0.0000000000000000     
  -3.2568757172957326E-002   9.2832823195959716E-002   0.0000000000000000     
  -3.3660218756987811E-002   9.9437607729692928E-002   0.0000000000000000     
  -3.4708208427724464E-002  0.10620083516930427        0.0000000000000000     
  -3.4845711856142547E-002   8.0481733349500081E-002   0.0000000000000000     
  -3.6190434356202325E-002   8.6754081575364253E-002   0.0000000000000000     
  -3.7486031079433872E-002   9.3185725479901546E-002   0.0000000000000000     
  -3.8732502025837209E-002   9.9776665063111974E-002   0.0000000000000000     
  -3.9929847195412323E-002  0.10652690032499554        0.0000000000000000     
  -1.9512477591832163E-002  0.10548536963761616        0.0000000000000000     
  -2.0084792027790128E-002  0.11242903452686057        0.0000000000000000     
  -2.0630377676147039E-002  0.11950916251730274        0.0000000000000000     
  -2.1149234536902886E-002  0.12672575360894273        0.0000000000000000     
  -2.1641362610057679E-002  0.13407880780178050        0.0000000000000000     
  -2.4499523625934383E-002  0.10568006982561459        0.0000000000000000     
  -2.5215856777714832E-002  0.11261362040007675        0.0000000000000000     
  -2.5899452256279192E-002  0.11968382410093699        0.0000000000000000     
  -2.6550310061627454E-002  0.12689068092819533        0.0000000000000000     
  -2.7168430193759630E-002  0.13423419088185179        0.0000000000000000     
  -2.9564767237898491E-002  0.10591855833617729        0.0000000000000000     
  -3.0424767892674443E-002  0.11284085785932335        0.0000000000000000     
  -3.1245649290671161E-002  0.11989929803696539        0.0000000000000000     
  -3.2027411431888649E-002  0.12709387886910339        0.0000000000000000     
  -3.2770054316326888E-002  0.13442460035573742        0.0000000000000000     
  -3.4708208427724464E-002  0.10620083516930427        0.0000000000000000     
  -3.5711525372668966E-002  0.11311074690460041        0.0000000000000000     
  -3.6668968779322964E-002  0.12015558432538796        0.0000000000000000     
  -3.7580538647686464E-002  0.12733534743166697        0.0000000000000000     
  -3.8446234977759453E-002  0.13465003622343744        0.0000000000000000     
  -3.9929847195412323E-002  0.10652690032499554        0.0000000000000000     
  -4.1076129217698397E-002  0.11342328753590789        0.0000000000000000     
  -4.2169410722234582E-002  0.12045268296620473        0.0000000000000000     
  -4.3209691709020892E-002  0.12761508661588600        0.0000000000000000     
  -4.4196972178057327E-002  0.13491049848495176        0.0000000000000000     
  -2.1641362610057679E-002  0.13407880780178050        0.0000000000000000     
  -2.2107654016996089E-002  0.14155515013379039        0.0000000000000000     
  -2.2549000879102804E-002  0.14914160564294682        0.0000000000000000     
  -2.2965403196377816E-002  0.15683817432924976        0.0000000000000000     
  -2.3356860968821128E-002  0.16464485619269922        0.0000000000000000     
  -2.7168430193759630E-002  0.13423419088185179        0.0000000000000000     
  -2.7755880475129210E-002  0.14170053538832797        0.0000000000000000     
  -2.8314728728189676E-002  0.14927589587404549        0.0000000000000000     
  -2.8844974952941044E-002  0.15696027233900436        0.0000000000000000     
  -2.9346619149383302E-002  0.16475366478320463        0.0000000000000000     
  -3.2770054316326888E-002  0.13442460035573742        0.0000000000000000     
  -3.3475686260956206E-002  0.14187801261505326        0.0000000000000000     
  -3.4146415582746892E-002  0.14944066576523674        0.0000000000000000     
  -3.4782242281698954E-002  0.15711255980628788        0.0000000000000000     
  -3.5383166357812398E-002  0.16489369473820667        0.0000000000000000     
  -3.8446234977759453E-002  0.13465003622343744        0.0000000000000000     
  -3.9267071374477075E-002  0.14208758181396627        0.0000000000000000     
  -4.0044061442774434E-002  0.14963591531652057        0.0000000000000000     
  -4.0777205182651544E-002  0.15729503673110029        0.0000000000000000     
  -4.1466502594108404E-002  0.16506494605770539        0.0000000000000000     
  -4.4196972178057327E-002  0.13491049848495176        0.0000000000000000     
  -4.5130035815691819E-002  0.14232924298506705        0.0000000000000000     
  -4.6007666308272320E-002  0.14986164452789702        0.0000000000000000     
  -4.6829863655798824E-002  0.15750770311344156        0.0000000000000000     
  -4.7596627858271338E-002  0.16526741874170070        0.0000000000000000     
   0.0000000000000000        0.0000000000000000        0.0000000000000000     
  -1.7984134370202386E-003   1.2768850291854602E-003   0.0000000000000000     
  -3.6215062771863802E-003   2.9392452975017806E-003   0.0000000000000000     
  -5.4692785204984240E-003   4.9870808049489613E-003   0.0000000000000000     
  -7.3417301669563718E-003   7.4203915515270022E-003   0.0000000000000000     
   0.0000000000000000        0.0000000000000000        0.0000000000000000     
  -2.0695187439743598E-003   1.3550333234330779E-003   0.0000000000000000     
  -4.1641951730431413E-003   3.0941538584259086E-003   0.0000000000000000     
  -6.2840292872063420E-003   5.2173616049784911E-003   0.0000000000000000     
  -8.4290210864639628E-003   7.7246565630908273E-003   0.0000000000000000     
   0.0000000000000000        0.0000000000000000        0.0000000000000000     
  -2.3401495235783644E-003   1.4591169026734307E-003   0.0000000000000000     
  -4.7202605189542376E-003   3.3000969056976924E-003   0.0000000000000000     
  -7.1403329861276180E-003   5.5229400090727855E-003   0.0000000000000000     
  -9.6003669250985073E-003   8.1276462127987080E-003   0.0000000000000000     
   0.0000000000000000        0.0000000000000000        0.0000000000000000     
  -2.6103057758322524E-003   1.5891357669065185E-003   0.0000000000000000     
  -5.2897023149196705E-003   3.5570744393171329E-003   0.0000000000000000     
  -8.0381896172622546E-003   5.9038160172318419E-003   0.0000000000000000     
  -1.0855767682860002E-002   8.6293605006506485E-003   0.0000000000000000     
   0.0000000000000000        0.0000000000000000        0.0000000000000000     
  -2.8799875007360235E-003   1.7450899161323414E-003   0.0000000000000000     
  -5.8725205609394390E-003   3.8650864592842289E-003   0.0000000000000000     
  -8.9775991806102483E-003   6.3599896294556629E-003   0.0000000000000000     
  -1.2195223359748446E-002   9.2297994266466420E-003   0.0000000000000000     
  -7.3417301669563718E-003   7.4203915515270022E-003   0.0000000000000000     
  -9.2312885074036320E-003   1.0186750949416012E-002   0.0000000000000000     
  -1.1130380832683619E-002   1.3233732410796105E-002   0.0000000000000000     
  -1.3039007142796330E-002   1.6561335935667280E-002   0.0000000000000000     
  -1.4957167437741767E-002   2.0169561524029531E-002   0.0000000000000000     
  -8.4290210864639628E-003   7.7246565630908273E-003   0.0000000000000000     
  -1.0590954035715363E-002   1.0558627701159911E-002   0.0000000000000000     
  -1.2761611599859890E-002   1.3661863987582743E-002   0.0000000000000000     
  -1.4940993778897550E-002   1.7034365422359320E-002   0.0000000000000000     
  -1.7129100572828345E-002   2.0676132005489643E-002   0.0000000000000000     
  -9.6003669250985073E-003   8.1276462127987080E-003   0.0000000000000000     
  -1.2076896944721392E-002   1.1046887977789722E-002   0.0000000000000000     
  -1.4546457653850762E-002   1.4213337764960093E-002   0.0000000000000000     
  -1.7009049052486618E-002   1.7626995574309811E-002   0.0000000000000000     
  -1.9464671140628956E-002   2.1287861405838885E-002   0.0000000000000000     
  -1.0855767682860002E-002   8.6293605006506485E-003   0.0000000000000000     
  -1.3689117234421726E-002   1.1651531779305446E-002   0.0000000000000000     
  -1.6484918994656234E-002   1.4888153742928149E-002   0.0000000000000000     
  -1.9243172963563530E-002   1.8339226391518752E-002   0.0000000000000000     
  -2.1963879141143613E-002   2.2004749725077245E-002   0.0000000000000000     
  -1.2195223359748446E-002   9.2297994266466420E-003   0.0000000000000000     
  -1.5427614904816360E-002   1.2372559105707085E-002   0.0000000000000000     
  -1.8576995622276309E-002   1.5686311921486919E-002   0.0000000000000000     
  -2.1643365512128292E-002   1.9171057873986135E-002   0.0000000000000000     
  -2.4626724574372306E-002   2.2826796963204738E-002   0.0000000000000000     
  -1.4957167437741767E-002   2.0169561524029531E-002   0.0000000000000000     
  -1.6859432728158444E-002   2.4029627076545188E-002   0.0000000000000000     
  -1.8720374024684870E-002   2.8112750493876570E-002   0.0000000000000000     
  -2.0539991327321056E-002   3.2418931776023674E-002   0.0000000000000000     
  -2.2318284636066988E-002   3.6948170922986502E-002   0.0000000000000000     
  -1.7129100572828345E-002   2.0676132005489643E-002   0.0000000000000000     
  -1.9294651791863605E-002   2.4559181858083468E-002   0.0000000000000000     
  -2.1406367246214673E-002   2.8655533101250543E-002   0.0000000000000000     
  -2.3464246935881557E-002   3.2965185734990882E-002   0.0000000000000000     
  -2.5468290860864246E-002   3.7488139759304470E-002   0.0000000000000000     
  -1.9464671140628956E-002   2.1287861405838885E-002   0.0000000000000000     
  -2.1885068343867893E-002   2.5176758416511996E-002   0.0000000000000000     
  -2.4241985087793540E-002   2.9274509763293845E-002   0.0000000000000000     
  -2.6535421372405891E-002   3.3581115446184431E-002   0.0000000000000000     
  -2.8765377197704951E-002   3.8096575465183760E-002   0.0000000000000000     
  -2.1963879141143613E-002   2.2004749725077245E-002   0.0000000000000000     
  -2.4630682384171310E-002   2.5882356751830780E-002   0.0000000000000000     
  -2.7227227549421459E-002   2.9969680480006471E-002   0.0000000000000000     
  -2.9753514636894060E-002   3.4266720909604337E-002   0.0000000000000000     
  -3.2209543646589109E-002   3.8773478040624365E-002   0.0000000000000000     
  -2.4626724574372306E-002   2.2826796963204738E-002   0.0000000000000000     
  -2.7531493912773857E-002   2.6675976864039816E-002   0.0000000000000000     
  -3.0362094631098447E-002   3.0741045251388426E-002   0.0000000000000000     
  -3.3118526729346072E-002   3.5022002125250591E-002   0.0000000000000000     
  -3.5800790207516725E-002   3.9518847485626299E-002   0.0000000000000000     
  -2.2318284636066988E-002   3.6948170922986502E-002   0.0000000000000000     
  -2.4052261840752893E-002   4.1692175039145761E-002   0.0000000000000000     
  -2.5738930831208984E-002   4.6642651228882157E-002   0.0000000000000000     
  -2.7378291607435250E-002   5.1799599492195696E-002   0.0000000000000000     
  -2.8970344169431710E-002   5.7163019829086385E-002   0.0000000000000000     
  -2.5468290860864246E-002   3.7488139759304470E-002   0.0000000000000000     
  -2.7418741050981008E-002   4.2220868762230045E-002   0.0000000000000000     
  -2.9315839536050121E-002   4.7159846331806338E-002   0.0000000000000000     
  -3.1159586316071582E-002   5.2305072468033321E-002   0.0000000000000000     
  -3.2949981391045380E-002   5.7656547170911024E-002   0.0000000000000000     
  -2.8765377197704951E-002   3.8096575465183760E-002   0.0000000000000000     
  -3.0933804481517942E-002   4.2818696975997883E-002   0.0000000000000000     
  -3.3042655141672088E-002   4.7745287134332882E-002   0.0000000000000000     
  -3.5091929178167371E-002   5.2876345940188751E-002   0.0000000000000000     
  -3.7081626591003822E-002   5.8211873393565483E-002   0.0000000000000000     
  -3.2209543646589109E-002   3.8773478040624365E-002   0.0000000000000000     
  -3.4597452132363690E-002   4.3485659680449283E-002   0.0000000000000000     
  -3.6919377648074868E-002   4.8398973636461819E-002   0.0000000000000000     
  -3.9175320193722635E-002   5.3513419908661979E-002   0.0000000000000000     
  -4.1365279769307019E-002   5.8828998497049735E-002   0.0000000000000000     
  -3.5800790207516725E-002   3.9518847485626299E-002   0.0000000000000000     
  -3.8409684003518255E-002   4.4221756875584245E-002   0.0000000000000000     
  -4.0946007055258471E-002   4.9120905838193146E-002   0.0000000000000000     
  -4.3409759362737381E-002   5.4216294373452989E-002   0.0000000000000000     
  -4.5800940925954992E-002   5.9507922481363787E-002   0.0000000000000000     
  -2.8970344169431710E-002   5.7163019829086385E-002   0.0000000000000000     
  -3.0513853491012297E-002   6.2720431704371679E-002   0.0000000000000000     
  -3.2007584545990966E-002   6.8459354582869059E-002   0.0000000000000000     
  -3.3451537334367717E-002   7.4379788464578531E-002   0.0000000000000000     
  -3.4845711856142547E-002   8.0481733349500081E-002   0.0000000000000000     
  -3.2949981391045380E-002   5.7656547170911024E-002   0.0000000000000000     
  -3.4685546153601768E-002   6.3201257633783717E-002   0.0000000000000000     
  -3.6364801996370946E-002   6.8926191049995603E-002   0.0000000000000000     
  -3.7987748919352943E-002   7.4831347419546723E-002   0.0000000000000000     
  -3.9554386922547743E-002   8.0916726742437051E-002   0.0000000000000000     
  -3.7081626591003822E-002   5.8211873393565483E-002   0.0000000000000000     
  -3.9010154328499136E-002   6.3739736238419539E-002   0.0000000000000000     
  -4.0875919338971028E-002   6.9447801218707347E-002   0.0000000000000000     
  -4.2678921622419520E-002   7.5336068334428977E-002   0.0000000000000000     
  -4.4419161178844577E-002   8.1404537585584344E-002   0.0000000000000000     
  -4.1365279769307019E-002   5.8828998497049735E-002   0.0000000000000000     
  -4.3487678015704412E-002   6.4335867518279161E-002   0.0000000000000000     
  -4.5540936573791220E-002   7.0024185089004362E-002   0.0000000000000000     
  -4.7525055443567436E-002   7.5893951209225249E-002   0.0000000000000000     
  -4.9440034625033082E-002   8.1945165878941933E-002   0.0000000000000000     
  -4.5800940925954992E-002   5.9507922481363787E-002   0.0000000000000000     
  -4.8118117215217596E-002   6.4989651473362622E-002   0.0000000000000000     
  -5.0359853700831507E-002   7.0655342660886564E-002   0.0000000000000000     
  -5.2526150382796712E-002   7.6504996043935639E-002   0.0000000000000000     
  -5.4617007261113237E-002   8.2538611622509833E-002   0.0000000000000000     
  -3.4845711856142547E-002   8.0481733349500081E-002   0.0000000000000000     
  -3.6190434356202325E-002   8.6754081575364253E-002   0.0000000000000000     
  -3.7486031079433872E-002   9.3185725479901546E-002   0.0000000000000000     
  -3.8732502025837209E-002   9.9776665063111974E-002   0.0000000000000000     
  -3.9929847195412323E-002  0.10652690032499554        0.0000000000000000     
  -3.9554386922547743E-002   8.0916726742437051E-002   0.0000000000000000     
  -4.1065532746644311E-002   8.7172143364569743E-002   0.0000000000000000     
  -4.2522003132331641E-002   9.3587411631847889E-002   0.0000000000000000     
  -4.3923798079609715E-002  0.10016253154427147        0.0000000000000000     
  -4.5270917588478544E-002  0.10689750310184050        0.0000000000000000     
  -4.4419161178844577E-002   8.1404537585584344E-002   0.0000000000000000     
  -4.6097898103254292E-002   8.7642768775541308E-002   0.0000000000000000     
  -4.7716392490656692E-002   9.4040321707667671E-002   0.0000000000000000     
  -4.9274644341051797E-002  0.10059719638196346        0.0000000000000000     
  -5.0772653654439601E-002  0.10731339279842861        0.0000000000000000     
  -4.9440034625033082E-002   8.1945165878941933E-002   0.0000000000000000     
  -5.1287530426032242E-002   8.8165957808278961E-002   0.0000000000000000     
  -5.3069199154409039E-002   9.4544455707360947E-002   0.0000000000000000     
  -5.4785040810163457E-002  0.10108065957618791        0.0000000000000000     
  -5.6435055393295512E-002  0.10777456941475985        0.0000000000000000     
  -5.4617007261113237E-002   8.2538611622509833E-002   0.0000000000000000     
  -5.6634429714978188E-002   8.8741710462782675E-002   0.0000000000000000     
  -5.8580423123588667E-002   9.5099813630927704E-002   0.0000000000000000     
  -6.0454987486944695E-002  0.10161292112694488        0.0000000000000000     
  -6.2258122805046251E-002  0.10828103295083422        0.0000000000000000     
  -3.9929847195412323E-002  0.10652690032499554        0.0000000000000000     
  -4.1076129217698397E-002  0.11342328753590789        0.0000000000000000     
  -4.2169410722234582E-002  0.12045268296620473        0.0000000000000000     
  -4.3209691709020892E-002  0.12761508661588600        0.0000000000000000     
  -4.4196972178057327E-002  0.13491049848495176        0.0000000000000000     
  -4.5270917588478544E-002  0.10689750310184050        0.0000000000000000     
  -4.6560836216227315E-002  0.11377816505607859        0.0000000000000000     
  -4.7791028520145239E-002  0.12079035615850935        0.0000000000000000     
  -4.8961494500232301E-002  0.12793407640913274        0.0000000000000000     
  -5.0072234156488524E-002  0.13520932580794875        0.0000000000000000     
  -5.0772653654439601E-002  0.10731339279842861        0.0000000000000000     
  -5.2207903156720310E-002  0.11417506476794528        0.0000000000000000     
  -5.3577875573794127E-002  0.12116836610139552        0.0000000000000000     
  -5.4882570905661045E-002  0.12829329679877932        0.0000000000000000     
  -5.6121989152321076E-002  0.13554985686009668        0.0000000000000000     
  -5.6435055393295512E-002  0.10777456941475985        0.0000000000000000     
  -5.8017330039177362E-002  0.11461398667150791        0.0000000000000000     
  -5.9529951883181241E-002  0.12158671279486320        0.0000000000000000     
  -6.0972920925307109E-002  0.12869274778482576        0.0000000000000000     
  -6.2346237165554978E-002  0.13593209164139555        0.0000000000000000     
  -6.2258122805046251E-002  0.10828103295083422        0.0000000000000000     
  -6.3989116863598497E-002  0.11509493076676651        0.0000000000000000     
  -6.5647257448306601E-002  0.12204539623891246        0.0000000000000000     
  -6.7232544559170493E-002  0.12913242936727207        0.0000000000000000     
  -6.8744978196190243E-002  0.13635603015184536        0.0000000000000000     
  -4.4196972178057327E-002  0.13491049848495176        0.0000000000000000     
  -4.5130035815691819E-002  0.14232924298506705        0.0000000000000000     
  -4.6007666308272320E-002  0.14986164452789702        0.0000000000000000     
  -4.6829863655798824E-002  0.15750770311344156        0.0000000000000000     
  -4.7596627858271338E-002  0.16526741874170070        0.0000000000000000     
  -5.0072234156488524E-002  0.13520932580794875        0.0000000000000000     
  -5.1120743698177415E-002  0.14260815294194659        0.0000000000000000     
  -5.2104519334562484E-002  0.15012260639811539        0.0000000000000000     
  -5.3023561065643744E-002  0.15775268617645513        0.0000000000000000     
  -5.3877868891421175E-002  0.16549839227696586        0.0000000000000000     
  -5.6121989152321076E-002  0.13554985686009668        0.0000000000000000     
  -5.7295359135510815E-002  0.14292946849819591        0.0000000000000000     
  -5.8401909676966880E-002  0.15042355392592516        0.0000000000000000     
  -5.9441640776689238E-002  0.15803211314328452        0.0000000000000000     
  -6.0414552434677915E-002  0.16575514615027398        0.0000000000000000     
  -6.2346237165554978E-002  0.13593209164139555        0.0000000000000000     
  -6.3653882127692074E-002  0.14329318965381493        0.0000000000000000     
  -6.4899837335485502E-002  0.15076448711132637        0.0000000000000000     
  -6.6084102788935339E-002  0.15834598401392971        0.0000000000000000     
  -6.7206678488041544E-002  0.16603768036162503        0.0000000000000000     
  -6.8744978196190243E-002  0.13635603015184536        0.0000000000000000     
  -7.0196312674721109E-002  0.14369931640880382        0.0000000000000000     
  -7.1598302310118378E-002  0.15114540595431894        0.0000000000000000     
  -7.2950947102382022E-002  0.15869429878839067        0.0000000000000000     
  -7.4254247051512068E-002  0.16634599491101912        0.0000000000000000     
   0.0000000000000000        0.0000000000000000        0.0000000000000000     
  -2.8799875007360235E-003   1.7450899161323414E-003   0.0000000000000000     
  -5.8725205609394390E-003   3.8650864592842289E-003   0.0000000000000000     
  -8.9775991806102483E-003   6.3599896294556629E-003   0.0000000000000000     
  -1.2195223359748446E-002   9.2297994266466420E-003   0.0000000000000000     
   0.0000000000000000        0.0000000000000000        0.0000000000000000     
  -3.2830797014542657E-003   1.9996163015540474E-003   0.0000000000000000     
  -6.6767557464224060E-003   4.3314192800210085E-003   0.0000000000000000     
  -1.0181028134904424E-002   6.9954089354008833E-003   0.0000000000000000     
  -1.3795896866900316E-002   9.9915852676936701E-003   0.0000000000000000     
   0.0000000000000000        0.0000000000000000        0.0000000000000000     
  -3.9534673811515656E-003   2.4253518743747836E-003   0.0000000000000000     
  -7.9104483607774327E-003   5.0633592159494978E-003   0.0000000000000000     
  -1.1870942938877605E-002   7.9140220247241426E-003   0.0000000000000000     
  -1.5834951115452078E-002   1.0977340300698715E-002   0.0000000000000000     
   0.0000000000000000        0.0000000000000000        0.0000000000000000     
  -4.8911505398279223E-003   3.0222966345945499E-003   0.0000000000000000     
  -9.5735984040045199E-003   6.0609062670696958E-003   0.0000000000000000     
  -1.4047343592529791E-002   9.1158288974254372E-003   0.0000000000000000     
  -1.8312386105403738E-002   1.2187064525661770E-002   0.0000000000000000     
   0.0000000000000000        0.0000000000000000        0.0000000000000000     
  -6.0961291774833384E-003   3.7904505822133469E-003   0.0000000000000000     
  -1.1666205876103668E-002   7.3240604333816035E-003   0.0000000000000000     
  -1.6710230095860985E-002   1.0600829553504769E-002   0.0000000000000000     
  -2.1228201836755292E-002   1.3620757942582846E-002   0.0000000000000000     
  -1.2195223359748446E-002   9.2297994266466420E-003   0.0000000000000000     
  -1.5427614904816360E-002   1.2372559105707085E-002   0.0000000000000000     
  -1.8576995622276309E-002   1.5686311921486919E-002   0.0000000000000000     
  -2.1643365512128292E-002   1.9171057873986135E-002   0.0000000000000000     
  -2.4626724574372306E-002   2.2826796963204738E-002   0.0000000000000000     
  -1.3795896866900316E-002   9.9915852676936701E-003   0.0000000000000000     
  -1.7404185965168122E-002   1.3222078973795418E-002   0.0000000000000000     
  -2.0888719452465874E-002   1.6589020750602167E-002   0.0000000000000000     
  -2.4249497328793577E-002   2.0092410598113918E-002   0.0000000000000000     
  -2.7486519594151219E-002   2.3732248516330670E-002   0.0000000000000000     
  -1.5834951115452078E-002   1.0977340300698715E-002   0.0000000000000000     
  -1.9730626424739828E-002   1.4212200400371222E-002   0.0000000000000000     
  -2.3486122400979820E-002   1.7577488680239662E-002   0.0000000000000000     
  -2.7101439044172053E-002   2.1073205140304040E-002   0.0000000000000000     
  -3.0576576354316529E-002   2.4699349780564345E-002   0.0000000000000000     
  -1.8312386105403738E-002   1.2187064525661770E-002   0.0000000000000000     
  -2.2406936283531485E-002   1.5342923385434498E-002   0.0000000000000000     
  -2.6369204467818146E-002   1.8651715710399405E-002   0.0000000000000000     
  -3.0199190658263729E-002   2.2113441500556500E-002   0.0000000000000000     
  -3.3896894854868236E-002   2.5728100755905772E-002   0.0000000000000000     
  -2.1228201836755292E-002   1.3620757942582846E-002   0.0000000000000000     
  -2.5433115541543080E-002   1.6614247928985248E-002   0.0000000000000000     
  -2.9537965652980853E-002   1.9811701841081397E-002   0.0000000000000000     
  -3.3542752171068606E-002   2.3213119678871297E-002   0.0000000000000000     
  -3.7447475095806336E-002   2.6818501442354939E-002   0.0000000000000000     
  -2.4626724574372306E-002   2.2826796963204738E-002   0.0000000000000000     
  -2.7531493912773857E-002   2.6675976864039816E-002   0.0000000000000000     
  -3.0362094631098447E-002   3.0741045251388426E-002   0.0000000000000000     
  -3.3118526729346072E-002   3.5022002125250591E-002   0.0000000000000000     
  -3.5800790207516725E-002   3.9518847485626299E-002   0.0000000000000000     
  -2.7486519594151219E-002   2.3732248516330670E-002   0.0000000000000000     
  -3.0623063801230442E-002   2.7550949829927045E-002   0.0000000000000000     
  -3.3682407502722854E-002   3.1590929863577658E-002   0.0000000000000000     
  -3.6664550698628472E-002   3.5852188617282503E-002   0.0000000000000000     
  -3.9569493388947281E-002   4.0334726091041578E-002   0.0000000000000000     
  -3.0576576354316529E-002   2.4699349780564345E-002   0.0000000000000000     
  -3.3940952921095960E-002   2.8500606726280422E-002   0.0000000000000000     
  -3.7223987334193062E-002   3.2521660102712104E-002   0.0000000000000000     
  -4.0425679593607829E-002   3.6762509909859388E-002   0.0000000000000000     
  -4.3546029699340273E-002   4.1223156147722262E-002   0.0000000000000000     
  -3.3896894854868236E-002   2.5728100755905772E-002   0.0000000000000000     
  -3.7485161272370421E-002   2.9524947553099954E-002   0.0000000000000000     
  -4.0986834125509061E-002   3.3533235968791777E-002   0.0000000000000000     
  -4.4401913414284150E-002   3.7752966002981239E-002   0.0000000000000000     
  -4.7730399138695680E-002   4.2184137655668336E-002   0.0000000000000000     
  -3.7447475095806336E-002   2.6818501442354939E-002   0.0000000000000000     
  -4.1255688855053825E-002   3.0623972310385630E-002   0.0000000000000000     
  -4.4970947876670851E-002   3.4625657461816672E-002   0.0000000000000000     
  -4.8593252160657421E-002   3.8823556896648070E-002   0.0000000000000000     
  -5.2122601707013536E-002   4.3217670614879813E-002   0.0000000000000000     
  -3.5800790207516725E-002   3.9518847485626299E-002   0.0000000000000000     
  -3.8409684003518255E-002   4.4221756875584245E-002   0.0000000000000000     
  -4.0946007055258471E-002   4.9120905838193146E-002   0.0000000000000000     
  -4.3409759362737381E-002   5.4216294373452989E-002   0.0000000000000000     
  -4.5800940925954992E-002   5.9507922481363787E-002   0.0000000000000000     
  -3.9569493388947281E-002   4.0334726091041578E-002   0.0000000000000000     
  -4.2396102279861750E-002   4.5023922076172604E-002   0.0000000000000000     
  -4.5143244077554302E-002   4.9905156363993258E-002   0.0000000000000000     
  -4.7810918782024980E-002   5.4978428954503562E-002   0.0000000000000000     
  -5.0399126393273742E-002   6.0243739847703502E-002   0.0000000000000000     
  -4.3546029699340273E-002   4.1223156147722262E-002   0.0000000000000000     
  -4.6582309146274287E-002   4.5889088796984182E-002   0.0000000000000000     
  -4.9531789429293809E-002   5.0745797838328568E-002   0.0000000000000000     
  -5.2394470548398811E-002   5.5793283271755430E-002   0.0000000000000000     
  -5.5170352503589308E-002   6.1031545097264758E-002   0.0000000000000000     
  -4.7730399138695680E-002   4.2184137655668336E-002   0.0000000000000000     
  -5.0968304602755879E-002   4.6817257038018999E-002   0.0000000000000000     
  -5.4111643110476955E-002   5.1642830261199063E-002   0.0000000000000000     
  -5.7160414661858880E-002   5.6660857325208591E-002   0.0000000000000000     
  -6.0114619256901695E-002   6.1871338230047548E-002   0.0000000000000000     
  -5.2122601707013536E-002   4.3217670614879813E-002   0.0000000000000000     
  -5.5554088649306527E-002   4.7808426799277014E-002   0.0000000000000000     
  -5.8882805121103748E-002   5.2596253632604749E-002   0.0000000000000000     
  -6.2108751122405208E-002   5.7581151114863047E-002   0.0000000000000000     
  -6.5231926653210898E-002   6.2763119246051879E-002   0.0000000000000000     
  -4.5800940925954992E-002   5.9507922481363787E-002   0.0000000000000000     
  -4.8118117215217596E-002   6.4989651473362622E-002   0.0000000000000000     
  -5.0359853700831507E-002   7.0655342660886564E-002   0.0000000000000000     
  -5.2526150382796712E-002   7.6504996043935639E-002   0.0000000000000000     
  -5.4617007261113237E-002   8.2538611622509833E-002   0.0000000000000000     
  -5.0399126393273742E-002   6.0243739847703502E-002   0.0000000000000000     
  -5.2907159711359918E-002   6.5698418046652385E-002   0.0000000000000000     
  -5.5334311536342821E-002   7.1339792554409490E-002   0.0000000000000000     
  -5.7680581868222426E-002   7.7167863370974824E-002   0.0000000000000000     
  -5.9945970706998752E-002   8.3182630496348386E-002   0.0000000000000000     
  -5.5170352503589308E-002   6.1031545097264758E-002   0.0000000000000000     
  -5.7860493288452615E-002   6.6459497181131019E-002   0.0000000000000000     
  -6.0465950896576068E-002   7.2076053389628636E-002   0.0000000000000000     
  -6.2986725327959639E-002   7.7881213722757636E-002   0.0000000000000000     
  -6.5422816582603349E-002   8.3874978180517992E-002   0.0000000000000000     
  -6.0114619256901695E-002   6.1871338230047548E-002   0.0000000000000000     
  -6.2978117946495701E-002   6.7272888876798512E-002   0.0000000000000000     
  -6.5754771781531260E-002   7.2864125166544016E-002   0.0000000000000000     
  -6.8444580762008378E-002   7.8645047099284063E-002   0.0000000000000000     
  -7.1047544887927000E-002   8.4615654675018651E-002   0.0000000000000000     
  -6.5231926653210898E-002   6.2763119246051879E-002   0.0000000000000000     
  -6.8260033685489163E-002   6.8138593133654862E-002   0.0000000000000000     
  -7.1200774191208405E-002   7.3704007885155604E-002   0.0000000000000000     
  -7.4054148170368594E-002   7.9459363500554089E-002   0.0000000000000000     
  -7.6820155622969732E-002   8.5404659979850334E-002   0.0000000000000000     
  -5.4617007261113237E-002   8.2538611622509833E-002   0.0000000000000000     
  -5.6634429714978188E-002   8.8741710462782675E-002   0.0000000000000000     
  -5.8580423123588667E-002   9.5099813630927704E-002   0.0000000000000000     
  -6.0454987486944695E-002  0.10161292112694488        0.0000000000000000     
  -6.2258122805046251E-002  0.10828103295083422        0.0000000000000000     
  -5.9945970706998752E-002   8.3182630496348386E-002   0.0000000000000000     
  -6.2132203966322866E-002   8.9366754702170190E-002   0.0000000000000000     
  -6.4241007559845825E-002   9.5702896760080217E-002   0.0000000000000000     
  -6.6272381487567616E-002  0.10219105667007845        0.0000000000000000     
  -6.8226325749488254E-002  0.10883123443216490        0.0000000000000000     
  -6.5422816582603349E-002   8.3874978180517992E-002   0.0000000000000000     
  -6.7774461176297082E-002   9.0037818489559246E-002   0.0000000000000000     
  -7.0041895624830763E-002   9.6350206376530800E-002   0.0000000000000000     
  -7.2225119928204365E-002  0.10281214184143272        0.0000000000000000     
  -7.4324134086417915E-002  0.10942362488426499        0.0000000000000000     
  -7.1047544887927000E-002   8.4615654675018651E-002   0.0000000000000000     
  -7.3561201344900837E-002   9.0754901824949788E-002   0.0000000000000000     
  -7.5983087318543488E-002   9.7041742480279497E-002   0.0000000000000000     
  -7.8313202808854968E-002  0.10347617664100772        0.0000000000000000     
  -8.0551547815835248E-002  0.11005820430713452        0.0000000000000000     
  -7.6820155622969732E-002   8.5404659979850334E-002   0.0000000000000000     
  -7.9492424472134116E-002   9.1518004708341899E-002   0.0000000000000000     
  -8.2064582640983999E-002   9.7777505071326237E-002   0.0000000000000000     
  -8.4536630129519369E-002  0.10418316106880345        0.0000000000000000     
  -8.6908566937740267E-002  0.11073497270077345        0.0000000000000000     
  -6.2258122805046251E-002  0.10828103295083422        0.0000000000000000     
  -6.3989116863598497E-002  0.11509493076676651        0.0000000000000000     
  -6.5647257448306601E-002  0.12204539623891246        0.0000000000000000     
  -6.7232544559170493E-002  0.12913242936727207        0.0000000000000000     
  -6.8744978196190243E-002  0.13635603015184536        0.0000000000000000     
  -6.8226325749488254E-002  0.10883123443216490        0.0000000000000000     
  -7.0103121753153960E-002  0.11561757680946663        0.0000000000000000     
  -7.1903050906110946E-002  0.12254423056511073        0.0000000000000000     
  -7.3626113208359226E-002  0.12961119569909715        0.0000000000000000     
  -7.5272308659898798E-002  0.13681847221142601        0.0000000000000000     
  -7.4324134086417915E-002  0.10942362488426499        0.0000000000000000     
  -7.6339202831013975E-002  0.11618160455535384        0.0000000000000000     
  -7.8270590893535094E-002  0.12308302990502548        0.0000000000000000     
  -8.0118298273981300E-002  0.13012790093327997        0.0000000000000000     
  -8.1882324972352594E-002  0.13731621764011726        0.0000000000000000     
  -8.0551547815835248E-002  0.11005820430713452        0.0000000000000000     
  -8.2697360097178554E-002  0.11678701400442812        0.0000000000000000     
  -8.4749877410579058E-002  0.12366179425865674        0.0000000000000000     
  -8.6709099756036731E-002  0.13068254506982049        0.0000000000000000     
  -8.8575027133551601E-002  0.13784926643791923        0.0000000000000000     
  -8.6908566937740267E-002  0.11073497270077345        0.0000000000000000     
  -8.9177593551647727E-002  0.11743380515668944        0.0000000000000000     
  -9.1340910457242810E-002  0.12428052362600449        0.0000000000000000     
  -9.3398517654525517E-002  0.13127512810871861        0.0000000000000000     
  -9.5350415143495848E-002  0.13841761860483187        0.0000000000000000     
  -6.8744978196190243E-002  0.13635603015184536        0.0000000000000000     
  -7.0196312674721109E-002  0.14369931640880382        0.0000000000000000     
  -7.1598302310118378E-002  0.15114540595431894        0.0000000000000000     
  -7.2950947102382022E-002  0.15869429878839067        0.0000000000000000     
  -7.4254247051512068E-002  0.16634599491101912        0.0000000000000000     
  -7.5272308659898798E-002  0.13681847221142601        0.0000000000000000     
  -7.6857239155264392E-002  0.14414320095466018        0.0000000000000000     
  -7.8396506588990736E-002  0.15156252278136279        0.0000000000000000     
  -7.9890110961077815E-002  0.15907643769153382        0.0000000000000000     
  -8.1338052271525657E-002  0.16668494568517322        0.0000000000000000     
  -8.1882324972352594E-002  0.13731621764011726        0.0000000000000000     
  -8.3571249947988299E-002  0.14462019548288177        0.0000000000000000     
  -8.5193652160227853E-002  0.15201204991891773        0.0000000000000000     
  -8.6749531609071215E-002  0.15949178094822530        0.0000000000000000     
  -8.8238888294518369E-002  0.16705938857080435        0.0000000000000000     
  -8.8575027133551601E-002  0.13784926643791923        0.0000000000000000     
  -9.0338345052892871E-002  0.14513029999346855        0.0000000000000000     
  -9.1989739023829717E-002  0.15249398736698389        0.0000000000000000     
  -9.3529209046362208E-002  0.15994032855846521        0.0000000000000000     
  -9.4956755120490302E-002  0.16746932356791258        0.0000000000000000     
  -9.5350415143495848E-002  0.13841761860483187        0.0000000000000000     
  -9.7158524469978053E-002  0.14567351448642057        0.0000000000000000     
  -9.8784767179796382E-002  0.15300833512556114        0.0000000000000000     
 -0.10022914327295084       0.16042208052225357        0.0000000000000000     
 -0.10149165274944140       0.16791475067649786        0.0000000000000000     
 </DataArray>
 <DataArray  type="Float64" Name="stress" NumberOfComponents="3" format="ascii">
   13417119122.658293        4025135736.7974877        2893935469.3338356     
   11766805188.597078        1890825157.2154341        1715744373.8317146     
   10313698057.447468        413870587.33872414        810722436.21701980     
   9057797729.2094612       -405727972.83264160        178869656.48975003     
   7999104203.8830576       -567970523.29866409       -179813965.35009360     
   10539960006.171345        3161988001.8514037        2225826561.9240189     
   9667589055.0475998        1589781956.9508972        1446736420.0285580     
   8943805911.7401466        512868604.77136326        863178368.34798229     
   8368610576.2489853       -68752054.687199116        475152406.88229269     
   7942003048.5741177       -155080021.42478943        282658535.63148922     
   8337675074.0224676        2501302522.2067404        1712510134.9096625     
   8021426912.4860764        1424654953.9827466        1275798785.6763313     
   7805147563.6706676        681236761.49535370        956982458.98534560     
   7688837027.5762386        271047944.74456120        756061154.83670485     
   7672495304.2027884        194088503.73036814        673034873.23041022     
   6810264326.2116594        2043079297.8634977        1353986188.2907655     
   6828318760.9125109        1395444148.3109834        1202931470.7750335     
   6897723013.2390289        918975057.51069689        1092134708.1291075     
   7018477083.1912174        613672025.46263933        1021595900.3529869     
   7190580970.7690725        479535052.16680956        991315047.44667196     
   5957727762.7389221        1787318328.8216767        1150254722.0673287     
   6088264600.3268986        1502149539.9356062        1228134475.3246665     
   6221532260.4452333        1226083492.8173928        1268635115.7792695     
   6357530743.0939236        959120187.46703553        1271756643.4311383     
   6496260048.2729702        701259623.88453436        1237499058.2802720     
   7999104203.8830576       -567970523.29866409       -179813965.35009360     
   7917139645.3826876       -200778725.72249460       -78012559.596312985     
   7793846739.7911882        28651914.883236408       -8983287.9473517947     
   7629225487.1085548        120321398.51851892        27273849.596787993     
   7423275887.3347893        74229725.183369637        30758853.036105815     
   7942003048.5741177       -155080021.42478943        282658535.63148922     
   7739292241.0630980        15822045.162271976        281413686.99209732     
   7513308582.1811686        109147940.51297188        265356872.67758372     
   7264052071.9283304        124897664.62730980        234488092.68795481     
   6991522710.3045826        63071217.505283356        188807347.02321127     
   7672495304.2027884        194088503.73036814        673034873.23041022     
   7400353014.6231270        184095269.41092634        589808515.20477009     
   7122993369.3927794        156710849.58919859        509730359.93371630     
   6840416368.5117493        111935244.26518822        432800407.41724879     
   6552622011.9800310        49768453.438894272        359018657.65536529     
   7190580970.7690725        479535052.16680956        991315047.44667196     
   6900321966.0627804        304040947.02346492        847171925.04171121     
   6622901101.4260254        171340642.11191630        724137173.82104123     
   6358318376.8588085        81434137.432159901        622210793.78466058     
   6106573792.3611288        34321432.984199762        541392784.93256927     
   6496260048.2729702        701259623.88453436        1237499058.2802720     
   6239199095.3820553        375659077.99989223        1053503916.5029204     
   6013031778.2809019        153037318.08112240        908577314.33956051     
   5817758096.9695101        33394344.128225803        802719251.79019511     
   5653378051.4478817        16730156.141201496        735929728.85482335     
   7423275887.3347893        74229725.183369637        30758853.036105815     
   7217567732.5207939       -16553788.078237057        14688598.159075357     
   7023673019.2499828       -67959162.862558365        3725584.5318648340     
   6841591747.5223618       -79986399.169580460       -2130187.8455361617     
   6671323917.3379250       -52635496.999328136       -2878718.9731213851     
   6991522710.3045826        63071217.505283356        188807347.02321127     
   6807486165.5951366        3814888.4876050949        181070502.58993745     
   6630912981.9467478       -30563570.326545715        177621382.16175050     
   6461803159.3594189       -40064158.937173128        178459985.73864385     
   6300156697.8331356       -24686877.344283342        183586313.32062981     
   6552622011.9800310        49768453.438894272        359018657.65536529     
   6387915599.5330524        21336865.312522173        354540129.77002913     
   6226322467.6649971        3282879.1159067154        353529808.64505023     
   6067842616.3758688       -4393505.1509528160        355987694.28042907     
   5912476045.6656742       -1692287.4880514145        361913786.67616433     
   6106573792.3611288        34321432.984199762        541392784.93256927     
   5958856034.3345308        36012142.396506548        535097479.69935155     
   5809901476.4047337        33580185.464806318        531450863.98176467     
   5659710118.5717306        27025562.189098120        530452937.77980483     
   5508281960.8355293        16348272.569384813        532103701.09346950     
   5653378051.4478817        16730156.141201496        735929728.85482335     
   5520307469.9995823        47840719.739562273        722742552.37791002     
   5381650008.1659527        60328348.720152617        711384548.17189217     
   5237405665.9469900        54193043.082966805        701855716.23677623     
   5087574443.3427000        29434802.828011751        694156056.57255697     
   6671323917.3379250       -52635496.999328136       -2878718.9731213851     
   6484326429.6432438       -18229468.330000401        2668187.7244504155     
   6293476395.1870136        3334737.8008298874        14433954.726518590     
   6098773813.9692259        12057121.393136263        32418582.033091143     
   5900218685.9898930        7937682.4469594955        56622069.644164555     
   6300156697.8331356       -24686877.344283342        183586313.32062981     
   6124422928.8363352       -5237600.9734079838        179783301.05442330     
   5946697130.8790112        7571578.8624038696        181877385.70480275     
   5766979303.9611673        13740662.163148642        189868567.27176020     
   5585269448.0828018        13269648.928818941        203756845.75530875     
   5912476045.6656742       -1692287.4880514145        361913786.67616433     
   5747086671.4012585        2524439.3947293758        350931459.54738426     
   5581565785.9773560        6302795.7458794117        345524465.94727117     
   5415913389.3939667        9642781.5653994083        345692805.87582099     
   5250129481.6510830        12544396.853282213        351436479.33303493     
   5508281960.8355293        16348272.569384813        532103701.09346950     
   5352317657.3380194        5056652.7744224072        516112663.20332456     
   5198082360.4820547       -471611.54873085022        505375195.45392466     
   5045576070.2676306       -236520.40008497238        499891297.84526461     
   4894798786.6947460        5761926.2203640938        499660970.37734836     
   5087574443.3427000        29434802.828011751        694156056.57255697     
   4940115886.6466131        2359039.1656632423        675326912.02224493     
   4796246854.3931007       -12751643.021441936        661429574.22475958     
   4655967346.5821609       -15897243.733306885        652464043.18009615     
   4519277363.2137909       -7077762.9699425697        648430318.88825703     
   5900218685.9898930        7937682.4469594955        56622069.644164555     
   5732287897.3648996        7314128.2957789898        78559777.544490606     
   5564457072.8566513        7023787.8670954704        100277177.91309911     
   5396726212.4651384        7066661.1608538628        121774270.75000386     
   5229095316.1903763        7442748.1771190166        143051056.05520579     
   5585269448.0828018        13269648.928818941        203756845.75530875     
   5418644836.4947119        13661331.040936470        219044869.42851749     
   5251597169.5106735        12642828.499890327        235323666.90875012     
   5084126447.1306906        10214141.305709362        252593238.19601685     
   4916232669.3547668        6375269.4583799839        270853583.29031128     
   5250129481.6510830        12544396.853282213        351436479.33303493     
   5088271279.4962883        14989384.947603464        359464629.34765387     
   4925467002.4328632        14280790.013155699        369694634.50804329     
   4761716650.4608049        10418612.049929380        382126494.81419677     
   4597020223.5801115        3402851.0579235554        396760210.26612037     
   4894798786.6947460        5761926.2203640938        499660970.37734836     
   4741167226.3696413        11298290.015811443        499819057.30192137     
   4586066571.6232157        11937672.406860113        503390080.71099091     
   4429496822.4554710        7680073.3935103416        510374040.60456640     
   4271457978.8664055       -1474507.0242459774        520770936.98264664     
   4519277363.2137909       -7077762.9699425697        648430318.88825703     
   4377332677.1147690        2588046.2455520630        640108153.29130089     
   4233395877.0817366        5613475.6810197830        636410005.51758647     
   4087466963.1146970        1998525.3364565372        637335875.56711233     
   3939545935.2136502       -8256804.7881305218        642885763.43988252     
   5229095316.1903763        7442748.1771190166        143051056.05520579     
   5034998958.4058008        1163388.8394215107        135107404.24818164     
   4841649356.5697536       -2626784.0031943321        133610619.37335071     
   4649046510.6822290       -3927770.3507311344        138560701.43073291     
   4457190420.7432203       -2739570.2032113075        149957650.42033011     
   4916232669.3547668        6375269.4583799839        270853583.29031128     
   4738271535.0912027        502688.93915081024        261461366.46943536     
   4561383894.6462584       -1791578.8513269424        257940121.08210918     
   4385569748.0199413       -507533.91306614876        260289847.12830904     
   4210829095.2122426        4354823.7539446354        268510544.60804456     
   4597020223.5801115        3402851.0579235554        396760210.26612037     
   4433548897.1270533       -2556575.3559868336        386300622.61320299     
   4271477802.3627210       -3848562.8074729443        381136110.89514667     
   4110806939.2871103       -473111.29655742645        381266675.11194617     
   3951536307.9002247        7569779.1767718792        386692315.26360583     
   4271457978.8664055       -1474507.0242459774        520770936.98264664     
   4120831044.5133586       -8014404.0459804535        509625172.67945743     
   3971931079.7191372       -8797735.8716392517        503198588.81245720     
   3824758084.4837427       -3824502.5012061596        501491185.38164306     
   3679312058.8071675        6905296.0652987957        504502962.38701296     
   3939545935.2136502       -8256804.7881305218        642885763.43988252     
   3800117977.2501178       -15870797.130842686        631435016.66821003     
   3662743726.7155104       -16639098.043812513        624127554.83404851     
   3527423183.6098285       -10561707.527022362        620963377.93739867     
   3394156347.9330745        2361374.4195082188        621942485.97826886     
   4457190420.7432203       -2739570.2032113075        149957650.42033011     
   4253384682.3720264       -5550008.9126613140        170956729.25327647     
   4048559389.5947390       -11758962.309096098        202157634.77127725     
   3842714542.4113526       -21366430.392512083        243560366.97432864     
   3635850140.8218646       -34372413.162956476        295164925.86242682     
   4210829095.2122426        4354823.7539446354        268510544.60804456     
   4032706126.1331768        7699252.7677869797        282535100.02843851     
   3853177860.7486234        6359360.7633559704        304693451.05234599     
   3672244299.0585961        335147.74067139626        334985597.67976767     
   3489905441.0630784       -10373386.300321102        373411539.91070801     
   3951536307.9002247        7569779.1767718792        386692315.26360583     
   3793187447.8803225        15296477.844042778        393292315.05549431     
   3633047549.6555543        17053049.161753178        405958079.36935538     
   3471116613.2259197        12839493.129911661        424689608.20520222     
   3307394638.5914049        2655809.7484714985        449486901.56302297     
   3679312058.8071675        6905296.0652987957        504502962.38701296     
   3534828647.6134706        17241666.316101313        503228374.33444762     
   3388168456.3155112        20322102.886035681        505951519.72232246     
   3239331484.9133010        16146605.775139570        512672398.55063391     
   3088317733.4068365        4715174.9833841324        523391010.81938624     
   3394156347.9330745        2361374.4195082188        621942485.97826886     
   3257629725.3326082        13534818.183940291        612343277.86529338     
   3118540580.7285070        16166521.936239123        604673772.11123121     
   2976888914.1207633        10256485.676403999        598933968.71606350     
   2832674725.5093794       -4195290.5955735445        595123867.67980015     
   3635850140.8218646       -34372413.162956476        295164925.86242682     
   3268737155.8355231       -94136357.646399975        331300976.71561027     
   2903511821.9405909       -147608131.82515776        428148464.84473318     
   2540174139.1370292       -194787735.69931781        585707390.24978209     
   2178724107.4249043       -235675169.26873302        803977752.93075633     
   3489905441.0630784       -10373386.300321102        373411539.91070801     
   3268975444.1385760       -30493710.101828098        390441770.35666084     
   3050878579.9491034       -41170258.119904041        450060488.03228337     
   2835614848.4946761       -42403030.354512334        552267692.93755054     
   2623184249.7752719       -34192026.805688143        697063385.07248878     
   3307394638.5914049        2655809.7484714985        449486901.56302297     
   3180867772.4536724        6645149.4463402033        448514373.51933837     
   3058119520.6946173        23229870.406477332        472007382.65902972     
   2939149883.3142328        52409972.628842831        519965928.98210990     
   2823958860.3125138        94185456.113432288        592390012.48857844     
   3088317733.4068365        4715174.9833841324        523391010.81938624     
   3004414140.7808194        17280220.998151898        505518786.20362622     
   2925234644.1771126        45592253.753939629        493989148.72497839     
   2850779243.5957108        89651273.250759482        488802098.38343632     
   2781047939.0366225        149457279.48861969        489957635.17900878     
   2832674725.5093794       -4195290.5955735445        595123867.67980015     
   2739614549.1200156        1411504.5535550117        561455008.40953970     
   2652223950.3965907        25916891.922497511        516005786.23011857     
   2570502929.3391161        69320871.511271238        458776201.14153630     
   2494451485.9475861        131623443.31985021        389766253.14379901     
   5957727762.7389221        1787318328.8216767        1150254722.0673287     
   6088264600.3268986        1502149539.9356062        1228134475.3246665     
   6221532260.4452333        1226083492.8173928        1268635115.7792695     
   6357530743.0939236        959120187.46703553        1271756643.4311383     
   6496260048.2729702        701259623.88453436        1237499058.2802720     
   5434571380.9470587        1630371414.2841177        1033649955.1833905     
   5489839554.1971436        1372417773.3206346        1114056540.0482261     
   5547309336.5842381        1121802829.4805205        1167662846.3968201     
   5606980728.1083441        878526582.76377475        1194468874.2291732     
   5668853728.7694588        642589033.17039776        1194474623.5452850     
   4895301178.1788731        1468590353.4536619        936506106.58298945     
   4905525927.9096174        1246919432.6583319        1018822107.4297523     
   4917423073.3840256        1030823164.3418829        1084916664.0467670     
   4930992614.6020975        820301548.50431406        1134789776.4340336     
   4946234551.5638342        615354585.14562619        1168441444.5915520     
   4339917154.4343643        1301975146.3303092        858823176.26612592     
   4335323721.4643192        1125654517.9486978        942431177.46924496     
   4331873470.8445930        953144497.40147901        1020396568.7291093     
   4329566402.5751848        784445084.68865311        1092719350.0457180     
   4328402516.6560917        619556279.81021905        1159399521.4190726     
   3768419309.7135315        1130525792.9140594        800601164.23279965     
   3779232934.8612504        1008623029.1917322        884883750.16670442     
   3790660528.9659410        888766828.65930951        974102560.44384778     
   3802702092.0276031        770957191.31679189        1068257595.0642284     
   3815357624.0462360        655194117.16417849        1167348854.0278480     
   6496260048.2729702        701259623.88453436        1237499058.2802720     
   6239199095.3820553        375659077.99989223        1053503916.5029204     
   6013031778.2809019        153037318.08112240        908577314.33956051     
   5817758096.9695101        33394344.128225803        802719251.79019511     
   5653378051.4478817        16730156.141201496        735929728.85482335     
   5668853728.7694588        642589033.17039776        1194474623.5452850     
   5518892279.6757498        383023400.89606357        1073750873.6439466     
   5393051585.5629358        203860285.22471523        981103991.60100901     
   5291331646.4310169        105099686.15635204        916533977.41647410     
   5213732462.2799950        86741603.690974474        880040831.09033990     
   4946234551.5638342        615354585.14562619        1168441444.5915520     
   4871967829.8227825        412402433.54823613        1103087392.2892168     
   4815048982.2537584        267276529.19094467        1054818536.0896912     
   4775478008.8567667        179976872.07375026        1023634875.9929752     
   4753254909.6318016        150503462.19665408        1009536411.9990692     
   4328402516.6560917        619556279.81021905        1159399521.4190726     
   4298425745.8231506        463796175.95640981        1141513472.4387300     
   4279023968.3533707        343286049.97981071        1129720947.8056052     
   4270197184.2467542        258025901.88042188        1124021947.5196984     
   4271945393.5033002        208015731.65824223        1124416471.5810096     
   3815357624.0462360        655194117.16417849        1167348854.0278480     
   3798266027.6768541        537204628.12058353        1189029114.0924871     
   3784976543.8617706        431888847.59131384        1205811226.7487526     
   3775489172.6009831        339246775.57636261        1217695191.9966440     
   3769803913.8944921        259278412.07573783        1224681009.8361621     
   5653378051.4478817        16730156.141201496        735929728.85482335     
   5520307469.9995823        47840719.739562273        722742552.37791002     
   5381650008.1659527        60328348.720152617        711384548.17189217     
   5237405665.9469900        54193043.082966805        701855716.23677623     
   5087574443.3427000        29434802.828011751        694156056.57255697     
   5213732462.2799950        86741603.690974474        880040831.09033990     
   5078065449.4688311        84169925.306056976        856063454.20333385     
   4940172243.8823776        74177604.336842537        836032475.22398186     
   4800052845.5206347        56764640.783327341        819947894.15228236     
   4657707254.3836031        31931034.645519257        807809710.98823702     
   4753254909.6318016        150503462.19665408        1009536411.9990692     
   4621040681.5627851        116064306.65996170        978689636.91368687     
   4489960948.3285227        85406800.572448015        953906485.37271428     
   4360015709.9290152        58530943.934110880        935186957.37614858     
   4231204966.3642588        35436736.744950771        922531052.92399263     
   4271945393.5033002        208015731.65824223        1124416471.5810096     
   4149233166.2814488        143523863.80128002        1090621100.5089669     
   4031016121.5043926        94015937.426970720        1065006578.6180890     
   3917294259.1721315        59491952.535313606        1047572905.9083768     
   3808067579.2846680        39951909.126310587        1038320082.3798244     
   3769803913.8944921        259278412.07573783        1224681009.8361621     
   3662642903.6248178        166548596.73000908        1191857844.9891753     
   3563337763.4099841        100005014.90041065        1169332754.9601080     
   3471888493.2499866        59647666.586938858        1157105739.7489634     
   3388295093.1448278        45476551.789593339        1155176799.3557341     
   5087574443.3427000        29434802.828011751        694156056.57255697     
   4940115886.6466131        2359039.1656632423        675326912.02224493     
   4796246854.3931007       -12751643.021441936        661429574.22475958     
   4655967346.5821609       -15897243.733306885        652464043.18009615     
   4519277363.2137909       -7077762.9699425697        648430318.88825703     
   4657707254.3836031        31931034.645519257        807809710.98823702     
   4524570759.1117773        10433721.653376818        793704396.18955064     
   4394038630.9357548       -2382367.6860878468        784396910.19434798     
   4266110869.8555284       -6517233.3728959560        779887253.00262785     
   4140787475.8711081       -1970875.4070217609        780175424.61438859     
   4231204966.3642588        35436736.744950771        922531052.92399263     
   4112007738.3757148        19403036.180726051        912000217.63903320     
   3994429720.1362023        8766701.4466032982        906133233.20821643     
   3878470911.6457176        3527732.5425758362        904930099.63153613     
   3764131312.9042668        3686129.4686522484        908390816.90899658     
   3808067579.2846680        39951909.126310587        1038320082.3798244     
   3702426824.4384274        29266982.747705698        1030214376.3706959     
   3597420121.9944472        20695564.376627684        1026638543.2663624     
   3493047471.9527287        14237654.013092279        1027592583.0668277     
   3389308874.3132672        9893251.6570801735        1033076495.7720873     
   3388295093.1448278        45476551.789593339        1155176799.3557341     
   3295828017.2999153        40025561.354317188        1148346872.3845322     
   3203009836.5104914        33404221.104002118        1145912840.3687851     
   3109840550.7765555        25612531.038645148        1147874703.3084948     
   3016320160.0981092        16650491.158255458        1154232461.2036569     
   4519277363.2137909       -7077762.9699425697        648430318.88825703     
   4377332677.1147690        2588046.2455520630        640108153.29130089     
   4233395877.0817366        5613475.6810197830        636410005.51758647     
   4087466963.1146970        1998525.3364565372        637335875.56711233     
   3939545935.2136502       -8256804.7881305218        642885763.43988252     
   4140787475.8711081       -1970875.4070217609        780175424.61438859     
   4009510927.2089491        2934662.2963008881        770667204.52166271     
   3877044380.3350177        3873539.2937083244        765839750.36763561     
   3743387835.2493076        845755.58519434929        765693062.15229583     
   3608541291.9518299       -6148688.8292276859        770227139.87565529     
   3764131312.9042668        3686129.4686522484        908390816.90899658     
   3643685039.1516972        3880036.9016184807        898632343.99644327     
   3522850882.9095855        2781002.7027809620        893611385.13803756     
   3401628844.1779318        389026.87213921547        893327940.33377934     
   3280018922.9567389       -3295890.5903060436        897782009.58366966     
   3389308874.3132672        9893251.6570801735        1033076495.7720873     
   3279855012.9430094        5424170.0615062714        1024003571.7156441     
   3170815384.8054447        2335865.9082421064        1019724909.8287994     
   3062189989.9005713        628339.19728708267        1020240510.1115593     
   2953978828.2283921        301589.92863714695        1025550372.5639168     
   3016320160.0981092        16650491.158255458        1154232461.2036569     
   2918020848.5828857        7567061.7759598494        1146780887.6792610     
   2820937886.0225906        2538128.9100887775        1144180324.4399226     
   2725071272.4172201        1563692.5606353283        1146430771.4856355     
   2630421007.7667775        4643752.7276035547        1153532228.8164029     
   3939545935.2136502       -8256804.7881305218        642885763.43988252     
   3800117977.2501178       -15870797.130842686        631435016.66821003     
   3662743726.7155104       -16639098.043812513        624127554.83404851     
   3527423183.6098285       -10561707.527022362        620963377.93739867     
   3394156347.9330745        2361374.4195082188        621942485.97826886     
   3608541291.9518299       -6148688.8292276859        770227139.87565529     
   3480772231.3237643       -10752362.353620768        761633807.23710275     
   3354369559.7355213       -10801405.745273352        757170883.26870656     
   3229333277.1871061       -6295819.0041666031        756838367.97046566     
   3105663383.6785159        2764397.8696817160        760636261.34238410     
   3280018922.9567389       -3295890.5903060436        897782009.58366966     
   3163871970.3288450       -4900282.0969674587        891244219.62427878     
   3048404088.3516722       -4241104.7678881884        888823962.06769538     
   2933615277.0252256       -1318358.6030546427        890521236.91391146     
   2819505536.3495007        3867956.3975117207        896336044.16293526     
   2953978828.2283921        301589.92863714695        1025550372.5639168     
   2849417194.2653670        1685443.6391209364        1020266253.8297424     
   2744847312.5639620        3041804.8883351088        1019086791.2310212     
   2640269183.1241822        4370673.6763007641        1022011984.7677478     
   2535682805.9460258        5672050.0030102730        1029041834.4399210     
   2630421007.7667775        4643752.7276035547        1153532228.8164029     
   2537407903.1333222        9004814.8546310663        1148699909.8534942     
   2443699232.3723893        11047323.223397851        1147959370.7586811     
   2349294995.4839816        10771277.833916187        1151310611.5319643     
   2254195192.4680948        8176678.6861653328        1158753632.1733363     
   3394156347.9330745        2361374.4195082188        621942485.97826886     
   3257629725.3326082        13534818.183940291        612343277.86529338     
   3118540580.7285070        16166521.936239123        604673772.11123121     
   2976888914.1207633        10256485.676403999        598933968.71606350     
   2832674725.5093794       -4195290.5955735445        595123867.67980015     
   3105663383.6785159        2764397.8696817160        760636261.34238410     
   2973823343.0803943        9075553.8026014566        749881719.91821980     
   2840420418.8397675        10177097.593847036        741924605.63653493     
   2705454610.9566379        6069029.2433984280        736764918.49732184     
   2568925919.4309959       -3248651.2487376928        734402658.50059056     
   2819505536.3495007        3867956.3975117207        896336044.16293526     
   2694831291.4210711        6060588.5991247892        885592414.18223810     
   2569593801.2112718        6375736.5295118093        878513936.12759113     
   2443793065.7201018        4813400.1886599064        875100609.99899316     
   2317429084.9475651        1373579.5765852928        875352435.79644620     
   2535682805.9460258        5672050.0030102730        1029041834.4399210     
   2420653570.3546391        4489922.5735162497        1019475360.6573466     
   2306060727.8430204        4762438.7432495356        1014441763.5843958     
   2191904278.4111686        6489598.5122102499        1013941043.2210746     
   2078184222.0590858        9671401.8803933859        1017973199.5673709     
   2254195192.4680948        8176678.6861653328        1158753632.1733363     
   2151290179.8811059        4363555.7257807255        1151530559.3435490     
   2049821198.7350214        5337204.2350797653        1149708088.0069613     
   1949788249.0298357        11097624.214040756        1153286218.1635628     
   1851191330.7655551        21644815.662685633        1162264949.8133664     
   2832674725.5093794       -4195290.5955735445        595123867.67980015     
   2739614549.1200156        1411504.5535550117        561455008.40953970     
   2652223950.3965907        25916891.922497511        516005786.23011857     
   2570502929.3391161        69320871.511271238        458776201.14153630     
   2494451485.9475861        131623443.31985021        389766253.14379901     
   2568925919.4309959       -3248651.2487376928        734402658.50059056     
   2450263504.6911101       -3974958.7176345587        713147896.58497787     
   2335294626.3327446        7610521.7518783808        685440953.29766881     
   2224019284.3559003        31507790.159794331        651281828.63865769     
   2116437478.7605724        67716846.506098390        610670522.60795212     
   2317429084.9475651        1373579.5765852928        875352435.79644620     
   2188387807.6784759       -1118817.7639312744        864206389.73699152     
   2061064025.5064776        2113768.5525259972        851936343.84329939     
   1935457738.4315710        11071338.525978208        838542298.11536419     
   1811568946.4537697        25753892.156409979        824024252.55319774     
   2078184222.0590858        9671401.8803933859        1017973199.5673709     
   1953987458.0821068        9979927.4146491289        1014630487.8655784     
   1829532147.9177930        9426632.3244587183        1015491957.8669995     
   1704818291.5661554        8011516.6098419428        1020557609.5716515     
   1579845889.0271828        5734580.2707862854        1029827442.9795239     
   1851191330.7655551        21644815.662685633        1162264949.8133664     
   1747062455.9020014        29321276.818102002        1164420190.9707329     
   1640698993.5666862        29549113.067647934        1176107795.3687851     
   1532100943.7596257        22328324.411364138        1197327763.0075195     
   1421268306.4808016        7658910.8492242694        1228080093.8869331     
   3768419309.7135315        1130525792.9140594        800601164.23279965     
   3779232934.8612504        1008623029.1917322        884883750.16670442     
   3790660528.9659410        888766828.65930951        974102560.44384778     
   3802702092.0276031        770957191.31679189        1068257595.0642284     
   3815357624.0462360        655194117.16417849        1167348854.0278480     
   3207982778.2816114        962394833.48448348        756692361.13164222     
   3236013087.6714926        868141437.49451017        853051598.58737290     
   3263769935.3917227        772976502.60570383        951337591.64021540     
   3291253321.4423037        676900028.81806517        1051550340.2901701     
   3318463245.8232350        579912016.13159382        1153689844.5372372     
   2685782694.4038372        805734808.32115114        721949057.61128533     
   2722431205.9040909        736551235.42399514        829349610.85778379     
   2757918825.1080728        663498021.53926897        935667450.95526803     
   2792245552.0157838        586575166.66697288        1040902577.9037386     
   2825411386.6272254        505782670.80710691        1145054991.7031951     
   2201819058.0802097        660545717.42406297        696371253.67172861     
   2238487289.5590477        613852422.98018777        813777786.97793674     
   2273107198.1149921        560331385.46000469        927092138.38900447     
   2305678783.7480454        499982604.86351460        1036314307.9049327     
   2336202046.4582067        432806081.19071710        1141444295.5257206     
   1756091869.3107283        526827560.79321849        679958949.31297243     
   1784181338.6363611        500045000.16308725        806336126.94783187     
   1809335054.4124811        463476594.36791152        925611653.94142556     
   1831553016.6390867        417122343.40769041        1037785530.2937530     
   1850835225.3161793        360982247.28242481        1142857756.0048144     
   3815357624.0462360        655194117.16417849        1167348854.0278480     
   3798266027.6768541        537204628.12058353        1189029114.0924871     
   3784976543.8617706        431888847.59131384        1205811226.7487526     
   3775489172.6009831        339246775.57636261        1217695191.9966440     
   3769803913.8944921        259278412.07573783        1224681009.8361621     
   3318463245.8232350        579912016.13159382        1153689844.5372372     
   3294183575.5426617        472680490.91704726        1181985899.2017956     
   3273608157.6155014        377796473.54721510        1207168206.6132612     
   3256736992.0417566        295259964.02209675        1229236766.7716329     
   3243570078.8214250        225070962.34169281        1248191579.6769130     
   2825411386.6272254        505782670.80710691        1145054991.7031951     
   2799041928.5934038        410838595.26899076        1179852670.7333097     
   2776278862.7121148        327915826.90598238        1213321002.6656115     
   2757122188.9833574        257014365.71807861        1245459987.5001025     
   2741571907.4071341        198134211.70528245        1276269625.2367814     
   2336202046.4582067        432806081.19071710        1141444295.5257206     
   2312841086.8290844        351678941.17641658        1182629428.6870284     
   2292988659.1516118        282246907.66761285        1224269614.9058053     
   2276644763.4257894        224509980.66430950        1266364854.1820517     
   2263809399.6516151        178468160.16650236        1308915146.5157666     
   1850835225.3161793        360982247.28242481        1142857756.0048144     
   1835581050.2497022        295201528.63932228        1190316173.0629528     
   1823737546.9339919        240789715.83211052        1240014043.3338408     
   1815304715.3690493        197746808.86078894        1291951366.8174789     
   1810282555.5548732        166072807.72535658        1346128143.5138681     
   3769803913.8944921        259278412.07573783        1224681009.8361621     
   3662642903.6248178        166548596.73000908        1191857844.9891753     
   3563337763.4099841        100005014.90041065        1169332754.9601080     
   3471888493.2499866        59647666.586938858        1157105739.7489634     
   3388295093.1448278        45476551.789593339        1155176799.3557341     
   3243570078.8214250        225070962.34169281        1248191579.6769130     
   3165563142.0768781        150443854.22891796        1230873507.7389755     
   3093751228.1162114        96466822.062405825        1221506023.5640733     
   3028134336.9394236        63139865.842158556        1220089127.1522071     
   2968712468.5465131        50462985.568169713        1226622818.5033772     
   2741571907.4071341        198134211.70528245        1276269625.2367814     
   2686011938.3166203        139597679.06413209        1272518991.0584390     
   2634986144.7390256        96175064.799379706        1274371457.5882478     
   2588494526.6743512        67866368.911024332        1281827024.8262117     
   2546537084.1225944        54671591.399066448        1294885692.7723277     
   2263809399.6516151        178468160.16650236        1308915146.5157666     
   2223989292.3440394        134010071.23564851        1316794294.9475670     
   2187042513.2784252        99129743.111328721        1327929057.0326338     
   2152969062.4547701        73827175.793540001        1342319432.7709737     
   2121768939.8730721        58102369.282279372        1359965422.1625822     
   1810282555.5548732        166072807.72535658        1346128143.5138681     
   1779495204.1591413        133681030.74347103        1363699419.4063566     
   1749920333.7344098        105330856.99825084        1382178821.8972318     
   1721557944.2806790        81022286.489700258        1401566350.9864931     
   1694408035.7979472        60755319.217815936        1421862006.6741421     
   3388295093.1448278        45476551.789593339        1155176799.3557341     
   3295828017.2999153        40025561.354317188        1148346872.3845322     
   3203009836.5104914        33404221.104002118        1145912840.3687851     
   3109840550.7765555        25612531.038645148        1147874703.3084948     
   3016320160.0981092        16650491.158255458        1154232461.2036569     
   2968712468.5465131        50462985.568169713        1226622818.5033772     
   2886563252.4714065        40676187.484954476        1218873605.5755398     
   2804620081.6313891        31576206.852038503        1215665883.8954680     
   2722882956.0264611        23163043.669413686        1216999653.4631619     
   2641351875.6566215        15436697.937091470        1222874914.2786198     
   2546537084.1225944        54671591.399066448        1294885692.7723277     
   2475121717.2238960        40673782.489895821        1286867202.4307194     
   2404469545.7398863        29219958.296353221        1283535799.6291885     
   2334580569.6705670        20310118.818446755        1284891484.3677332     
   2265454789.0159349        13944264.056163788        1290934256.6463537     
   2121768939.8730721        58102369.282279372        1359965422.1625822     
   2061503411.5573838        40018346.369135261        1352327662.9500709     
   2002558228.8359826        26335475.436950088        1349522587.5699492     
   1944933391.7088721        17053756.485733032        1351550196.0222135     
   1888628900.1760511        12173189.515481353        1358410488.3068633     
   1694408035.7979472        60755319.217815936        1421862006.6741421     
   1645708335.4718676        38709879.122672141        1415254987.1335969     
   1598886130.9196765        22922758.273823142        1413626247.7177486     
   1553941422.1413789        13393956.671284974        1416975788.4265978     
   1510874209.1369662        10123474.315033615        1425303609.2601449     
   3016320160.0981092        16650491.158255458        1154232461.2036569     
   2918020848.5828857        7567061.7759598494        1146780887.6792610     
   2820937886.0225906        2538128.9100887775        1144180324.4399226     
   2725071272.4172201        1563692.5606353283        1146430771.4856355     
   2630421007.7667775        4643752.7276035547        1153532228.8164029     
   2641351875.6566215        15436697.937091470        1222874914.2786198     
   2556091692.1679530        8277347.0738296509        1216277989.7958517     
   2471736931.0077438        4136070.6387661695        1214416135.3902204     
   2388287592.1759953        3012868.6319038868        1217289351.0617185     
   2305743675.6727080        4907741.0532445908        1224897636.8103552     
   2265454789.0159349        13944264.056163788        1290934256.6463537     
   2192902475.8169050        8609614.3908649683        1284829233.4743388     
   2120944658.3198676        5256617.0655430555        1283343340.1715369     
   2049581336.5248227        3885272.0801948309        1286476576.7379460     
   1978812510.4317715        4495579.4348257780        1294228943.1735673     
   1888628900.1760511        12173189.515481353        1358410488.3068633     
   1828453199.5297422        8563863.7270674706        1352434618.7147195     
   1768561067.9589577        5899768.1904039383        1350961938.7838695     
   1708952505.4637017        4180902.9054996967        1353992448.5143101     
   1649627512.0439727        3407267.8723480701        1361526147.9060411     
   1510874209.1369662        10123474.315033615        1425303609.2601449     
   1462743863.3064620        8140095.0824314356        1419094145.5169961     
   1414586159.9250174        6065524.0133615732        1417271931.2272205     
   1366401098.9926298        3899761.1078172326        1419836966.3908129     
   1318188680.5093038        1642806.3658095598        1426789251.0077806     
   2630421007.7667775        4643752.7276035547        1153532228.8164029     
   2537407903.1333222        9004814.8546310663        1148699909.8534942     
   2443699232.3723893        11047323.223397851        1147959370.7586811     
   2349294995.4839816        10771277.833916187        1151310611.5319643     
   2254195192.4680948        8176678.6861653328        1158753632.1733363     
   2305743675.6727080        4907741.0532445908        1224897636.8103552     
   2223071889.5680795        7555100.6169242859        1218730123.8763082     
   2140016119.3917406        8922513.2748987675        1216821161.3032677     
   2056576365.1436949        9009979.0271828175        1219170749.0912335     
   1972752626.8239393        7817497.8737751245        1225778887.2402108     
   1978812510.4317715        4495579.4348257780        1294228943.1735673     
   1906958529.9785757        5572182.5719317198        1287089748.6667805     
   1835032147.5094411        6407445.6559046507        1284375875.0139115     
   1763033363.0243652        7001368.6867431402        1286087322.2149637     
   1690962176.5233529        7353951.6644554138        1292224090.2699330     
   1649627512.0439727        3407267.8723480701        1361526147.9060411     
   1589067824.3648152        3056060.7196624875        1353778784.2249117     
   1528747316.7254915        3502120.3664154410        1350623511.8906131     
   1468665989.1259928        4745446.8125907779        1352060330.9031451     
   1408823841.5663271        6786040.0582041144        1358089241.2625122     
   1318188680.5093038        1642806.3658095598        1426789251.0077806     
   1269399772.7267976        6735.0601211786270        1418797230.5507026     
   1221161627.0398881        206537.40642511845        1415564071.9333708     
   1173474243.4485762        2242213.4047204852        1417089775.1557839     
   1126337621.9528673        6113763.0550225377        1423374340.2179418     
   2254195192.4680948        8176678.6861653328        1158753632.1733363     
   2151290179.8811059        4363555.7257807255        1151530559.3435490     
   2049821198.7350214        5337204.2350797653        1149708088.0069613     
   1949788249.0298357        11097624.214040756        1153286218.1635628     
   1851191330.7655551        21644815.662685633        1162264949.8133664     
   1972752626.8239393        7817497.8737751245        1225778887.2402108     
   1884165219.2048635        6117117.4583722353        1219712430.4386308     
   1796569181.2802234        7721302.6910836697        1218771358.4549484     
   1709964513.0500128        12630053.571897745        1222955671.2891657     
   1624351214.5142407        20843370.100836873        1232265368.9412706     
   1690962176.5233529        7353951.6644554138        1292224090.2699330     
   1615906040.5141857        7530413.7866297364        1286795477.4590185     
   1541396612.4529829        9529235.7353514433        1286217032.7907000     
   1467433892.3397462        13350417.510624766        1290488756.2649713     
   1394017880.1744745        18993959.112452507        1299610647.8818386     
   1408823841.5663271        6786040.0582041144        1358089241.2625122     
   1346512643.8090649        8603444.7105575204        1352779700.4047139     
   1284303492.2532954        10761003.367886901        1352045111.0142083     
   1222196386.8990250        13258716.030213833        1355885473.0909913     
   1160191327.7462528        16096582.697531581        1364300786.6350718     
   1126337621.9528673        6113763.0550225377        1423374340.2179418     
   1075985029.0895057        9336210.2301506400        1417665099.2757111     
   1025289820.6811662        11416605.588689744        1416255593.1254733     
   974251996.72785807        12354949.130662501        1419145821.7672243     
   922871557.22957897        12151240.856068313        1426335785.2009683     
   1851191330.7655551        21644815.662685633        1162264949.8133664     
   1747062455.9020014        29321276.818102002        1164420190.9707329     
   1640698993.5666862        29549113.067647934        1176107795.3687851     
   1532100943.7596257        22328324.411364138        1197327763.0075195     
   1421268306.4808016        7658910.8492242694        1228080093.8869331     
   1624351214.5142407        20843370.100836873        1232265368.9412706     
   1542811922.3975749        29662614.880647957        1230103225.2511003     
   1459874926.2953610        33822846.375298619        1235521601.1352971     
   1375540226.2076051        33324064.584799111        1248520496.5938680     
   1289807822.1342916        28166269.509127617        1269099911.6268075     
   1394017880.1744745        18993959.112452507        1299610647.8818386     
   1329491474.6152403        27282978.659831464        1294107483.4113684     
   1264404248.5566642        33702596.542737782        1294232994.8489571     
   1198756201.9987524        38252812.761184514        1299987182.1946006     
   1132547334.9414883        40933627.315142930        1311370045.4483111     
   1160191327.7462528        16096582.697531581        1364300786.6350718     
   1107101112.5549927        22182368.155646086        1356432965.4515421     
   1054286960.3505927        29188363.569961190        1352241976.5097597     
   1001748871.1330647        37114568.940509379        1351727819.8097246     
   949486844.90239394        45960984.267267644        1354890495.3514357     
   922871557.22957897        12151240.856068313        1426335785.2009683     
   875640836.21682894        14360783.368072569        1417079671.3716187     
   829523061.67714643        20280147.456968933        1409548546.1177068     
   784518233.61054718        29909333.122807801        1403742409.4392276     
   740626352.01700461        43248340.365510494        1399661261.3361988     
   1756091869.3107283        526827560.79321849        679958949.31297243     
   1784181338.6363611        500045000.16308725        806336126.94783187     
   1809335054.4124811        463476594.36791152        925611653.94142556     
   1831553016.6390867        417122343.40769041        1037785530.2937530     
   1850835225.3161793        360982247.28242481        1142857756.0048144     
   1326379403.7335036        397913821.12005109        669608089.08581340     
   1339671863.7557950        375494508.12798554        791722942.78329480     
   1350762508.5944037        345735811.19031239        908550228.97222590     
   1359651338.2493305        308637730.30703169        1020089947.6526065     
   1366338352.7205751        264200265.47814271        1126342098.8244369     
   890459936.98664570        267137981.09599370        662214617.54104829     
   894138482.37049699        250636844.14146441        780923408.72795475     
   896349150.93649745        229242784.46076477        896158715.53902662     
   897091942.68464649        202955802.05389434        1007920537.9742633     
   896366857.61494434        171775896.92085350        1116208876.0336654     
   448333469.07015437        134500040.72104630        657778534.67867732     
   447581194.48046768        125472008.20352387        773937524.78181148     
   446094981.43876082        113997514.17926793        888437113.64182663     
   443874829.94503415        100076558.64827867        1001277301.2587230     
   440920739.99928743        83709141.610556170        1112458087.6324997     
  -1.5970112137481913E-002  -4.7910336412445732E-003   656299840.49870002     
   8.5706807951091063E-002  0.31416380486104389        770765290.94486547     
  0.10119484805975715       0.34582246349981660        885385423.28062713     
   3.0494011047950666E-002   9.0184734966086630E-002   1000160237.5059857     
 -0.12639571166263128      -0.45274927923022823        1115089733.6209404     
   1850835225.3161793        360982247.28242481        1142857756.0048144     
   1835581050.2497022        295201528.63932228        1190316173.0629528     
   1823737546.9339919        240789715.83211052        1240014043.3338408     
   1815304715.3690493        197746808.86078894        1291951366.8174789     
   1810282555.5548732        166072807.72535658        1346128143.5138681     
   1366338352.7205751        264200265.47814271        1126342098.8244369     
   1360619634.9815807        216581300.46917975        1181698568.8570154     
   1357458921.0963767        177489014.97284865        1237959378.9362609     
   1356856211.0649633        146923408.98915321        1295124529.0621717     
   1358811504.8873386        124884482.51808774        1353194019.2347496     
   896366857.61494434        171775896.92085350        1116208876.0336654     
   896368988.15747964        141174302.83224282        1178468619.8275445     
   898076454.65682793        116257161.93300766        1240297590.5020063     
   901489257.11298990        97024474.223150164        1301695788.0570512     
   906607395.52596354        83476239.702667356        1362663212.4926777     
   440920739.99928743        83709141.610556170        1112458087.6324997     
   442829109.77739882        68980535.728512034        1180626325.9745400     
   445590147.61534572        57094156.712586582        1247028678.0310788     
   449203853.51312900        48050004.562781021        1311665143.8021154     
   453670227.47074747        41848079.279094860        1374535723.2876530     
 -0.12639571166263128      -0.45274927923022823        1115089733.6209404     
 -0.15866213448379152      -0.84201270612520651        1188171687.2980011     
  -2.8070217281525200E-002 -0.68841543328963206        1258152641.5234768     
  0.26538105432848597        8.0465710788596712E-003   1325032596.2973676     
  0.72169051870105716        1.2473692179892184        1388811551.6196733     
   1810282555.5548732        166072807.72535658        1346128143.5138681     
   1779495204.1591413        133681030.74347103        1363699419.4063566     
   1749920333.7344098        105330856.99825084        1382178821.8972318     
   1721557944.2806790        81022286.489700258        1401566350.9864931     
   1694408035.7979472        60755319.217815936        1421862006.6741421     
   1358811504.8873386        124884482.51808774        1353194019.2347496     
   1333325668.2167332        99872053.074955642        1372025919.8836083     
   1308749192.2038715        77890825.824304044        1392324855.8290792     
   1285082076.8487537        58940800.766131759        1414090827.0711637     
   1262324322.1513801        43021977.900440276        1437323833.6098623     
   906607395.52596354        83476239.702667356        1362663212.4926777     
   888019955.57541704        66322222.396769315        1382402097.5324404     
   870038755.96935844        51189006.239164084        1404166926.5670431     
   852663796.70778787        38076591.229852855        1427957699.5964856     
   835895077.79070532        26984977.368835181        1453774416.6207676     
   453670227.47074747        41848079.279094860        1374535723.2876530     
   443578066.23519349        33031538.708910868        1394827952.3528550     
   433789025.03087103        25225398.242832139        1417705034.1111224     
   424303103.85778087        18429657.880862013        1443166968.5624578     
   415120302.71592313        12644317.622998133        1471213755.7068589     
  0.72169051870105716        1.2473692179892184        1388811551.6196733     
  0.19606173369805546        2.0113783006364132        1409303484.3448496     
 -0.61159090612396583        1.8353078672202097        1432939178.4613180     
  -1.7012678925877067       0.71915610485926085        1459718633.9690804     
  -3.0729682992364533       -1.3370733778403456        1489641850.8681347     
   1694408035.7979472        60755319.217815936        1421862006.6741421     
   1645708335.4718676        38709879.122672141        1415254987.1335969     
   1598886130.9196765        22922758.273823142        1413626247.7177486     
   1553941422.1413789        13393956.671284974        1416975788.4265978     
   1510874209.1369662        10123474.315033615        1425303609.2601449     
   1262324322.1513801        43021977.900440276        1437323833.6098623     
   1227795710.0404599        27086746.435842991        1434379603.0064669     
   1194675219.8817902        15845254.812079549        1435947881.2214475     
   1162962851.6753719        9297503.0291536450        1442028668.2548044     
   1132658605.4212015        7443491.0870558023        1452621964.1065400     
   835895077.79070532        26984977.368835181        1453774416.6207676     
   814206778.73402810        16760721.986507088        1453945372.1626105     
   793457227.80796170        9665627.0395466387        1458163065.2165091     
   773646425.01250744        5699692.5279617310        1466427495.7824631     
   754774370.34766459        4862918.4517480135        1478738663.8604736     
   415120302.71592313        12644317.622998133        1471213755.7068589     
   404941541.55257201        7731805.7746619284        1473952294.6020272     
   395232154.69819403        4383874.9562353194        1480271799.7029307     
   385992142.15278846        2600525.1677168012        1490172271.0095708     
   377221503.91635621        2381756.4091095775        1503653708.5219433     
  -3.0729682992364533       -1.3370733778403456        1489641850.8681347     
  -1.5039078041509115       -2.1996882566348770        1494400370.3247170     
  0.55248557560396316       -1.4378594926422406        1502274084.6807129     
   3.0962118514659078       0.94841260531865879        1513262993.9361255     
   6.1272738256805388        4.9591356433430622        1527367098.0909498     
   1510874209.1369662        10123474.315033615        1425303609.2601449     
   1462743863.3064620        8140095.0824314356        1419094145.5169961     
   1414586159.9250174        6065524.0133615732        1417271931.2272205     
   1366401098.9926298        3899761.1078172326        1419836966.3908129     
   1318188680.5093038        1642806.3658095598        1426789251.0077806     
   1132658605.4212015        7443491.0870558023        1452621964.1065400     
   1096167727.1711059        5838021.6774349213        1446546415.6469553     
   1059656330.5717852        4164157.7703959942        1444949844.3751614     
   1023124415.6232357        2421899.3659281731        1447832250.2911623     
   986571982.32546091        611246.46404343843        1455193633.3949609     
   754774370.34766459        4862918.4517480135        1478738663.8604736     
   730185038.91918945        3713982.6374736428        1472805009.7531145     
   705582028.34320188        2519449.6648271680        1471442060.5679712     
   680965338.61970055        1279319.5338001847        1474649816.3050458     
   656334969.74868536       -6407.7556057572365        1482428276.9643395     
   377221503.91635621        2381756.4091095775        1503653708.5219433     
   364795798.55071151        1767977.9625472575        1497869927.8354757     
   352363253.23926646        1131399.6966516972        1496748579.8056502     
   339923867.98202318        472021.61142785847        1500289664.4324641     
   327477642.77897990       -210156.29312899709        1508493181.7159235     
   6.1272738256805388        4.9591356433430622        1527367098.0909498     
   6.0656677940491495        7.6526411352495245        1521741169.8940411     
   5.2599796084674306        7.8658724337101971        1520869402.0881970     
   3.7102041333913793        5.5988125937174100        1524751794.6734173     
   1.4163409456247178       0.85146107197864673        1533388347.6497030     
   1318188680.5093038        1642806.3658095598        1426789251.0077806     
   1269399772.7267976        6735.0601211786270        1418797230.5507026     
   1221161627.0398881        206537.40642511845        1415564071.9333708     
   1173474243.4485762        2242213.4047204852        1417089775.1557839     
   1126337621.9528673        6113763.0550225377        1423374340.2179418     
   986571982.32546091        611246.46404343843        1455193633.3949609     
   950226332.85210288       -541999.32102584839        1448218035.1492460     
   914293754.67488933       -318340.78561574221        1445943890.9506812     
   878774247.79382646        1282222.0702960491        1448371200.7992659     
   843667812.20890296        4259689.2466760278        1455499964.6949995     
   656334969.74868536       -6407.7556057572365        1482428276.9643395     
   632268556.31992340       -726034.69941583276        1476308461.6639566     
   608477523.38785493       -527726.65424728394        1474832692.6181297     
   584961870.95247459        588516.37988099456        1478000969.8268566     
   561721599.01378608        2622694.4029836357        1485813293.2901406     
   327477642.77897990       -210156.29312899709        1508493181.7159235     
   315526443.13025850       -545371.07504433393        1503068510.0948405     
   303712933.17877430       -421620.19950269163        1502230476.9357190     
   292037112.92452765        161096.33349744976        1505979082.2385592     
   280498982.36751443        1202778.5239432156        1514314326.0033598     
   1.4163409456247178       0.85146107197864673        1533388347.6497030     
  -6.7168972764771899       -8.4479334242334616        1528498180.4418917     
  -15.952347730320515       -21.421367999027566        1528137243.9034486     
  -26.290022825850119       -38.068884886248291        1532305538.0343704     
  -37.729910221747573       -58.390443121639855        1541003062.8346624     
   1126337621.9528673        6113763.0550225377        1423374340.2179418     
   1075985029.0895057        9336210.2301506400        1417665099.2757111     
   1025289820.6811662        11416605.588689744        1416255593.1254733     
   974251996.72785807        12354949.130662501        1419145821.7672243     
   922871557.22957897        12151240.856068313        1426335785.2009683     
   843667812.20890296        4259689.2466760278        1455499964.6949995     
   804543047.72234738        6268425.7562442124        1449852934.1135616     
   765161322.71129978        7420627.1841709614        1448823046.8758826     
   725522637.17575347        7716293.5304375589        1452410302.9819627     
   685626991.11571884        7155424.7950704098        1460614702.4317975     
   561721599.01378608        2622694.4029836357        1485813293.2901406     
   534731544.48051786        3689784.7199397683        1480328403.9267190     
   507570184.44323301        4185856.6901754439        1479778066.4588234     
   480237518.90193123        4110910.3136873245        1484162280.8864524     
   452733547.85661411        3464945.5904824734        1493481047.2096114     
   280498982.36751443        1202778.5239432156        1514314326.0033598     
   266550519.36401293        1600287.1212309897        1509091508.7151794     
   252516405.87697369        1712294.1067288369        1509120651.8742914     
   238396641.90639615        1538799.4804315567        1514401755.4806993     
   224191227.45228195        1079803.2423446625        1524934819.5344002     
  -37.729910221747573       -58.390443121639855        1541003062.8346624     
  -27.627166442834639       -67.039880080427452        1536142248.4789474     
  -12.987479910201646       -60.566175220704238        1536850803.1222908     
   6.1891427193883555       -38.969348650012208        1543128726.7646985     
   29.902706775920905       -2.2493860711798650        1554976019.4061692     
   922871557.22957897        12151240.856068313        1426335785.2009683     
   875640836.21682894        14360783.368072569        1417079671.3716187     
   829523061.67714643        20280147.456968933        1409548546.1177068     
   784518233.61054718        29909333.122807801        1403742409.4392276     
   740626352.01700461        43248340.365510494        1399661261.3361988     
   685626991.11571884        7155424.7950704098        1460614702.4317975     
   644032170.33735442        6961054.1081957519        1454737653.3868356     
   603272057.64218450        9549043.6986336708        1452025672.8387825     
   563346653.03019977        14919393.566353142        1452478760.7876332     
   524255956.50139451        23072103.711341947        1456096917.2333977     
   452733547.85661411        3464945.5904824734        1493481047.2096114     
   420889141.37399465        2101015.9231700301        1490658451.4941654     
   389601204.58467555        2591985.2335243076        1492441004.1971006     
   358869737.48865438        4937853.5215407908        1498828705.3184137     
   328694740.08593333        9138620.7872246951        1509821554.8581052     
   224191227.45228195        1079803.2423446625        1524934819.5344002     
   206211749.32674190       -219331.18703190982        1524842065.6936090     
   188510502.50461954       -591027.93835084140        1530794540.1926672     
   171087486.98591202       -35287.011621549726        1542792243.0315793     
   153942702.77061450        1447891.5931435004        1560835174.2103360     
   29.902706775920905       -2.2493860711798650        1554976019.4061692     
  -5.8044000466856174        12.777602716738382        1557288495.9851661     
  -48.597980356063772        4.1830125215284752        1567086280.8254812     
  -98.478033603202164       -28.033152745103457        1584369373.9271154     
  -155.44455686004005       -83.870886792401961        1609137775.2900798     
  -1.5970112137481913E-002  -4.7910336412445732E-003   656299840.49870002     
   8.5706807951091063E-002  0.31416380486104389        770765290.94486547     
  0.10119484805975715       0.34582246349981660        885385423.28062713     
   3.0494011047950666E-002   9.0184734966086630E-002   1000160237.5059857     
 -0.12639571166263128      -0.45274927923022823        1115089733.6209404     
  -448333469.11004436       -134500040.73301330        657778534.93022978     
  -447581194.39012343       -125472007.85784167        773937524.87332547     
  -446094981.31784242       -113997513.80813739        888437113.58173144     
  -443874829.89320207       -100076558.58390066        1001277301.0554482     
  -440920740.11620152       -83709142.185131252        1112458087.2944756     
  -890459937.05038500       -267137981.11511549        662214617.90237927     
  -894138482.35303688       -250636844.07597217        780923408.85404527     
  -896349150.86477995       -229242784.40046728        896158715.44673586     
  -897091942.58561504       -202955802.08860117        1007920537.6804510     
  -896366857.51554155       -171775897.14037335        1116208875.5551908     
  -1326379403.8369918       -397913821.15109754        669608089.41514850     
  -1339671863.8030334       -375494508.34022754        791722942.88702488     
  -1350762508.5396175       -345735811.43116736        908550228.87563980     
  -1359651338.0467451       -308637730.42391658        1020089947.3809936     
  -1366338352.3244150       -264200265.31847540        1126342098.4030862     
  -1756091869.4698651       -526827560.84095955        679958949.46853757     
  -1784181338.7401133       -500045000.65060794        806336126.97226453     
  -1809335054.3423553       -463476594.90023696        925611653.86844385     
  -1831553016.2765915       -417122343.58984721        1037785530.1570765     
  -1850835224.5428224       -360982246.71943784        1142857755.8381617     
 -0.12639571166263128      -0.45274927923022823        1115089733.6209404     
 -0.15866213448379152      -0.84201270612520651        1188171687.2980011     
  -2.8070217281525200E-002 -0.68841543328963206        1258152641.5234768     
  0.26538105432848597        8.0465710788596712E-003   1325032596.2973676     
  0.72169051870105716        1.2473692179892184        1388811551.6196733     
  -440920740.11620152       -83709142.185131252        1112458087.2944756     
  -442829109.90191954       -68980536.752547011        1180626325.9510207     
  -445590147.55474693       -57094157.543660909        1247028678.2899156     
  -449203853.07468331       -48050004.558471486        1311665144.3111598     
  -453670226.46172917       -41848077.796979755        1374535724.0147541     
  -896366857.51554155       -171775897.14037335        1116208875.5551908     
  -896368988.10061145       -141174303.19971091        1178468619.8229244     
  -898076454.58275974       -116257162.24930719        1240297590.9069419     
  -901489256.96198475       -97024474.289160252        1301695788.8072443     
  -906607395.23828733       -83476239.319271952        1362663213.5238304     
  -1366338352.3244150       -264200265.31847540        1126342098.4030862     
  -1360619634.7547388       -216581300.18350610        1181698568.9137120     
  -1357458921.1121087       -177489014.80535465        1237959379.3745565     
  -1356856211.3965235       -146923409.18402183        1295124529.7856200     
  -1358811505.6079829       -124884483.31950366        1353194020.1469028     
  -1850835224.5428224       -360982246.71943784        1142857755.8381617     
  -1835581049.8643007       -295201527.70393074        1190316173.2233839     
  -1823737547.1427934       -240789715.21180302        1240014043.6927593     
  -1815304716.3782983       -197746809.24305052        1291951367.2462885     
  -1810282557.5708175       -166072809.79767883        1346128143.8839710     
  0.72169051870105716        1.2473692179892184        1388811551.6196733     
  0.19606173369805546        2.0113783006364132        1409303484.3448496     
 -0.61159090612396583        1.8353078672202097        1432939178.4613180     
  -1.7012678925877067       0.71915610485926085        1459718633.9690804     
  -3.0729682992364533       -1.3370733778403456        1489641850.8681347     
  -453670226.46172917       -41848077.796979755        1374535724.0147541     
  -443578066.27815014       -33031536.438765645        1394827952.5450873     
  -433789026.45238280       -25225396.273256183        1417705033.9387023     
  -424303106.98442757       -18429657.300453946        1443166968.1955965     
  -415120307.87428433       -12644319.520358101        1471213755.3157730     
  -906607395.23828733       -83476239.319271952        1362663213.5238304     
  -888019955.85410607       -66322221.819431186        1382402097.7709029     
  -870038756.90352499       -51189005.764923662        1404166926.3532436     
  -852663798.38654399       -38076591.155749410        1427957699.2708523     
  -835895080.30316317       -26984977.991909176        1453774416.5237305     
  -1358811505.6079829       -124884483.31950366        1353194020.1469028     
  -1333325668.5318065       -99872054.130620837        1372025920.0222940     
  -1308749191.9650192       -77890826.639698386        1392324855.7049415     
  -1285082075.9076180       -58940800.846732914        1414090827.1948462     
  -1262324320.3596060       -43021976.751729071        1437323834.4920056     
  -1810282557.5708175       -166072809.79767883        1346128143.8839710     
  -1779495204.3112526       -133681033.37233448        1363699419.2992623     
  -1749920331.6368630       -105330858.89757586        1382178821.9937980     
  -1721557939.5476503       -81022286.373403668        1401566351.9675775     
  -1694408028.0436132       -60755315.799820662        1421862009.2206006     
  -3.0729682992364533       -1.3370733778403456        1489641850.8681347     
  -1.5039078041509115       -2.1996882566348770        1494400370.3247170     
  0.55248557560396316       -1.4378594926422406        1502274084.6807129     
   3.0962118514659078       0.94841260531865879        1513262993.9361255     
   6.1272738256805388        4.9591356433430622        1527367098.0909498     
  -415120307.87428433       -12644319.520358101        1471213755.3157730     
  -404941543.90186918       -7731808.3422675282        1473952295.4387777     
  -395232153.67758751       -4383876.3246212751        1480271801.2709389     
  -385992137.20144385       -2600523.4674346596        1490172272.8122582     
  -377221494.47343528       -2381749.7706999183        1503653710.0627337     
  -835895080.30316317       -26984977.991909176        1453774416.5237305     
  -814206780.18527210       -16760722.650474489        1453945374.0384443     
  -793457228.05098510       -9665627.2543856502        1458163068.0720577     
  -773646423.90030277       -5699691.8036479652        1466427498.6245692     
  -754774367.73322475       -4862916.2982546389        1478738665.6959801     
  -1262324320.3596060       -43021976.751729071        1437323834.4920056     
  -1227795710.3541181       -27086745.124314308        1434379606.1237149     
  -1194675222.5677042       -15845254.227142990        1435947885.0840659     
  -1162962857.0003636       -9297504.0602176189        1442028671.3730569     
  -1132658613.6520960       -7443494.6235371232        1452621964.9906890     
  -1694408028.0436132       -60755315.799820662        1421862009.2206006     
  -1645708334.4084089       -38709875.763790369        1415254991.6945915     
  -1598886137.2277465       -22922757.242899239        1413626252.3069654     
  -1553941436.5016270       -13393960.237152278        1416975791.0577242     
  -1510874232.2300482       -10123484.746540666        1425303607.9468639     
   6.1272738256805388        4.9591356433430622        1527367098.0909498     
   6.0656677940491495        7.6526411352495245        1521741169.8940411     
   5.2599796084674306        7.8658724337101971        1520869402.0881970     
   3.7102041333913793        5.5988125937174100        1524751794.6734173     
   1.4163409456247178       0.85146107197864673        1533388347.6497030     
  -377221494.47343528       -2381749.7706999183        1503653710.0627337     
  -364795790.27140433       -1767968.5658731610        1497869926.4923849     
  -352363247.00307751       -1131390.4733936191        1496748575.3850043     
  -339923864.66845208       -472015.49325284362        1500289656.7405899     
  -327477643.26753116        210156.37454125285        1508493170.5591397     
  -754774367.73322475       -4862916.2982546389        1478738665.6959801     
  -730185039.06212962       -3713980.5204917490        1472805006.5309765     
  -705582031.51435220       -2519448.4871232510        1471442051.9008381     
  -680965345.08989441       -1279320.1981524527        1474649801.8055680     
  -656334979.78875530        6404.3464224934578        1482428256.2451658     
  -1132658613.6520960       -7443494.6235371232        1452621964.9906890     
  -1096167740.3065031       -5838028.2112030983        1446546410.0098085     
  -1059656348.2738444       -4164166.1753173470        1444949831.6356962     
  -1023124437.5541224       -2421908.5158869028        1447832229.8683527     
  -986572008.14733458       -611255.23290449381        1455193604.7077773     
  -1510874232.2300482       -10123484.746540666        1425303607.9468639     
  -1462743894.0045252       -8140111.6380049586        1419094136.9288876     
  -1414586197.2815547       -6065543.5379772186        1417271914.5895810     
  -1366401142.0611362       -3899780.4464572072        1419836940.9289443     
  -1318188728.3432691       -1642822.3634413481        1426789215.9469762     
   1.4163409456247178       0.85146107197864673        1533388347.6497030     
  -6.7168972764771899       -8.4479334242334616        1528498180.4418917     
  -15.952347730320515       -21.421367999027566        1528137243.9034486     
  -26.290022825850119       -38.068884886248291        1532305538.0343704     
  -37.729910221747573       -58.390443121639855        1541003062.8346624     
  -327477643.26753116        210156.37454125285        1508493170.5591397     
  -315526454.24142158        545359.61627465487        1503068496.0111194     
  -303712956.31257820        421592.53378899395        1502230462.6375844     
  -292037149.48099381       -161144.87289440632        1505979070.4385381     
  -280499033.74667257       -1202852.6037876308        1514314319.4139743     
  -656334979.78875530        6404.3464224934578        1482428256.2451658     
  -632268563.58867741        726029.13365164399        1476308436.0293841     
  -608477528.48090756        527716.94652009010        1474832667.4932053     
  -584961874.46543968       -588532.21495291591        1478000950.6366351     
  -561721601.54228091       -2622718.3507876396        1485813285.4596686     
  -986572008.14733458       -611255.23290449381        1455193604.7077773     
  -950226334.75866163        542000.10420590639        1448218000.4966795     
  -914293732.45733666        318351.81682270765        1445943858.4703109     
  -878774201.24336040       -1282200.0950573087        1448371178.6286669     
  -843667741.11673594       -4259655.6314407587        1455499960.9717453     
  -1318188728.3432691       -1642822.3634413481        1426789215.9469762     
  -1269399767.7513661       -6727.4720375537872        1418797189.4130151     
  -1221161568.2418678       -206502.85531282425        1415564035.5688999     
  -1173474129.8147516       -2242148.5131964087        1417089754.4146297     
  -1126337452.4700367       -6113664.4457509518        1423374345.9502039     
  -37.729910221747573       -58.390443121639855        1541003062.8346624     
  -27.627166442834639       -67.039880080427452        1536142248.4789474     
  -12.987479910201646       -60.566175220704238        1536850803.1222908     
   6.1891427193883555       -38.969348650012208        1543128726.7646985     
   29.902706775920905       -2.2493860711798650        1554976019.4061692     
  -280499033.74667257       -1202852.6037876308        1514314319.4139743     
  -266550553.48512971       -1600371.6128946096        1509091517.0938570     
  -252516417.71074113       -1712372.2458473891        1509120671.3644483     
  -238396626.42351893       -1538854.5026896447        1514401782.2257442     
  -224191179.62345749       -1079818.3833996654        1524934849.6777461     
  -561721601.54228091       -2622718.3507876396        1485813285.4596686     
  -534731543.71723467       -3689815.4981349409        1480328421.3136961     
  -507570179.40344834       -4185891.0163504481        1479778101.3500757     
  -480237508.60092878       -4110944.9054551721        1484162325.5688057     
  -452733531.30967498       -3464977.1654425561        1493481093.9698870     
  -843667741.11673594       -4259655.6314407587        1455499960.9717453     
  -804542998.32348442       -6268398.6956154108        1449852961.1384640     
  -765161298.06560469       -7420616.8776929975        1448823093.0791812     
  -725522640.34308887       -7716310.1776524186        1452410356.7938929     
  -685627025.15593851       -7155478.5954992175        1460614752.2826037     
  -1126337452.4700367       -6113664.4457509518        1423374345.9502039     
  -1075984917.3038890       -9336121.2053656578        1417665136.5681622     
  -1025289773.6972044       -11416549.829859436        1416255646.5517612     
  -974252021.64999342       -12354950.319264054        1419145875.9010017     
  -922871661.16225088       -12151322.673563957        1426335824.6158831     
   29.902706775920905       -2.2493860711798650        1554976019.4061692     
  -5.8044000466856174        12.777602716738382        1557288495.9851661     
  -48.597980356063772        4.1830125215284752        1567086280.8254812     
  -98.478033603202164       -28.033152745103457        1584369373.9271154     
  -155.44455686004005       -83.870886792401961        1609137775.2900798     
  -224191179.62345749       -1079818.3833996654        1524934849.6777461     
  -206211777.36061391        219326.53398659825        1524842079.6059947     
  -188510609.40669906        591023.75494700670        1530794538.9674056     
  -171087675.76171345        35273.279472313821        1542792227.7619801     
  -153942976.42565694       -1447924.8924299702        1560835145.9897175     
  -452733531.30967498       -3464977.1654425561        1493481093.9698870     
  -420889202.01447225       -2101055.6389312148        1490658478.8211899     
  -389601334.25065327       -2592005.8836999536        1492441014.2774987     
  -358869928.01822096       -4937827.8997544497        1498828700.3388133     
  -328694983.31717372       -9138521.6870981604        1509821537.0051363     
  -685627025.15593851       -7155478.5954992175        1460614752.2826037     
  -644032279.76596773       -6961133.7411293387        1454737693.6307576     
  -603272223.12983847       -9549084.7329008579        1452025706.7557619     
  -563346855.24755430       -14919331.570823908        1452478791.6576223     
  -524256176.11911619       -23071874.254897356        1456096948.3363187     
  -922871661.16225088       -12151322.673563957        1426335824.6158831     
  -875641010.61510909       -14360907.772634566        1417079724.0346925     
  -829523276.04426420       -20280212.792697191        1409548616.4021966     
  -784518457.44971550       -29909237.733747482        1403742501.7183881     
  -740626554.83147252       -43247982.595814109        1399661379.9832754     
  -1756091869.4698651       -526827560.84095955        679958949.46853757     
  -1784181338.7401133       -500045000.65060794        806336126.97226453     
  -1809335054.3423553       -463476594.90023696        925611653.86844385     
  -1831553016.2765915       -417122343.58984721        1037785530.1570765     
  -1850835224.5428224       -360982246.71943784        1142857755.8381617     
  -2201819058.2921729       -660545717.48765194        696371253.62122202     
  -2238487289.5953250       -613852423.30942798        813777786.91045833     
  -2273107197.8983703       -560331385.79751515        927092138.32319176     
  -2305678783.2013092       -499982604.95191371        1036314307.8594213     
  -2336202045.5041413       -432806080.77262342        1141444295.5191474     
  -2685782694.6470842       -805734808.39412522        721949057.43187690     
  -2722431205.8944435       -736551235.60141993        829349610.72740746     
  -2757918824.8095956       -663498021.70135641        935667450.87747836     
  -2792245551.3925405       -586575166.69393420        1040902577.8820899     
  -2825411385.6432776       -505782670.57915354        1145054991.7412415     
  -3207982778.5345984       -962394833.56037951        756692360.90050268     
  -3236013087.6374688       -868141437.52658415        853051598.42311180     
  -3263769935.0760317       -772976502.61176074        951337591.53130496     
  -3291253320.8502851       -676900028.81590891        1051550340.2250824     
  -3318463244.9602294       -579912016.13902903        1153689844.5044436     
  -3768419309.9547157       -1130525792.9864147        800601164.02709913     
  -3779232934.8244009       -1008623029.0849202        884883749.99757111     
  -3790660528.6976771       -888766828.52872789        974102560.28467059     
  -3802702091.5745435       -770957191.31783795        1068257594.8883984     
  -3815357623.4549999       -655194117.45224941        1167348853.8087542     
  -1850835224.5428224       -360982246.71943784        1142857755.8381617     
  -1835581049.8643007       -295201527.70393074        1190316173.2233839     
  -1823737547.1427934       -240789715.21180302        1240014043.6927593     
  -1815304716.3782983       -197746809.24305052        1291951367.2462885     
  -1810282557.5708175       -166072809.79767883        1346128143.8839710     
  -2336202045.5041413       -432806080.77262342        1141444295.5191474     
  -2312841086.6026239       -351678940.67481560        1182629428.7889619     
  -2292988659.7843704       -282246907.52121919        1224269615.0502422     
  -2276644765.0493789       -224509981.31183165        1266364854.3029892     
  -2263809402.3976521       -178468162.04665768        1308915146.5472019     
  -2825411385.6432776       -505782670.57915354        1145054991.7412415     
  -2799041928.4978714       -410838595.19277716        1179852670.7483566     
  -2776278863.5619788       -327915827.17144442        1213321002.6542506     
  -2757122190.8355989       -257014366.51515543        1245459987.4589229     
  -2741571910.3187318       -198134213.22391009        1276269625.1623743     
  -3318463244.9602294       -579912016.13902903        1153689844.5044436     
  -3294183575.5500417       -472680491.25781536        1181985899.1015685     
  -3273608158.4756165       -377796474.16247952        1207168206.5047836     
  -3256736993.7369556       -295259964.85301912        1229236766.7140906     
  -3243570081.3340564       -225070963.32943475        1248191579.7294886     
  -3815357623.4549999       -655194117.45224941        1167348853.8087542     
  -3798266027.7591372       -537204628.86993182        1189029113.8485963     
  -3784976544.5252872       -431888848.49432278        1205811226.6018419     
  -3775489173.7534494       -339246776.32542396        1217695192.0684917     
  -3769803915.4436250       -259278412.36323547        1224681010.2485452     
  -1810282557.5708175       -166072809.79767883        1346128143.8839710     
  -1779495204.3112526       -133681033.37233448        1363699419.2992623     
  -1749920331.6368630       -105330858.89757586        1382178821.9937980     
  -1721557939.5476503       -81022286.373403668        1401566351.9675775     
  -1694408028.0436132       -60755315.799820662        1421862009.2206006     
  -2263809402.3976521       -178468162.04665768        1308915146.5472019     
  -2223989291.6191616       -134010072.86025429        1316794294.8871503     
  -2187042508.8783727       -99129743.799525261        1327929057.2483232     
  -2152969054.1752911       -73827174.864481926        1342319433.6307194     
  -2121768927.5099111       -58102366.055117488        1359965424.0343387     
  -2741571910.3187318       -198134213.22391009        1276269625.1623743     
  -2686011937.0442305       -139597679.78332090        1272518991.0656981     
  -2634986139.2599607       -96175064.643502951        1274371457.7322259     
  -2588494516.9659228       -67866367.804455876        1281827025.1619561     
  -2546537070.1621170       -54671589.266183734        1294885693.3548894     
  -3243570081.3340564       -225070963.32943475        1248191579.7294886     
  -3165563140.5864592       -150443854.14153552        1230873507.8349059     
  -3093751222.7816243       -96466821.429502964        1221506023.4455051     
  -3028134327.9195480       -63139865.193330288        1220089126.5612879     
  -2968712456.0002294       -50462985.433024049        1226622817.1822517     
  -3769803915.4436250       -259278412.36323547        1224681010.2485452     
  -3662642902.2458496       -166548595.93489969        1191857845.1947730     
  -3563337759.4433632       -100005014.15752172        1169332754.3881624     
  -3471888487.0361614       -59647667.031097412        1157105737.8287132     
  -3388295085.0242500       -45476554.555636048        1155176795.5164273     
  -1694408028.0436132       -60755315.799820662        1421862009.2206006     
  -1645708334.4084089       -38709875.763790369        1415254991.6945915     
  -1598886137.2277465       -22922757.242899239        1413626252.3069654     
  -1553941436.5016270       -13393960.237152278        1416975791.0577242     
  -1510874232.2300482       -10123484.746540666        1425303607.9468639     
  -2121768927.5099111       -58102366.055117488        1359965424.0343387     
  -2061503410.4642241       -40018345.403815389        1352327665.7631621     
  -2002558239.1866548       -26335477.312901616        1349522590.2966027     
  -1944933413.6771996       -17053761.782374263        1351550197.6346602     
  -1888628933.9358592       -12173198.812224030        1358410487.7773359     
  -2546537070.1621170       -54671589.266183734        1294885693.3548894     
  -2475121716.3738513       -40673783.999983311        1286867203.4727099     
  -2404469557.6672754       -29219962.339416027        1283535801.0613813     
  -2334580594.0423880       -20310124.284473538        1284891486.1209040     
  -2265454825.4991884       -13944269.835160494        1290934258.6512766     
  -2968712456.0002294       -50462985.433024049        1226622817.1822517     
  -2886563252.1372890       -40676191.552296281        1218873604.8232341     
  -2804620092.6696119       -31576212.322444916        1215665884.6013007     
  -2722882977.5971951       -23163047.743462205        1216999656.5164523     
  -2641351906.9200420       -15436697.815355420        1222874920.5686889     
  -3388295085.0242500       -45476554.555636048        1155176795.5164273     
  -3295828017.7545362       -40025568.060748816        1148346869.8147349     
  -3203009844.1936617       -33404227.261988282        1145912840.9163611     
  -3109840564.3416195       -25612532.159335732        1147874708.8213058     
  -3016320178.1984124       -16650482.752805352        1154232473.5295696     
  -1510874232.2300482       -10123484.746540666        1425303607.9468639     
  -1462743894.0045252       -8140111.6380049586        1419094136.9288876     
  -1414586197.2815547       -6065543.5379772186        1417271914.5895810     
  -1366401142.0611362       -3899780.4464572072        1419836940.9289443     
  -1318188728.3432691       -1642822.3634413481        1426789215.9469762     
  -1888628933.9358592       -12173198.812224030        1358410487.7773359     
  -1828453241.7922306       -8563876.0510927439        1352434614.4108369     
  -1768561118.5594156       -5899782.9926692247        1350961930.0751493     
  -1708952564.2374120       -4180919.6369522810        1353992434.7702739     
  -1649627578.8262186       -3407285.9839353561        1361526128.4962113     
  -2265454825.4991884       -13944269.835160494        1290934258.6512766     
  -2192902521.2884812       -8609619.9767471552        1284829234.2932858     
  -2120944713.3968430       -5256624.5152324438        1283343339.3182483     
  -2049581401.8242755       -3885283.4506185055        1286476573.7261658     
  -1978812586.5707805       -4495596.7829096317        1294228937.5170357     
  -2641351906.9200420       -15436697.815355420        1222874920.5686889     
  -2556091732.4932733       -8277343.4149632454        1216277996.5762355     
  -2471736981.7938361       -4136068.1056646109        1214416142.3188801     
  -2388287654.8217268       -3012871.8874671459        1217289357.7966187     
  -2305743751.5769472       -4907754.7603635788        1224897643.0094557     
  -3016320178.1984124       -16650482.752805352        1154232473.5295696     
  -2918020875.4066105       -7567046.3657412529        1146780901.2596877     
  -2820937923.7503939       -2538113.7639646530        1144180339.0770426     
  -2725071323.2297683       -1563684.9474855661        1146430786.9816382     
  -2630421073.8447323       -4643759.9163098335        1153532244.9734709     
  -1318188728.3432691       -1642822.3634413481        1426789215.9469762     
  -1269399767.7513661       -6727.4720375537872        1418797189.4130151     
  -1221161568.2418678       -206502.85531282425        1415564035.5688999     
  -1173474129.8147516       -2242148.5131964087        1417089754.4146297     
  -1126337452.4700367       -6113664.4457509518        1423374345.9502039     
  -1649627578.8262186       -3407285.9839353561        1361526128.4962113     
  -1589067815.0322154       -3056052.7748685479        1353778761.2646027     
  -1528747229.9925327       -3502082.0802119374        1350623491.8868430     
  -1468665823.7071798       -4745373.8999808431        1352060320.3629358     
  -1408823596.1761501       -6785928.2341668010        1358089246.6928754     
  -1978812586.5707805       -4495596.7829096317        1294228937.5170357     
  -1906958519.1060822       -5572175.1155838966        1287089742.3038607     
  -1835032048.0676396       -6407408.2024499178        1284375870.1085396     
  -1763033173.4554563       -7001296.0435096025        1286087320.9310732     
  -1690961895.2695293       -7353838.6387606859        1292224094.7714632     
  -2305743751.5769472       -4907754.7603635788        1224897643.0094557     
  -2223071879.9729714       -7555094.4942115545        1218730132.5307927     
  -2140016022.4671841       -8922481.2220226526        1216821170.2339883     
  -2056576179.0595851       -9009914.9437940121        1219170756.1190445     
  -1972752349.7501755       -7817395.6595321894        1225778890.1859598     
  -2630421073.8447323       -4643759.9163098335        1153532244.9734709     
  -2537407897.6328902       -9004810.9107545614        1148699931.9453962     
  -2443699153.1911664       -11047301.138919950        1147959392.2631876     
  -2349294840.5195694       -10771230.600841880        1151310625.9268470     
  -2254194959.6180892       -8176599.2964905500        1158753632.9363670     
  -1126337452.4700367       -6113664.4457509518        1423374345.9502039     
  -1075984917.3038890       -9336121.2053656578        1417665136.5681622     
  -1025289773.6972044       -11416549.829859436        1416255646.5517612     
  -974252021.64999342       -12354950.319264054        1419145875.9010017     
  -922871661.16225088       -12151322.673563957        1426335824.6158831     
  -1408823596.1761501       -6785928.2341668010        1358089246.6928754     
  -1346512489.4304738       -8603347.6648834348        1352779720.7771394     
  -1284303431.7508595       -10760930.649137676        1352045137.3271890     
  -1222196423.1373081       -13258677.186939776        1355885496.3430309     
  -1160191463.5898223       -16096587.278287351        1364300797.8246605     
  -1690961895.2695293       -7353838.6387606859        1292224094.7714632     
  -1615905865.2296188       -7530315.2261691689        1286795485.2310035     
  -1541396541.7623630       -9529147.0557666421        1286217041.2564769     
  -1467433924.8677666       -13350334.127555192        1290488762.8478885     
  -1394018014.5458233       -18993876.441529512        1299610650.0052335     
  -1972752349.7501755       -7817395.6595321894        1225778890.1859598     
  -1884165044.7013235       -6117023.8892313242        1219712429.9297507     
  -1796569103.7317204       -7721199.0497503281        1218771358.3396237     
  -1709964526.8413696       -12629921.141115665        1222955675.4155841     
  -1624351314.0302672       -20843190.163306236        1232265381.1576300     
  -2254194959.6180892       -8176599.2964905500        1158753632.9363670     
  -2151290027.8455849       -4363473.6540453434        1151530554.8733826     
  -2049821117.6589296       -5337086.6310961246        1149708088.5766313     
  -1949788229.0581141       -11097438.227613688        1153286234.0461080     
  -1851191362.0431457       -21644528.443620086        1162264991.2818208     
  -922871661.16225088       -12151322.673563957        1426335824.6158831     
  -875641010.61510909       -14360907.772634566        1417079724.0346925     
  -829523276.04426420       -20280212.792697191        1409548616.4021966     
  -784518457.44971550       -29909237.733747482        1403742501.7183881     
  -740626554.83147252       -43247982.595814109        1399661379.9832754     
  -1160191463.5898223       -16096587.278287351        1364300797.8246605     
  -1107101316.9770770       -22182413.080762923        1356433014.7324052     
  -1054287234.5932500       -29188452.979631186        1352242060.4427114     
  -1001749216.4383446       -37114706.974898219        1351727934.9555690     
  -949487262.51234508       -45961175.066528738        1354890638.2709935     
  -1394018014.5458233       -18993876.441529512        1299610650.0052335     
  -1329491697.9992974       -27282940.786983669        1294107511.4405391     
  -1264404593.9343026       -33702713.404201806        1294233037.5322621     
  -1198756702.3508346       -38253194.293187141        1299987228.2804101     
  -1132548023.2489059       -40934383.453956485        1311370083.6849840     
  -1624351314.0302672       -20843190.163306236        1232265381.1576300     
  -1542812153.6817660       -29662490.891267240        1230103214.1590962     
  -1459875354.0674143       -33822994.066388607        1235521547.6708546     
  -1375540915.1872003       -33324699.688648939        1248520381.6929002     
  -1289808837.0411441       -28167607.758084118        1269099716.2252383     
  -1851191362.0431457       -21644528.443620086        1162264991.2818208     
  -1747062684.0244853       -29321063.393639445        1164420122.8880703     
  -1640699514.9925826       -29549294.966187239        1176107590.8584802     
  -1532101854.9474416       -22329223.161273658        1197327395.1930394     
  -1421269703.8890684       -7660847.9789175391        1228079535.8917651     
  -3768419309.9547157       -1130525792.9864147        800601164.02709913     
  -3779232934.8244009       -1008623029.0849202        884883749.99757111     
  -3790660528.6976771       -888766828.52872789        974102560.28467059     
  -3802702091.5745435       -770957191.31783795        1068257594.8883984     
  -3815357623.4549999       -655194117.45224941        1167348853.8087542     
  -4339917154.6594810       -1301975146.3978443        858823176.11313343     
  -4335323721.4910774       -1125654517.8988717        942431177.30502737     
  -4331873470.7058010       -953144497.34366536        1020396568.5332516     
  -4329566402.3036575       -784445084.73222661        1092719349.7978065     
  -4328402516.2846432       -619556280.06455410        1159399521.0986915     
  -4895301178.4009361       -1468590353.5202808        936506106.46007276     
  -4905525927.9952936       -1246919432.6640851        1018822107.2639260     
  -4917423073.3523197       -1030823164.3501207        1084916663.8238125     
  -4930992614.4720144       -820301548.57838738        1134789776.1397314     
  -4946234551.3543816       -615354585.34888768        1168441444.2116830     
  -5434571381.1790838       -1630371414.3537252        1033649955.0679170     
  -5489839554.3370514       -1372417773.3805611        1114056539.8742673     
  -5547309336.6372290       -1121802829.5480933        1167662846.1563525     
  -5606980728.0796137       -878526582.85632193        1194468873.9141731     
  -5668853728.6642084       -642589033.30524755        1194474623.1477289     
  -5957727762.9939222       -1787318328.8981767        1150254721.9366663     
  -6088264600.5163517       -1502149540.0482993        1228134475.1360505     
  -6221532260.5605288       -1226083492.9375834        1268635115.5308726     
  -6357530743.1264563       -959120187.56602883        1271756643.1211321     
  -6496260048.2141304       -701259623.93363571        1237499057.9068289     
  -3815357623.4549999       -655194117.45224941        1167348853.8087542     
  -3798266027.7591372       -537204628.86993182        1189029113.8485963     
  -3784976544.5252872       -431888848.49432278        1205811226.6018419     
  -3775489173.7534494       -339246776.32542396        1217695192.0684917     
  -3769803915.4436250       -259278412.36323547        1224681010.2485452     
  -4328402516.2846432       -619556280.06455410        1159399521.0986915     
  -4298425745.8114958       -463796176.50468719        1141513472.1873810     
  -4279023968.6326094       -343286050.59235716        1129720947.7042203     
  -4270197184.7479815       -258025902.32756472        1124021947.6492107     
  -4271945394.1576180       -208015731.71031046        1124416472.0223513     
  -4946234551.3543816       -615354585.34888768        1168441444.2116830     
  -4871967829.7761002       -412402433.91311550        1103087392.0449302     
  -4815048982.3243294       -267276529.56570911        1054818536.0210743     
  -4775478008.9990654       -179976872.30666757        1023634876.1401142     
  -4753254909.8003149       -150503462.13599396        1009536412.4020517     
  -5668853728.6642084       -642589033.30524755        1194474623.1477289     
  -5518892279.6529484       -383023401.09521699        1073750873.4212434     
  -5393051585.6004457       -203860285.41437984        981103991.55240214     
  -5291331646.5067024       -105099686.26273775        916533977.54120255     
  -5213732462.3717184       -86741603.640288591        880040831.38764822     
  -6496260048.2141304       -701259623.93363571        1237499057.9068289     
  -6239199095.4420443       -375659078.05099297        1053503916.3163210     
  -6013031778.4609652       -153037318.13837409        908577314.29820466     
  -5817758097.2708902       -33394344.195772648        802719251.85247660     
  -5653378051.8718262       -16730156.223199368        735929728.97913802     
  -3769803915.4436250       -259278412.36323547        1224681010.2485452     
  -3662642902.2458496       -166548595.93489969        1191857845.1947730     
  -3563337759.4433632       -100005014.15752172        1169332754.3881624     
  -3471888487.0361614       -59647667.031097412        1157105737.8287132     
  -3388295085.0242500       -45476554.555636048        1155176795.5164273     
  -4271945394.1576180       -208015731.71031046        1124416472.0223513     
  -4149233165.4290514       -143523863.26057792        1090621100.3266900     
  -4031016119.4121475       -94015937.183052778        1065006577.4026150     
  -3917294256.1069078       -59491953.477738142        1047572903.2501249     
  -3808067575.5133300       -39951912.144630671        1038320077.8692218     
  -4753254909.8003149       -150503462.13599396        1009536412.4020517     
  -4621040681.1854639       -116064306.35821867        978689636.36206484     
  -4489960947.5986471       -85406800.673901558        953906483.61808681     
  -4360015709.0398693       -58530945.083038568        935186954.17011845     
  -4231204965.5091305       -35436739.585637093        922531048.01815891     
  -5213732462.3717184       -86741603.640288591        880040831.38764822     
  -5078065449.5150833       -84169925.227823019        856063453.30089724     
  -4940172244.0028601       -74177604.630061865        836032473.03457963     
  -4800052845.8350458       -56764641.847006083        819947890.58869529     
  -4657707255.0116482       -31931036.878659010        807809705.96324396     
  -5653378051.8718262       -16730156.223199368        735929728.97913802     
  -5520307470.4179115       -47840719.869388103        722742551.14318705     
  -5381650008.6247835       -60328349.051537037        711384545.65209198     
  -5237405666.4924402       -54193043.769635677        701855712.50585389     
  -5087574444.0208883       -29434804.023700476        694156051.70447123     
  -3388295085.0242500       -45476554.555636048        1155176795.5164273     
  -3295828017.7545362       -40025568.060748816        1148346869.8147349     
  -3203009844.1936617       -33404227.261988282        1145912840.9163611     
  -3109840564.3416195       -25612532.159335732        1147874708.8213058     
  -3016320178.1984124       -16650482.752805352        1154232473.5295696     
  -3808067575.5133300       -39951912.144630671        1038320077.8692218     
  -3702426824.5769567       -29266987.995044947        1030214374.7951303     
  -3597420124.9638896       -20695568.256475687        1026638545.9717580     
  -3493047476.6741238       -14237652.928914309        1027592591.3991054     
  -3389308879.7076621       -9893242.0123629570        1033076511.0771736     
  -4231204965.5091305       -35436739.585637093        922531048.01815891     
  -4112007738.1992373       -19403039.969295502        912000217.02145684     
  -3994429719.8271155       -8766703.4788603783        906133237.72287440     
  -3878470910.3927655       -3527730.1143286228        904930110.12241316     
  -3764131309.8961878       -3686119.8757035732        908390834.22007346     
  -4657707255.0116482       -31931036.878659010        807809705.96324396     
  -4524570758.6213751       -10433723.983504534        793704396.49371564     
  -4394038628.7833395        2382367.0708544254        784396916.16971064     
  -4266110865.4975433        6517236.2844140530        779887264.99122608     
  -4140787468.7639894        1970883.6571698189        780175442.95826614     
  -5087574444.0208883       -29434804.023700476        694156051.70447123     
  -4940115885.8433733       -2359040.0376710892        675326913.21190774     
  -4796246851.8325644        12751643.392669678        661429581.31226563     
  -4655967341.9884644        15897246.267313004        652464056.00554919     
  -4519277356.3110695        7077768.5862679482        648430337.29175508     
  -3016320178.1984124       -16650482.752805352        1154232473.5295696     
  -2918020875.4066105       -7567046.3657412529        1146780901.2596877     
  -2820937923.7503939       -2538113.7639646530        1144180339.0770426     
  -2725071323.2297683       -1563684.9474855661        1146430786.9816382     
  -2630421073.8447323       -4643759.9163098335        1153532244.9734709     
  -3389308879.7076621       -9893242.0123629570        1033076511.0771736     
  -3279855027.8096256       -5424155.6569409370        1024003584.5899326     
  -3170815410.9886813       -2335852.8918325901        1019724920.4121660     
  -3062190029.2448268       -628333.71702122688        1020240518.5438766     
  -2953978882.5780659       -301598.13252449036        1025550378.9850599     
  -3764131309.8961878       -3686119.8757035732        908390834.22007346     
  -3643685045.3998075       -3880024.5042943954        898632355.58371902     
  -3522850899.9220276       -2780992.5282082558        893611391.47907674     
  -3401628873.4628401       -389023.94743990898        893327941.90614617     
  -3280018966.0222511        3295881.2380056381        897782006.86493099     
  -4140787468.7639894        1970883.6571698189        780175442.95826614     
  -4009510928.1771655       -2934652.9078023434        770667214.24104512     
  -3877044390.5504394       -3873532.6731052399        765839752.27776992     
  -3743387855.8838162       -845755.63874769211        765693057.06844771     
  -3608541324.1772952        6148678.1952743530        770227128.61307180     
  -4519277356.3110695        7077768.5862679482        648430337.29175508     
  -4377332676.1416912       -2588040.8674588203        640108160.56191003     
  -4233395882.8739161       -5613473.3265233040        636410002.80824852     
  -4087466976.5077491       -1998528.7909417152        637335864.03077972     
  -3939545957.0431819        8256792.7392971516        642885744.22949409     
  -2630421073.8447323       -4643759.9163098335        1153532244.9734709     
  -2537407897.6328902       -9004810.9107545614        1148699931.9453962     
  -2443699153.1911664       -11047301.138919950        1147959392.2631876     
  -2349294840.5195694       -10771230.600841880        1151310625.9268470     
  -2254194959.6180892       -8176599.2964905500        1158753632.9363670     
  -2953978882.5780659       -301598.13252449036        1025550378.9850599     
  -2849417195.3203864       -1685446.4261294603        1020266267.9478796     
  -2744847259.3957572       -3041799.1632343531        1019086806.8229755     
  -2640269074.8041778       -4370656.3438389301        1022011995.6103508     
  -2535682641.5456476       -5672017.9679400921        1029041834.3100044     
  -3280018966.0222511        3295881.2380056381        897782006.86493099     
  -3163871977.5289869        4900272.7021478415        891244224.99522543     
  -3048404059.9316969        4241094.5130468607        888823969.60421050     
  -2933615213.2303858        1318346.6706773043        890521240.69188821     
  -2819505437.4250512       -3867970.8249399662        896336038.25825500     
  -3608541324.1772952        6148678.1952743530        770227128.61307180     
  -3480772244.2586894        10752346.474101305        761633803.08742976     
  -3354369554.7989888        10801379.889919043        757170880.60688913     
  -3229333255.7981939        6295778.4427219629        756838361.17145443     
  -3105663347.2563038       -2764457.8674960136        760636244.78112245     
  -3939545957.0431819        8256792.7392971516        642885744.22949409     
  -3800117995.5094891        15870774.889732361        631435002.22449458     
  -3662743743.9976277        16639056.967391729        624127539.83101380     
  -3527423202.5076027        10561638.972275972        620963357.04905224     
  -3394156371.0394039       -2361479.0956065655        621942453.87860358     
  -2254194959.6180892       -8176599.2964905500        1158753632.9363670     
  -2151290027.8455849       -4363473.6540453434        1151530554.8733826     
  -2049821117.6589296       -5337086.6310961246        1149708088.5766313     
  -1949788229.0581141       -11097438.227613688        1153286234.0461080     
  -1851191362.0431457       -21644528.443620086        1162264991.2818208     
  -2535682641.5456476       -5672017.9679400921        1029041834.3100044     
  -2420653463.2673225       -4489896.2243161201        1019475366.5157857     
  -2306060670.0108185       -4762391.2200914621        1014441785.1672339     
  -2191904261.7761364       -6489502.9552677870        1013941090.2643450     
  -2078184238.5632744       -9671231.4298576117        1017973281.8071227     
  -2819505437.4250512       -3867970.8249399662        896336038.25825500     
  -2694831227.8425250       -6060617.5406154394        885592423.39083219     
  -2569593766.7177963       -6375759.1156232357        878513969.64850545     
  -2443793054.0508609       -4813395.5499426126        875100677.03128111     
  -2317429089.8417244       -1373526.8435846567        875352545.53915179     
  -3105663347.2563038       -2764457.8674960136        760636244.78112245     
  -2973823321.5711913       -9075637.6029626131        749881725.49851990     
  -2840420407.7798543       -10177190.317679167        741924642.02045310     
  -2705454605.8822832       -6069116.0116215944        736764994.34691489     
  -2568925915.8784890        3248585.3151904345        734402782.47791660     
  -3394156371.0394039       -2361479.0956065655        621942453.87860358     
  -3257629744.4533215       -13534956.411342382        612343272.83885133     
  -3118540593.1969929       -16166684.826251149        604673802.28306794     
  -2976888917.2704091       -10256664.340315580        598934042.21125042     
  -2832674716.6735721        4195105.0464699268        595123992.62340307     
  -1851191362.0431457       -21644528.443620086        1162264991.2818208     
  -1747062684.0244853       -29321063.393639445        1164420122.8880703     
  -1640699514.9925826       -29549294.966187239        1176107590.8584802     
  -1532101854.9474416       -22329223.161273658        1197327395.1930394     
  -1421269703.8890684       -7660847.9789175391        1228079535.8917651     
  -2078184238.5632744       -9671231.4298576117        1017973281.8071227     
  -1953987717.7691121       -9979822.7270580530        1014630376.7437391     
  -1829532710.0390680       -9426790.9046533108        1015491642.7620890     
  -1704819215.3731580       -8012135.9626778364        1020557079.8621687     
  -1579847233.7713480       -5735857.9010826349        1029826688.0439845     
  -2317429089.8417244       -1373526.8435846567        875352545.53915179     
  -2188388055.6504078        1118826.6985225677        864206265.71587992     
  -2061064538.6005712       -2113876.8976339102        851935991.69191968     
  -1935458538.6922238       -11071637.632068276        838541723.46726954     
  -1811570055.9253442       -25754455.504769325        824023461.04193604     
  -2568925915.8784890        3248585.3151904345        734402782.47791660     
  -2450263697.6683669        3974884.8831009865        713147789.80449831     
  -2335295000.6770864       -7610552.9451202154        685440637.64797115     
  -2224019824.9046421       -31507728.169467092        651281326.00833619     
  -2116438170.3510399       -67716640.789962292        610669854.88558948     
  -2832674716.6735721        4195105.0464699268        595123992.62340307     
  -2739614643.8229890       -1411648.1733195782        561454949.00958681     
  -2652224096.2686024       -25916819.047088504        516005580.63024616     
  -2570503074.0104256       -69320407.574877620        458775887.48536950     
  -2494451577.0484419       -131622413.75666738        389765869.57497102     
  -5957727762.9939222       -1787318328.8981767        1150254721.9366663     
  -6088264600.5163517       -1502149540.0482993        1228134475.1360505     
  -6221532260.5605288       -1226083492.9375834        1268635115.5308726     
  -6357530743.1264563       -959120187.56602883        1271756643.1211321     
  -6496260048.2141304       -701259623.93363571        1237499057.9068289     
  -6810264326.3943615       -2043079297.9183085        1353986188.1336055     
  -6828318761.0897655       -1395444148.4141855        1202931470.6235571     
  -6897723013.3984118       -918975057.62086582        1092134707.9417262     
  -7018477083.3202972       -613672025.53835011        1021595900.0881126     
  -7190580970.8554258       -479535052.16663742        991315047.06271684     
  -8337675073.9293108       -2501302522.1787934        1712510134.7260199     
  -8021426912.5611763       -1424654954.0494704        1275798785.5664639     
  -7805147563.8977757       -681236761.60259295        956982458.86790538     
  -7688837027.9391079       -271047944.83816147        756061154.63034463     
  -7672495304.6851740       -194088503.75617361        673034872.85378027     
  -10539960005.598776       -3161988001.6796327        2225826561.7139096     
  -9667589054.9305859       -1589781956.9541550        1446736419.9647713     
  -8943805912.0586224       -512868604.88276625        863178368.30941057     
  -8368610576.9828911        68752054.534534931        475152406.74782670     
  -7942003049.7033787        155080021.29775143        282658535.28002101     
  -13417119121.402748       -4025135736.4208241        2893935469.0972743     
  -11766805188.197992       -1890825157.1282387        1715744373.8184791     
  -10313698057.880955       -413870587.46138239        810722436.26624084     
  -9057797730.4516354        405727972.57974339        178869656.44056022     
  -7999104205.9100351        567970522.99514198       -179813965.65856239     
  -6496260048.2141304       -701259623.93363571        1237499057.9068289     
  -6239199095.4420443       -375659078.05099297        1053503916.3163210     
  -6013031778.4609652       -153037318.13837409        908577314.29820466     
  -5817758097.2708902       -33394344.195772648        802719251.85247660     
  -5653378051.8718262       -16730156.223199368        735929728.97913802     
  -7190580970.8554258       -479535052.16663742        991315047.06271684     
  -6900321966.2413874       -304040946.99484754        847171924.79447234     
  -6622901101.7138948       -171340642.11153507        724137173.76553547     
  -6358318377.2729435       -81434137.516699076        622210793.97590482     
  -6106573792.9185362       -34321433.210339308        541392785.42558289     
  -7672495304.6851740       -194088503.75617361        673034872.85378027     
  -7400353014.8951349       -184095269.29502201        589808514.89633894     
  -7122993369.4871769       -156710849.44080353        509730359.84512335     
  -6840416368.4612961       -111935244.19351006        432800407.70013404     
  -6552622011.8174973       -49768453.553153515        359018658.46136850     
  -7942003049.7033787        155080021.29775143        282658535.28002101     
  -7739292241.4032888       -15822044.951519489        281413686.62192398     
  -7513308581.7808104       -109147940.12617779        265356872.53697127     
  -7264052070.8359528       -124897664.22622108        234488093.02516103     
  -6991522708.5687065       -63071217.251645565        188807348.08649430     
  -7999104205.9100351        567970522.99514198       -179813965.65856239     
  -7917139645.7658405        200778726.03566313       -78012560.028774753     
  -7793846738.5947990       -28651914.167660236       -8983288.1589247417     
  -7629225484.3969049       -120321397.61481047        27273849.950987086     
  -7423275883.1721649       -74229724.305808544        30758854.300958782     
  -5653378051.8718262       -16730156.223199368        735929728.97913802     
  -5520307470.4179115       -47840719.869388103        722742551.14318705     
  -5381650008.6247835       -60328349.051537037        711384545.65209198     
  -5237405666.4924402       -54193043.769635677        701855712.50585389     
  -5087574444.0208883       -29434804.023700476        694156051.70447123     
  -6106573792.9185362       -34321433.210339308        541392785.42558289     
  -5958856035.0587645       -36012142.766640425        535097478.98764813     
  -5809901477.2757044       -33580185.911980391        531450861.88092542     
  -5659710119.5693569       -27025562.646364927        530452934.10541379     
  -5508281961.9397211       -16348272.969787121        532103695.66111696     
  -6552622011.8174973       -49768453.553153515        359018658.46136850     
  -6387915600.4479961       -21336865.888407469        354540129.60286987     
  -6226322469.5711308       -3282879.8657832146        353529807.06194079     
  -6067842619.1869020        4393504.5147194862        355987690.83857918     
  -5912476049.2953100        1692287.2530941963        361913780.93278730     
  -6991522708.5687065       -63071217.251645565        188807348.08649430     
  -6807486166.5855980       -3814889.2346792221        181070502.98885208     
  -6630912985.5110559        30563569.087069511        177621381.19513711     
  -6461803165.3450737        40064157.713617563        178459982.70534232     
  -6300156706.0876532        24686876.644956112        183586307.51947770     
  -7423275883.1721649       -74229724.305808544        30758854.300958782     
  -7217567733.4715843        16553787.194523335        14688599.145599039     
  -7023673025.0954828        67959160.946569920        3725584.2805166929     
  -6841591758.0438709        79986396.950326920       -2130190.2942855782     
  -6671323932.3167496        52635495.205783844       -2878724.5788090937     
  -5087574444.0208883       -29434804.023700476        694156051.70447123     
  -4940115885.8433733       -2359040.0376710892        675326913.21190774     
  -4796246851.8325644        12751643.392669678        661429581.31226563     
  -4655967341.9884644        15897246.267313004        652464056.00554919     
  -4519277356.3110695        7077768.5862679482        648430337.29175508     
  -5508281961.9397211       -16348272.969787121        532103695.66111696     
  -5352317656.8127079       -5056652.4998793602        516112663.45685315     
  -5198082358.2831841        471612.64505052567        505375201.58607733     
  -5045576066.3511581        236522.46499156952        499891310.04879248     
  -4894798781.0166245       -5761923.0400500298        499660988.84499592     
  -5912476049.2953100        1692287.2530941963        361913780.93278730     
  -5747086672.2457495       -2524438.3011982441        350931458.84756953     
  -5581565784.2244701       -6302793.9497714043        345524470.83641106     
  -5415913385.2314730       -9642779.6926157475        345692816.89930147     
  -5250129475.2667608       -12544395.529743195        351436497.03625029     
  -6300156706.0876532        24686876.644956112        183586307.51947770     
  -6124422932.1424990        5237602.5583686829        179783299.38405493     
  -5946697129.6564236       -7571576.3917951584        181877389.06325766     
  -5766979298.6294079       -13740660.205512762        189868576.55707932     
  -5585269439.0614710       -13269648.882807732        203756861.86551893     
  -6671323932.3167496        52635495.205783844       -2878724.5788090937     
  -6484326436.5029650        18229470.078819513        2668185.0663151653     
  -6293476394.5790339       -3334734.6810047626        14433956.266624132     
  -6098773806.5449619       -12057119.073691845        32418589.022115808     
  -5900218672.4007511       -7937683.0992407799        56622083.332800679     
  -4519277356.3110695        7077768.5862679482        648430337.29175508     
  -4377332676.1416912       -2588040.8674588203        640108160.56191003     
  -4233395882.8739161       -5613473.3265233040        636410002.80824852     
  -4087466976.5077491       -1998528.7909417152        637335864.03077972     
  -3939545957.0431819        8256792.7392971516        642885744.22949409     
  -4894798781.0166245       -5761923.0400500298        499660988.84499592     
  -4741167223.6362724       -11298287.633213997        499819064.66619790     
  -4586066572.2091112       -11937672.070342302        503390078.24414080     
  -4429496826.7351322       -7680076.3514182568        510374029.57882494     
  -4271457987.2143421        1474499.5235381126        520770918.67025191     
  -5250129475.2667608       -12544395.529743195        351436497.03625029     
  -5088271272.7309895       -14989384.879014492        359464636.51498657     
  -4925466995.1999950       -14280790.910853624        369694632.53101778     
  -4761716642.6737747       -10418613.625274181        382126485.08434182     
  -4597020215.1523190       -3402853.0222523212        396760194.17496347     
  -5585269439.0614710       -13269648.882807732        203756861.86551893     
  -5418644823.4258480       -13661332.604864836        219044876.10827336     
  -5251597151.8465805       -12642829.848094225        235323665.66887975     
  -5084126424.3236666       -10214140.612507343        252593230.54733384     
  -4916232640.8570995       -6375264.8980853558        270853570.74363816     
  -5900218672.4007511       -7937683.0992407799        56622083.332800679     
  -5732287875.7208328       -7314130.8107330799        78559783.446060210     
  -5564457042.1488533       -7023788.8820197582        100277177.65772678     
  -5396726171.6848135       -7066657.3131058216        121774265.96779469     
  -5229095264.3287077       -7442736.1039774418        143051048.37626755     
  -3939545957.0431819        8256792.7392971516        642885744.22949409     
  -3800117995.5094891        15870774.889732361        631435002.22449458     
  -3662743743.9976277        16639056.967391729        624127539.83101380     
  -3527423202.5076027        10561638.972275972        620963357.04905224     
  -3394156371.0394039       -2361479.0956065655        621942453.87860358     
  -4271457987.2143421        1474499.5235381126        520770918.67025191     
  -4120831062.6610270        8014386.9071910381        509625157.81399453     
  -3971931109.5178666        8797702.9236309528        503198572.30749947     
  -3824758127.7848682        3824447.5728697777        501491162.15076828     
  -3679312117.4620366       -6905379.1450929642        504502927.34380007     
  -4597020215.1523190       -3402853.0222523212        396760194.17496347     
  -4433548911.1843834        2556564.5131139755        386300609.51440126     
  -4271477840.0149493        3848539.3868134022        381136095.94184715     
  -4110807001.6439958        473071.59891891479        381266653.45729554     
  -3951536396.0715375       -7569838.8506336212        386692282.06074744     
  -4916232640.8570995       -6375264.8980853558        270853570.74363816     
  -4738271541.0795765       -502692.29252195358        261461357.32571301     
  -4561383935.4888725        1791566.3569538593        257940110.73403910     
  -4385569824.0849781        507511.05040645599        260289830.96862048     
  -4210829206.8679175       -4354858.2122547626        268510518.02945524     
  -5229095264.3287077       -7442736.1039774418        143051048.37626755     
  -5034998952.3465977       -1163383.5096929073        135107401.24793157     
  -4841649395.9396448        2626783.8340260983        133610616.68409708     
  -4649046595.1078281        3927765.9273245335        138560694.68475261     
  -4457190549.8511658        2739562.7700839043        149957635.24991137     
  -3394156371.0394039       -2361479.0956065655        621942453.87860358     
  -3257629744.4533215       -13534956.411342382        612343272.83885133     
  -3118540593.1969929       -16166684.826251149        604673802.28306794     
  -2976888917.2704091       -10256664.340315580        598934042.21125042     
  -2832674716.6735721        4195105.0464699268        595123992.62340307     
  -3679312117.4620366       -6905379.1450929642        504502927.34380007     
  -3534828680.4886088       -17241767.102751970        503228368.81121063     
  -3388168462.8093534       -20322219.374303102        505951548.70228916     
  -3239331464.4242516       -16146735.959704518        512672467.01702827     
  -3088317685.3333092       -4715316.8589655161        523391123.75543535     
  -3951536396.0715375       -7569838.8506336212        386692282.06074744     
  -3793187497.4544954       -15296542.073344707        393292311.41017818     
  -3633047562.0960274       -17053122.824628592        405958107.12296796     
  -3471116589.9961329       -12839581.104501963        424689669.19911486     
  -3307394581.1548066       -2655916.9129226208        449486997.63862747     
  -4210829206.8679175       -4354858.2122547626        268510518.02945524     
  -4032706195.3509774       -7699281.3231108189        282535100.63575023     
  -3853177891.0570240       -6359395.1772646904        304693477.54510856     
  -3672244293.9860578       -335199.77470040321        334985648.75752056     
  -3489905404.1380773        10373304.884568453        373411614.27299005     
  -4457190549.8511658        2739562.7700839043        149957635.24991137     
  -4253384774.1780481        5550015.1479461193        170956736.48792908     
  -4048559449.6923404        11758963.567795277        202157659.96870536     
  -3842714576.3940258        21366408.029645681        243560405.69223395     
  -3635850154.2830958        34372348.533568382        295164973.65851694     
  -2832674716.6735721        4195105.0464699268        595123992.62340307     
  -2739614643.8229890       -1411648.1733195782        561454949.00958681     
  -2652224096.2686024       -25916819.047088504        516005580.63024616     
  -2570503074.0104256       -69320407.574877620        458775887.48536950     
  -2494451577.0484419       -131622413.75666738        389765869.57497102     
  -3088317685.3333092       -4715316.8589655161        523391123.75543535     
  -3004414108.3448453       -17280321.388645053        505518755.69338572     
  -2925234584.3696957       -45592169.296037078        493989004.34367651     
  -2850779113.4078541       -89650860.581147790        488801869.70630062     
  -2781047695.4593410       -149456395.24397206        489957351.78127146     
  -3307394581.1548066       -2655916.9129226208        449486997.63862747     
  -3180867667.2345538       -6645222.9143263102        448514356.12505174     
  -3058119334.0447311       -23229798.017167330        472007272.80167347     
  -2939149581.5853415       -52409642.221425414        519965747.66849929     
  -2823958409.8563733       -94184755.527116299        592389780.72553504     
  -3489905404.1380773        10373304.884568453        373411614.27299005     
  -3268975320.4921298        30493647.249608994        390441750.30458176     
  -3050878345.2937164        41170294.789533496        450060386.00423861     
  -2835614478.5428638        42403247.504274607        552267521.37196112     
  -2623183720.2395353        34192505.393900275        697063156.40776920     
  -3635850154.2830958        34372348.533568382        295164973.65851694     
  -3268737068.1175447        94136289.103225946        331300938.23196834     
  -2903511618.1166544        147608109.12403536        428148343.95136034     
  -2540173804.2804198        194787808.59597957        585707190.81669748     
  -2178723626.6088405        235675387.51907408        803977478.82796466     
 </DataArray>
 <DataArray  type="Float64" Name="VM" NumberOfComponents="1" format="ascii">
   12935983344.445507     
   11340868093.753098     
   10210138726.596554     
   9272502351.8060913     
   8303524141.4064989     
   10130380527.272198     
   9321988251.8754139     
   8826263752.0124989     
   8443402064.5248404     
   8035595546.2448664     
   7982253136.9335575     
   7734866093.6036434     
   7669074575.6600523     
   7669584327.7674618     
   7666461975.9427462     
   6491517461.0113058     
   6586789535.4345894     
   6757406098.7194386     
   6961289063.5043116     
   7171777291.0484400     
   5657731758.5666399     
   5890914876.6535492     
   6116447626.3205366     
   6331869193.6568937     
   6536956979.7042303     
   8303524141.4064989     
   8020552558.8281221     
   7779575913.9278116     
   7569929410.5349283     
   7386632896.2274818     
   8035595546.2448664     
   7746742817.9854994     
   7473479763.4999714     
   7213857691.1135359     
   6967879776.5530806     
   7666461975.9427462     
   7381081769.0310297     
   7101043416.8346815     
   6826425894.5958557     
   6557431010.4621773     
   7171777291.0484400     
   6911006042.4806118     
   6658117483.7243528     
   6409251028.2721510     
   6161262331.8494883     
   6536956979.7042303     
   6328864417.9925337     
   6142987183.6797962     
   5965418579.8410587     
   5787154662.7533808     
   7386632896.2274818     
   7225903635.7300806     
   7057900942.0440311     
   6881934565.6139154     
   6697798639.6047153     
   6967879776.5530806     
   6812802083.4503345     
   6653364077.4751768     
   6489293938.1311369     
   6320540076.4594383     
   6557431010.4621773     
   6406771338.5648584     
   6254727169.2256136     
   6101276434.7488928     
   5946454929.6704226     
   6161262331.8494883     
   6012791271.8335819     
   5865859296.6211452     
   5720509865.1335983     
   5576808189.0405245     
   5787154662.7533808     
   5637291743.9408026     
   5491751468.1386156     
   5350451231.8081455     
   5213452432.5237474     
   6697798639.6047153     
   6493461999.6311102     
   6291859357.9931364     
   6093012936.5767660     
   5897069413.1341448     
   6320540076.4594383     
   6134951265.7581797     
   5951258384.5104799     
   5769501469.1313677     
   5589798465.3382092     
   5946454929.6704226     
   5777885606.1100950     
   5610427644.0428743     
   5444124989.6530676     
   5279079467.6025982     
   5576808189.0405245     
   5423963671.1739264     
   5271501132.4085741     
   5119443841.6154451     
   4967883668.9786692     
   5213452432.5237474     
   5075558681.1708736     
   4937385316.6815767     
   4798898799.2506504     
   4660181325.8410969     
   5897069413.1341448     
   5730250104.6274300     
   5563660199.9417391     
   5397319133.9346409     
   5231248913.4610605     
   5589798465.3382092     
   5425109635.7217398     
   5261099629.7525578     
   5097835433.3085642     
   4935395322.1649981     
   5279079467.6025982     
   5118799048.3840876     
   4959849991.8235445     
   4802343750.9612770     
   4646420077.1798506     
   4967883668.9786692     
   4814009192.7154064     
   4662360653.9058056     
   4513084001.7605209     
   4366378458.2424145     
   4660181325.8410969     
   4514303342.5379801     
   4371837277.8234129     
   4232943694.0768046     
   4097868314.9566526     
   5231248913.4610605     
   5039853195.7860069     
   4848489326.7773018     
   4657199424.2090702     
   4466119862.7931490     
   4935395322.1649981     
   4759613603.5111628     
   4584102708.4046707     
   4408934169.5321150     
   4234271714.5579329     
   4646420077.1798506     
   4485017455.2880011     
   4324091891.1606274     
   4163744903.0625129     
   4004169961.0534148     
   4366378458.2424145     
   4218233301.1557007     
   4070735113.2299886     
   3924015424.9888220     
   3778299602.6369743     
   4097868314.9566526     
   3962018420.6456752     
   3826946411.0783029     
   3692813023.7180409     
   3559877158.5438452     
   4466119862.7931490     
   4266450162.7890830     
   4069543142.5932379     
   3876465094.4743648     
   3688756925.1602979     
   4234271714.5579329     
   4058473531.1057744     
   3886004454.0984950     
   3717632796.8037620     
   3554442047.1309152     
   4004169961.0534148     
   3846364403.4960589     
   3692123596.6159697     
   3541938989.7682657     
   3396497896.6305213     
   3778299602.6369743     
   3632365743.8679490     
   3489871715.2927933     
   3351078026.2885194     
   3216361476.4905667     
   3559877158.5438452     
   3419522782.8560138     
   3282077370.7230430     
   3147634998.0027108     
   3016366166.1485267     
   3688756925.1602979     
   3366079658.7785320     
   3070941930.4743128     
   2830968231.7086344     
   2693509490.6300759     
   3554442047.1309152     
   3353229464.0209250     
   3169041477.6456423     
   3012929979.6823769     
   2903385743.8474936     
   3396497896.6305213     
   3271134670.3993835     
   3154356957.8335943     
   3049328086.4457903     
   2961488894.5031347     
   3216361476.4905667     
   3121143015.7320881     
   3026183103.1983690     
   2931925328.4690886     
   2839206352.3679919     
   3016366166.1485267     
   2906427028.3440065     
   2786577126.3570690     
   2658106092.2930775     
   2523299001.1237321     
   5657731758.5666399     
   5890914876.6535492     
   6116447626.3205366     
   6331869193.6568937     
   6536956979.7042303     
   5151466189.7650890     
   5311391665.2575855     
   5467943372.3080769     
   5618222841.5950651     
   5760762875.3369846     
   4643562234.6227331     
   4755648489.2995930     
   4868858692.7183456     
   4980554730.9928427     
   5088808860.8583727     
   4134282000.6725364     
   4224521594.5277491     
   4320687249.7996597     
   4421119651.8257437     
   4524361957.2384739     
   3625143322.2194085     
   3719833111.0551515     
   3825784596.5922041     
   3942932986.4337435     
   4071184508.3933601     
   6536956979.7042303     
   6328864417.9925337     
   6142987183.6797962     
   5965418579.8410587     
   5787154662.7533808     
   5760762875.3369846     
   5652418672.2244453     
   5560110656.5406265     
   5474780619.9372091     
   5390890313.5018215     
   5088808860.8583727     
   5054437683.6517887     
   5030617287.8617325     
   5012144388.4741068     
   4995817601.6469059     
   4524361957.2384739     
   4539508385.8187904     
   4559360750.9957790     
   4581442556.0335836     
   4604030120.2040148     
   4071184508.3933601     
   4112947634.3682990     
   4152087234.1786041     
   4187711675.9601650     
   4219093362.2179122     
   5787154662.7533808     
   5637291743.9408026     
   5491751468.1386156     
   5350451231.8081455     
   5213452432.5237474     
   5390890313.5018215     
   5250233024.2287035     
   5112847041.8188591     
   4978774941.2974396     
   4848113100.4034405     
   4995817601.6469059     
   4868742161.7284660     
   4744826992.4535275     
   4624034057.2810783     
   4506395651.0738020     
   4604030120.2040148     
   4495507106.7054787     
   4391089528.3940115     
   4290444394.3262849     
   4193466472.2621942     
   4219093362.2179122     
   4134520384.1087608     
   4056235033.6847687     
   3983360212.8477550     
   3915587323.8914542     
   5213452432.5237474     
   5075558681.1708736     
   4937385316.6815767     
   4798898799.2506504     
   4660181325.8410969     
   4848113100.4034405     
   4723826977.1920252     
   4600422254.4941063     
   4477970528.1021872     
   4356639399.8585091     
   4506395651.0738020     
   4395956309.4135265     
   4287628712.9751439     
   4181574141.9931602     
   4078031961.8308864     
   4193466472.2621942     
   4096887485.4512997     
   4003669478.9094582     
   3914037570.2172351     
   3828279296.8434353     
   3915587323.8914542     
   3832527705.9151335     
   3754030170.2516470     
   3680348131.4754901     
   3611786131.3209929     
   4660181325.8410969     
   4514303342.5379801     
   4371837277.8234129     
   4232943694.0768046     
   4097868314.9566526     
   4356639399.8585091     
   4224476742.4477291     
   4095851781.6655440     
   3970975296.5122156     
   3850135763.9218941     
   4078031961.8308864     
   3960421487.1455421     
   3846597579.9803882     
   3736824861.6704998     
   3631443678.6971574     
   3828279296.8434353     
   3726316919.0019445     
   3628523905.9989400     
   3535216532.3322554     
   3446789929.5303788     
   3611786131.3209929     
   3526774915.1601443     
   3446444971.1841083     
   3371151917.7633629     
   3301337763.1749582     
   4097868314.9566526     
   3962018420.6456752     
   3826946411.0783029     
   3692813023.7180409     
   3559877158.5438452     
   3850135763.9218941     
   3727408702.1591644     
   3606669788.0025535     
   3488176786.8040810     
   3372279640.1814070     
   3631443678.6971574     
   3522578955.7668581     
   3416977930.9500299     
   3314973922.7915149     
   3216982377.6812978     
   3446789929.5303788     
   3352194556.0664330     
   3262125134.9508510     
   3176952344.3314862     
   3097114501.5864172     
   3301337763.1749582     
   3220901351.1574512     
   3146144274.6805210     
   3077425297.1925068     
   3015155208.9835439     
   3559877158.5438452     
   3419522782.8560138     
   3282077370.7230430     
   3147634998.0027108     
   3016366166.1485267     
   3372279640.1814070     
   3240939112.2604637     
   3112963355.8097034     
   2988573177.5041084     
   2868061762.2522712     
   3216982377.6812978     
   3098167511.3405905     
   2983593489.0809903     
   2873636719.5143642     
   2768758194.1702328     
   3097114501.5864172     
   2994445750.5404000     
   2897280201.0645700     
   2806152387.0322285     
   2721700304.4326768     
   3015155208.9835439     
   2932021332.0157509     
   2855930878.1963458     
   2787537741.2783818     
   2727615916.2774072     
   3016366166.1485267     
   2906427028.3440065     
   2786577126.3570690     
   2658106092.2930775     
   2523299001.1237321     
   2868061762.2522712     
   2745776120.9186697     
   2616366565.0367174     
   2479855771.2192869     
   2336520952.7117372     
   2768758194.1702328     
   2651801068.6869650     
   2533973041.4540458     
   2415398658.8454289     
   2296266157.4441938     
   2721700304.4326768     
   2624326773.2909341     
   2534502350.4142056     
   2453044009.9927073     
   2380865357.8818998     
   2727615916.2774072     
   2658850128.0872369     
   2606525230.3564253     
   2571848348.0257359     
   2556114050.9910846     
   3625143322.2194085     
   3719833111.0551515     
   3825784596.5922041     
   3942932986.4337435     
   4071184508.3933601     
   3138114283.7265420     
   3255644989.0845690     
   3382602405.6312199     
   3518517722.1779294     
   3662933294.6635280     
   2694854352.9825845     
   2830616833.1848435     
   2973700207.2801981     
   3123023899.8306580     
   3277678187.1604834     
   2298852850.6183100     
   2449539172.1599412     
   2604955621.3538313     
   2763182948.8871202     
   2922793850.5064797     
   1955321164.0252888     
   2119365693.4141009     
   2284773565.4326143     
   2448589846.5065560     
   2608860307.9738159     
   4071184508.3933601     
   4112947634.3682990     
   4152087234.1786041     
   4187711675.9601650     
   4219093362.2179122     
   3662933294.6635280     
   3702600162.5811381     
   3740888686.4597521     
   3776903403.7075095     
   3809897244.5436139     
   3277678187.1604834     
   3321088163.4268203     
   3364715574.9956217     
   3407736914.7210169     
   3449473433.6606665     
   2922793850.5064797     
   2975797634.7285719     
   3030970078.9463782     
   3087624729.4900203     
   3145225360.1222181     
   2608860307.9738159     
   2676787847.0542650     
   2749139058.8080769     
   2825398962.6504455     
   2905210377.5656443     
   4219093362.2179122     
   4134520384.1087608     
   4056235033.6847687     
   3983360212.8477550     
   3915587323.8914542     
   3809897244.5436139     
   3756638472.8920603     
   3709230251.2531214     
   3667184293.7066641     
   3630399531.1782398     
   3449473433.6606665     
   3423025030.5928397     
   3401624538.1562676     
   3385037606.7194943     
   3373248247.7296867     
   3145225360.1222181     
   3141320065.4786134     
   3141077432.9641132     
   3144398668.9198437     
   3151272340.7353559     
   2905210377.5656443     
   2919865984.2497334     
   2936026233.2829866     
   2953642922.5799432     
   2972682323.6868138     
   3915587323.8914542     
   3832527705.9151335     
   3754030170.2516470     
   3680348131.4754901     
   3611786131.3209929     
   3630399531.1782398     
   3559978395.1322036     
   3494547498.4742012     
   3434359085.9988208     
   3379714993.8336067     
   3373248247.7296867     
   3315914790.7279854     
   3264117269.5372429     
   3218089760.7510381     
   3178116346.0042152     
   3151272340.7353559     
   3107293058.3200545     
   3069499688.4155402     
   3038083623.8415704     
   3013289537.3367615     
   2972682323.6868138     
   2941936308.8390508     
   2918103654.2448964     
   2901303340.2947960     
   2891715615.3446355     
   3611786131.3209929     
   3526774915.1601443     
   3446444971.1841083     
   3371151917.7633629     
   3301337763.1749582     
   3379714993.8336067     
   3309155789.7055130     
   3244024804.8264318     
   3184668145.3761477     
   3131498786.9904013     
   3178116346.0042152     
   3121277595.2742629     
   3070536641.7094698     
   3026202491.0295210     
   2988629941.1089654     
   3013289537.3367615     
   2968988718.7886853     
   2931331342.2677608     
   2900565088.6138797     
   2876964054.2487144     
   2891715615.3446355     
   2858192361.9976921     
   2831693798.6379418     
   2812392143.1747446     
   2800471615.2558956     
   3301337763.1749582     
   3220901351.1574512     
   3146144274.6805210     
   3077425297.1925068     
   3015155208.9835439     
   3131498786.9904013     
   3062877653.1979632     
   3000435884.3428326     
   2944518595.9322820     
   2895512682.0063539     
   2988629941.1089654     
   2931841746.5067706     
   2881751261.6366096     
   2838671135.0216489     
   2802945095.3143859     
   2876964054.2487144     
   2831685115.2683215     
   2793613856.4133453     
   2763011807.0232329     
   2740162311.5393205     
   2800471615.2558956     
   2765921903.7809887     
   2739059778.7749882     
   2720081973.1090121     
   2709201209.3156056     
   3015155208.9835439     
   2932021332.0157509     
   2855930878.1963458     
   2787537741.2783818     
   2727615916.2774072     
   2895512682.0063539     
   2828725078.7819576     
   2769487219.6414561     
   2718345624.1899652     
   2675916325.1322122     
   2802945095.3143859     
   2750739609.6692967     
   2706357100.9488444     
   2670212219.4765806     
   2642750879.3630919     
   2740162311.5393205     
   2700300802.7989564     
   2668296987.1913128     
   2644430240.2011471     
   2628987982.1975889     
   2709201209.3156056     
   2679012565.5404019     
   2656498436.0914516     
   2641818948.0648241     
   2635133174.1794696     
   2727615916.2774072     
   2658850128.0872369     
   2606525230.3564253     
   2571848348.0257359     
   2556114050.9910846     
   2675916325.1322122     
   2621992848.3971472     
   2581190140.3459916     
   2554171706.6602211     
   2541635740.8403668     
   2642750879.3630919     
   2599261816.4264865     
   2565610531.1198225     
   2542149471.3301225     
   2529239795.9664292     
   2628987982.1975889     
   2592554334.1855478     
   2562669532.6031537     
   2539528127.6347222     
   2523327781.7116742     
   2635133174.1794696     
   2603598010.9910188     
   2575301585.4095531     
   2550368064.8212395     
   2528936909.2854819     
   1955321164.0252888     
   2119365693.4141009     
   2284773565.4326143     
   2448589846.5065560     
   2608860307.9738159     
   1653770846.8224173     
   1820206871.4922600     
   1988335029.5726762     
   2155462783.4949441     
   2319835099.6622291     
   1393553202.9900892     
   1570898633.5050690     
   1749232348.6923780     
   1926552991.5069528     
   2101612011.3059728     
   1206983882.5137568     
   1398874946.5144417     
   1590315679.8009303     
   1780530094.9003870     
   1969060235.9765277     
   1136744668.7430987     
   1335004644.6271148     
   1533532537.4029224     
   1732328347.0705228     
   1931392073.6299140     
   2608860307.9738159     
   2676787847.0542650     
   2749139058.8080769     
   2825398962.6504455     
   2905210377.5656443     
   2319835099.6622291     
   2406811792.3382115     
   2496175734.5622578     
   2587534340.4315100     
   2680610476.9694929     
   2101612011.3059728     
   2205272804.7753572     
   2308822982.6705384     
   2412025265.6296129     
   2514712342.9916840     
   1969060235.9765277     
   2086131565.9131937     
   2200366174.1084986     
   2311688777.9575510     
   2420047122.0967336     
   1931392073.6299140     
   2057973730.5149784     
   2179184298.7956543     
   2295023778.4719415     
   2405492169.5438404     
   2905210377.5656443     
   2919865984.2497334     
   2936026233.2829866     
   2953642922.5799432     
   2972682323.6868138     
   2680610476.9694929     
   2702209312.2306509     
   2726290040.6858082     
   2752839406.3573003     
   2781852854.4435048     
   2514712342.9916840     
   2543066908.1806798     
   2574899144.6142197     
   2610212332.6815290     
   2649013462.3260379     
   2420047122.0967336     
   2453535320.1704140     
   2491491406.6229539     
   2533919042.2427325     
   2580822654.9840770     
   2405492169.5438404     
   2440985238.1691294     
   2481923461.2510095     
   2528306838.7894845     
   2580135370.7845497     
   2972682323.6868138     
   2941936308.8390508     
   2918103654.2448964     
   2901303340.2947960     
   2891715615.3446355     
   2781852854.4435048     
   2765374033.0950394     
   2755795524.4495287     
   2753197491.5558491     
   2757693184.4522443     
   2649013462.3260379     
   2644132814.8524003     
   2645886828.5238042     
   2654313570.7451925     
   2669464684.1426258     
   2580822654.9840770     
   2584281835.2172575     
   2593859832.2016916     
   2609565693.0056586     
   2631411543.5448866     
   2580135370.7845497     
   2588377368.2521553     
   2602015041.5610247     
   2621048390.7111635     
   2645477415.7025623     
   2891715615.3446355     
   2858192361.9976921     
   2831693798.6379418     
   2812392143.1747446     
   2800471615.2558956     
   2757693184.4522443     
   2733625416.0909476     
   2717005053.5962033     
   2707945015.3237925     
   2706563714.9928303     
   2669464684.1426258     
   2652910831.6024070     
   2644144451.5699692     
   2643221613.6725826     
   2650200103.2413630     
   2631411543.5448866     
   2619785699.5554466     
   2616205537.0462580     
   2620686024.5029283     
   2633242394.8477521     
   2645477415.7025623     
   2635733022.2257819     
   2634223076.0936570     
   2640947577.3061872     
   2655906525.8633742     
   2800471615.2558956     
   2765921903.7809887     
   2739059778.7749882     
   2720081973.1090121     
   2709201209.3156056     
   2706563714.9928303     
   2682433937.9434257     
   2666174307.0368252     
   2657904521.3961010     
   2657750966.7543793     
   2650200103.2413630     
   2634138023.2042313     
   2626016126.8387079     
   2625889768.7459149     
   2633816287.5917993     
   2633242394.8477521     
   2622474814.1508832     
   2619629552.5426259     
   2624720488.6595950     
   2637761812.8728828     
   2655906525.8633742     
   2647436507.8019381     
   2646811347.3790464     
   2654031044.5946946     
   2669095599.4488907     
   2709201209.3156056     
   2679012565.5404019     
   2656498436.0914516     
   2641818948.0648241     
   2635133174.1794696     
   2657750966.7543793     
   2636001931.3556252     
   2622425137.5483861     
   2617122724.9086642     
   2620193799.2365713     
   2633816287.5917993     
   2618796468.8590035     
   2612422204.6594086     
   2614743541.6869178     
   2625808045.0054655     
   2637761812.8728828     
   2627298370.5619674     
   2625960873.7707720     
   2633762805.0294232     
   2650716771.2738638     
   2669095599.4488907     
   2660676422.0186324     
   2661903674.6608419     
   2672777357.3755298     
   2693297470.1626935     
   2635133174.1794696     
   2603598010.9910188     
   2575301585.4095531     
   2550368064.8212395     
   2528936909.2854819     
   2620193799.2365713     
   2599832238.9075251     
   2585227911.0893803     
   2576482272.5901699     
   2573700767.2274146     
   2625808045.0054655     
   2615808793.8225689     
   2613986692.6705241     
   2620401169.3526926     
   2635109734.4338603     
   2650716771.2738638     
   2649150531.4459920     
   2658127865.0007153     
   2677667022.2583137     
   2707784497.1374383     
   2693297470.1626935     
   2697302797.0888290     
   2714273058.2338839     
   2744208253.5978584     
   2787108383.1807723     
   1136744668.7430987     
   1335004644.6271148     
   1533532537.4029224     
   1732328347.0705228     
   1931392073.6299140     
   1206983882.9367332     
   1398874946.6657753     
   1590315679.6960773     
   1780530094.5503948     
   1969060235.3873987     
   1393553203.5373766     
   1570898633.6927593     
   1749232348.5260286     
   1926552991.0004873     
   2101612010.4763839     
   1653770847.2880292     
   1820206871.6231899     
   1988335029.3678870     
   2155462782.9759011     
   2319835098.8665624     
   1955321164.3004897     
   2119365693.4269090     
   2284773565.1927018     
   2448589846.0554056     
   2608860307.3814564     
   1931392073.6299140     
   2057973730.5149784     
   2179184298.7956543     
   2295023778.4719415     
   2405492169.5438404     
   1969060235.3873987     
   2086131565.8228092     
   2200366174.4745054     
   2311688778.7437425     
   2420047123.2685299     
   2101612010.4763839     
   2205272804.6954980     
   2308822983.2505960     
   2412025266.7811003     
   2514712344.6254015     
   2319835098.8665624     
   2406811792.3587322     
   2496175735.2559953     
   2587534341.6422434     
   2680610478.5336065     
   2608860307.3814564     
   2676787847.2428141     
   2749139059.5745449     
   2825398963.7557549     
   2905210378.7514658     
   2405492169.5438404     
   2440985238.1691294     
   2481923461.2510095     
   2528306838.7894845     
   2580135370.7845497     
   2420047123.2685299     
   2453535320.6803904     
   2491491406.7204423     
   2533919042.1724644     
   2580822654.9890327     
   2514712344.6254015     
   2543066908.7489886     
   2574899144.6415019     
   2610212332.6942687     
   2649013462.8543262     
   2680610478.5336065     
   2702209312.3701153     
   2726290040.2119493     
   2752839406.1015477     
   2781852855.2545195     
   2905210378.7514658     
   2919865983.5081873     
   2936026231.7089434     
   2953642921.3135090     
   2972682323.9043841     
   2580135370.7845497     
   2588377368.2521553     
   2602015041.5610247     
   2621048390.7111635     
   2645477415.7025623     
   2580822654.9890327     
   2584281836.8201108     
   2593859834.6296101     
   2609565695.4880366     
   2631411545.3066339     
   2649013462.8543262     
   2644132818.2910910     
   2645886833.2859368     
   2654313575.2367482     
   2669464686.7566237     
   2781852855.2545195     
   2765374038.3617520     
   2755795531.7676363     
   2753197498.4815722     
   2757693188.5022502     
   2972682323.9043841     
   2941936315.7287989     
   2918103664.6202755     
   2901303350.8696051     
   2891715622.7394266     
   2645477415.7025623     
   2635733022.2257819     
   2634223076.0936570     
   2640947577.3061872     
   2655906525.8633742     
   2631411545.3066339     
   2619785696.7495131     
   2616205529.2375712     
   2620686011.2587891     
   2633242375.7395954     
   2669464686.7566237     
   2652910826.5635633     
   2644144438.1011424     
   2643221590.9849396     
   2650200070.5369682     
   2757693188.5022502     
   2733625411.0991020     
   2717005038.5352864     
   2707944989.1218014     
   2706563676.5347772     
   2891715622.7394266     
   2858192360.6832042     
   2831693787.4430060     
   2812392120.8354053     
   2800471580.4132285     
   2655906525.8633742     
   2647436507.8019381     
   2646811347.3790464     
   2654031044.5946946     
   2669095599.4488907     
   2633242375.7395954     
   2622474790.5809636     
   2619629529.0205026     
   2624720469.7171259     
   2637761803.0710669     
   2650200070.5369682     
   2634137981.1795788     
   2626016084.5604386     
   2625889735.3638134     
   2633816272.3477387     
   2706563676.5347772     
   2682433882.6321988     
   2666174248.4641767     
   2657904473.3944449     
   2657750943.4085164     
   2800471580.4132285     
   2765921839.9332714     
   2739059703.8823481     
   2720081905.6601501     
   2709201168.3557343     
   2669095599.4488907     
   2660676422.0186324     
   2661903674.6608419     
   2672777357.3755298     
   2693297470.1626935     
   2637761803.0710669     
   2627298384.2166171     
   2625960904.8013859     
   2633762847.3093071     
   2650716818.6278620     
   2633816272.3477387     
   2618796495.0897918     
   2612422259.6959362     
   2614743612.7676587     
   2625808119.2705874     
   2657750943.4085164     
   2636001964.9951339     
   2622425208.4450912     
   2617122813.1147871     
   2620193884.5726342     
   2709201168.3557343     
   2679012597.6083059     
   2656498514.0285444     
   2641819044.2233219     
   2635133260.3923531     
   2693297470.1626935     
   2697302797.0888290     
   2714273058.2338839     
   2744208253.5978584     
   2787108383.1807723     
   2650716818.6278620     
   2649150557.4716115     
   2658127870.3278136     
   2677667007.4886966     
   2707784462.8921132     
   2625808119.2705874     
   2615808847.1102839     
   2613986727.6798983     
   2620401188.4280672     
   2635109739.5016918     
   2620193884.5726342     
   2599832323.7741437     
   2585228001.9143939     
   2576482374.8464823     
   2573700885.0818148     
   2635133260.3923531     
   2603598134.9199119     
   2575301759.0137849     
   2550368298.2899771     
   2528937210.2163501     
   1955321164.3004897     
   2119365693.4269090     
   2284773565.1927018     
   2448589846.0554056     
   2608860307.3814564     
   2298852850.7327943     
   2449539172.0533657     
   2604955621.0431781     
   2763182948.4082799     
   2922793849.9120097     
   2694854353.0299129     
   2830616833.0230680     
   2973700206.9242511     
   3123023899.3033204     
   3277678186.4911704     
   3138114283.7636480     
   3255644988.9187789     
   3382602405.2692599     
   3518517721.6233335     
   3662933293.9168196     
   3625143322.2811904     
   3719833110.9273043     
   3825784596.2703323     
   3942932985.8978782     
   4071184507.6097622     
   2608860307.3814564     
   2676787847.2428141     
   2749139059.5745449     
   2825398963.7557549     
   2905210378.7514658     
   2922793849.9120097     
   2975797634.8231215     
   3030970079.6123762     
   3087624730.5853019     
   3145225361.4900990     
   3277678186.4911704     
   3321088163.3909392     
   3364715575.5595078     
   3407736915.8422914     
   3449473435.2922773     
   3662933293.9168196     
   3702600162.3831592     
   3740888686.8569121     
   3776903404.7535110     
   3809897246.2981014     
   4071184507.6097622     
   4112947633.9792581     
   4152087234.3032975     
   4187711676.7381997     
   4219093363.8028140     
   2905210378.7514658     
   2919865983.5081873     
   2936026231.7089434     
   2953642921.3135090     
   2972682323.9043841     
   3145225361.4900990     
   3141320064.3991127     
   3141077430.0256023     
   3144398664.7453895     
   3151272335.9754076     
   3449473435.2922773     
   3423025029.3756099     
   3401624534.2072825     
   3385037600.1752238     
   3373248238.7451491     
   3809897246.2981014     
   3756638471.7936025     
   3709230247.0034237     
   3667184286.0031629     
   3630399519.7201262     
   4219093363.8028140     
   4134520383.4129052     
   4056235030.0624032     
   3983360205.6179976     
   3915587312.3489213     
   2972682323.9043841     
   2941936315.7287989     
   2918103664.6202755     
   2901303350.8696051     
   2891715622.7394266     
   3151272335.9754076     
   3107293061.5824947     
   3069499698.1244917     
   3038083638.3299937     
   3013289554.8360567     
   3373248238.7451491     
   3315914790.7667770     
   3264117278.5065975     
   3218089778.5065899     
   3178116372.3393183     
   3630399519.7201262     
   3559978392.4879661     
   3494547505.8741431     
   3434359104.6864738     
   3379715025.0703206     
   3915587312.3489213     
   3832527701.1801395     
   3754030174.7020707     
   3680348147.5831060     
   3611786161.6836257     
   2891715622.7394266     
   2858192360.6832042     
   2831693787.4430060     
   2812392120.8354053     
   2800471580.4132285     
   3013289554.8360567     
   2968988735.1142607     
   2931331356.2693381     
   2900565099.0477009     
   2876964059.7733274     
   3178116372.3393183     
   3121277626.2228246     
   3070536676.0761795     
   3026202527.5365982     
   2988629978.3985696     
   3379715025.0703206     
   3309155829.6839061     
   3244024852.2329016     
   3184668198.8318958     
   3131498845.0692906     
   3611786161.6836257     
   3526774956.9147453     
   3446445022.8161869     
   3371151977.7086453     
   3301337829.8604198     
   2800471580.4132285     
   2765921839.9332714     
   2739059703.8823481     
   2720081905.6601501     
   2709201168.3557343     
   2876964059.7733274     
   2831685079.3260193     
   2793613790.4190040     
   2763011723.0173125     
   2740162222.2224202     
   2988629978.3985696     
   2931841733.4760113     
   2881751203.7075381     
   2838671038.1528559     
   2802944966.0308924     
   3131498845.0692906     
   3062877658.7833748     
   3000435837.5577660     
   2944518497.1606998     
   2895512531.8913817     
   3301337829.8604198     
   3220901372.0109062     
   3146144245.3560920     
   3077425213.1839247     
   3015155065.5567241     
   2709201168.3557343     
   2679012597.6083059     
   2656498514.0285444     
   2641819044.2233219     
   2635133260.3923531     
   2740162222.2224202     
   2700300780.5685725     
   2668297015.3984432     
   2644430301.4065485     
   2628988058.1681080     
   2802944966.0308924     
   2750739546.5260930     
   2706357097.8233037     
   2670212269.3106370     
   2642750974.1018133     
   2895512531.8913817     
   2828724993.0386167     
   2769487202.6186824     
   2718345679.4398522     
   2675916455.2422724     
   3015155065.5567241     
   2932021245.2969151     
   2855930862.7532654     
   2787537811.3669877     
   2727616085.5777283     
   2635133260.3923531     
   2603598134.9199119     
   2575301759.0137849     
   2550368298.2899771     
   2528937210.2163501     
   2628988058.1681080     
   2592554488.7494931     
   2562669759.3585334     
   2539528419.9819398     
   2523328132.8463907     
   2642750974.1018133     
   2599261980.6657071     
   2565610736.3972049     
   2542149689.9938726     
   2529240001.0283632     
   2675916455.2422724     
   2621993002.6436262     
   2581190262.8786850     
   2554171741.9866409     
   2541635632.8161001     
   2727616085.5777283     
   2658850255.0385261     
   2606525223.5946832     
   2571848113.2747130     
   2556113488.8878741     
   3625143322.2811904     
   3719833110.9273043     
   3825784596.2703323     
   3942932985.8978782     
   4071184507.6097622     
   4134282000.7638798     
   4224521594.4540305     
   4320687249.5532808     
   4421119651.3865032     
   4524361956.5754147     
   4643562234.7333031     
   4755648489.2687016     
   4868858692.5382223     
   4980554730.6491318     
   5088808860.3315821     
   5151466189.8889523     
   5311391665.2591705     
   5467943372.1819344     
   5618222841.3360167     
   5760762874.9406805     
   5657731758.6990776     
   5890914876.6777277     
   6116447626.2346601     
   6331869193.4655972     
   6536956979.4176950     
   4071184507.6097622     
   4112947633.9792581     
   4152087234.3032975     
   4187711676.7381997     
   4219093363.8028140     
   4524361956.5754147     
   4539508385.4151735     
   4559360750.9306507     
   4581442556.3987694     
   4604030121.0979109     
   5088808860.3315821     
   5054437683.3026733     
   5030617287.7248001     
   5012144388.5946865     
   4995817602.0760288     
   5760762874.9406805     
   5652418671.9923096     
   5560110656.4655619     
   5474780620.0229063     
   5390890313.7590914     
   6536956979.4176950     
   6328864417.9345541     
   6142987183.8088636     
   5965418580.1267176     
   5787154663.1745234     
   4219093363.8028140     
   4134520383.4129052     
   4056235030.0624032     
   3983360205.6179976     
   3915587312.3489213     
   4604030121.0979109     
   4495507106.0319471     
   4391089525.7180700     
   4290444389.1845903     
   4193466464.1631866     
   4995817602.0760288     
   4868742161.1781893     
   4744826990.6649923     
   4624034053.9759970     
   4506395645.9500790     
   5390890313.7590914     
   5250233023.8682146     
   5112847040.7229862     
   4978774939.3375044     
   4848113097.4348965     
   5787154663.1745234     
   5637291743.8113098     
   5491751467.4477749     
   5350451230.5419512     
   5213452430.6624727     
   3915587312.3489213     
   3832527701.1801395     
   3754030174.7020707     
   3680348147.5831060     
   3611786161.6836257     
   4193466464.1631866     
   4096887482.0538392     
   4003669481.9280815     
   3914037581.4647293     
   3828279318.2472048     
   4506395645.9500790     
   4395956307.1092596     
   4287628714.6073599     
   4181574148.7665858     
   4078031975.0425553     
   4848113097.4348965     
   4723826975.7653952     
   4600422255.2000551     
   4477970531.6021700     
   4356639406.8812551     
   5213452430.6624727     
   5075558680.4401627     
   4937385317.2205973     
   4798898801.2551174     
   4660181329.5557671     
   3611786161.6836257     
   3526774956.9147453     
   3446445022.8161869     
   3371151977.7086453     
   3301337829.8604198     
   3828279318.2472048     
   3726316949.0085955     
   3628523943.4725552     
   3535216576.0816445     
   3446789978.3237867     
   4078031975.0425553     
   3960421506.4692421     
   3846597604.6259012     
   3736824890.7855492     
   3631443711.3661141     
   4356639406.8812551     
   4224476753.1344900     
   4095851795.5290751     
   3970975312.9958358     
   3850135782.3913307     
   4660181329.5557671     
   4514303347.2919006     
   4371837283.3822012     
   4232943700.1292295     
   4097868321.1074991     
   3301337829.8604198     
   3220901372.0109062     
   3146144245.3560920     
   3077425213.1839247     
   3015155065.5567241     
   3446789978.3237867     
   3352194568.6707435     
   3262125107.2544198     
   3176952272.0269666     
   3097114380.0641584     
   3631443711.3661141     
   3522578962.0833673     
   3416977906.8720665     
   3314973864.0831509     
   3216982279.7983398     
   3850135782.3913307     
   3727408704.2529082     
   3606669769.6267524     
   3488176743.7084746     
   3372279567.8692770     
   4097868321.1074991     
   3962018420.5344820     
   3826946400.4804664     
   3692812998.3207884     
   3559877113.9104066     
   3015155065.5567241     
   2932021245.2969151     
   2855930862.7532654     
   2787537811.3669877     
   2727616085.5777283     
   3097114380.0641584     
   2994445680.6475172     
   2897280196.5865974     
   2806152462.1509581     
   2721700473.7525125     
   3216982279.7983398     
   3098167451.4676418     
   2983593479.3433871     
   2873636772.8045282     
   2768758324.3943939     
   3372279567.8692770     
   3240939058.2154903     
   3112963329.7509904     
   2988573189.9146414     
   2868061824.7030058     
   3559877113.9104066     
   3419522733.0388651     
   3282077322.6312060     
   3147634959.0266109     
   3016366144.4153361     
   2727616085.5777283     
   2658850255.0385261     
   2606525223.5946832     
   2571848113.2747130     
   2556113488.8878741     
   2721700473.7525125     
   2624326875.8394880     
   2534502319.7341590     
   2453043776.1795588     
   2380864848.1393137     
   2768758324.3943939     
   2651801155.8142328     
   2533973059.4187317     
   2415398581.3009367     
   2296265958.4959216     
   2868061824.7030058     
   2745776177.0147777     
   2616366636.7075100     
   2479855883.5622296     
   2336521132.7999730     
   3016366144.4153361     
   2906427015.5457973     
   2786577184.3045502     
   2658106280.1277304     
   2523299366.2522383     
   5657731758.6990776     
   5890914876.6777277     
   6116447626.2346601     
   6331869193.4655972     
   6536956979.4176950     
   6491517461.0643873     
   6586789535.4849482     
   6757406098.7391930     
   6961289063.4806566     
   7171777290.9729910     
   7982253136.7384911     
   7734866093.5979357     
   7669074575.7920923     
   7669584328.0201921     
   7666461976.3079538     
   10130380526.663086     
   9321988251.7332096     
   8826263752.2646751     
   8443402065.1556330     
   8035595547.2695503     
   12935983343.257971     
   11340868093.396980     
   10210138726.980398     
   9272502352.9092464     
   8303524143.2815704     
   6536956979.4176950     
   6328864417.9345541     
   6142987183.8088636     
   5965418580.1267176     
   5787154663.1745234     
   7171777290.9729910     
   6911006042.5771198     
   6658117483.9890642     
   6409251028.6952028     
   6161262332.4195538     
   7666461976.3079538     
   7381081769.2816305     
   7101043416.9804029     
   6826425894.6342554     
   6557431010.3765440     
   8035595547.2695503     
   7746742818.3895187     
   7473479763.2742043     
   7213857690.2508926     
   6967879775.0305595     
   8303524143.2815704     
   8020552559.3861551     
   7779575913.0879745     
   7569929408.2684460     
   7386632892.5130615     
   5787154663.1745234     
   5637291743.8113098     
   5491751467.4477749     
   5350451230.5419512     
   5213452430.6624727     
   6161262332.4195538     
   6012791272.1779499     
   5865859296.6914082     
   5720509864.8720617     
   5576808188.3780003     
   6557431010.3765440     
   6406771339.1626558     
   6254727170.4813061     
   6101276436.6262445     
   5946454932.1142988     
   6967879775.0305595     
   6812802084.0987244     
   6653364080.3348875     
   6489293943.2429180     
   6320540083.8466873     
   7386632892.5130615     
   7225903636.2435074     
   7057900946.9171314     
   6881934575.0082493     
   6697798653.6830940     
   5213452430.6624727     
   5075558680.4401627     
   4937385317.2205973     
   4798898801.2551174     
   4660181329.5557671     
   5576808188.3780003     
   5423963670.8633747     
   5271501132.5445089     
   5119443842.3479080     
   4967883670.5227795     
   5946454932.1142988     
   5777885607.3657589     
   5610427644.0947161     
   5444124988.5439701     
   5279079465.4514589     
   6320540083.8466873     
   6134951269.7057056     
   5951258384.8287373     
   5769501465.6987276     
   5589798458.1195002     
   6697798653.6830940     
   6493462007.3656216     
   6291859358.9544210     
   6093012930.4206152     
   5897069399.6157589     
   4660181329.5557671     
   4514303347.2919006     
   4371837283.3822012     
   4232943700.1292295     
   4097868321.1074991     
   4967883670.5227795     
   4814009193.4880943     
   4662360653.8469782     
   4513084000.7701235     
   4366378456.1866579     
   5279079465.4514589     
   5118799043.2128944     
   4959849983.7659893     
   4802343740.1483421     
   4646420063.7523661     
   5589798458.1195002     
   5425109622.7169170     
   5261099611.3055744     
   5097835409.7930441     
   4935395293.9961109     
   5897069399.6157589     
   5730250081.9774914     
   5563660168.7288647     
   5397319094.7804289     
   5231248867.0445910     
   4097868321.1074991     
   3962018420.5344820     
   3826946400.4804664     
   3692812998.3207884     
   3559877113.9104066     
   4366378456.1866579     
   4218233305.1095767     
   4070735120.0715761     
   3924015431.4859991     
   3778299605.3642035     
   4646420063.7523661     
   4485017460.4379654     
   4324091912.8287230     
   4163744939.0805302     
   4004170009.0310388     
   4935395293.9961109     
   4759613606.2966709     
   4584102741.0849333     
   4408934230.9629984     
   4234271803.3833580     
   5231248867.0445910     
   5039853192.1531162     
   4848489365.7954359     
   4657199505.7087946     
   4466119986.4407463     
   3559877113.9104066     
   3419522733.0388651     
   3282077322.6312060     
   3147634959.0266109     
   3016366144.4153361     
   3778299605.3642035     
   3632365724.9249735     
   3489871678.3143501     
   3351077975.6611271     
   3216361417.5938015     
   4004170009.0310388     
   3846364419.7528505     
   3692123582.0815110     
   3541938946.1963124     
   3396497826.7738657     
   4234271803.3833580     
   4058473585.8124480     
   3886004473.3525128     
   3717632779.9061255     
   3554441994.0524693     
   4466119986.4407463     
   4266450258.3595567     
   4069543206.8526301     
   3876465124.3454785     
   3688756917.5113006     
   3016366144.4153361     
   2906427015.5457973     
   2786577184.3045502     
   2658106280.1277304     
   2523299366.2522383     
   3216361417.5938015     
   3121142922.0119729     
   3026183014.6786942     
   2931925277.5073857     
   2839206359.9935236     
   3396497826.7738657     
   3271134525.4646492     
   3154356762.8067813     
   3049327859.0158701     
   2961488644.7942553     
   3554441994.0524693     
   3353229304.7065377     
   3169041224.8736658     
   3012929639.7971478     
   2903385319.4369168     
   3688756917.5113006     
   3366079525.8102117     
   3070941670.4770393     
   2830967833.6643004     
   2693508942.5898619     
 </DataArray>
 <DataArray  type="Float64" Name="strain" NumberOfComponents="3" format="ascii">
  0.20349297336031744        0.0000000000000000       0.12540387033779954     
  0.18665929402387413       -2.7320273322728156E-002   7.4348922866040973E-002
  0.16982561468743085       -4.4670647164925269E-002   3.5131305569404192E-002
  0.15299193535098757       -5.2051121526591332E-002   7.7510184478891686E-003
  0.13615825601454429       -4.9461696407726352E-002  -7.7919384985040557E-003
  0.15985606009359873        0.0000000000000000        9.6452484350040821E-002
  0.15317757446603886       -2.1841579326056383E-002   6.2691911534570849E-002
  0.14649908883847898       -3.6171219479178021E-002   3.7404395961745898E-002
  0.13982060321091910       -4.2988920459364914E-002   2.0589937631566017E-002
  0.13314211758335923       -4.2294682266617076E-002   1.2248536544031199E-002
  0.12645473862267409        0.0000000000000000        7.4208772512752041E-002
  0.12656717377152088       -1.6362885329384607E-002   5.5284614045974352E-002
  0.12667960892036770       -2.7671791793430777E-002   4.1469239889364976E-002
  0.12679204406921452       -3.3926719392138510E-002   3.2762650042923877E-002
  0.12690447921806131       -3.5127668125507813E-002   2.9164844506651112E-002
  0.10328900894754350        0.0000000000000000        5.8672734825933173E-002
  0.10682809194032027       -1.0884191332712831E-002   5.2127030400251455E-002
  0.11036717493309700       -1.9172364107683526E-002   4.7325837352261320E-002
  0.11390625792587376       -2.4864518324912099E-002   4.4269155681962769E-002
  0.11744534091865050       -2.7960653984398540E-002   4.2956985389355787E-002
   9.0358871068206989E-002   0.0000000000000000        4.9844371289584244E-002
   9.3960328972436946E-002  -5.4054973360410548E-003   5.3219160597402212E-002
   9.7561786876666917E-002  -1.0672936421936285E-002   5.4974188350435008E-002
  0.10116324478089687       -1.5802317257685689E-002   5.5109454548682664E-002
  0.10476470268512683       -2.0793639843289278E-002   5.3624959192145119E-002
  0.13615825601454429       -4.9461696407726352E-002  -7.7919384985040557E-003
  0.13295622105165728       -4.2932010322288355E-002  -3.3805442491735629E-003
  0.12975418608877029       -3.8491701784235333E-002  -3.8927581105191109E-004
  0.12655215112588331       -3.6140770793567450E-002   1.1818668158608131E-003
  0.12335011616299632       -3.5879217350284459E-002   1.3328836315645853E-003
  0.13314211758335923       -4.2294682266617076E-002   1.2248536544031199E-002
  0.12890909379190693       -3.8432760452610952E-002   1.2194593102990883E-002
  0.12467607000045461       -3.5747410569022975E-002   1.1498797816028628E-002
  0.12044304620900230       -3.4238632615853158E-002   1.0161150683144708E-002
  0.11621002241754996       -3.3906426593101530E-002   8.1816517043391546E-003
  0.12690447921806131       -3.5127668125507813E-002   2.9164844506651112E-002
  0.12241874056333082       -3.3933510582933535E-002   2.5558368992206704E-002
  0.11793300190860034       -3.3003119353810589E-002   2.2088315597127706E-002
  0.11344726325386989       -3.2336494438138949E-002   1.8754684321414115E-002
  0.10896152459913938       -3.1933635835918586E-002   1.5557475165065830E-002
  0.11744534091865050       -2.7960653984398540E-002   4.2956985389355787E-002
  0.11348516136592901       -2.9434260713256152E-002   3.6710783418474155E-002
  0.10952498181320751       -3.0258828138598190E-002   3.1379277532245120E-002
  0.10556480226048601       -3.0434356260424712E-002   2.6962467730668627E-002
  0.10160462270776449       -2.9960845078735650E-002   2.3460354013744668E-002
  0.10476470268512683       -2.0793639843289278E-002   5.3624959192145119E-002
  0.10210835619970146       -2.4935010843578742E-002   4.5651836381793216E-002
   9.9452009714276091E-002  -2.7514536923385801E-002   3.9371683621380958E-002
   9.6795663228850706E-002  -2.8532218082710455E-002   3.4784500910908456E-002
   9.4139316743425350E-002  -2.7988054321552713E-002   3.1890288250375681E-002
  0.12335011616299632       -3.5879217350284459E-002   1.3328836315645853E-003
  0.12037556448240441       -3.6363735130574587E-002   6.3650592022659880E-004
  0.11740101280181252       -3.6251017810625889E-002   1.6144199638080947E-004
  0.11442646112122060       -3.5541065390438151E-002  -9.2308139973233672E-005
  0.11145190944062872       -3.4233877870011753E-002  -1.2474448883526001E-004
  0.11621002241754996       -3.3906426593101530E-002   8.1816517043391546E-003
  0.11343902831748093       -3.3973849353182262E-002   7.8463884455639565E-003
  0.11066803421741186       -3.3663957748509506E-002   7.6969265603425222E-003
  0.10789704011734284       -3.2976751779083310E-002   7.7332660486745669E-003
  0.10512604601727368       -3.1912231444903738E-002   7.9554069105606251E-003
  0.10896152459913938       -3.1933635835918586E-002   1.5557475165065830E-002
  0.10635857566565493       -3.1583963575789895E-002   1.5363405623367930E-002
  0.10375562673217043       -3.1076897686393209E-002   1.5319625041285510E-002
  0.10115267779868592       -3.0412438167728560E-002   1.5426133418818594E-002
   9.8549728865201483E-002  -2.9590585019795890E-002   1.5682930755967120E-002
  0.10160462270776449       -2.9960845078735650E-002   2.3460354013744668E-002
   9.9134206526926325E-002  -2.9194077798397548E-002   2.3187557453638569E-002
   9.6663790346088199E-002  -2.8489837624276898E-002   2.3029537439209803E-002
   9.4193374165250018E-002  -2.7848124556373682E-002   2.2986293970458208E-002
   9.1722957984411907E-002  -2.7268938594687903E-002   2.3057827047383680E-002
   9.4139316743425350E-002  -2.7988054321552713E-002   3.1890288250375681E-002
   9.1765920901295234E-002  -2.6804192021005209E-002   3.1318843936376101E-002
   8.9392525059165118E-002  -2.5902777562160556E-002   3.0826663754115330E-002
   8.7019129217035002E-002  -2.5283810945018838E-002   3.0413747703593640E-002
   8.4645733374904941E-002  -2.4947292169579971E-002   3.0080095784810801E-002
  0.11145190944062872       -3.4233877870011753E-002  -1.2474448883526001E-004
  0.10816325450237074       -3.2725456620382898E-002   1.1562146805951801E-004
  0.10487459956411274       -3.1411803012587905E-002   6.2547137148247223E-004
  0.10158594462585475       -3.0292917046627194E-002   1.4048052214339496E-003
   9.8297289687596767E-002  -2.9368798722500145E-002   2.4536230179137974E-003
  0.10512604601727368       -3.1912231444903738E-002   7.9554069105606251E-003
  0.10209990348547263       -3.0709407993738475E-002   7.7906097123583429E-003
   9.9073760953671500E-002  -2.9607292673354990E-002   7.8813533805414532E-003
   9.6047618421870373E-002  -2.8605885483753354E-002   8.2276379151096091E-003
   9.3021475890069261E-002  -2.7705186424933692E-002   8.8294633160633795E-003
   9.8549728865201483E-002  -2.9590585019795890E-002   1.5682930755967120E-002
   9.5772155659713989E-002  -2.8693359367094134E-002   1.5207029913719985E-002
   9.2994582454226538E-002  -2.7802782334122124E-002   1.4972726857715085E-002
   9.0217009248739113E-002  -2.6918853920879844E-002   1.4980021587952242E-002
   8.7439436043251634E-002  -2.6041574127367378E-002   1.5228914104431515E-002
   9.1722957984411907E-002  -2.7268938594687903E-002   2.3057827047383680E-002
   8.9180011025094888E-002  -2.6677310740449725E-002   2.2364882072144064E-002
   8.6637064065777897E-002  -2.5998271994889122E-002   2.1899591803003403E-002
   8.4094117106460947E-002  -2.5231822358006240E-002   2.1661956239961467E-002
   8.1551170147143942E-002  -2.4377961829800995E-002   2.1651975383018430E-002
   8.4645733374904941E-002  -2.4947292169579971E-002   3.0080095784810801E-002
   8.2323469581615238E-002  -2.4661262113805343E-002   2.9264166187630614E-002
   8.0001205788325563E-002  -2.4193761655656204E-002   2.8661948216406247E-002
   7.7678941995035888E-002  -2.3544790795132588E-002   2.8273441871137499E-002
   7.5356678201746241E-002  -2.2714349532234668E-002   2.8098647151824474E-002
   9.8297289687596767E-002  -2.9368798722500145E-002   2.4536230179137974E-003
   9.5501560981269440E-002  -2.8539537348561517E-002   3.4042570269279260E-003
   9.2705832274942057E-002  -2.7705222233165003E-002   4.3453443762342947E-003
   8.9910103568614702E-002  -2.6865853376311460E-002   5.2768850658335004E-003
   8.7114374862287347E-002  -2.6021430777999899E-002   6.1988790957255846E-003
   9.3021475890069261E-002  -2.7705186424933692E-002   8.8294633160633795E-003
   9.0242440619707182E-002  -2.6865535331791285E-002   9.4919443419024252E-003
   8.7463405349345102E-002  -2.6047272039221858E-002   1.0197358899379172E-002
   8.4684370078982968E-002  -2.5250396547224968E-002   1.0945706988494064E-002
   8.1905334808620889E-002  -2.4474908855800837E-002   1.1736988609246823E-002
   8.7439436043251634E-002  -2.6041574127367378E-002   1.5228914104431515E-002
   8.4729574400200125E-002  -2.5191533315021386E-002   1.5576800605065000E-002
   8.2019712757148602E-002  -2.4389321845278387E-002   1.6020100828681876E-002
   7.9309851114097107E-002  -2.3634939718138535E-002   1.6558814775281861E-002
   7.6599989471045571E-002  -2.2928386933601830E-002   1.7192942444865217E-002
   8.1551170147143942E-002  -2.4377961829800995E-002   2.1651975383018430E-002
   7.8962962322748298E-002  -2.3517531298251348E-002   2.1658825816416594E-002
   7.6374754498352640E-002  -2.2731371651335080E-002   2.1813570164142940E-002
   7.3786546673956968E-002  -2.2019482889052183E-002   2.2116208426197877E-002
   7.1198338849561324E-002  -2.1381865011402795E-002   2.2566740602581355E-002
   7.5356678201746241E-002  -2.2714349532234668E-002   2.8098647151824474E-002
   7.2942604387351728E-002  -2.1843529281481311E-002   2.7738019975956374E-002
   7.0528530572957188E-002  -2.1073421457391689E-002   2.7577766905762080E-002
   6.8114456758562675E-002  -2.0404026059965878E-002   2.7617887941241537E-002
   6.5700382944168162E-002  -1.9835343089203761E-002   2.7858383082394911E-002
   8.7114374862287347E-002  -2.6021430777999899E-002   6.1988790957255846E-003
   8.3910832362566246E-002  -2.5155604978038648E-002   5.8546541840878707E-003
   8.0707289862845200E-002  -2.4252026516235342E-002   5.7897935061785311E-003
   7.7503747363124154E-002  -2.3310695392590002E-002   6.0042970619984259E-003
   7.4300204863403052E-002  -2.2331611607102952E-002   6.4981648515476387E-003
   8.1905334808620889E-002  -2.4474908855800837E-002   1.1736988609246823E-002
   7.8968678806824288E-002  -2.3682979526470166E-002   1.1329992547008866E-002
   7.6032022805027605E-002  -2.2836779120753409E-002   1.1177405246891398E-002
   7.3095366803231018E-002  -2.1936307638650808E-002   1.1279226708893392E-002
   7.0158710801434321E-002  -2.0981565080162135E-002   1.1635456933015265E-002
   7.6599989471045571E-002  -2.2928386933601830E-002   1.7192942444865217E-002
   7.3905264495564144E-002  -2.2210354074901711E-002   1.6739693646572129E-002
   7.1210539520082716E-002  -2.1421531725271489E-002   1.6515898138789689E-002
   6.8515814544601289E-002  -2.0561919884711507E-002   1.6521555921517668E-002
   6.5821089569119889E-002  -1.9631518553221594E-002   1.6756666994756253E-002
   7.1198338849561324E-002  -2.1381865011402795E-002   2.2566740602581355E-002
   6.8720589428785880E-002  -2.0737728623333132E-002   2.2083757482776488E-002
   6.6242840008010478E-002  -2.0006284329789674E-002   2.1805272181873146E-002
   6.3765090587235077E-002  -1.9187532130772150E-002   2.1731284699871199E-002
   6.1287341166459633E-002  -1.8281472026280859E-002   2.1861795036770562E-002
   6.5700382944168162E-002  -1.9835343089203761E-002   2.7858383082394911E-002
   6.3414653606489513E-002  -1.9265103171764636E-002   2.7362184055622435E-002
   6.1128924268810905E-002  -1.8591036934307761E-002   2.7045527376142103E-002
   5.8843194931132249E-002  -1.7813144376832849E-002   2.6908413043953944E-002
   5.6557465593453704E-002  -1.6931425499340236E-002   2.6950841059058317E-002
   7.4300204863403052E-002  -2.2331611607102952E-002   6.4981648515476387E-003
   7.0917494750763754E-002  -2.1359423560404489E-002   7.4081249343086464E-003
   6.7534784638124457E-002  -2.0438779653125294E-002   8.7601641734220137E-003
   6.4152074525485103E-002  -1.9569679885265298E-002   1.0554282568887574E-002
   6.0769364412845861E-002  -1.8752124256825264E-002   1.2790480120705161E-002
   7.0158710801434321E-002  -2.0981565080162135E-002   1.1635456933015265E-002
   6.7173272505047343E-002  -2.0035209751202765E-002   1.2243187667899003E-002
   6.4187834208660283E-002  -1.9159899957687188E-002   1.3203382878934994E-002
   6.1202395912273250E-002  -1.8355635699615125E-002   1.4516042566123266E-002
   5.8216957615886245E-002  -1.7622416976987409E-002   1.6181166729464014E-002
   6.5821089569119889E-002  -1.9631518553221594E-002   1.6756666994756253E-002
   6.3143308408785168E-002  -1.8710995942000902E-002   1.7042666985738086E-002
   6.0465527248450474E-002  -1.7881020262248554E-002   1.7591516772672067E-002
   5.7787746088115766E-002  -1.7141591513964403E-002   1.8403216355558763E-002
   5.5109964927781058E-002  -1.6492709697149166E-002   1.9477765734397662E-002
   6.1287341166459633E-002  -1.8281472026280859E-002   2.1861795036770562E-002
   5.8827602461977338E-002  -1.7386782132798997E-002   2.1806562887826064E-002
   5.6367863757495008E-002  -1.6602140566810294E-002   2.1924565854633975E-002
   5.3908125053012651E-002  -1.5927547328314178E-002   2.2215803937194138E-002
   5.1448386348530363E-002  -1.5363002417311117E-002   2.2680277135506736E-002
   5.6557465593453704E-002  -1.6931425499340236E-002   2.6950841059058317E-002
   5.4226154664623771E-002  -1.6062568323597370E-002   2.6534875374162714E-002
   5.1894843735793922E-002  -1.5323260871371883E-002   2.6202530124820017E-002
   4.9563532806964031E-002  -1.4713503142663748E-002   2.5953805311029421E-002
   4.7232221878134195E-002  -1.4233295137473123E-002   2.5788700932791342E-002
   6.0769364412845861E-002  -1.8752124256825264E-002   1.2790480120705161E-002
   5.4949634385490720E-002  -1.7912625073284283E-002   1.4356375657676446E-002
   4.9129904358135634E-002  -1.6977694640122248E-002   1.8553100143271772E-002
   4.3310174330780410E-002  -1.5947332957340445E-002   2.5380653577490558E-002
   3.7490444303425408E-002  -1.4821540024936741E-002   3.4839035960332776E-002
   5.8216957615886245E-002  -1.7622416976987409E-002   1.6181166729464014E-002
   5.4635392619485412E-002  -1.6853105722390016E-002   1.6919143382121971E-002
   5.1053827623084580E-002  -1.5940563868410584E-002   1.9502621148065613E-002
   4.7472262626683831E-002  -1.4884791415048587E-002   2.3931600027293859E-002
   4.3890697630282971E-002  -1.3685788362304496E-002   3.0206080019807846E-002
   5.5109964927781058E-002  -1.6492709697149166E-002   1.9477765734397662E-002
   5.2981237126996178E-002  -1.5793586371496027E-002   1.9435622852504664E-002
   5.0852509326211229E-002  -1.4903433096698462E-002   2.0453653248557954E-002
   4.8723781525426328E-002  -1.3822249872757115E-002   2.2531856922558095E-002
   4.6595053724641400E-002  -1.2550036699672029E-002   2.5670233874505066E-002
   5.1448386348530363E-002  -1.5363002417311117E-002   2.2680277135506736E-002
   4.9987167908022899E-002  -1.4734067020601566E-002   2.1905814068823803E-002
   4.8525949467515511E-002  -1.3866302324986569E-002   2.1406196444749063E-002
   4.7064731027008047E-002  -1.2759708330465894E-002   2.1181424263282241E-002
   4.5603512586500611E-002  -1.1414285037039451E-002   2.1231497524423715E-002
   4.7232221878134195E-002  -1.4233295137473123E-002   2.5788700932791342E-002
   4.5653184962565818E-002  -1.3674547669707493E-002   2.4329717031080056E-002
   4.4074148046997358E-002  -1.2829171553274663E-002   2.2360250736638471E-002
   4.2495111131428911E-002  -1.1697166788174392E-002   1.9880302049466572E-002
   4.0916074215860521E-002  -1.0278533374407095E-002   1.6889870969564624E-002
   9.0358871068206989E-002   0.0000000000000000        4.9844371289584244E-002
   9.3960328972436946E-002  -5.4054973360410548E-003   5.3219160597402212E-002
   9.7561786876666917E-002  -1.0672936421936285E-002   5.4974188350435008E-002
  0.10116324478089687       -1.5802317257685689E-002   5.5109454548682664E-002
  0.10476470268512683       -2.0793639843289278E-002   5.3624959192145119E-002
   8.2424332611030396E-002   0.0000000000000000        4.4791498057946924E-002
   8.4635237036682548E-002  -4.5755682156418034E-003   4.8275783402089795E-002
   8.6846141462334700E-002  -9.0398328582458505E-003   5.0598723343862208E-002
   8.9057045887986866E-002  -1.3392793927812141E-002   5.1760317883264170E-002
   9.1267950313639004E-002  -1.7634451424340669E-002   5.1760567020295682E-002
   7.4245401202379574E-002   0.0000000000000000        4.0581931285262877E-002
   7.5524168301868630E-002  -3.7456390952425528E-003   4.4148957988622603E-002
   7.6802935401357686E-002  -7.4067292945554156E-003   4.7013055442026566E-002
   7.8081702500846728E-002  -1.0983270597938587E-002   4.9174223645474795E-002
   7.9360469600335784E-002  -1.4475263005392073E-002   5.0632462598967254E-002
   6.5822076842254523E-002   0.0000000000000000        3.7215670971532125E-002
   6.6627122767995164E-002  -2.9157099748433018E-003   4.0838684357000617E-002
   6.7432168693735819E-002  -5.7736257308649806E-003   4.4217184644928069E-002
   6.8237214619476474E-002  -8.5737472680650385E-003   4.7351171835314447E-002
   6.9042260545217088E-002  -1.1316074586443473E-002   5.0240645928159813E-002
   5.7154359530655230E-002   0.0000000000000000        3.4692717116754652E-002
   5.7944100435062179E-002  -2.0857808544440509E-003   3.8344962507223856E-002
   5.8733841339469135E-002  -4.1405221671745474E-003   4.2211110952566737E-002
   5.9523582243876091E-002  -6.1642239381914845E-003   4.6291162452783231E-002
   6.0313323148283041E-002  -8.1568861674948707E-003   5.0585117007873409E-002
  0.10476470268512683       -2.0793639843289278E-002   5.3624959192145119E-002
  0.10210835619970146       -2.4935010843578742E-002   4.5651836381793216E-002
   9.9452009714276091E-002  -2.7514536923385801E-002   3.9371683621380958E-002
   9.6795663228850706E-002  -2.8532218082710455E-002   3.4784500910908456E-002
   9.4139316743425350E-002  -2.7988054321552713E-002   3.1890288250375681E-002
   9.1267950313639004E-002  -1.7634451424340669E-002   5.1760567020295682E-002
   9.0066420990115512E-002  -2.1210738050111023E-002   4.6529204524571023E-002
   8.8864891666592019E-002  -2.3567586507402760E-002   4.2514506302710392E-002
   8.7663362343068527E-002  -2.4704996796215885E-002   3.9716472354713879E-002
   8.6461833019545048E-002  -2.4622968916550400E-002   3.8135102680581394E-002
   7.9360469600335784E-002  -1.4475263005392073E-002   5.0632462598967254E-002
   7.9137451662638525E-002  -1.7486465256643310E-002   4.7800453665866056E-002
   7.8914433724941252E-002  -1.9620636091419716E-002   4.5708803230553284E-002
   7.8691415787244021E-002  -2.0877775509721325E-002   4.4357511293028930E-002
   7.8468397849546748E-002  -2.1257883511548101E-002   4.3746577853293001E-002
   6.9042260545217088E-002  -1.1316074586443473E-002   5.0240645928159813E-002
   6.9321448217270459E-002  -1.3762192463175589E-002   4.9465583805678302E-002
   6.9600635889323789E-002  -1.5673685675436675E-002   4.8954574404909558E-002
   6.9879823561377133E-002  -1.7050554223226742E-002   4.8707617725853601E-002
   7.0159011233430463E-002  -1.7892798106545801E-002   4.8724713768510418E-002
   6.0313323148283041E-002  -8.1568861674948707E-003   5.0585117007873409E-002
   6.0618410654011315E-002  -1.0037919669707879E-002   5.1524594944007775E-002
   6.0923498159739610E-002  -1.1726735259453624E-002   5.2251819825779276E-002
   6.1228585665467905E-002  -1.3223332936732205E-002   5.2766791653187907E-002
   6.1533673171196179E-002  -1.4527712701543495E-002   5.3069510426233694E-002
   9.4139316743425350E-002  -2.7988054321552713E-002   3.1890288250375681E-002
   9.1765920901295234E-002  -2.6804192021005209E-002   3.1318843936376101E-002
   8.9392525059165118E-002  -2.5902777562160556E-002   3.0826663754115330E-002
   8.7019129217035002E-002  -2.5283810945018838E-002   3.0413747703593640E-002
   8.4645733374904941E-002  -2.4947292169579971E-002   3.0080095784810801E-002
   8.6461833019545048E-002  -2.4622968916550400E-002   3.8135102680581394E-002
   8.4213574531283558E-002  -2.3987495158909869E-002   3.7096083015477802E-002
   8.1965316043022082E-002  -2.3464567813797847E-002   3.6228073926372548E-002
   7.9717057554760606E-002  -2.3054186881214384E-002   3.5531075413265570E-002
   7.7468799066499117E-002  -2.2756352361159360E-002   3.5005087476156937E-002
   7.8468397849546748E-002  -2.1257883511548101E-002   4.3746577853293001E-002
   7.6437023159413281E-002  -2.1170798296814567E-002   4.2409884266259766E-002
   7.4405648469279814E-002  -2.1026358065435152E-002   4.1335947699484288E-002
   7.2374273779146375E-002  -2.0824562817409898E-002   4.0524768152966441E-002
   7.0342899089012881E-002  -2.0565412552738777E-002   3.9976345626706350E-002
   7.0159011233430463E-002  -1.7892798106545801E-002   4.8724713768510418E-002
   6.8436266785684416E-002  -1.8354101434719244E-002   4.7260247688721904E-002
   6.6713522337938355E-002  -1.8588148317072450E-002   4.6150285073450523E-002
   6.4990777890192294E-002  -1.8594938753605433E-002   4.5394825922696329E-002
   6.3268033442446248E-002  -1.8374472744318165E-002   4.4993870236459059E-002
   6.1533673171196179E-002  -1.4527712701543495E-002   5.3069510426233694E-002
   6.0211305410096914E-002  -1.5537404572623936E-002   5.1647173282864264E-002
   5.8888937648997677E-002  -1.6149938568709742E-002   5.0671086048271349E-002
   5.7566569887898413E-002  -1.6365314689800951E-002   5.0141248722455074E-002
   5.6244202126799162E-002  -1.6183532935897582E-002   5.0057661305415141E-002
   8.4645733374904941E-002  -2.4947292169579971E-002   3.0080095784810801E-002
   8.2323469581615238E-002  -2.4661262113805343E-002   2.9264166187630614E-002
   8.0001205788325563E-002  -2.4193761655656204E-002   2.8661948216406247E-002
   7.7678941995035888E-002  -2.3544790795132588E-002   2.8273441871137499E-002
   7.5356678201746241E-002  -2.2714349532234668E-002   2.8098647151824474E-002
   7.7468799066499117E-002  -2.2756352361159360E-002   3.5005087476156937E-002
   7.5357344043596078E-002  -2.2448958434669278E-002   3.4393857168213859E-002
   7.3245889020693011E-002  -2.2009899282780236E-002   3.3990532775088414E-002
   7.1134433997789959E-002  -2.1439174905492575E-002   3.3795114296780539E-002
   6.9022978974886906E-002  -2.0736785302805899E-002   3.3807601733290171E-002
   7.0342899089012881E-002  -2.0565412552738777E-002   3.9976345626706350E-002
   6.8436447125358291E-002  -2.0236654755533143E-002   3.9520009431024773E-002
   6.6529995161703701E-002  -1.9826036909904296E-002   3.9265773439022711E-002
   6.4623543198049083E-002  -1.9333559015852323E-002   3.9213637650699899E-002
   6.2717091234394520E-002  -1.8759221073377130E-002   3.9363602066056519E-002
   6.3268033442446248E-002  -1.8374472744318165E-002   4.4993870236459059E-002
   6.1560778826901932E-002  -1.8024351076397042E-002   4.4642622976063494E-002
   5.9853524211357645E-002  -1.7642174537028439E-002   4.4487670208209040E-002
   5.8146269595813350E-002  -1.7227943126212106E-002   4.4529011932895865E-002
   5.6439014980269056E-002  -1.6781656843948334E-002   4.4766648150123788E-002
   5.6244202126799162E-002  -1.6183532935897582E-002   5.0057661305415141E-002
   5.4730339148227003E-002  -1.5812047397260956E-002   4.9761697803329730E-002
   5.3216476169654851E-002  -1.5458312164152423E-002   4.9656223082647361E-002
   5.1702613191082700E-002  -1.5122327236572026E-002   4.9741237143368110E-002
   5.0188750212510541E-002  -1.4804092614519621E-002   5.0016739985491804E-002
   7.5356678201746241E-002  -2.2714349532234668E-002   2.8098647151824474E-002
   7.2942604387351728E-002  -2.1843529281481311E-002   2.7738019975956374E-002
   7.0528530572957188E-002  -2.1073421457391689E-002   2.7577766905762080E-002
   6.8114456758562675E-002  -2.0404026059965878E-002   2.7617887941241537E-002
   6.5700382944168162E-002  -1.9835343089203761E-002   2.7858383082394911E-002
   6.9022978974886906E-002  -2.0736785302805899E-002   3.3807601733290171E-002
   6.6810508808667651E-002  -1.9998643597773064E-002   3.3395578862605385E-002
   6.4598038642448424E-002  -1.9320662913446619E-002   3.3186389182597545E-002
   6.2385568476229163E-002  -1.8702843249826635E-002   3.3180032693266151E-002
   6.0173098310009970E-002  -1.8145184606912945E-002   3.3376509394611731E-002
   6.2717091234394520E-002  -1.8759221073377130E-002   3.9363602066056519E-002
   6.0708683801353525E-002  -1.8153757914064844E-002   3.8940734906512543E-002
   5.8700276368312522E-002  -1.7567904369501577E-002   3.8723160022648292E-002
   5.6691868935271506E-002  -1.7001660439687340E-002   3.8710877414463774E-002
   5.4683461502230517E-002  -1.6455026124622130E-002   3.8903887081959021E-002
   5.6439014980269056E-002  -1.6781656843948334E-002   4.4766648150123788E-002
   5.4637129365409293E-002  -1.6308872230356611E-002   4.4373488107677911E-002
   5.2835243750549536E-002  -1.5815145825556522E-002   4.4188079425914642E-002
   5.1033358135689752E-002  -1.5300477629548071E-002   4.4210422104834238E-002
   4.9231472520830016E-002  -1.4764867642331342E-002   4.4440516144436393E-002
   5.0188750212510541E-002  -1.4804092614519621E-002   5.0016739985491804E-002
   4.8595845500834969E-002  -1.4463986546648433E-002   4.9693838466101314E-002
   4.7002940789159398E-002  -1.4062387281611473E-002   4.9581147392396649E-002
   4.5410036077483826E-002  -1.3599294819408846E-002   4.9678666764377537E-002
   4.3817131365808282E-002  -1.3074709160040499E-002   4.9986396582044124E-002
   6.5700382944168162E-002  -1.9835343089203761E-002   2.7858383082394911E-002
   6.3414653606489513E-002  -1.9265103171764636E-002   2.7362184055622435E-002
   6.1128924268810905E-002  -1.8591036934307761E-002   2.7045527376142103E-002
   5.8843194931132249E-002  -1.7813144376832849E-002   2.6908413043953944E-002
   5.6557465593453704E-002  -1.6931425499340236E-002   2.6950841059058317E-002
   6.0173098310009970E-002  -1.8145184606912945E-002   3.3376509394611731E-002
   5.8066632333830845E-002  -1.7583067195845833E-002   3.3004131646941118E-002
   5.5960166357651719E-002  -1.6951871227765494E-002   3.2810738274977283E-002
   5.3853700381472601E-002  -1.6251596702671640E-002   3.2796329278720178E-002
   5.1747234405293524E-002  -1.5482243620564551E-002   3.2960904658169976E-002
   5.4683461502230517E-002  -1.6455026124622130E-002   3.8903887081959021E-002
   5.2755700915965591E-002  -1.5901031219927017E-002   3.8620582850385415E-002
   5.0827940329700644E-002  -1.5312705521223165E-002   3.8515705022933465E-002
   4.8900179743435704E-002  -1.4690049028510373E-002   3.8589253599602830E-002
   4.6972419157170792E-002  -1.4033061741788977E-002   3.8841228580393863E-002
   4.9231472520830016E-002  -1.4764867642331342E-002   4.4440516144436393E-002
   4.7481859352893847E-002  -1.4218995244008152E-002   4.4211537665955508E-002
   4.5732246184957699E-002  -1.3673539814680894E-002   4.4160427620010920E-002
   4.3982633017021530E-002  -1.3128501354349231E-002   4.4287186006602405E-002
   4.2233019849085382E-002  -1.2583879863013292E-002   4.4591812825729910E-002
   4.3817131365808282E-002  -1.3074709160040499E-002   4.9986396582044124E-002
   4.2245107644615545E-002  -1.2536959268089426E-002   4.9776996093651410E-002
   4.0673083923422837E-002  -1.2034374108138651E-002   4.9744906066209515E-002
   3.9101060202230115E-002  -1.1566953680187973E-002   4.9890126499718454E-002
   3.7529036481037420E-002  -1.1134697984237718E-002   5.0212657394177906E-002
   5.6557465593453704E-002  -1.6931425499340236E-002   2.6950841059058317E-002
   5.4226154664623771E-002  -1.6062568323597370E-002   2.6534875374162714E-002
   5.1894843735793922E-002  -1.5323260871371883E-002   2.6202530124820017E-002
   4.9563532806964031E-002  -1.4713503142663748E-002   2.5953805311029421E-002
   4.7232221878134195E-002  -1.4233295137473123E-002   2.5788700932791342E-002
   5.1747234405293524E-002  -1.5482243620564551E-002   3.2960904658169976E-002
   4.9518344615660237E-002  -1.4717857485358615E-002   3.2494874529789525E-002
   4.7289454826026894E-002  -1.4032483800968054E-002   3.2150066244249847E-002
   4.5060565036393635E-002  -1.3426122567393214E-002   3.1926479801550611E-002
   4.2831675246760292E-002  -1.2898773784633943E-002   3.1824115201692260E-002
   4.6972419157170792E-002  -1.4033061741788977E-002   3.8841228580393863E-002
   4.4883551914022227E-002  -1.3373146647119943E-002   3.8375671281230317E-002
   4.2794684670873641E-002  -1.2741706730564496E-002   3.8068937232195614E-002
   4.0705817427725069E-002  -1.2138741992122845E-002   3.7921026433289706E-002
   3.8616950184576490E-002  -1.1564252431794736E-002   3.7931938884512670E-002
   4.2233019849085382E-002  -1.2583879863013292E-002   4.4591812825729910E-002
   4.0321776559709734E-002  -1.2028435808881258E-002   4.4177265628485021E-002
   3.8410533270334092E-002  -1.1450929660160942E-002   4.3959143088657150E-002
   3.6499289980958423E-002  -1.0851361416852338E-002   4.3937445206246567E-002
   3.4588046691582802E-002  -1.0229731078955542E-002   4.4112171981252737E-002
   3.7529036481037420E-002  -1.1134697984237718E-002   5.0212657394177906E-002
   3.5833018552722862E-002  -1.0683724970642516E-002   4.9899657571553790E-002
   3.4137000624408290E-002  -1.0160152589757110E-002   4.9820683813634997E-002
   3.2440982696093724E-002  -9.5639808415818317E-003   4.9975736120421055E-002
   3.0744964767779159E-002  -8.8952097261163487E-003   5.0364814491912546E-002
   4.7232221878134195E-002  -1.4233295137473123E-002   2.5788700932791342E-002
   4.5653184962565818E-002  -1.3674547669707493E-002   2.4329717031080056E-002
   4.4074148046997358E-002  -1.2829171553274663E-002   2.2360250736638471E-002
   4.2495111131428911E-002  -1.1697166788174392E-002   1.9880302049466572E-002
   4.0916074215860521E-002  -1.0278533374407095E-002   1.6889870969564624E-002
   4.2831675246760292E-002  -1.2898773784633943E-002   3.1824115201692260E-002
   4.0857599871773342E-002  -1.2317566835416127E-002   3.0903075518682377E-002
   3.8883524496786351E-002  -1.1549631102465749E-002   2.9702441309565647E-002
   3.6909449121799366E-002  -1.0594966585782930E-002   2.8222212574341835E-002
   3.4935373746812382E-002  -9.4535732853678889E-003   2.6462389313011259E-002
   3.8616950184576490E-002  -1.1564252431794736E-002   3.7931938884512670E-002
   3.6478724216794253E-002  -1.0960586001124567E-002   3.7448943555269634E-002
   3.4340498249011996E-002  -1.0270090651656953E-002   3.6917241566542976E-002
   3.2202272281229627E-002  -9.4927663833915526E-003   3.6336832918332451E-002
   3.0064046313447446E-002  -8.6286131963286827E-003   3.5707717610638567E-002
   3.4588046691582802E-002  -1.0229731078955542E-002   4.4112171981252737E-002
   3.2516557997628537E-002  -9.6036051668330485E-003   4.3967321140841731E-002
   3.0445069303674258E-002  -8.9905502008479875E-003   4.4004651507569978E-002
   2.8373580609720048E-002  -8.3905661810000781E-003   4.4224163081438228E-002
   2.6302091915765782E-002  -7.8036531072894766E-003   4.4625855862446037E-002
   3.0744964767779159E-002  -8.8952097261163487E-003   5.0364814491912546E-002
   2.8971101214276179E-002  -8.2466243325416411E-003   5.0458208275398431E-002
   2.7197237660773199E-002  -7.7110097500392993E-003   5.0964671132647354E-002
   2.5423374107270275E-002  -7.2883659786087268E-003   5.1884203063659179E-002
   2.3649510553767239E-002  -6.9786930182502704E-003   5.3216804068433765E-002
   5.7154359530655230E-002   0.0000000000000000        3.4692717116754652E-002
   5.7944100435062179E-002  -2.0857808544440509E-003   3.8344962507223856E-002
   5.8733841339469135E-002  -4.1405221671745474E-003   4.2211110952566737E-002
   5.9523582243876091E-002  -6.1642239381914845E-003   4.6291162452783231E-002
   6.0313323148283041E-002  -8.1568861674948707E-003   5.0585117007873409E-002
   4.8654405470604442E-002   0.0000000000000000        3.2790002315704496E-002
   4.9592844273718989E-002  -1.7110414801156260E-003   3.6965569272119490E-002
   5.0531283076833522E-002  -3.4359079668635478E-003   4.1224628971076004E-002
   5.1469721879948069E-002  -5.1745994602437635E-003   4.5567181412574036E-002
   5.2408160683062609E-002  -6.9271159602562757E-003   4.9993226596613607E-002
   4.0734370865124866E-002   0.0000000000000000        3.1284459163155698E-002
   4.1691097254614874E-002  -1.3363021057872012E-003   3.5938483137170629E-002
   4.2647823644104868E-002  -2.7312937665525472E-003   4.0545589541394950E-002
   4.3604550033594869E-002  -4.1849749822960398E-003   4.5105778375828673E-002
   4.4561276423084883E-002  -5.6973457530176772E-003   4.9619049640471792E-002
   3.3394255714216517E-002   0.0000000000000000        3.0176087659108241E-002
   3.4238859377749856E-002  -9.6156273145877593E-004   3.5263704102377259E-002
   3.5083463041283180E-002  -2.0266795662415497E-003   4.0173992663523526E-002
   3.5928066704816519E-002  -3.1953505043483183E-003   4.4906953342547087E-002
   3.6772670368349858E-002  -4.4675755457790805E-003   4.9462586139447894E-002
   2.6634060017879380E-002   0.0000000000000000        2.9464887803562139E-002
   2.7236130643123919E-002  -5.8682335713035154E-004   3.4941232167739381E-002
   2.7838201268368459E-002  -1.3220653659305470E-003   4.0109838337461776E-002
   2.8440271893612996E-002  -2.2057260264005934E-003   4.4970706312729300E-002
   2.9042342518857532E-002  -3.2378053385404837E-003   4.9523836093541961E-002
   6.0313323148283041E-002  -8.1568861674948707E-003   5.0585117007873409E-002
   6.0618410654011315E-002  -1.0037919669707879E-002   5.1524594944007775E-002
   6.0923498159739610E-002  -1.1726735259453624E-002   5.2251819825779276E-002
   6.1228585665467905E-002  -1.3223332936732205E-002   5.2766791653187907E-002
   6.1533673171196179E-002  -1.4527712701543495E-002   5.3069510426233694E-002
   5.2408160683062609E-002  -6.9271159602562757E-003   4.9993226596613607E-002
   5.2539657137792455E-002  -8.5929096957625198E-003   5.1219388965411144E-002
   5.2671153592522280E-002  -1.0071432895623920E-002   5.2310622286574654E-002
   5.2802650047252125E-002  -1.1362685559840505E-002   5.3266926560104094E-002
   5.2934146501981950E-002  -1.2466667688412245E-002   5.4088301785999562E-002
   4.4561276423084883E-002  -5.6973457530176772E-003   4.9619049640471792E-002
   4.4596505833545116E-002  -7.1478997218171747E-003   5.1126949065110089E-002
   4.4631735244005342E-002  -8.4161305317942050E-003   5.2577243448843167E-002
   4.4666964654465569E-002  -9.5020381829488115E-003   5.3969932791671109E-002
   4.4702194064925822E-002  -1.0405622675280963E-002   5.5305017093593860E-002
   3.6772670368349858E-002  -4.4675755457790805E-003   4.9462586139447894E-002
   3.6788956741269321E-002  -5.7028897478718105E-003   5.1247275243104566E-002
   3.6805243114188799E-002  -6.7608281679645112E-003   5.3051683312584898E-002
   3.6821529487108276E-002  -7.6413908060571209E-003   5.4875810347888909E-002
   3.6837815860027739E-002  -8.3445776621497037E-003   5.6719656349016559E-002
   2.9042342518857532E-002  -3.2378053385404837E-003   4.9523836093541961E-002
   2.9117009860965094E-002  -4.2578797739264741E-003   5.1580367499394625E-002
   2.9191677203072648E-002  -5.1055258041347844E-003   5.3733941877799771E-002
   2.9266344545180210E-002  -5.7807434291654303E-003   5.5984559228757419E-002
   2.9341011887287771E-002  -6.2835326490184237E-003   5.8332219552267618E-002
   6.1533673171196179E-002  -1.4527712701543495E-002   5.3069510426233694E-002
   6.0211305410096914E-002  -1.5537404572623936E-002   5.1647173282864264E-002
   5.8888937648997677E-002  -1.6149938568709742E-002   5.0671086048271349E-002
   5.7566569887898413E-002  -1.6365314689800951E-002   5.0141248722455074E-002
   5.6244202126799162E-002  -1.6183532935897582E-002   5.0057661305415141E-002
   5.2934146501981950E-002  -1.2466667688412245E-002   5.4088301785999562E-002
   5.2007166430136711E-002  -1.3320418139902424E-002   5.3337852002022276E-002
   5.1080186358291493E-002  -1.3860975772874293E-002   5.2931927687776513E-002
   5.0153206286446268E-002  -1.4088340587327809E-002   5.2870528843262307E-002
   4.9226226214601036E-002  -1.4002512583263071E-002   5.3153655468479680E-002
   4.4702194064925822E-002  -1.0405622675280963E-002   5.5305017093593860E-002
   4.4068877243289679E-002  -1.1103431707180899E-002   5.5142489612532361E-002
   4.3435560421653530E-002  -1.1572012977038800E-002   5.5222763162157407E-002
   4.2802243600017401E-002  -1.1811366484854684E-002   5.5545837742469170E-002
   4.2168926778381244E-002  -1.1821492230628533E-002   5.6111713353467534E-002
   3.6837815860027739E-002  -8.3445776621497037E-003   5.6719656349016559E-002
   3.6396437849555749E-002  -8.8864452744593890E-003   5.7061086114394574E-002
   3.5955059839083779E-002  -9.2830501812033155E-003   5.7543592471414134E-002
   3.5513681828611803E-002  -9.5343923823815162E-003   5.8167175420075531E-002
   3.5072303818139805E-002  -9.6404718779940363E-003   5.8931834960378564E-002
   2.9341011887287771E-002  -6.2835326490184237E-003   5.8332219552267618E-002
   2.8989848248935000E-002  -6.6694588417378561E-003   5.9093641507608791E-002
   2.8638684610582242E-002  -6.9940873853678674E-003   5.9894415615546717E-002
   2.8287520972229484E-002  -7.2574182799083915E-003   6.0734541876081370E-002
   2.7936357333876706E-002  -7.4594515253594701E-003   6.1614020289212826E-002
   5.6244202126799162E-002  -1.6183532935897582E-002   5.0057661305415141E-002
   5.4730339148227003E-002  -1.5812047397260956E-002   4.9761697803329730E-002
   5.3216476169654851E-002  -1.5458312164152423E-002   4.9656223082647361E-002
   5.1702613191082700E-002  -1.5122327236572026E-002   4.9741237143368110E-002
   5.0188750212510541E-002  -1.4804092614519621E-002   5.0016739985491804E-002
   4.9226226214601036E-002  -1.4002512583263071E-002   5.3153655468479680E-002
   4.7906006603765337E-002  -1.3754879804274457E-002   5.2817856241606724E-002
   4.6585786992929631E-002  -1.3496830293956305E-002   5.2678854968803611E-002
   4.5265567382093946E-002  -1.3228364052308744E-002   5.2736651650070354E-002
   4.3945347771258234E-002  -1.2949481079331582E-002   5.2991246285406857E-002
   4.2168926778381244E-002  -1.1821492230628533E-002   5.6111713353467534E-002
   4.1048659707948784E-002  -1.1697712211287882E-002   5.5764245438664511E-002
   3.9928392637516338E-002  -1.1535348423760212E-002   5.5619884650598167E-002
   3.8808125567083886E-002  -1.1334400868045390E-002   5.5678630989268445E-002
   3.7687858496651433E-002  -1.1094869544143612E-002   5.5940484454675331E-002
   3.5072303818139805E-002  -9.6404718779940363E-003   5.8931834960378564E-002
   3.4158298460777385E-002  -9.6405446183013312E-003   5.8600865394503071E-002
   3.3244293103414958E-002  -9.5738665535640786E-003   5.8479312128031133E-002
   3.2330287746052538E-002  -9.4404376837821432E-003   5.8567175160962583E-002
   3.1416282388690112E-002  -9.2402580089555666E-003   5.8864454493297413E-002
   2.7936357333876706E-002  -7.4594515253594701E-003   6.1614020289212826E-002
   2.7234922862251099E-002  -7.5833770253148011E-003   6.1327716109122535E-002
   2.6533488390625495E-002  -7.6123846833679974E-003   6.1257137401102439E-002
   2.5832053918999891E-002  -7.5464744995188118E-003   6.1402284165152574E-002
   2.5130619447374269E-002  -7.3856464737676042E-003   6.1763156401272945E-002
   5.0188750212510541E-002  -1.4804092614519621E-002   5.0016739985491804E-002
   4.8595845500834969E-002  -1.4463986546648433E-002   4.9693838466101314E-002
   4.7002940789159398E-002  -1.4062387281611473E-002   4.9581147392396649E-002
   4.5410036077483826E-002  -1.3599294819408846E-002   4.9678666764377537E-002
   4.3817131365808282E-002  -1.3074709160040499E-002   4.9986396582044124E-002
   4.3945347771258234E-002  -1.2949481079331582E-002   5.2991246285406857E-002
   4.2560141467430070E-002  -1.2642502676275938E-002   5.2705379557820245E-002
   4.1174935163601906E-002  -1.2289750144392618E-002   5.2624699200242889E-002
   3.9789728859773735E-002  -1.1891223483681579E-002   5.2749205212674469E-002
   3.8404522555945578E-002  -1.1446922694142797E-002   5.3078897595115387E-002
   3.7687858496651433E-002  -1.1094869544143612E-002   5.5940484454675331E-002
   3.6505326524994094E-002  -1.0821018805903443E-002   5.5675933450554681E-002
   3.5322794553336749E-002  -1.0517113007173621E-002   5.5611544740766600E-002
   3.4140262581679404E-002  -1.0183152147954198E-002   5.5747318325310991E-002
   3.2957730610022065E-002  -9.8191362282450956E-003   5.6083254204187916E-002
   3.1416282388690112E-002  -9.2402580089555666E-003   5.8864454493297413E-002
   3.0431400673527034E-002  -8.9995349355309201E-003   5.8605500144304511E-002
   2.9446518958363942E-002  -8.7444758699547227E-003   5.8541684013967678E-002
   2.8461637243200867E-002  -8.4750808122268477E-003   5.8673006102286776E-002
   2.7476755528037803E-002  -8.1913497623473941E-003   5.8999466409261785E-002
   2.5130619447374269E-002  -7.3856464737676042E-003   6.1763156401272945E-002
   2.4338363913028876E-002  -7.1780510651584528E-003   6.1494079639069832E-002
   2.3546108378683483E-002  -6.9718387327357273E-003   6.1415117019846227E-002
   2.2753852844338077E-002  -6.7670094764995282E-003   6.1526268543601895E-002
   2.1961597309992684E-002  -6.5635632964496926E-003   6.1827534210337154E-002
   4.3817131365808282E-002  -1.3074709160040499E-002   4.9986396582044124E-002
   4.2245107644615545E-002  -1.2536959268089426E-002   4.9776996093651410E-002
   4.0673083923422837E-002  -1.2034374108138651E-002   4.9744906066209515E-002
   3.9101060202230115E-002  -1.1566953680187973E-002   4.9890126499718454E-002
   3.7529036481037420E-002  -1.1134697984237718E-002   5.0212657394177906E-002
   3.8404522555945578E-002  -1.1446922694142797E-002   5.3078897595115387E-002
   3.7013422656383368E-002  -1.0989441104224992E-002   5.2811638701306687E-002
   3.5622322756821180E-002  -1.0551372042377057E-002   5.2728916989808264E-002
   3.4231222857259005E-002  -1.0132715508598763E-002   5.2830732460620124E-002
   3.2840122957696782E-002  -9.7334715028901120E-003   5.3117085113742468E-002
   3.2957730610022065E-002  -9.8191362282450956E-003   5.6083254204187916E-002
   3.1754781253449937E-002  -9.4419229403606836E-003   5.5773889108893825E-002
   3.0551831896877830E-002  -9.0683699766154618E-003   5.5656287917269495E-002
   2.9348882540305706E-002  -8.6984773370094408E-003   5.5730450629315094E-002
   2.8145933183733603E-002  -8.3322450215425059E-003   5.5996377245030426E-002
   2.7476755528037803E-002  -8.1913497623473941E-003   5.8999466409261785E-002
   2.6469183435815273E-002  -7.8944047764963679E-003   5.8663747316412843E-002
   2.5461611343592781E-002  -7.5853679108538671E-003   5.8527018848593237E-002
   2.4454039251370262E-002  -7.2642391654201190E-003   5.8589281005802955E-002
   2.3446467159147763E-002  -6.9310185401948998E-003   5.8850533788042197E-002
   2.1961597309992684E-002  -6.5635632964496926E-003   6.1827534210337154E-002
   2.1156629203479355E-002  -6.3468866126319690E-003   6.1481213323863776E-002
   2.0351661096966012E-002  -6.1023658450923557E-003   6.1341109783779407E-002
   1.9546692990452669E-002  -5.8300009938308736E-003   6.1407223590083965E-002
   1.8741724883939340E-002  -5.5297920588472937E-003   6.1679554742777476E-002
   3.7529036481037420E-002  -1.1134697984237718E-002   5.0212657394177906E-002
   3.5833018552722862E-002  -1.0683724970642516E-002   4.9899657571553790E-002
   3.4137000624408290E-002  -1.0160152589757110E-002   4.9820683813634997E-002
   3.2440982696093724E-002  -9.5639808415818317E-003   4.9975736120421055E-002
   3.0744964767779159E-002  -8.8952097261163487E-003   5.0364814491912546E-002
   3.2840122957696782E-002  -9.7334715028901120E-003   5.3117085113742468E-002
   3.1372168066122530E-002  -9.3188741383847806E-003   5.2854205319007336E-002
   2.9904213174548305E-002  -8.8541575282163887E-003   5.2813425533047770E-002
   2.8436258282974060E-002  -8.3393216723851027E-003   5.2994745755863853E-002
   2.6968303391399828E-002  -7.7743665708905896E-003   5.3398165987455060E-002
   2.8145933183733603E-002  -8.3322450215425059E-003   5.5996377245030426E-002
   2.6894115272969948E-002  -7.9540233061271004E-003   5.5761137356557466E-002
   2.5642297362206291E-002  -7.5481624666757230E-003   5.5736071420930330E-002
   2.4390479451442647E-002  -7.1146625031883182E-003   5.5921179438148755E-002
   2.3138661540678979E-002  -6.6535234156648304E-003   5.6316461408213003E-002
   2.3446467159147763E-002  -6.9310185401948998E-003   5.8850533788042197E-002
   2.2398860173264958E-002  -6.5891724738693647E-003   5.8620453684204266E-002
   2.1351253187382159E-002  -6.2421674051350295E-003   5.8588621477282360E-002
   2.0303646201499347E-002  -5.8900033339915614E-003   5.8755037167276286E-002
   1.9256039215616555E-002  -5.5326802604390712E-003   5.9119700754186447E-002
   1.8741724883939340E-002  -5.5297920588472937E-003   6.1679554742777476E-002
   1.7886402767007675E-002  -5.2243216416116844E-003   6.1432154301947484E-002
   1.7031080650075990E-002  -4.9361723435943361E-003   6.1371075702103844E-002
   1.6175758533144322E-002  -4.6653441647949156E-003   6.1496318943246392E-002
   1.5320436416212641E-002  -4.4118371052134231E-003   6.1807884025375293E-002
   3.0744964767779159E-002  -8.8952097261163487E-003   5.0364814491912546E-002
   2.8971101214276179E-002  -8.2466243325416411E-003   5.0458208275398431E-002
   2.7197237660773199E-002  -7.7110097500392993E-003   5.0964671132647354E-002
   2.5423374107270275E-002  -7.2883659786087268E-003   5.1884203063659179E-002
   2.3649510553767239E-002  -6.9786930182502704E-003   5.3216804068433765E-002
   2.6968303391399828E-002  -7.7743665708905896E-003   5.3398165987455060E-002
   2.5565218965556344E-002  -7.2196826973104089E-003   5.3304473094214350E-002
   2.4162134539712860E-002  -6.7356605252218288E-003   5.3539269382529536E-002
   2.2759050113869424E-002  -6.3223000546247070E-003   5.4102554852400953E-002
   2.1355965688025891E-002  -5.9796012855193315E-003   5.4994329503828321E-002
   2.3138661540678979E-002  -6.6535234156648304E-003   5.6316461408213003E-002
   2.2021776350288180E-002  -6.1927410620790102E-003   5.6077990947825965E-002
   2.0904891159897382E-002  -5.7603113004043582E-003   5.6083429776788138E-002
   1.9788005969506618E-002  -5.3562341306406872E-003   5.6332777895099356E-002
   1.8671120779115757E-002  -4.9805095527883925E-003   5.6826035302760147E-002
   1.9256039215616555E-002  -5.5326802604390712E-003   5.9119700754186447E-002
   1.8340773368471647E-002  -5.1657994268475282E-003   5.8778761836233498E-002
   1.7425507521326739E-002  -4.7849620755869432E-003   5.8597152315422917E-002
   1.6510241674181865E-002  -4.3901682066568339E-003   5.8574872191754737E-002
   1.5594975827036894E-002  -3.9814178200575090E-003   5.8711921465228883E-002
   1.5320436416212641E-002  -4.4118371052134231E-003   6.1807884025375293E-002
   1.4522210020106785E-002  -4.1388577916162683E-003   6.1406785759436811E-002
   1.3723983624000929E-002  -3.8096128507695837E-003   6.1080436998433962E-002
   1.2925757227895081E-002  -3.4241022826726059E-003   6.0828837742366526E-002
   1.2127530831789191E-002  -2.9823260873265145E-003   6.0651987991235279E-002
   2.6634060017879380E-002   0.0000000000000000        2.9464887803562139E-002
   2.7236130643123919E-002  -5.8682335713035154E-004   3.4941232167739381E-002
   2.7838201268368459E-002  -1.3220653659305470E-003   4.0109838337461776E-002
   2.8440271893612996E-002  -2.2057260264005934E-003   4.4970706312729300E-002
   2.9042342518857532E-002  -3.2378053385404837E-003   4.9523836093541961E-002
   2.0116754289958138E-002   0.0000000000000000        2.9016350527051916E-002
   2.0450391855289986E-002  -4.4011751664588174E-004   3.4307994187276106E-002
   2.0784029420621835E-002  -9.9154902313347906E-004   3.9370509922129787E-002
   2.1117666985953683E-002  -1.6542945194627911E-003   4.4203897731612950E-002
   2.1451304551285535E-002  -2.4283540056338291E-003   4.8808157615725600E-002
   1.3505309044297460E-002   0.0000000000000000        2.8695966760112091E-002
   1.3649123818800960E-002  -2.9341167616141108E-004   3.3840014378211374E-002
   1.3792938593304466E-002  -6.6103268033640764E-004   3.8833544340024485E-002
   1.3936753367807971E-002  -1.1028630125249931E-003   4.3676556645551409E-002
   1.4080568142311473E-002  -1.6189026727271641E-003   4.8369051294792166E-002
   6.7997242808973410E-003   0.0000000000000000        2.8503736502742683E-002
   6.8323265336568415E-003  -1.4670583567694042E-004   3.3537292740545163E-002
   6.8649287864163411E-003  -3.3051633753933881E-004   3.8498941591145822E-002
   6.8975310391758424E-003  -5.5143150558719300E-004   4.3388683054544665E-002
   6.9301332919353429E-003  -8.0945133982050083E-004   4.8206517130741651E-002
  -2.4221336741847566E-013   0.0000000000000000        2.8439659754943669E-002
  -1.4237222512036851E-013   4.8075293745952763E-012   3.3399829274277502E-002
  -4.2531516503130362E-014   5.2577334846981572E-012   3.8366701675493844E-002
   5.7309842635411279E-014   1.3506088608616906E-012   4.3340276958592716E-002
   1.5715120177395292E-013  -6.9138427621906473E-012   4.8320555123574083E-002
   2.9042342518857532E-002  -3.2378053385404837E-003   4.9523836093541961E-002
   2.9117009860965094E-002  -4.2578797739264741E-003   5.1580367499394625E-002
   2.9191677203072648E-002  -5.1055258041347844E-003   5.3733941877799771E-002
   2.9266344545180210E-002  -5.7807434291654303E-003   5.5984559228757419E-002
   2.9341011887287771E-002  -6.2835326490184237E-003   5.8332219552267618E-002
   2.1451304551285535E-002  -2.4283540056338291E-003   4.8808157615725600E-002
   2.1594087414013783E-002  -3.1934098337549088E-003   5.1206937983803998E-002
   2.1736870276742034E-002  -3.8291443559344053E-003   5.3644906420571306E-002
   2.1879653139470288E-002  -4.3355575721722630E-003   5.6122062926027443E-002
   2.2022436002198539E-002  -4.7126494824685644E-003   5.8638407500172483E-002
   1.4080568142311473E-002  -1.6189026727271641E-003   4.8369051294792166E-002
   1.4233611621796781E-002  -2.1289398935833512E-003   5.1066973525860260E-002
   1.4386655101282094E-002  -2.5527629077340122E-003   5.3746228921753611E-002
   1.4539698580767414E-002  -2.8903717151791131E-003   5.6406817482472220E-002
   1.4692742060252721E-002  -3.1417663159186947E-003   5.9048739208016031E-002
   6.9301332919353429E-003  -8.0945133982050083E-004   4.8206517130741651E-002
   7.0355824843140865E-003  -1.0644699534117933E-003   5.1160474125563397E-002
   7.1410316766928293E-003  -1.2763814595336191E-003   5.4037909381346748E-002
   7.2464808690715782E-003  -1.4451858581859614E-003   5.6838822898091675E-002
   7.3519300614503175E-003  -1.5708831493688232E-003   5.9563214675798296E-002
   1.5715120177395292E-013  -6.9138427621906473E-012   4.8320555123574083E-002
   1.5656946225628410E-012  -1.3240234429667819E-011   5.1487439782913383E-002
   2.9742402117560740E-012  -1.1333239468419576E-011   5.4519947799350668E-002
   4.3827847167471345E-012  -1.1927957536614353E-012   5.7418079172885932E-002
   5.7913292217381951E-012   1.7181034372981685E-011   6.0181833903519180E-002
   2.9341011887287771E-002  -6.2835326490184237E-003   5.8332219552267618E-002
   2.8989848248935000E-002  -6.6694588417378561E-003   5.9093641507608791E-002
   2.8638684610582242E-002  -6.9940873853678674E-003   5.9894415615546717E-002
   2.8287520972229484E-002  -7.2574182799083915E-003   6.0734541876081370E-002
   2.7936357333876706E-002  -7.4594515253594701E-003   6.1614020289212826E-002
   2.2022436002198539E-002  -4.7126494824685644E-003   5.8638407500172483E-002
   2.1722734204904108E-002  -5.0020941231677385E-003   5.9454456528289693E-002
   2.1423032407609670E-002  -5.2455655306142893E-003   6.0334077085926766E-002
   2.1123330610315235E-002  -5.4430637048082393E-003   6.1277269173083758E-002
   2.0823628813020800E-002  -5.5945886457495625E-003   6.2284032789760697E-002
   1.4692742060252721E-002  -3.1417663159186947E-003   5.9048739208016031E-002
   1.4468721480939771E-002  -3.3347294045975966E-003   5.9904090893072422E-002
   1.4244700901626819E-002  -3.4970436758607242E-003   6.0847233484571862E-002
   1.4020680322313867E-002  -3.6287091297080585E-003   6.1878166982514374E-002
   1.3796659743000912E-002  -3.7297257661396063E-003   6.2996891386899928E-002
   7.3519300614503175E-003  -1.5708831493688232E-003   5.9563214675798296E-002
   7.2278100770420033E-003  -1.6673646860274529E-003   6.0442544601957054E-002
   7.1036900926336900E-003  -1.7485218211071526E-003   6.1433884811481973E-002
   6.9795701082253714E-003  -1.8143545546078711E-003   6.2537235304373176E-002
   6.8554501238170616E-003  -1.8648628865296467E-003   6.3752596080630552E-002
   5.7913292217381951E-012   1.7181034372981685E-011   6.0181833903519180E-002
  -6.7891959415478098E-012   3.2542663008783279E-011   6.1069817654943487E-002
  -1.9369721104833815E-011   3.3646418984289994E-011   6.2094031066657118E-002
  -3.1950245400758082E-011   2.0492274543926214E-011   6.3254474138660158E-002
  -4.4530771431405825E-011  -6.9197148011568288E-012   6.4551146870952508E-002
   2.7936357333876706E-002  -7.4594515253594701E-003   6.1614020289212826E-002
   2.7234922862251099E-002  -7.5833770253148011E-003   6.1327716109122535E-002
   2.6533488390625495E-002  -7.6123846833679974E-003   6.1257137401102439E-002
   2.5832053918999891E-002  -7.5464744995188118E-003   6.1402284165152574E-002
   2.5130619447374269E-002  -7.3856464737676042E-003   6.1763156401272945E-002
   2.0823628813020800E-002  -5.5945886457495625E-003   6.2284032789760697E-002
   2.0327828101828451E-002  -5.6875327762715838E-003   6.2156449463613567E-002
   1.9832027390636105E-002  -5.7092885192076247E-003   6.2224408186262722E-002
   1.9336226679443763E-002  -5.6598558745576321E-003   6.2487908957708192E-002
   1.8840425968251411E-002  -5.5392348423217441E-003   6.2946951777950066E-002
   1.3796659743000912E-002  -3.7297257661396063E-003   6.2996891386899928E-002
   1.3486309368967934E-002  -3.7916885272283561E-003   6.3004299460379790E-002
   1.3175958994934962E-002  -3.8061923550473647E-003   6.3187066159382063E-002
   1.2865608620901981E-002  -3.7732372495965084E-003   6.3545191483906735E-002
   1.2555258246869004E-002  -3.6928232108758563E-003   6.4078675433953861E-002
   6.8554501238170616E-003  -1.8648628865296467E-003   6.3752596080630552E-002
   6.7103666636695574E-003  -1.8958442781851614E-003   6.3871266099421176E-002
   6.5652832035220576E-003  -1.9030961908870483E-003   6.4145111320460330E-002
   6.4201997433745569E-003  -1.8866186246353290E-003   6.4574131743748070E-002
   6.2751162832270554E-003  -1.8464115794299546E-003   6.5158327369284216E-002
  -4.4530771431405825E-011  -6.9197148011568288E-012   6.4551146870952508E-002
  -1.4066688786007475E-011  -2.9141931923160058E-011   6.4757349380737739E-002
   1.6397390389943922E-011  -2.6726752755390493E-011   6.5098543669497563E-002
   4.6861467831171844E-011   3.2581749798143989E-013   6.5574729737232107E-002
   7.7325552211293669E-011   5.2015891593981678E-011   6.6185907583941161E-002
   2.5130619447374269E-002  -7.3856464737676042E-003   6.1763156401272945E-002
   2.4338363913028876E-002  -7.1780510651584528E-003   6.1494079639069832E-002
   2.3546108378683483E-002  -6.9718387327357273E-003   6.1415117019846227E-002
   2.2753852844338077E-002  -6.7670094764995282E-003   6.1526268543601895E-002
   2.1961597309992684E-002  -6.5635632964496926E-003   6.1827534210337154E-002
   1.8840425968251411E-002  -5.5392348423217441E-003   6.2946951777950066E-002
   1.8240272011131257E-002  -5.3835382745649474E-003   6.2683678011368066E-002
   1.7640118054011104E-002  -5.2288790233523258E-003   6.2614493256256995E-002
   1.7039964096890955E-002  -5.0752570886840424E-003   6.2739397512617034E-002
   1.6439810139770798E-002  -4.9226724705599134E-003   6.3058390780448309E-002
   1.2555258246869004E-002  -3.6928232108758563E-003   6.4078675433953861E-002
   1.2151180735465790E-002  -3.5890254839713864E-003   6.3821550422634959E-002
   1.1747103224062562E-002  -3.4859193139688896E-003   6.3762489291278757E-002
   1.1343025712659341E-002  -3.3835047008684994E-003   6.3901492039885321E-002
   1.0938948201256120E-002  -3.2817816446701897E-003   6.4238558668454709E-002
   6.2751162832270554E-003  -1.8464115794299546E-003   6.5158327369284216E-002
   6.0710900860324558E-003  -1.7945126933777700E-003   6.4907696872870610E-002
   5.8670638888378493E-003  -1.7429596045854708E-003   6.4859105124911512E-002
   5.6630376916432471E-003  -1.6917523130529849E-003   6.5012552125406783E-002
   5.4590114944486432E-003  -1.6408908187803828E-003   6.5368037874356688E-002
   7.7325552211293669E-011   5.2015891593981678E-011   6.6185907583941161E-002
   6.2831257557904863E-011   9.7215679950579670E-011   6.5942117362075114E-002
   4.8336964639239532E-011   1.0479797585283279E-010   6.5904340757155205E-002
   3.3842672587935940E-011   7.4762522561666600E-011   6.6072577769181420E-002
   1.9348377067185396E-011   7.1093131381871899E-012   6.6446828398153801E-002
   2.1961597309992684E-002  -6.5635632964496926E-003   6.1827534210337154E-002
   2.1156629203479355E-002  -6.3468866126319690E-003   6.1481213323863776E-002
   2.0351661096966012E-002  -6.1023658450923557E-003   6.1341109783779407E-002
   1.9546692990452669E-002  -5.8300009938308736E-003   6.1407223590083965E-002
   1.8741724883939340E-002  -5.5297920588472937E-003   6.1679554742777476E-002
   1.6439810139770798E-002  -4.9226724705599134E-003   6.3058390780448309E-002
   1.5839815544140178E-002  -4.7601649862776124E-003   6.2756114856467329E-002
   1.5239820948509567E-002  -4.5767744531347090E-003   6.2657568607862854E-002
   1.4639826352878962E-002  -4.3725008711308650E-003   6.2762752034634856E-002
   1.4039831757248336E-002  -4.1473442402665817E-003   6.3071665136783306E-002
   1.0938948201256120E-002  -3.2817816446701897E-003   6.4238558668454709E-002
   1.0541439445495803E-002  -3.1734433599232142E-003   6.3973366672104792E-002
   1.0143930689735486E-002  -3.0511830611767293E-003   6.3909416680118958E-002
   9.7464219339751714E-003  -2.9150007484310229E-003   6.4046708692497123E-002
   9.3489131782148495E-003  -2.7648964216858696E-003   6.4385242709239426E-002
   5.4590114944486432E-003  -1.6408908187803828E-003   6.5368037874356688E-002
   5.2615009075461967E-003  -1.5867217335686981E-003   6.5132968770776428E-002
   5.0639903206437511E-003  -1.5255916692189161E-003   6.5096654000547829E-002
   4.8664797337413072E-003  -1.4575006257310143E-003   6.5259093563670906E-002
   4.6689691468388582E-003  -1.3824486031051852E-003   6.5620287460145588E-002
   1.9348377067185396E-011   7.1093131381871899E-012   6.6446828398153801E-002
  -6.9708620820119194E-011  -1.0721440402150506E-010   6.6234921152481974E-002
  -1.5876562217687074E-010  -2.7726106133219020E-010   6.6219280569149441E-002
  -2.4782262266626054E-010  -5.0303130064155432E-010   6.6399906648156051E-002
  -3.3687962142092687E-010  -7.8452450091859305E-010   6.6776799389502040E-002
   1.8741724883939340E-002  -5.5297920588472937E-003   6.1679554742777476E-002
   1.7886402767007675E-002  -5.2243216416116844E-003   6.1432154301947484E-002
   1.7031080650075990E-002  -4.9361723435943361E-003   6.1371075702103844E-002
   1.6175758533144322E-002  -4.6653441647949156E-003   6.1496318943246392E-002
   1.5320436416212641E-002  -4.4118371052134231E-003   6.1807884025375293E-002
   1.4039831757248336E-002  -4.1473442402665817E-003   6.3071665136783306E-002
   1.3377708666591236E-002  -3.9182414760076667E-003   6.2826960478254340E-002
   1.2715585575934142E-002  -3.7021294938203164E-003   6.2782332031288246E-002
   1.2053462485277038E-002  -3.4990082937048084E-003   6.2937779795885052E-002
   1.1391339394619962E-002  -3.3088778756607540E-003   6.3293303772044562E-002
   9.3489131782148495E-003  -2.7648964216858696E-003   6.4385242709239426E-002
   8.8937434844089322E-003  -2.6121613104035935E-003   6.4147564170157823E-002
   8.4385737906030062E-003  -2.4680866440465743E-003   6.4123716213215678E-002
   7.9834040967970837E-003  -2.3326724226148676E-003   6.4313698838412939E-002
   7.5282344029911560E-003  -2.2059186461083624E-003   6.4717512045749825E-002
   4.6689691468388582E-003  -1.3824486031051852E-003   6.5620287460145588E-002
   4.4345072204607268E-003  -1.3060811447995480E-003   6.5393965377657778E-002
   4.2000452940825841E-003  -1.2340437942727212E-003   6.5395228247885961E-002
   3.9655833677044450E-003  -1.1663365515247881E-003   6.5624076070830303E-002
   3.7311214413263093E-003  -1.1029594165556655E-003   6.6080508846490679E-002
  -3.3687962142092687E-010  -7.8452450091859305E-010   6.6776799389502040E-002
  -1.2525337364510669E-010  -9.7919550245961773E-010   6.6566164100754388E-002
   8.6372877600160436E-011  -9.4449885412739576E-010   6.6596868135299275E-002
   2.9799912190653366E-010  -6.8043485776381196E-010   6.6868911493136937E-002
   5.0962537662124774E-010  -1.8700330173260227E-010   6.7382294174267332E-002
   1.5320436416212641E-002  -4.4118371052134231E-003   6.1807884025375293E-002
   1.4522210020106785E-002  -4.1388577916162683E-003   6.1406785759436811E-002
   1.3723983624000929E-002  -3.8096128507695837E-003   6.1080436998433962E-002
   1.2925757227895081E-002  -3.4241022826726059E-003   6.0828837742366526E-002
   1.2127530831789191E-002  -2.9823260873265145E-003   6.0651987991235279E-002
   1.1391339394619962E-002  -3.3088778756607540E-003   6.3293303772044562E-002
   1.0699064235081594E-002  -3.1041432832168425E-003   6.3038631646762877E-002
   1.0006789075543240E-002  -2.8572095599003616E-003   6.2921112489680575E-002
   9.3145139160048969E-003  -2.5680767057117797E-003   6.2940746300797434E-002
   8.6222387564665326E-003  -2.2367447206512736E-003   6.3097533080113899E-002
   7.5282344029911560E-003  -2.2059186461083624E-003   6.4717512045749825E-002
   7.0043139432840601E-003  -2.0694287748171392E-003   6.4595199564747172E-002
   6.4803934835769711E-003  -1.9048062690313061E-003   6.4672443515207692E-002
   5.9564730238698699E-003  -1.7120511287509257E-003   6.4949243897131262E-002
   5.4325525641627653E-003  -1.4911633539759217E-003   6.5425600710517895E-002
   3.7311214413263093E-003  -1.1029594165556655E-003   6.6080508846490679E-002
   3.4379591447141911E-003  -1.0347142664175746E-003   6.6076489513389722E-002
   3.1447968481020799E-003  -9.5240297816227837E-004   6.6334430075015577E-002
   2.8516345514899744E-003  -8.5602555178991915E-004   6.6854330531368439E-002
   2.5584722548778575E-003  -7.4558198730068082E-004   6.7636190882447891E-002
   5.0962537662124774E-010  -1.8700330173260227E-010   6.7382294174267332E-002
  -1.6062801436178553E-010   2.4198204551240110E-010   6.7482501492690528E-002
  -8.3088140187537185E-010   3.1270677713912676E-010   6.7907072169104188E-002
  -1.5011347963278521E-009   2.5170955597619837E-011   6.8656006203508341E-002
  -2.1713881803719914E-009  -6.2062532890649891E-010   6.9729303595903458E-002
  -2.4221336741847566E-013   0.0000000000000000        2.8439659754943669E-002
  -1.4237222512036851E-013   4.8075293745952763E-012   3.3399829274277502E-002
  -4.2531516503130362E-014   5.2577334846981572E-012   3.8366701675493844E-002
   5.7309842635411279E-014   1.3506088608616906E-012   4.3340276958592716E-002
   1.5715120177395292E-013  -6.9138427621906473E-012   4.8320555123574083E-002
  -6.7997242815023397E-003   0.0000000000000000        2.8503736513643289E-002
  -6.8323265338795149E-003   1.4670584098658897E-004   3.3537292744510769E-002
  -6.8649287862566875E-003   3.3051634312025562E-004   3.8498941588541696E-002
  -6.8975310386338645E-003   5.5143150640099906E-004   4.3388683045736086E-002
  -6.9301332910110362E-003   8.0945133082882016E-004   4.8206517116093937E-002
  -1.3505309045264173E-002   0.0000000000000000        2.8695966775769768E-002
  -1.3649123818837421E-002   2.9341167716564857E-004   3.3840014383675295E-002
  -1.3792938592410663E-002   6.6103268098277861E-004   3.8833544336025219E-002
  -1.3936753365983911E-002   1.1028630114513884E-003   4.3676556632819545E-002
  -1.4080568139557159E-002   1.6189026685714857E-003   4.8369051274058272E-002
  -2.0116754291527709E-002   0.0000000000000000        2.9016350541323104E-002
  -2.0450391855016084E-002   4.4011751334470731E-004   3.4307994191771080E-002
  -2.0784029418504459E-002   9.9154901884529944E-004   3.9370509917944392E-002
  -2.1117666981992834E-002   1.6542945165017816E-003   4.4203897719843059E-002
  -2.1451304545481206E-002   2.4283540063141516E-003   4.8808157597467067E-002
  -2.6634060020292956E-002   0.0000000000000000        2.9464887810303295E-002
  -2.7236130642415514E-002   5.8682334952376777E-004   3.4941232168798131E-002
  -2.7838201264538068E-002   1.3220653567078255E-003   4.0109838334299236E-002
  -2.8440271886660623E-002   2.2057260215521696E-003   4.4970706306806649E-002
  -2.9042342508783184E-002   3.2378053440568133E-003   4.9523836086320341E-002
   1.5715120177395292E-013  -6.9138427621906473E-012   4.8320555123574083E-002
   1.5656946225628410E-012  -1.3240234429667819E-011   5.1487439782913383E-002
   2.9742402117560740E-012  -1.1333239468419576E-011   5.4519947799350668E-002
   4.3827847167471345E-012  -1.1927957536614353E-012   5.7418079172885932E-002
   5.7913292217381951E-012   1.7181034372981685E-011   6.0181833903519180E-002
  -6.9301332910110362E-003   8.0945133082882016E-004   4.8206517116093937E-002
  -7.0355824812692574E-003   1.0644699369671473E-003   5.1160474124544233E-002
  -7.1410316715274785E-003   1.2763814453793866E-003   5.4037909392563005E-002
  -7.2464808617856979E-003   1.4451858560655586E-003   5.6838822920150259E-002
  -7.3519300520439200E-003   1.5708831690256497E-003   5.9563214707306009E-002
  -1.4080568139557159E-002   1.6189026685714857E-003   4.8369051274058272E-002
  -1.4233611619011637E-002   2.1289398871745424E-003   5.1066973525660052E-002
  -1.4386655098466126E-002   2.5527629020920123E-003   5.3746228939300818E-002
  -1.4539698577920613E-002   2.8903717133239200E-003   5.6406817514980584E-002
  -1.4692742057375096E-002   3.1417663208702373E-003   5.9048739252699323E-002
  -2.1451304545481206E-002   2.4283540063141516E-003   4.8808157597467067E-002
  -2.1594087411661453E-002   3.1934098373819272E-003   5.1206937986260852E-002
  -2.1736870277841703E-002   3.8291443588046314E-003   5.3644906439564113E-002
  -2.1879653144021950E-002   4.3355575705822536E-003   5.6122062957376866E-002
  -2.2022436010202196E-002   4.7126494727148527E-003   5.8638407539699122E-002
  -2.9042342508783184E-002   3.2378053440568133E-003   4.9523836086320341E-002
  -2.9117009859218692E-002   4.2578797875893254E-003   5.1580367506346633E-002
  -2.9191677209654210E-002   5.1055258155172506E-003   5.3733941893352906E-002
  -2.9266344560089721E-002   5.7807434278406497E-003   5.5984559247339173E-002
  -2.9341011910525232E-002   6.2835326245594403E-003   5.8332219568305407E-002
   5.7913292217381951E-012   1.7181034372981685E-011   6.0181833903519180E-002
  -6.7891959415478098E-012   3.2542663008783279E-011   6.1069817654943487E-002
  -1.9369721104833815E-011   3.3646418984289994E-011   6.2094031066657118E-002
  -3.1950245400758082E-011   2.0492274543926214E-011   6.3254474138660158E-002
  -4.4530771431405825E-011  -6.9197148011568288E-012   6.4551146870952508E-002
  -7.3519300520439200E-003   1.5708831690256497E-003   5.9563214707306009E-002
  -7.2278100891086739E-003   1.6673647240779896E-003   6.0442544610287120E-002
  -7.1036901261734321E-003   1.7485218610409775E-003   6.1433884804010436E-002
  -6.9795701632381895E-003   1.8143545799145719E-003   6.2537235288475851E-002
  -6.8554502003029486E-003   1.8648628806987866E-003   6.3752596063683498E-002
  -1.4692742057375096E-002   3.1417663208702373E-003   5.9048739252699323E-002
  -1.4468721488471278E-002   3.3347294156133439E-003   5.9904090903405788E-002
  -1.4244700919567465E-002   3.4970436884355638E-003   6.0847233475307225E-002
  -1.4020680350663653E-002   3.6287091393368970E-003   6.1878166968403606E-002
  -1.3796659781759840E-002   3.7297257683173296E-003   6.2996891382694986E-002
  -2.2022436010202196E-002   4.7126494727148527E-003   5.8638407539699122E-002
  -2.1722734204877001E-002   5.0020941071486844E-003   5.9454456534299413E-002
  -2.1423032399551827E-002   5.2455655158301223E-003   6.0334077080547464E-002
  -2.1123330594226636E-002   5.4430636987592082E-003   6.1277269178443339E-002
  -2.0823628788901458E-002   5.5945886559358796E-003   6.2284032827986911E-002
  -2.9341011910525232E-002   6.2835326245594403E-003   5.8332219568305407E-002
  -2.8989848238325872E-002   6.6694587986840213E-003   5.9093641502968031E-002
  -2.8638684566126508E-002   6.9940873432247190E-003   5.9894415619731252E-002
  -2.8287520893927151E-002   7.2574182581815220E-003   6.0734541918595022E-002
  -2.7936357221727784E-002   7.4594515435543879E-003   6.1614020399559363E-002
  -4.4530771431405825E-011  -6.9197148011568288E-012   6.4551146870952508E-002
  -1.4066688786007475E-011  -2.9141931923160058E-011   6.4757349380737739E-002
   1.6397390389943922E-011  -2.6726752755390493E-011   6.5098543669497563E-002
   4.6861467831171844E-011   3.2581749798143989E-013   6.5574729737232107E-002
   7.7325552211293669E-011   5.2015891593981678E-011   6.6185907583941161E-002
  -6.8554502003029486E-003   1.8648628806987866E-003   6.3752596063683498E-002
  -6.7103666899864817E-003   1.8958442471382203E-003   6.3871266135680366E-002
  -6.5652831796700183E-003   1.9030961629775828E-003   6.4145111388407353E-002
  -6.4201996693535575E-003   1.8866186282166415E-003   6.4574131821864528E-002
  -6.2751161590370880E-003   1.8464116428555111E-003   6.5158327436051794E-002
  -1.3796659781759840E-002   3.7297257683173296E-003   6.2996891382694986E-002
  -1.3486309389835496E-002   3.7916885234184523E-003   6.3004299541665920E-002
  -1.3175958997911156E-002   3.8061923526818316E-003   6.3187066283122498E-002
  -1.2865608605986806E-002   3.7732372561073814E-003   6.3545191607064663E-002
  -1.2555258214062474E-002   3.6928232336952138E-003   6.4078675513492472E-002
  -2.0823628788901458E-002   5.5945886559358796E-003   6.2284032827986911E-002
  -2.0327828113613732E-002   5.6875327996986861E-003   6.2156449598694319E-002
  -1.9832027438326023E-002   5.7092885423861376E-003   6.2224408353642860E-002
  -1.9336226763038304E-002   5.6598558839981907E-003   6.2487909092832465E-002
  -1.8840426087750582E-002   5.5392348245348610E-003   6.2946951816263197E-002
  -2.7936357221727784E-002   7.4594515435543879E-003   6.1614020399559363E-002
  -2.7234922861321197E-002   7.5833770759788713E-003   6.1327716306765631E-002
  -2.6533488500914613E-002   7.6123847320904124E-003   6.1257137599968502E-002
  -2.5832054140508022E-002   7.5464745118889306E-003   6.1402284279168051E-002
  -2.5130619780101435E-002   7.3856464153745638E-003   6.1763156344364106E-002
   7.7325552211293669E-011   5.2015891593981678E-011   6.6185907583941161E-002
   6.2831257557904863E-011   9.7215679950579670E-011   6.5942117362075114E-002
   4.8336964639239532E-011   1.0479797585283279E-010   6.5904340757155205E-002
   3.3842672587935940E-011   7.4762522561666600E-011   6.6072577769181420E-002
   1.9348377067185396E-011   7.1093131381871899E-012   6.6446828398153801E-002
  -6.2751161590370880E-003   1.8464116428555111E-003   6.5158327436051794E-002
  -6.0710899950273730E-003   1.7945128085924689E-003   6.4907696814670013E-002
  -5.8670638310176571E-003   1.7429597271254940E-003   6.4859104933350190E-002
  -5.6630376670079377E-003   1.6917523984547132E-003   6.5012551792092227E-002
  -5.4590115029982261E-003   1.6408908225800101E-003   6.5368037390896055E-002
  -1.2555258214062474E-002   3.6928232336952138E-003   6.4078675513492472E-002
  -1.2151180748433035E-002   3.5890255199691190E-003   6.3821550283008982E-002
  -1.1747103282803586E-002   3.4859193494530399E-003   6.3762488915702992E-002
  -1.1343025817174146E-002   3.3835047221469315E-003   6.3901491411574612E-002
  -1.0938948351544700E-002   3.2817816380508180E-003   6.4238557770623858E-002
  -1.8840426087750582E-002   5.5392348245348610E-003   6.2946951816263197E-002
  -1.8240272197385703E-002   5.3835382313457969E-003   6.2683677767091703E-002
  -1.7640118307020818E-002   5.2288789717805997E-003   6.2614492704213501E-002
  -1.7039964416655940E-002   5.0752570458391637E-003   6.2739396627628619E-002
  -1.6439810526291055E-002   4.9226724535215982E-003   6.3058389537337015E-002
  -2.5130619780101435E-002   7.3856464153745638E-003   6.1763156344364106E-002
  -2.4338364341885396E-002   7.1780509427225442E-003   6.1494079266918467E-002
  -2.3546108903669358E-002   6.9718385941081526E-003   6.1415116298881842E-002
  -2.2753853465453319E-002   6.7670093695313942E-003   6.1526267440254252E-002
  -2.1961598027237277E-002   6.5635632689923229E-003   6.1827532691035636E-002
   1.9348377067185396E-011   7.1093131381871899E-012   6.6446828398153801E-002
  -6.9708620820119194E-011  -1.0721440402150506E-010   6.6234921152481974E-002
  -1.5876562217687074E-010  -2.7726106133219020E-010   6.6219280569149441E-002
  -2.4782262266626054E-010  -5.0303130064155432E-010   6.6399906648156051E-002
  -3.3687962142092687E-010  -7.8452450091859305E-010   6.6776799389502040E-002
  -5.4590115029982261E-003   1.6408908225800101E-003   6.5368037390896055E-002
  -5.2615010354384005E-003   1.5867215981450189E-003   6.5132968160481836E-002
  -5.0639905678785818E-003   1.5255913237927077E-003   6.5096653380961988E-002
  -4.8664801003187579E-003   1.4574999995233956E-003   6.5259093052336653E-002
  -4.6689696327589375E-003   1.3824476253369022E-003   6.5620287174605552E-002
  -1.0938948351544700E-002   3.2817816380508180E-003   6.4238557770623858E-002
  -1.0541439538812881E-002   3.1734433035042475E-003   6.3973365561273310E-002
  -1.0143930726081059E-002   3.0511829248465391E-003   6.3909415591372226E-002
  -9.7464219133492295E-003   2.9150005020779825E-003   6.4046707860920857E-002
  -9.3489131006174106E-003   2.7648960351982776E-003   6.4385242369918980E-002
  -1.6439810526291055E-002   4.9226724535215982E-003   6.3058389537337015E-002
  -1.5839815579832058E-002   4.7601650088634068E-003   6.2756113354856119E-002
  -1.5239820633373058E-002   4.5767745259003949E-003   6.2657567200380140E-002
  -1.4639825686914052E-002   4.3725010046325131E-003   6.2762751073908898E-002
  -1.4039830740455062E-002   4.1473444450596669E-003   6.3071664975442296E-002
  -2.1961598027237277E-002   6.5635632689923229E-003   6.1827532691035636E-002
  -2.1156629158495914E-002   6.3468867142228713E-003   6.1481211541230651E-002
  -2.0351660289754568E-002   6.1023661269541257E-003   6.1341108207985662E-002
  -1.9546691421013212E-002   5.8300015071871512E-003   6.1407222691300625E-002
  -1.8741722552271856E-002   5.5297928549210007E-003   6.1679554991175500E-002
  -3.3687962142092687E-010  -7.8452450091859305E-010   6.6776799389502040E-002
  -1.2525337364510669E-010  -9.7919550245961773E-010   6.6566164100754388E-002
   8.6372877600160436E-011  -9.4449885412739576E-010   6.6596868135299275E-002
   2.9799912190653366E-010  -6.8043485776381196E-010   6.6868911493136937E-002
   5.0962537662124774E-010  -1.8700330173260227E-010   6.7382294174267332E-002
  -4.6689696327589375E-003   1.3824476253369022E-003   6.5620287174605552E-002
  -4.4345073666876896E-003   1.3060799072107387E-003   6.5393965740733806E-002
  -4.2000451006164487E-003   1.2340425511229158E-003   6.5395229092459428E-002
  -3.9655828345452008E-003   1.1663355570727674E-003   6.5624077229782252E-002
  -3.7311205684739598E-003   1.1029589250606264E-003   6.6080510152702332E-002
  -9.3489131006174106E-003   2.7648960351982776E-003   6.4385242369918980E-002
  -8.8937433177965694E-003   2.6121607936172575E-003   6.4147564923593497E-002
  -8.4385735349757213E-003   2.4680860467447344E-003   6.4123717725169949E-002
  -7.9834037521548697E-003   2.3326717945803908E-003   6.4313700774648250E-002
  -7.5282339693340371E-003   2.2059180371243325E-003   6.4717514072028443E-002
  -1.4039830740455062E-002   4.1473444450596669E-003   6.3071664975442296E-002
  -1.3377707978579996E-002   3.9182416800238318E-003   6.2826961649333435E-002
  -1.2715585216704945E-002   3.7021295423664731E-003   6.2782334033431184E-002
  -1.2053462454829886E-002   3.4990080320879040E-003   6.2937782127735362E-002
  -1.1391339692954812E-002   3.3088771491880387E-003   6.3293305932246163E-002
  -1.8741722552271856E-002   5.5297928549210007E-003   6.1679554991175500E-002
  -1.7886401349037989E-002   5.2243225664300175E-003   6.1432155917953701E-002
  -1.7031080145804109E-002   4.9361730379883645E-003   6.1371078017242980E-002
  -1.6175758942570236E-002   4.6653442695955664E-003   6.1496321289043407E-002
  -1.5320437739336362E-002   4.4118362612518558E-003   6.1807885733354939E-002
   5.0962537662124774E-010  -1.8700330173260227E-010   6.7382294174267332E-002
  -1.6062801436178553E-010   2.4198204551240110E-010   6.7482501492690528E-002
  -8.3088140187537185E-010   3.1270677713912676E-010   6.7907072169104188E-002
  -1.5011347963278521E-009   2.5170955597619837E-011   6.8656006203508341E-002
  -2.1713881803719914E-009  -6.2062532890649891E-010   6.9729303595903458E-002
  -3.7311205684739598E-003   1.1029589250606264E-003   6.6080510152702332E-002
  -3.4379595886801645E-003   1.0347143290361793E-003   6.6076490116259767E-002
  -3.1447986088863865E-003   9.5240344294927892E-004   6.6334430021920909E-002
  -2.8516376290925859E-003   8.5602626679977256E-004   6.6854329869685800E-002
  -2.5584766492987993E-003   7.4558280058778514E-004   6.7636189659554424E-002
  -7.5282339693340371E-003   2.2059180371243325E-003   6.4717514072028443E-002
  -7.0043147553798812E-003   2.0694284160901744E-003   6.4595200748918224E-002
  -6.4803955414257210E-003   1.9048065731916003E-003   6.4672443952024941E-002
  -5.9564763274715772E-003   1.7120525084285305E-003   6.4949243681348579E-002
  -5.4325571135174049E-003   1.4911662218008992E-003   6.5425599936889234E-002
  -1.1391339692954812E-002   3.3088771491880387E-003   6.3293305932246163E-002
  -1.0699065660727149E-002   3.1041425031443498E-003   6.3038633390666163E-002
  -1.0006791628499470E-002   2.8572097034341784E-003   6.2921113959416353E-002
  -9.3145175962717867E-003   2.5680787500573735E-003   6.2940747638496969E-002
  -8.6222435640441152E-003   2.2367496430139577E-003   6.3097534427907151E-002
  -1.5320437739336362E-002   4.4118362612518558E-003   6.1807885733354939E-002
  -1.4522212304721980E-002   4.1388565901983032E-003   6.1406788041503346E-002
  -1.3723986870107584E-002   3.8096128336763679E-003   6.1080440044095186E-002
  -1.2925761435493188E-002   3.4241049916861194E-003   6.0828841741130152E-002
  -1.2127536000878805E-002   2.9823330642271273E-003   6.0651993132608606E-002
  -2.6634060020292956E-002   0.0000000000000000        2.9464887810303295E-002
  -2.7236130642415514E-002   5.8682334952376777E-004   3.4941232168798131E-002
  -2.7838201264538068E-002   1.3220653567078255E-003   4.0109838334299236E-002
  -2.8440271886660623E-002   2.2057260215521696E-003   4.4970706306806649E-002
  -2.9042342508783184E-002   3.2378053440568133E-003   4.9523836086320341E-002
  -3.3394255717431293E-002   0.0000000000000000        3.0176087656919620E-002
  -3.4238859376708279E-002   9.6156272615282624E-004   3.5263704099453196E-002
  -3.5083463035985266E-002   2.0266795595332661E-003   4.0173992660671641E-002
  -3.5928066695262252E-002   3.1953505001413177E-003   4.4906953340574922E-002
  -3.6772670354539239E-002   4.4675755479769838E-003   4.9462586139163059E-002
  -4.0734370868814110E-002   0.0000000000000000        3.1284459155381333E-002
  -4.1691097253566962E-002   1.3363021027818860E-003   3.5938483131520989E-002
  -4.2647823638319815E-002   2.7312937623587058E-003   4.0545589538024063E-002
  -4.3604550023072668E-002   4.1849749787304632E-003   4.5105778374890562E-002
  -4.4561276407825527E-002   5.6973457518971621E-003   4.9619049642120466E-002
  -4.8654405474441408E-002   0.0000000000000000        3.2790002305688452E-002
  -4.9592844272991564E-002   1.7110414794109430E-003   3.6965569265001511E-002
  -5.0531283071541720E-002   3.4359079651841450E-003   4.1224628966356550E-002
  -5.1469721870091877E-002   5.1745994573196112E-003   4.5567181409753570E-002
  -5.2408160668642019E-002   6.9271159558173326E-003   4.9993226595192564E-002
  -5.7154359534313193E-002   0.0000000000000000        3.4692717107840963E-002
  -5.7944100434982083E-002   2.0857808560400034E-003   3.8344962499894747E-002
  -5.8733841335650974E-002   4.1405221680095861E-003   4.2211110945669060E-002
  -5.9523582236319872E-002   6.1642239359087532E-003   4.6291162445163930E-002
  -6.0313323136988749E-002   8.1568861597375100E-003   5.0585116998379351E-002
  -2.9042342508783184E-002   3.2378053440568133E-003   4.9523836086320341E-002
  -2.9117009859218692E-002   4.2578797875893254E-003   5.1580367506346633E-002
  -2.9191677209654210E-002   5.1055258155172506E-003   5.3733941893352906E-002
  -2.9266344560089721E-002   5.7807434278406497E-003   5.5984559247339173E-002
  -2.9341011910525232E-002   6.2835326245594403E-003   5.8332219568305407E-002
  -3.6772670354539239E-002   4.4675755479769838E-003   4.9462586139163059E-002
  -3.6788956740002994E-002   5.7028897550995290E-003   5.1247275247521686E-002
  -3.6805243125466743E-002   6.7608281735681980E-003   5.3051683318843829E-002
  -3.6821529510930491E-002   7.6413908033830334E-003   5.4875810353129530E-002
  -3.6837815896394246E-002   8.3445776445439657E-003   5.6719656350378747E-002
  -4.4561276407825527E-002   5.6973457518971621E-003   4.9619049642120466E-002
  -4.4596505832333974E-002   7.1478997226097386E-003   5.1126949065762123E-002
  -4.4631735256842421E-002   8.4161305316191523E-003   5.2577243448350859E-002
  -4.4666964681350868E-002   9.5020381789254031E-003   5.3969932789886661E-002
  -4.4702194105859315E-002   1.0405622664528491E-002   5.5305017090369557E-002
  -5.2408160668642019E-002   6.9271159558173326E-003   4.9993226595192564E-002
  -5.2539657136211615E-002   8.5929096901199518E-003   5.1219388961067966E-002
  -5.2671153603781218E-002   1.0071432889670093E-002   5.2310622281873963E-002
  -5.2802650071350835E-002   1.1362685554467794E-002   5.3266926557610589E-002
  -5.2934146538920437E-002   1.2466667684513037E-002   5.4088301788277837E-002
  -6.0313323136988749E-002   8.1568861597375100E-003   5.0585116998379351E-002
  -6.0618410651635958E-002   1.0037919657630155E-002   5.1524594933439173E-002
  -6.0923498166283174E-002   1.1726735247721057E-002   5.2251819819413146E-002
  -6.1228585680930370E-002   1.3223332930010181E-002   5.2766791656301305E-002
  -6.1533673195577579E-002   1.4527712704497535E-002   5.3069510444103622E-002
  -2.9341011910525232E-002   6.2835326245594403E-003   5.8332219568305407E-002
  -2.8989848238325872E-002   6.6694587986840213E-003   5.9093641502968031E-002
  -2.8638684566126508E-002   6.9940873432247190E-003   5.9894415619731252E-002
  -2.8287520893927151E-002   7.2574182581815220E-003   6.0734541918595022E-002
  -2.7936357221727784E-002   7.4594515435543879E-003   6.1614020399559363E-002
  -3.6837815896394246E-002   8.3445776445439657E-003   5.6719656350378747E-002
  -3.6396437829351425E-002   8.8864452437582390E-003   5.7061086111776516E-002
  -3.5955059762308589E-002   9.2830501477331115E-003   5.7543592480760672E-002
  -3.5513681695265774E-002   9.5343923564684217E-003   5.8167175457331174E-002
  -3.5072303628222931E-002   9.6404718699642650E-003   5.8931835041488016E-002
  -4.4702194105859315E-002   1.0405622664528491E-002   5.5305017090369557E-002
  -4.4068877218487242E-002   1.1103431688832472E-002   5.5142489612846922E-002
  -4.3435560331115168E-002   1.1572012952241422E-002   5.5222763168396458E-002
  -4.2802243443743102E-002   1.1811366454755350E-002   5.5545837757018102E-002
  -4.2168926556371035E-002   1.1821492196374191E-002   5.6111713378711875E-002
  -5.2934146538920437E-002   1.2466667684513037E-002   5.4088301788277837E-002
  -5.2007166405733316E-002   1.3320418133906706E-002   5.3337852006179257E-002
  -5.1080186272546228E-002   1.3860975756749740E-002   5.2931927682638553E-002
  -5.0153206139359148E-002   1.4088340553042235E-002   5.2870528817655804E-002
  -4.9226226006172033E-002   1.4002512522784078E-002   5.3153655411230911E-002
  -6.1533673195577579E-002   1.4527712704497535E-002   5.3069510444103622E-002
  -6.0211305391089667E-002   1.5537404578980920E-002   5.1647173291773499E-002
  -5.8888937586601776E-002   1.6149938561258119E-002   5.0671086023487036E-002
  -5.7566569782113872E-002   1.6365314651329184E-002   5.0141248639244240E-002
  -5.6244201977625981E-002   1.6183532849193979E-002   5.0057661139045181E-002
  -2.7936357221727784E-002   7.4594515435543879E-003   6.1614020399559363E-002
  -2.7234922861321197E-002   7.5833770759788713E-003   6.1327716306765631E-002
  -2.6533488500914613E-002   7.6123847320904124E-003   6.1257137599968502E-002
  -2.5832054140508022E-002   7.5464745118889306E-003   6.1402284279168051E-002
  -2.5130619780101435E-002   7.3856464153745638E-003   6.1763156344364106E-002
  -3.5072303628222931E-002   9.6404718699642650E-003   5.8931835041488016E-002
  -3.4158298447384661E-002   9.6405446289241983E-003   5.8600865516403693E-002
  -3.3244293266546404E-002   9.5738665740515809E-003   5.8479312246186119E-002
  -3.2330288085708120E-002   9.4404377053464265E-003   5.8567175230835281E-002
  -3.1416282904869863E-002   9.2402580228088949E-003   5.8864454470351227E-002
  -4.2168926556371035E-002   1.1821492196374191E-002   5.6111713378711875E-002
  -4.1048659686230941E-002   1.1697712181869536E-002   5.5764245483817435E-002
  -3.9928392816090848E-002   1.1535348416012779E-002   5.5619884712659856E-002
  -3.8808125945950761E-002   1.1334400898804046E-002   5.5678631065239174E-002
  -3.7687859075810674E-002   1.1094869630243268E-002   5.5940484541555320E-002
  -4.9226226006172033E-002   1.4002512522784078E-002   5.3153655411230911E-002
  -4.7906006577860004E-002   1.3754879734814840E-002   5.2817856209006815E-002
  -4.6585787149547975E-002   1.3496830257973977E-002   5.2678854999389700E-002
  -4.5265567721235939E-002   1.3228364092261604E-002   5.2736651782379601E-002
  -4.3945348292923923E-002   1.2949481237677619E-002   5.2991246557976518E-002
  -5.6244201977625981E-002   1.6183532849193979E-002   5.0057661139045181E-002
  -5.4730339122271862E-002   1.5812047287760200E-002   4.9761697691971848E-002
  -5.3216476266917750E-002   1.5458312099935170E-002   4.9656223106375651E-002
  -5.1702613411563646E-002   1.5122327285719168E-002   4.9741237382256581E-002
  -5.0188750556209513E-002   1.4804092845111971E-002   5.0016740519614689E-002
  -2.5130619780101435E-002   7.3856464153745638E-003   6.1763156344364106E-002
  -2.4338364341885396E-002   7.1780509427225442E-003   6.1494079266918467E-002
  -2.3546108903669358E-002   6.9718385941081526E-003   6.1415116298881842E-002
  -2.2753853465453319E-002   6.7670093695313942E-003   6.1526267440254252E-002
  -2.1961598027237277E-002   6.5635632689923229E-003   6.1827532691035636E-002
  -3.1416282904869863E-002   9.2402580228088949E-003   5.8864454470351227E-002
  -3.0431401316281713E-002   8.9995349414429410E-003   5.8605499957802940E-002
  -2.9446519727693583E-002   8.7444758762525929E-003   5.8541683636589799E-002
  -2.8461638139105440E-002   8.4750808272378558E-003   5.8673005506711867E-002
  -2.7476756550517303E-002   8.1913497943988389E-003   5.8999465568169152E-002
  -3.7687859075810674E-002   1.1094869630243268E-002   5.5940484541555320E-002
  -3.6505327254924287E-002   1.0821018940163289E-002   5.5675933486042391E-002
  -3.5322795434037893E-002   1.0517113158397009E-002   5.5611544703790761E-002
  -3.4140263613151499E-002   1.0183152284944402E-002   5.5747318194800513E-002
  -3.2957731792265132E-002   9.8191363198054105E-003   5.6083253959071544E-002
  -4.3945348292923923E-002   1.2949481237677619E-002   5.2991246557976518E-002
  -4.2560142157813077E-002   1.2642502938883648E-002   5.2705379851636876E-002
  -4.1174936022702280E-002   1.2289750440541437E-002   5.2624699500484803E-002
  -3.9789729887591448E-002   1.1891223742650850E-002   5.2749205504520148E-002
  -3.8404523752480636E-002   1.1446922845212010E-002   5.3078897863743077E-002
  -5.0188750556209513E-002   1.4804092845111971E-002   5.0016740519614689E-002
  -4.8595846024948139E-002   1.4463986937604034E-002   4.9693839054586464E-002
  -4.7002941493686744E-002   1.4062387722685893E-002   4.9581148026671851E-002
  -4.5410036962425376E-002   1.3599295200357416E-002   4.9678667435870988E-002
  -4.3817132431163988E-002   1.3074709370618498E-002   4.9986397282183737E-002
  -2.1961598027237277E-002   6.5635632689923229E-003   6.1827532691035636E-002
  -2.1156629158495914E-002   6.3468867142228713E-003   6.1481211541230651E-002
  -2.0351660289754568E-002   6.1023661269541257E-003   6.1341108207985662E-002
  -1.9546691421013212E-002   5.8300015071871512E-003   6.1407222691300625E-002
  -1.8741722552271856E-002   5.5297928549210007E-003   6.1679554991175500E-002
  -2.7476756550517303E-002   8.1913497943988389E-003   5.8999465568169152E-002
  -2.6469183319995912E-002   7.8944048622466012E-003   5.8663746321466120E-002
  -2.5461610089474486E-002   7.5853681152924651E-003   5.8527017981763199E-002
  -2.4454036858953095E-002   7.2642395535362191E-003   5.8589280549060548E-002
  -2.3446463628431669E-002   6.9310191769779705E-003   5.8850534023357937E-002
  -3.2957731792265132E-002   9.8191363198054105E-003   5.6083253959071544E-002
  -3.1754781109523449E-002   9.4419230102706780E-003   5.5773888833167293E-002
  -3.0551830426781744E-002   9.0683701036307005E-003   5.5656287704703385E-002
  -2.9348879744040060E-002   8.6984775998854551E-003   5.5730450573679841E-002
  -2.8145929061298355E-002   8.3322454990349681E-003   5.5996377440096737E-002
  -3.8404523752480636E-002   1.1446922845212010E-002   5.3078897863743077E-002
  -3.7013422527078461E-002   1.0989441158294665E-002   5.2811639076334349E-002
  -3.5622321301676287E-002   1.0551372091968877E-002   5.2728917376806163E-002
  -3.4231220076274112E-002   1.0132715646234691E-002   5.2830732765158601E-002
  -3.2840118850871930E-002   9.7334718210920074E-003   5.3117085241391596E-002
  -4.3817132431163988E-002   1.3074709370618498E-002   4.9986397282183737E-002
  -4.2245107572661061E-002   1.2536959306318540E-002   4.9776997050967164E-002
  -4.0673082714158169E-002   1.2034374080307164E-002   4.9744906998071464E-002
  -3.9101057855655277E-002   1.1566953692583815E-002   4.9890127123496705E-002
  -3.7529032997152365E-002   1.1134698143148936E-002   5.0212657427242569E-002
  -1.8741722552271856E-002   5.5297928549210007E-003   6.1679554991175500E-002
  -1.7886401349037989E-002   5.2243225664300175E-003   6.1432155917953701E-002
  -1.7031080145804109E-002   4.9361730379883645E-003   6.1371078017242980E-002
  -1.6175758942570236E-002   4.6653442695955664E-003   6.1496321289043407E-002
  -1.5320437739336362E-002   4.4118362612518558E-003   6.1807885733354939E-002
  -2.3446463628431669E-002   6.9310191769779705E-003   5.8850534023357937E-002
  -2.2398858085516813E-002   6.5891733194043123E-003   5.8620454567009372E-002
  -2.1351252542601971E-002   6.2421683146020035E-003   5.8588622617511521E-002
  -2.0303646999687102E-002   5.8900041625708777E-003   5.8755038174864674E-002
  -1.9256041456772271E-002   5.5326808633109903E-003   5.9119701239068623E-002
  -2.8145929061298355E-002   8.3322454990349681E-003   5.5996377440096737E-002
  -2.6894112844362800E-002   7.9540240723786071E-003   5.5761137693343482E-002
  -2.5642296627427216E-002   7.5481635912157050E-003   5.5736071787780665E-002
  -2.4390480410491668E-002   7.1146640555462461E-003   5.5921179723408501E-002
  -2.3138664193556074E-002   6.6535254653702913E-003   5.6316461500226789E-002
  -3.2840118850871930E-002   9.7334718210920074E-003   5.3117085241391596E-002
  -3.1372165625575904E-002   9.3188748253527631E-003   5.2854205296955864E-002
  -2.9904212400279923E-002   8.8541588678294307E-003   5.2813425528050358E-002
  -2.8436259174983915E-002   8.3393239485215868E-003   5.2994745934675312E-002
  -2.6968305949687920E-002   7.7743700674295646E-003   5.3398166516830631E-002
  -3.7529032997152365E-002   1.1134698143148936E-002   5.0212657427242569E-002
  -3.5833016429156192E-002   1.0683725578327169E-002   4.9899657377846574E-002
  -3.4136999861160013E-002   1.0160154144443045E-002   4.9820683838320695E-002
  -3.2440983293163833E-002   9.5639838414970091E-003   4.9975736808664684E-002
  -3.0744966725167661E-002   8.8952146694887269E-003   5.0364816288878900E-002
  -1.5320437739336362E-002   4.4118362612518558E-003   6.1807885733354939E-002
  -1.4522212304721980E-002   4.1388565901983032E-003   6.1406788041503346E-002
  -1.3723986870107584E-002   3.8096128336763679E-003   6.1080440044095186E-002
  -1.2925761435493188E-002   3.4241049916861194E-003   6.0828841741130152E-002
  -1.2127536000878805E-002   2.9823330642271273E-003   6.0651993132608606E-002
  -1.9256041456772271E-002   5.5326808633109903E-003   5.9119701239068623E-002
  -1.8340776550880802E-002   5.1657997002060030E-003   5.8778763971737563E-002
  -1.7425511644989344E-002   4.7849619566390639E-003   5.8597155952517493E-002
  -1.6510246739097918E-002   4.3901676326100862E-003   5.8574877181407997E-002
  -1.5594981833206442E-002   3.9814167281195800E-003   5.8711927658409713E-002
  -2.3138664193556074E-002   6.6535254653702913E-003   5.6316461500226789E-002
  -2.2021780262720038E-002   6.1927428102134252E-003   5.6077992162423360E-002
  -2.0904896331884033E-002   5.7603110796014823E-003   5.6083431626398020E-002
  -1.9788012401047973E-002   5.3562302735343861E-003   5.6332779892151102E-002
  -1.8671128470211983E-002   4.9805003920119217E-003   5.6826036959682635E-002
  -2.6968305949687920E-002   7.7743700674295646E-003   5.3398166516830631E-002
  -2.5565223440239763E-002   7.2196859202210417E-003   5.3304472613560833E-002
  -2.4162140930791630E-002   6.7356602025639284E-003   5.3539267065737035E-002
  -2.2759058421343428E-002   6.3222929144585195E-003   5.4102549873359010E-002
  -2.1355975911895315E-002   5.9795840559043190E-003   5.4994321036426999E-002
  -3.0744966725167661E-002   8.8952146694887269E-003   5.0364816288878900E-002
  -2.8971106083439890E-002   8.2466290302284362E-003   5.0458205325149719E-002
  -2.7197245441712106E-002   7.7110093255264578E-003   5.0964662270534145E-002
  -2.5423384799984322E-002   7.2883555553826460E-003   5.1884187125031705E-002
  -2.3649524158256552E-002   6.9786677197967162E-003   5.3216779888643151E-002
  -5.7154359534313193E-002   0.0000000000000000        3.4692717107840963E-002
  -5.7944100434982083E-002   2.0857808560400034E-003   3.8344962499894747E-002
  -5.8733841335650974E-002   4.1405221680095861E-003   4.2211110945669060E-002
  -5.9523582236319872E-002   6.1642239359087532E-003   4.6291162445163930E-002
  -6.0313323136988749E-002   8.1568861597375100E-003   5.0585116998379351E-002
  -6.5822076845668792E-002   0.0000000000000000        3.7215670964902449E-002
  -6.6627122768690261E-002   2.9157099758075266E-003   4.0838684349884517E-002
  -6.7432168691711702E-002   5.7736257311345861E-003   4.4217184636440907E-002
  -6.8237214614733172E-002   8.5737472659811811E-003   4.7351171824571617E-002
  -6.9042260537754627E-002   1.1316074580347318E-002   5.0240645914276627E-002
  -7.4245401205747533E-002   0.0000000000000000        4.0581931279936485E-002
  -7.5524168303267802E-002   3.7456390955750507E-003   4.4148957981436796E-002
  -7.6802935400788058E-002   7.4067292942595871E-003   4.7013055432365204E-002
  -7.8081702498308300E-002   1.0983270596053613E-002   4.9174223632721691E-002
  -7.9360469595828598E-002   1.4475263000957115E-002   5.0632462582506269E-002
  -8.2424332614549442E-002   0.0000000000000000        4.4791498052943073E-002
  -8.4635237038714728E-002   4.5755682153425766E-003   4.8275783394551582E-002
  -8.6846141462880014E-002   9.0398328573845898E-003   5.0598723333441939E-002
  -8.9057045887045286E-002   1.3392793926126037E-002   5.1760317869614172E-002
  -9.1267950311210572E-002   1.7634451421566919E-002   5.1760567003068254E-002
  -9.0358871072074493E-002   0.0000000000000000        4.9844371283922204E-002
  -9.3960328975031024E-002   5.4054973351100998E-003   5.3219160589228855E-002
  -9.7561786877987569E-002   1.0672936420509590E-002   5.4974188339671146E-002
 -0.10116324478094413        1.5802317256198468E-002   5.5109454535249056E-002
 -0.10476470268390067        2.0793639842176727E-002   5.3624959175962585E-002
  -6.0313323136988749E-002   8.1568861597375100E-003   5.0585116998379351E-002
  -6.0618410651635958E-002   1.0037919657630155E-002   5.1524594933439173E-002
  -6.0923498166283174E-002   1.1726735247721057E-002   5.2251819819413146E-002
  -6.1228585680930370E-002   1.3223332930010181E-002   5.2766791656301305E-002
  -6.1533673195577579E-002   1.4527712704497535E-002   5.3069510444103622E-002
  -6.9042260537754627E-002   1.1316074580347318E-002   5.0240645914276627E-002
  -6.9321448214334835E-002   1.3762192453979361E-002   4.9465583794786515E-002
  -6.9600635890915044E-002   1.5673685666623763E-002   4.8954574400516218E-002
  -6.9879823567495211E-002   1.7050554218280500E-002   4.8707617731465799E-002
  -7.0159011244075420E-002   1.7892798108949587E-002   4.8724713787635224E-002
  -7.9360469595828598E-002   1.4475263000957115E-002   5.0632462582506269E-002
  -7.9137451660036093E-002   1.7486465250328577E-002   4.7800453655280309E-002
  -7.8914433724243602E-002   1.9620636085526492E-002   4.5708803227579885E-002
  -7.8691415788451097E-002   2.0877775506550872E-002   4.4357511299404948E-002
  -7.8468397852658606E-002   2.1257883513401670E-002   4.3746577870755574E-002
  -9.1267950311210572E-002   1.7634451421566919E-002   5.1760567003068254E-002
  -9.0066420988739723E-002   2.1210738046677793E-002   4.6529204514920548E-002
  -8.8864891666268875E-002   2.3567586504429233E-002   4.2514506300604091E-002
  -8.7663362343798013E-002   2.4704996794821216E-002   3.9716472360118778E-002
  -8.6461833021327192E-002   2.4622968917853781E-002   3.8135102693464755E-002
 -0.10476470268390067        2.0793639842176727E-002   5.3624959175962585E-002
 -0.10210835620044577        2.4935010843027003E-002   4.5651836373707247E-002
  -9.9452009716990877E-002   2.7514536923331924E-002   3.9371683619588871E-002
  -9.6795663233535972E-002   2.8532218083091573E-002   3.4784500913607318E-002
  -9.4139316750081095E-002   2.7988054322305805E-002   3.1890288255762650E-002
  -6.1533673195577579E-002   1.4527712704497535E-002   5.3069510444103622E-002
  -6.0211305391089667E-002   1.5537404578980920E-002   5.1647173291773499E-002
  -5.8888937586601776E-002   1.6149938561258119E-002   5.0671086023487036E-002
  -5.7566569782113872E-002   1.6365314651329184E-002   5.0141248639244240E-002
  -5.6244201977625981E-002   1.6183532849193979E-002   5.0057661139045181E-002
  -7.0159011244075420E-002   1.7892798108949587E-002   4.8724713787635224E-002
  -6.8436266774181312E-002   1.8354101439468962E-002   4.7260247680823236E-002
  -6.6713522304287204E-002   1.8588148310676528E-002   4.6150285020779981E-002
  -6.4990777834393110E-002   1.8594938722572240E-002   4.5394825807505416E-002
  -6.3268033364499016E-002   1.8374472675156142E-002   4.4993870040999612E-002
  -7.8468397852658606E-002   2.1257883513401670E-002   4.3746577870755574E-002
  -7.6437023154633299E-002   2.1170798299957008E-002   4.2409884242356144E-002
  -7.4405648456607951E-002   2.1026358060094879E-002   4.1335947623450428E-002
  -7.2374273758582630E-002   2.0824562793815369E-002   4.0524768014038468E-002
  -7.0342899060557323E-002   2.0565412501118367E-002   3.9976345414120221E-002
  -8.6461833021327192E-002   2.4622968917853781E-002   3.8135102693464755E-002
  -8.4213574532445601E-002   2.3987495160445030E-002   3.7096082976372215E-002
  -8.1965316043564024E-002   2.3464567809513268E-002   3.6228073831498453E-002
  -7.9717057554682405E-002   2.3054186865058460E-002   3.5531075258843463E-002
  -7.7468799065800842E-002   2.2756352327080589E-002   3.5005087258407237E-002
  -9.4139316750081095E-002   2.7988054322305805E-002   3.1890288255762650E-002
  -9.1765920907618245E-002   2.6804192020933086E-002   3.1318843882871442E-002
  -8.9392525065155382E-002   2.5902777558931635E-002   3.0826663644923986E-002
  -8.7019129222692504E-002   2.5283810936301609E-002   3.0413747541920336E-002
  -8.4645733380229640E-002   2.4947292153042769E-002   3.0080095573860419E-002
  -5.6244201977625981E-002   1.6183532849193979E-002   5.0057661139045181E-002
  -5.4730339122271862E-002   1.5812047287760200E-002   4.9761697691971848E-002
  -5.3216476266917750E-002   1.5458312099935170E-002   4.9656223106375651E-002
  -5.1702613411563646E-002   1.5122327285719168E-002   4.9741237382256581E-002
  -5.0188750556209513E-002   1.4804092845111971E-002   5.0016740519614689E-002
  -6.3268033364499016E-002   1.8374472675156142E-002   4.4993870040999612E-002
  -6.1560778802974059E-002   1.8024350989634036E-002   4.4642622907788976E-002
  -5.9853524241449116E-002   1.7642174487211521E-002   4.4487670325442846E-002
  -5.8146269679924166E-002   1.7227943167888716E-002   4.4529012293961237E-002
  -5.6439015118399216E-002   1.6781657031665592E-002   4.4766648813344190E-002
  -7.0342899060557323E-002   2.0565412501118367E-002   3.9976345414120221E-002
  -6.8436447103474143E-002   2.0236654691507927E-002   3.9520009404263132E-002
  -6.6529995146390949E-002   1.9826036874487904E-002   3.9265773634657893E-002
  -6.4623543189307783E-002   1.9333559050058350E-002   3.9213638105304573E-002
  -6.2717091232224617E-002   1.8759221218219213E-002   3.9363602816203186E-002
  -7.7468799065800842E-002   2.2756352327080589E-002   3.5005087258407237E-002
  -7.5357344023772074E-002   2.2448958393381804E-002   3.4393857181394344E-002
  -7.3245888981743265E-002   2.2009899261764269E-002   3.3990533034020796E-002
  -7.1134433939714470E-002   2.1439174932227953E-002   3.3795114816286463E-002
  -6.9022978897685675E-002   2.0736785404772778E-002   3.3807602528191531E-002
  -8.4645733380229640E-002   2.4947292153042769E-002   3.0080095573860419E-002
  -8.2323469563867865E-002   2.4661262095255682E-002   2.9264166239182668E-002
  -8.0001205747506077E-002   2.4193761649040645E-002   2.8661948523531509E-002
  -7.7678941931144302E-002   2.3544790814397535E-002   2.8273442426907134E-002
  -7.5356678114782499E-002   2.2714349591326483E-002   2.8098647949309385E-002
  -5.0188750556209513E-002   1.4804092845111971E-002   5.0016740519614689E-002
  -4.8595846024948139E-002   1.4463986937604034E-002   4.9693839054586464E-002
  -4.7002941493686744E-002   1.4062387722685893E-002   4.9581148026671851E-002
  -4.5410036962425376E-002   1.3599295200357416E-002   4.9678667435870988E-002
  -4.3817132431163988E-002   1.3074709370618498E-002   4.9986397282183737E-002
  -5.6439015118399216E-002   1.6781657031665592E-002   4.4766648813344190E-002
  -5.4637129685209049E-002   1.6308872544765776E-002   4.4373488665563746E-002
  -5.2835244252018854E-002   1.5815146173412863E-002   4.4188079884527193E-002
  -5.1033358818828672E-002   1.5300477917607113E-002   4.4210422470234656E-002
  -4.9231473385638477E-002   1.4764867777348256E-002   4.4440516422685927E-002
  -6.2717091232224617E-002   1.8759221218219213E-002   3.9363602816203186E-002
  -6.0708683967475321E-002   1.8153758151927463E-002   3.8940735408627823E-002
  -5.8700276702726081E-002   1.7567904624139999E-002   3.8723160297426659E-002
  -5.6691869437976800E-002   1.7001660634856867E-002   3.8710877482599666E-002
  -5.4683462173227546E-002   1.6455026184078014E-002   3.8903886964147011E-002
  -6.9022978897685675E-002   2.0736785404772778E-002   3.3807602528191531E-002
  -6.6810508871747082E-002   1.9998643759089121E-002   3.3395579283778620E-002
  -6.4598038845808461E-002   1.9320663074867107E-002   3.3186389265370028E-002
  -6.2385568819869869E-002   1.8702843352106618E-002   3.3180032472966067E-002
  -6.0173098793931297E-002   1.8145184590807717E-002   3.3376508906566446E-002
  -7.5356678114782499E-002   2.2714349591326483E-002   2.8098647949309385E-002
  -7.2942604398024233E-002   2.1843529366250808E-002   2.7738020291016102E-002
  -7.0528530681265994E-002   2.1073421525594195E-002   2.7577766788357438E-002
  -6.8114456964507769E-002   2.0404026069356380E-002   2.7617887441333790E-002
  -6.5700383247749516E-002   1.9835342997537531E-002   2.7858382249944746E-002
  -4.3817132431163988E-002   1.3074709370618498E-002   4.9986397282183737E-002
  -4.2245107572661061E-002   1.2536959306318540E-002   4.9776997050967164E-002
  -4.0673082714158169E-002   1.2034374080307164E-002   4.9744906998071464E-002
  -3.9101057855655277E-002   1.1566953692583815E-002   4.9890127123496705E-002
  -3.7529032997152365E-002   1.1134698143148936E-002   5.0212657427242569E-002
  -4.9231473385638477E-002   1.4764867777348256E-002   4.4440516422685927E-002
  -4.7481859356542463E-002   1.4218995202833110E-002   4.4211538277741450E-002
  -4.5732245327446450E-002   1.3673539644258215E-002   4.4160428295662274E-002
  -4.3982631298350429E-002   1.3128501101623571E-002   4.4287186476448540E-002
  -4.2233017269254422E-002   1.2583879574929235E-002   4.4591812820100191E-002
  -5.4683462173227546E-002   1.6455026184078014E-002   3.8903886964147011E-002
  -5.2755700988993862E-002   1.5901031099347401E-002   3.8620583083126436E-002
  -5.0827939804760185E-002   1.5312705208209265E-002   3.8515705349515789E-002
  -4.8900178620526487E-002   1.4690048510663217E-002   3.8589253763315158E-002
  -4.6972417436292824E-002   1.4033061006709591E-002   3.8841228324524385E-002
  -6.0173098793931297E-002   1.8145184590807717E-002   3.3376508906566446E-002
  -5.8066632470015332E-002   1.7583066995861804E-002   3.3004131467121958E-002
  -5.5960166146099409E-002   1.6951870772160260E-002   3.2810738159631862E-002
  -5.3853699822183507E-002   1.6251595919703002E-002   3.2796328984096360E-002
  -5.1747233498267584E-002   1.5482242438489918E-002   3.2960903940515304E-002
  -6.5700383247749516E-002   1.9835342997537531E-002   2.7858382249944746E-002
  -6.3414653799606813E-002   1.9265102892376318E-002   2.7362183429728099E-002
  -6.1128924351464095E-002   1.8591036336111338E-002   2.7045526726010599E-002
  -5.8843194903321426E-002   1.7813143328742613E-002   2.6908412138792262E-002
  -5.6557465455178701E-002   1.6931423870270246E-002   2.6950839668072823E-002
  -3.7529032997152365E-002   1.1134698143148936E-002   5.0212657427242569E-002
  -3.5833016429156192E-002   1.0683725578327169E-002   4.9899657377846574E-002
  -3.4136999861160013E-002   1.0160154144443045E-002   4.9820683838320695E-002
  -3.2440983293163833E-002   9.5639838414970091E-003   4.9975736808664684E-002
  -3.0744966725167661E-002   8.8952146694887269E-003   5.0364816288878900E-002
  -4.2233017269254422E-002   1.2583879574929235E-002   4.4591812820100191E-002
  -4.0321774906667135E-002   1.2028435712598012E-002   4.4177265882350714E-002
  -3.8410532544079855E-002   1.1450930163052569E-002   4.3959144023913474E-002
  -3.6499290181492602E-002   1.0851362926292886E-002   4.3937447244788284E-002
  -3.4588047818905288E-002   1.0229734002318747E-002   4.4112175544975318E-002
  -4.6972417436292824E-002   1.4033061006709591E-002   3.8841228324524385E-002
  -4.4883550709672343E-002   1.3373145846869036E-002   3.8375671680269396E-002
  -4.2794683983051821E-002   1.2741706181661927E-002   3.8068938684768572E-002
  -4.0705817256431305E-002   1.2138742011088596E-002   3.7921029338022182E-002
  -3.8616950529810817E-002   1.1564253335148877E-002   3.7931943640029914E-002
  -5.1747233498267584E-002   1.5482242438489918E-002   3.2960903940515304E-002
  -4.9518343838171712E-002   1.4717855981139914E-002   3.2494874771602532E-002
  -4.7289454178075840E-002   1.4032482200271285E-002   3.2150067820886301E-002
  -4.5060564517979948E-002   1.3426121095884390E-002   3.1926483088366313E-002
  -4.2831674857884104E-002   1.2898772667978953E-002   3.1824120574043054E-002
  -5.6557465455178701E-002   1.6931423870270246E-002   2.6950839668072823E-002
  -5.4226154292165318E-002   1.6062566115410903E-002   2.6534875156350224E-002
  -5.1894843129151963E-002   1.5323258218880781E-002   2.6202531432266279E-002
  -4.9563531966138580E-002   1.4713500180680121E-002   2.5953808495820851E-002
  -4.7232220803125224E-002   1.4233292000809028E-002   2.5788706347014134E-002
  -3.0744966725167661E-002   8.8952146694887269E-003   5.0364816288878900E-002
  -2.8971106083439890E-002   8.2466290302284362E-003   5.0458205325149719E-002
  -2.7197245441712106E-002   7.7110093255264578E-003   5.0964662270534145E-002
  -2.5423384799984322E-002   7.2883555553826460E-003   5.1884187125031705E-002
  -2.3649524158256552E-002   6.9786677197967162E-003   5.3216779888643151E-002
  -3.4588047818905288E-002   1.0229734002318747E-002   4.4112175544975318E-002
  -3.2516562849183243E-002   9.6036082100612596E-003   4.3967316325562028E-002
  -3.0445077879461199E-002   8.9905503684511168E-003   4.4004637853023859E-002
  -2.8373592909739245E-002   8.3905604774878254E-003   4.4224140127360645E-002
  -2.6302107940017055E-002   7.8036385371720307E-003   4.4625823148572663E-002
  -3.8616950529810817E-002   1.1564253335148877E-002   3.7931943640029914E-002
  -3.6478728394332749E-002   1.0960587389894083E-002   3.7448938181021463E-002
  -3.4340506258854681E-002   1.0270091411375623E-002   3.6917226306649856E-002
  -3.2202284123376723E-002   9.4927653995933135E-003   3.6336808016915016E-002
  -3.0064061987898558E-002   8.6286093545472342E-003   3.5707683311817229E-002
  -4.2831674857884104E-002   1.2898772667978953E-002   3.1824120574043054E-002
  -4.0857602718888289E-002   1.2317566569726851E-002   3.0903070891528259E-002
  -3.8883530579892508E-002   1.1549632454300095E-002   2.9702427631412082E-002
  -3.6909458440896700E-002   1.0594970321698758E-002   2.8222190793694570E-002
  -3.4935386301900850E-002   9.4535801719224932E-003   2.6462360378375543E-002
  -4.7232220803125224E-002   1.4233292000809028E-002   2.5788706347014134E-002
  -4.5653185822849884E-002   1.3674545749559619E-002   2.4329714457082097E-002
  -4.4074150842574600E-002   1.2829173497224872E-002   2.2360241827310667E-002
  -4.2495115862299371E-002   1.1697175243804168E-002   1.9880288457699347E-002
  -4.0916080882024031E-002   1.0278550989297752E-002   1.6889854348248745E-002
  -9.0358871072074493E-002   0.0000000000000000        4.9844371283922204E-002
  -9.3960328975031024E-002   5.4054973351100998E-003   5.3219160589228855E-002
  -9.7561786877987569E-002   1.0672936420509590E-002   5.4974188339671146E-002
 -0.10116324478094413        1.5802317256198468E-002   5.5109454535249056E-002
 -0.10476470268390067        2.0793639842176727E-002   5.3624959175962585E-002
 -0.10328900895031448        0.0000000000000000        5.8672734819122906E-002
 -0.10682809194275850        1.0884191331879071E-002   5.2127030393687476E-002
 -0.11036717493520252        1.9172364106644291E-002   4.7325837344141468E-002
 -0.11390625792764654        2.4864518324295655E-002   4.4269155670484880E-002
 -0.11744534092009057        2.7960653984833172E-002   4.2956985372717728E-002
 -0.12645473862126122        0.0000000000000000        7.4208772504794199E-002
 -0.12656717377243892        1.6362885328648040E-002   5.5284614041213438E-002
 -0.12667960892361663        2.7671791792778996E-002   4.1469239884275901E-002
 -0.12679204407479433        3.3926719392392848E-002   3.2762650033981600E-002
 -0.12690447922597203        3.5127668127489638E-002   2.9164844490330480E-002
 -0.15985606008491476        0.0000000000000000        9.6452484340936076E-002
 -0.15317757446407232        2.1841579325417013E-002   6.2691911531806754E-002
 -0.14649908884322990        3.6171219478913684E-002   3.7404395960074457E-002
 -0.13982060322238751        4.2988920460490035E-002   2.0589937625739158E-002
 -0.13314211760154507        4.2294682270146079E-002   1.2248536528800910E-002
 -0.20349297334127500        0.0000000000000000       0.12540387032754854     
 -0.18665929401765868        2.7320273322185985E-002   7.4348922865467432E-002
 -0.16982561469404234        4.4670647165048406E-002   3.5131305571537104E-002
 -0.15299193537042599        5.2051121528587235E-002   7.7510184457576098E-003
 -0.13615825604680964        4.9461696412802549E-002  -7.7919385118710369E-003
 -0.10476470268390067        2.0793639842176727E-002   5.3624959175962585E-002
 -0.10210835620044577        2.4935010843027003E-002   4.5651836373707247E-002
  -9.9452009716990877E-002   2.7514536923331924E-002   3.9371683619588871E-002
  -9.6795663233535972E-002   2.8532218083091573E-002   3.4784500913607318E-002
  -9.4139316750081095E-002   2.7988054322305805E-002   3.1890288255762650E-002
 -0.11744534092009057        2.7960653984833172E-002   4.2956985372717728E-002
 -0.11348516136904889        2.9434260714626143E-002   3.6710783407760468E-002
 -0.10952498181800724        3.0258828140043891E-002   3.1379277529839870E-002
 -0.10556480226696556        3.0434356261086398E-002   2.6962467738955876E-002
 -0.10160462271592391        2.9960845077753692E-002   2.3460354035108592E-002
 -0.12690447922597203        3.5127668127489638E-002   2.9164844490330480E-002
 -0.12241874056844380        3.3933510586225304E-002   2.5558368978841353E-002
 -0.11793300191091560        3.3003119356755831E-002   2.2088315593288679E-002
 -0.11344726325338739        3.2336494439081313E-002   1.8754684333672476E-002
 -0.10896152459585919        3.1933635833201593E-002   1.5557475199992635E-002
 -0.13314211760154507        4.2294682270146079E-002   1.2248536528800910E-002
 -0.12890909379863055        3.8432760457824455E-002   1.2194593086950039E-002
 -0.12467606999571595        3.5747410573467760E-002   1.1498797809935422E-002
 -0.12044304619280144        3.4238632617076076E-002   1.0161150697756978E-002
 -0.11621002238988687        3.3906426588649438E-002   8.1816517504147528E-003
 -0.13615825604680964        4.9461696412802549E-002  -7.7919385118710369E-003
 -0.13295622105960900        4.2932010329423592E-002  -3.3805442679135725E-003
 -0.12975418607240835        3.8491701790179661E-002  -3.8927582022007211E-004
 -0.12655215108520770        3.6140770795071019E-002   1.1818668312094404E-003
 -0.12335011609800706        3.5879217344097353E-002   1.3328836863748805E-003
  -9.4139316750081095E-002   2.7988054322305805E-002   3.1890288255762650E-002
  -9.1765920907618245E-002   2.6804192020933086E-002   3.1318843882871442E-002
  -8.9392525065155382E-002   2.5902777558931635E-002   3.0826663644923986E-002
  -8.7019129222692504E-002   2.5283810936301609E-002   3.0413747541920336E-002
  -8.4645733380229640E-002   2.4947292153042769E-002   3.0080095573860419E-002
 -0.10160462271592391        2.9960845077753692E-002   2.3460354035108592E-002
  -9.9134206537146205E-002   2.9194077795849815E-002   2.3187557422798086E-002
  -9.6663790358368501E-002   2.8489837621178845E-002   2.3029537348173434E-002
  -9.4193374179590797E-002   2.7848124553740701E-002   2.2986293811234598E-002
  -9.1722958000813093E-002   2.7268938593535491E-002   2.3057826811981735E-002
 -0.10896152459585919        3.1933635833201593E-002   1.5557475199992635E-002
 -0.10635857567802456        3.1583963570766524E-002   1.5363405616124360E-002
 -0.10375562676018993        3.1076897683425933E-002   1.5319624972684102E-002
 -0.10115267784235529        3.0412438171179834E-002   1.5426133269671766E-002
  -9.8549728924520644E-002   2.9590585034028123E-002   1.5682930507087450E-002
 -0.11621002238988687        3.3906426588649438E-002   8.1816517504147528E-003
 -0.11343902833025324        3.3973849345683337E-002   7.8463884628502574E-003
 -0.11066803427061961        3.3663957745673101E-002   7.6969265184559411E-003
 -0.10789704021098599        3.2976751788618995E-002   7.7332659172315004E-003
 -0.10512604615135233        3.1912231474520866E-002   7.9554066591773671E-003
 -0.12335011609800706        3.5879217344097353E-002   1.3328836863748805E-003
 -0.12037556449383235        3.6363735120599983E-002   6.3650596297595841E-004
 -0.11740101288965757        3.6251017807920248E-002   1.6144198548905669E-004
 -0.11442646128548283        3.5541065406058135E-002  -9.2308246085708381E-005
 -0.11145190968130808        3.4233877915013478E-002  -1.2474473174839407E-004
  -8.4645733380229640E-002   2.4947292153042769E-002   3.0080095573860419E-002
  -8.2323469563867865E-002   2.4661262095255682E-002   2.9264166239182668E-002
  -8.0001205747506077E-002   2.4193761649040645E-002   2.8661948523531509E-002
  -7.7678941931144302E-002   2.3544790814397535E-002   2.8273442426907134E-002
  -7.5356678114782499E-002   2.2714349591326483E-002   2.8098647949309385E-002
  -9.1722958000813093E-002   2.7268938593535491E-002   2.3057826811981735E-002
  -8.9180011017712391E-002   2.6677310742398881E-002   2.2364882083130304E-002
  -8.6637064034611661E-002   2.5998272002166763E-002   2.1899592068730017E-002
  -8.4094117051510930E-002   2.5231822372838983E-002   2.1661956768781007E-002
  -8.1551170068410173E-002   2.4377961854415625E-002   2.1651976183283156E-002
  -9.8549728924520644E-002   2.9590585034028123E-002   1.5682930507087450E-002
  -9.5772155679256496E-002   2.8693359389542109E-002   1.5207029883394681E-002
  -9.2994582433992307E-002   2.7802782355292828E-002   1.4972727069577812E-002
  -9.0217009188728131E-002   2.6918853931280434E-002   1.4980022065636398E-002
  -8.7439435943463970E-002   2.6041574117504754E-002   1.5228914871570846E-002
 -0.10512604615135233        3.1912231474520866E-002   7.9554066591773671E-003
 -0.10209990354850017        3.0709408036685308E-002   7.7906096399757135E-003
  -9.9073760945648084E-002   2.9607292708418862E-002   7.8813535260744989E-003
  -9.6047618342795918E-002   2.8605885489721830E-002   8.2276383174734371E-003
  -9.3021475739943807E-002   2.7705186380593889E-002   8.8294640141724865E-003
 -0.11145190968130808        3.4233877915013478E-002  -1.2474473174839407E-004
 -0.10816325462544352        3.2725456683828480E-002   1.1562135287365716E-004
 -0.10487459956957887        3.1411803061545090E-002   6.2547143822037909E-004
 -0.10158594451371424        3.0292917048163275E-002   1.4048055242916850E-003
  -9.8297289457849657E-002   2.9368798643683081E-002   2.4536236110880294E-003
  -7.5356678114782499E-002   2.2714349591326483E-002   2.8098647949309385E-002
  -7.2942604398024233E-002   2.1843529366250808E-002   2.7738020291016102E-002
  -7.0528530681265994E-002   2.1073421525594195E-002   2.7577766788357438E-002
  -6.8114456964507769E-002   2.0404026069356380E-002   2.7617887441333790E-002
  -6.5700383247749516E-002   1.9835342997537531E-002   2.7858382249944746E-002
  -8.1551170068410173E-002   2.4377961854415625E-002   2.1651976183283156E-002
  -7.8962962289105126E-002   2.3517531324294461E-002   2.1658826135535242E-002
  -7.6374754509800150E-002   2.2731371659873184E-002   2.1813570057246101E-002
  -7.3786546730495117E-002   2.2019482861152025E-002   2.2116207948415748E-002
  -7.1198338951190071E-002   2.1381864928130684E-002   2.2566739809044251E-002
  -8.7439435943463970E-002   2.6041574117504754E-002   1.5228914871570846E-002
  -8.4729574287788101E-002   2.5191533282338044E-002   1.5576800915649419E-002
  -8.2019712632112329E-002   2.4389321794152419E-002   1.6020100743010770E-002
  -7.9309850976436544E-002   2.3634939652947638E-002   1.6558814353654812E-002
  -7.6599989320760731E-002   2.2928386858724059E-002   1.7192941747581750E-002
  -9.3021475739943807E-002   2.7705186380593889E-002   8.8294640141724865E-003
  -9.0242440394073142E-002   2.6865535240381495E-002   9.4919446313585128E-003
  -8.7463405048202547E-002   2.6047271928431336E-002   1.0197358845651455E-002
  -8.4684369702331910E-002   2.5250396444743212E-002   1.0945706657051133E-002
  -8.1905334356461232E-002   2.4474908789317407E-002   1.1736988065557653E-002
  -9.8297289457849657E-002   2.9368798643683081E-002   2.4536236110880294E-003
  -9.5501560607960223E-002   2.8539537198425280E-002   3.4042572826626094E-003
  -9.2705831758070789E-002   2.7705222062710602E-002   4.3453443651681606E-003
  -8.9910102908181355E-002   2.6865853236538968E-002   5.2768848586044366E-003
  -8.7114374058291921E-002   2.6021430719910588E-002   6.1988787629715936E-003
  -6.5700383247749516E-002   1.9835342997537531E-002   2.7858382249944746E-002
  -6.3414653799606813E-002   1.9265102892376318E-002   2.7362183429728099E-002
  -6.1128924351464095E-002   1.8591036336111338E-002   2.7045526726010599E-002
  -5.8843194903321426E-002   1.7813143328742613E-002   2.6908412138792262E-002
  -5.6557465455178701E-002   1.6931423870270246E-002   2.6950839668072823E-002
  -7.1198338951190071E-002   2.1381864928130684E-002   2.2566739809044251E-002
  -6.8720589645553068E-002   2.0737728428424987E-002   2.2083756838606430E-002
  -6.6242840339915940E-002   2.0006283929649850E-002   2.1805271466658310E-002
  -6.3765091034278826E-002   1.9187531431805509E-002   2.1731283693199960E-002
  -6.1287341728641809E-002   1.8281470934891964E-002   2.1861793518231337E-002
  -7.6599989320760731E-002   2.2928386858724059E-002   1.7192941747581750E-002
  -7.3905264675638641E-002   2.2210353964473822E-002   1.6739693078957389E-002
  -7.1210540030516564E-002   2.1421531523188306E-002   1.6515897490813378E-002
  -6.8515815385394530E-002   2.0561919534868630E-002   1.6521554983149472E-002
  -6.5821090740272453E-002   1.9631517999513792E-002   1.6756665555965722E-002
  -8.1905334356461232E-002   2.4474908789317407E-002   1.1736988065557653E-002
  -7.8968678889863669E-002   2.3682979500522519E-002   1.1329992150780897E-002
  -7.6032023423265982E-002   2.2836779116726928E-002   1.1177404798475028E-002
  -7.3095367956668336E-002   2.1936307637931668E-002   1.1279226008640220E-002
  -7.0158712490070690E-002   2.0981565064135344E-002   1.1635455781276394E-002
  -8.7114374058291921E-002   2.6021430719910588E-002   6.1988787629715936E-003
  -8.3910832288228154E-002   2.5155605036571438E-002   5.8546540540770353E-003
  -8.0707290518164221E-002   2.4252026710265329E-002   5.7897933896442072E-003
  -7.7503748748100426E-002   2.3310695740994550E-002   6.0042967696726131E-003
  -7.4300206978036520E-002   2.2331612128757228E-002   6.4981641941628254E-003
  -5.6557465455178701E-002   1.6931423870270246E-002   2.6950839668072823E-002
  -5.4226154292165318E-002   1.6062566115410903E-002   2.6534875156350224E-002
  -5.1894843129151963E-002   1.5323258218880781E-002   2.6202531432266279E-002
  -4.9563531966138580E-002   1.4713500180680121E-002   2.5953808495820851E-002
  -4.7232220803125224E-002   1.4233292000809028E-002   2.5788706347014134E-002
  -6.1287341728641809E-002   1.8281470934891964E-002   2.1861793518231337E-002
  -5.8827602505963056E-002   1.7386780617397180E-002   2.1806562648485794E-002
  -5.6367863283284372E-002   1.6602138657808380E-002   2.1924567110432530E-002
  -5.3908124060605668E-002   1.5927545056126181E-002   2.2215806904071225E-002
  -5.1448384837926991E-002   1.5362999812350453E-002   2.2680282029402199E-002
  -6.5821090740272453E-002   1.9631517999513792E-002   1.6756665555965722E-002
  -6.3143308913874874E-002   1.8710995119383400E-002   1.7042666827774389E-002
  -6.0465527087477308E-002   1.7881019096736325E-002   1.7591517975328611E-002
  -5.7787745261079708E-002   1.7141589931572301E-002   1.8403218998628311E-002
  -5.5109963434682163E-002   1.6492707623891989E-002   1.9477769897673858E-002
  -7.0158712490070690E-002   2.0981565064135344E-002   1.1635455781276394E-002
  -6.7173273515900730E-002   2.0035209621369704E-002   1.2243187694215844E-002
  -6.4187834541730743E-002   1.9159899535664042E-002   1.3203384026954704E-002
  -6.1202395567560790E-002   1.8355634807018614E-002   1.4516044779492558E-002
  -5.8216956593390795E-002   1.7622415435433192E-002   1.6181169951829569E-002
  -7.4300206978036520E-002   2.2331612128757228E-002   6.4981641941628254E-003
  -7.0917496312040529E-002   2.1359424123356008E-002   7.4081252478102599E-003
  -6.7534785646044648E-002   2.0438779974591620E-002   8.7601652653105655E-003
  -6.4152074980048657E-002   1.9569679682464224E-002   1.0554284246663471E-002
  -6.0769364314052776E-002   1.8752123246974950E-002   1.2790482191869068E-002
  -4.7232220803125224E-002   1.4233292000809028E-002   2.5788706347014134E-002
  -4.5653185822849884E-002   1.3674545749559619E-002   2.4329714457082097E-002
  -4.4074150842574600E-002   1.2829173497224872E-002   2.2360241827310667E-002
  -4.2495115862299371E-002   1.1697175243804168E-002   1.9880288457699347E-002
  -4.0916080882024031E-002   1.0278550989297752E-002   1.6889854348248745E-002
  -5.1448384837926991E-002   1.5362999812350453E-002   2.2680282029402199E-002
  -4.9987166865470861E-002   1.4734065185246809E-002   2.1905812746713382E-002
  -4.8525948893014745E-002   1.3866303433581195E-002   2.1406190188225982E-002
  -4.7064730920558497E-002   1.2759714557353474E-002   2.1181414353939693E-002
  -4.5603512948102498E-002   1.1414298556563840E-002   2.1231485243855097E-002
  -5.5109963434682163E-002   1.6492707623891989E-002   1.9477769897673858E-002
  -5.2981235006004268E-002   1.5793584620933998E-002   1.9435622098752242E-002
  -5.0852506577326345E-002   1.4903433369937533E-002   2.0453648488072518E-002
  -4.8723778148648561E-002   1.3822253870902950E-002   2.2531849065634969E-002
  -4.6595049719970638E-002   1.2550046123829928E-002   2.5670223831439853E-002
  -5.8216956593390795E-002   1.7622415435433192E-002   1.6181169951829569E-002
  -5.4635390244450209E-002   1.6853104056620799E-002   1.6919142513198544E-002
  -5.1053823895509609E-002   1.5940563306294141E-002   1.9502616726850341E-002
  -4.7472257546569106E-002   1.4884793184452230E-002   2.3931592592784982E-002
  -4.3890691197628423E-002   1.3685793691096015E-002   3.0206070111003333E-002
  -6.0769364314052776E-002   1.8752123246974950E-002   1.2790482191869068E-002
  -5.4949632580808538E-002   1.7912623492308155E-002   1.4356373990051963E-002
  -4.9129900847564412E-002   1.6977693242650527E-002   1.8553094904558948E-002
  -4.3310169114320229E-002   1.5947332498001759E-002   2.5380644935390224E-002
  -3.7490437381076047E-002   1.4821541258362103E-002   3.4839024082545134E-002
 </DataArray>
 </PointData>
 </Piece>
 <Piece  NumberOfPoints="          1600 "  NumberOfCells="         1024 ">
 <Points>
 <DataArray  type="Float64" NumberOfComponents="3"  format="ascii" >
  0.50000000000000000        0.0000000000000000        0.0000000000000000     
  0.53125000000000000        0.0000000000000000        0.0000000000000000     
  0.56250000000000000        0.0000000000000000        0.0000000000000000     
  0.59375000000000000        0.0000000000000000        0.0000000000000000     
  0.62500000000000000        0.0000000000000000        0.0000000000000000     
  0.50000000000000000        3.1250000000000000E-002   0.0000000000000000     
  0.53125000000000000        3.1250000000000000E-002   0.0000000000000000     
  0.56250000000000000        3.1250000000000000E-002   0.0000000000000000     
  0.59375000000000000        3.1250000000000000E-002   0.0000000000000000     
  0.62500000000000000        3.1250000000000000E-002   0.0000000000000000     
  0.50000000000000000        6.2500000000000000E-002   0.0000000000000000     
  0.53125000000000000        6.2500000000000000E-002   0.0000000000000000     
  0.56250000000000000        6.2500000000000000E-002   0.0000000000000000     
  0.59375000000000000        6.2500000000000000E-002   0.0000000000000000     
  0.62500000000000000        6.2500000000000000E-002   0.0000000000000000     
  0.50000000000000000        9.3750000000000000E-002   0.0000000000000000     
  0.53125000000000000        9.3750000000000000E-002   0.0000000000000000     
  0.56250000000000000        9.3750000000000000E-002   0.0000000000000000     
  0.59375000000000000        9.3750000000000000E-002   0.0000000000000000     
  0.62500000000000000        9.3750000000000000E-002   0.0000000000000000     
  0.50000000000000000       0.12500000000000000        0.0000000000000000     
  0.53125000000000000       0.12500000000000000        0.0000000000000000     
  0.56250000000000000       0.12500000000000000        0.0000000000000000     
  0.59375000000000000       0.12500000000000000        0.0000000000000000     
  0.62500000000000000       0.12500000000000000        0.0000000000000000     
  0.62500000000000000        0.0000000000000000        0.0000000000000000     
  0.65625000000000000        0.0000000000000000        0.0000000000000000     
  0.68750000000000000        0.0000000000000000        0.0000000000000000     
  0.71875000000000000        0.0000000000000000        0.0000000000000000     
  0.75000000000000000        0.0000000000000000        0.0000000000000000     
  0.62500000000000000        3.1250000000000000E-002   0.0000000000000000     
  0.65625000000000000        3.1250000000000000E-002   0.0000000000000000     
  0.68750000000000000        3.1250000000000000E-002   0.0000000000000000     
  0.71875000000000000        3.1250000000000000E-002   0.0000000000000000     
  0.75000000000000000        3.1250000000000000E-002   0.0000000000000000     
  0.62500000000000000        6.2500000000000000E-002   0.0000000000000000     
  0.65625000000000000        6.2500000000000000E-002   0.0000000000000000     
  0.68750000000000000        6.2500000000000000E-002   0.0000000000000000     
  0.71875000000000000        6.2500000000000000E-002   0.0000000000000000     
  0.75000000000000000        6.2500000000000000E-002   0.0000000000000000     
  0.62500000000000000        9.3750000000000000E-002   0.0000000000000000     
  0.65625000000000000        9.3750000000000000E-002   0.0000000000000000     
  0.68750000000000000        9.3750000000000000E-002   0.0000000000000000     
  0.71875000000000000        9.3750000000000000E-002   0.0000000000000000     
  0.75000000000000000        9.3750000000000000E-002   0.0000000000000000     
  0.62500000000000000       0.12500000000000000        0.0000000000000000     
  0.65625000000000000       0.12500000000000000        0.0000000000000000     
  0.68750000000000000       0.12500000000000000        0.0000000000000000     
  0.71875000000000000       0.12500000000000000        0.0000000000000000     
  0.75000000000000000       0.12500000000000000        0.0000000000000000     
  0.75000000000000000        0.0000000000000000        0.0000000000000000     
  0.78125000000000000        0.0000000000000000        0.0000000000000000     
  0.81250000000000000        0.0000000000000000        0.0000000000000000     
  0.84375000000000000        0.0000000000000000        0.0000000000000000     
  0.87500000000000000        0.0000000000000000        0.0000000000000000     
  0.75000000000000000        3.1250000000000000E-002   0.0000000000000000     
  0.78125000000000000        3.1250000000000000E-002   0.0000000000000000     
  0.81250000000000000        3.1250000000000000E-002   0.0000000000000000     
  0.84375000000000000        3.1250000000000000E-002   0.0000000000000000     
  0.87500000000000000        3.1250000000000000E-002   0.0000000000000000     
  0.75000000000000000        6.2500000000000000E-002   0.0000000000000000     
  0.78125000000000000        6.2500000000000000E-002   0.0000000000000000     
  0.81250000000000000        6.2500000000000000E-002   0.0000000000000000     
  0.84375000000000000        6.2500000000000000E-002   0.0000000000000000     
  0.87500000000000000        6.2500000000000000E-002   0.0000000000000000     
  0.75000000000000000        9.3750000000000000E-002   0.0000000000000000     
  0.78125000000000000        9.3750000000000000E-002   0.0000000000000000     
  0.81250000000000000        9.3750000000000000E-002   0.0000000000000000     
  0.84375000000000000        9.3750000000000000E-002   0.0000000000000000     
  0.87500000000000000        9.3750000000000000E-002   0.0000000000000000     
  0.75000000000000000       0.12500000000000000        0.0000000000000000     
  0.78125000000000000       0.12500000000000000        0.0000000000000000     
  0.81250000000000000       0.12500000000000000        0.0000000000000000     
  0.84375000000000000       0.12500000000000000        0.0000000000000000     
  0.87500000000000000       0.12500000000000000        0.0000000000000000     
  0.87500000000000000        0.0000000000000000        0.0000000000000000     
  0.90625000000000000        0.0000000000000000        0.0000000000000000     
  0.93750000000000000        0.0000000000000000        0.0000000000000000     
  0.96875000000000000        0.0000000000000000        0.0000000000000000     
   1.0000000000000000        0.0000000000000000        0.0000000000000000     
  0.87500000000000000        3.1250000000000000E-002   0.0000000000000000     
  0.90625000000000000        3.1250000000000000E-002   0.0000000000000000     
  0.93750000000000000        3.1250000000000000E-002   0.0000000000000000     
  0.96875000000000000        3.1250000000000000E-002   0.0000000000000000     
   1.0000000000000000        3.1250000000000000E-002   0.0000000000000000     
  0.87500000000000000        6.2500000000000000E-002   0.0000000000000000     
  0.90625000000000000        6.2500000000000000E-002   0.0000000000000000     
  0.93750000000000000        6.2500000000000000E-002   0.0000000000000000     
  0.96875000000000000        6.2500000000000000E-002   0.0000000000000000     
   1.0000000000000000        6.2500000000000000E-002   0.0000000000000000     
  0.87500000000000000        9.3750000000000000E-002   0.0000000000000000     
  0.90625000000000000        9.3750000000000000E-002   0.0000000000000000     
  0.93750000000000000        9.3750000000000000E-002   0.0000000000000000     
  0.96875000000000000        9.3750000000000000E-002   0.0000000000000000     
   1.0000000000000000        9.3750000000000000E-002   0.0000000000000000     
  0.87500000000000000       0.12500000000000000        0.0000000000000000     
  0.90625000000000000       0.12500000000000000        0.0000000000000000     
  0.93750000000000000       0.12500000000000000        0.0000000000000000     
  0.96875000000000000       0.12500000000000000        0.0000000000000000     
   1.0000000000000000       0.12500000000000000        0.0000000000000000     
   1.0000000000000000        0.0000000000000000        0.0000000000000000     
   1.0312500000000000        0.0000000000000000        0.0000000000000000     
   1.0625000000000000        0.0000000000000000        0.0000000000000000     
   1.0937500000000000        0.0000000000000000        0.0000000000000000     
   1.1250000000000000        0.0000000000000000        0.0000000000000000     
   1.0000000000000000        3.1250000000000000E-002   0.0000000000000000     
   1.0312500000000000        3.1250000000000000E-002   0.0000000000000000     
   1.0625000000000000        3.1250000000000000E-002   0.0000000000000000     
   1.0937500000000000        3.1250000000000000E-002   0.0000000000000000     
   1.1250000000000000        3.1250000000000000E-002   0.0000000000000000     
   1.0000000000000000        6.2500000000000000E-002   0.0000000000000000     
   1.0312500000000000        6.2500000000000000E-002   0.0000000000000000     
   1.0625000000000000        6.2500000000000000E-002   0.0000000000000000     
   1.0937500000000000        6.2500000000000000E-002   0.0000000000000000     
   1.1250000000000000        6.2500000000000000E-002   0.0000000000000000     
   1.0000000000000000        9.3750000000000000E-002   0.0000000000000000     
   1.0312500000000000        9.3750000000000000E-002   0.0000000000000000     
   1.0625000000000000        9.3750000000000000E-002   0.0000000000000000     
   1.0937500000000000        9.3750000000000000E-002   0.0000000000000000     
   1.1250000000000000        9.3750000000000000E-002   0.0000000000000000     
   1.0000000000000000       0.12500000000000000        0.0000000000000000     
   1.0312500000000000       0.12500000000000000        0.0000000000000000     
   1.0625000000000000       0.12500000000000000        0.0000000000000000     
   1.0937500000000000       0.12500000000000000        0.0000000000000000     
   1.1250000000000000       0.12500000000000000        0.0000000000000000     
   1.1250000000000000        0.0000000000000000        0.0000000000000000     
   1.1562500000000000        0.0000000000000000        0.0000000000000000     
   1.1875000000000000        0.0000000000000000        0.0000000000000000     
   1.2187500000000000        0.0000000000000000        0.0000000000000000     
   1.2500000000000000        0.0000000000000000        0.0000000000000000     
   1.1250000000000000        3.1250000000000000E-002   0.0000000000000000     
   1.1562500000000000        3.1250000000000000E-002   0.0000000000000000     
   1.1875000000000000        3.1250000000000000E-002   0.0000000000000000     
   1.2187500000000000        3.1250000000000000E-002   0.0000000000000000     
   1.2500000000000000        3.1250000000000000E-002   0.0000000000000000     
   1.1250000000000000        6.2500000000000000E-002   0.0000000000000000     
   1.1562500000000000        6.2500000000000000E-002   0.0000000000000000     
   1.1875000000000000        6.2500000000000000E-002   0.0000000000000000     
   1.2187500000000000        6.2500000000000000E-002   0.0000000000000000     
   1.2500000000000000        6.2500000000000000E-002   0.0000000000000000     
   1.1250000000000000        9.3750000000000000E-002   0.0000000000000000     
   1.1562500000000000        9.3750000000000000E-002   0.0000000000000000     
   1.1875000000000000        9.3750000000000000E-002   0.0000000000000000     
   1.2187500000000000        9.3750000000000000E-002   0.0000000000000000     
   1.2500000000000000        9.3750000000000000E-002   0.0000000000000000     
   1.1250000000000000       0.12500000000000000        0.0000000000000000     
   1.1562500000000000       0.12500000000000000        0.0000000000000000     
   1.1875000000000000       0.12500000000000000        0.0000000000000000     
   1.2187500000000000       0.12500000000000000        0.0000000000000000     
   1.2500000000000000       0.12500000000000000        0.0000000000000000     
   1.2500000000000000        0.0000000000000000        0.0000000000000000     
   1.2812500000000000        0.0000000000000000        0.0000000000000000     
   1.3125000000000000        0.0000000000000000        0.0000000000000000     
   1.3437500000000000        0.0000000000000000        0.0000000000000000     
   1.3750000000000000        0.0000000000000000        0.0000000000000000     
   1.2500000000000000        3.1250000000000000E-002   0.0000000000000000     
   1.2812500000000000        3.1250000000000000E-002   0.0000000000000000     
   1.3125000000000000        3.1250000000000000E-002   0.0000000000000000     
   1.3437500000000000        3.1250000000000000E-002   0.0000000000000000     
   1.3750000000000000        3.1250000000000000E-002   0.0000000000000000     
   1.2500000000000000        6.2500000000000000E-002   0.0000000000000000     
   1.2812500000000000        6.2500000000000000E-002   0.0000000000000000     
   1.3125000000000000        6.2500000000000000E-002   0.0000000000000000     
   1.3437500000000000        6.2500000000000000E-002   0.0000000000000000     
   1.3750000000000000        6.2500000000000000E-002   0.0000000000000000     
   1.2500000000000000        9.3750000000000000E-002   0.0000000000000000     
   1.2812500000000000        9.3750000000000000E-002   0.0000000000000000     
   1.3125000000000000        9.3750000000000000E-002   0.0000000000000000     
   1.3437500000000000        9.3750000000000000E-002   0.0000000000000000     
   1.3750000000000000        9.3750000000000000E-002   0.0000000000000000     
   1.2500000000000000       0.12500000000000000        0.0000000000000000     
   1.2812500000000000       0.12500000000000000        0.0000000000000000     
   1.3125000000000000       0.12500000000000000        0.0000000000000000     
   1.3437500000000000       0.12500000000000000        0.0000000000000000     
   1.3750000000000000       0.12500000000000000        0.0000000000000000     
   1.3750000000000000        0.0000000000000000        0.0000000000000000     
   1.4062500000000000        0.0000000000000000        0.0000000000000000     
   1.4375000000000000        0.0000000000000000        0.0000000000000000     
   1.4687500000000000        0.0000000000000000        0.0000000000000000     
   1.5000000000000000        0.0000000000000000        0.0000000000000000     
   1.3750000000000000        3.1250000000000000E-002   0.0000000000000000     
   1.4062500000000000        3.1250000000000000E-002   0.0000000000000000     
   1.4375000000000000        3.1250000000000000E-002   0.0000000000000000     
   1.4687500000000000        3.1250000000000000E-002   0.0000000000000000     
   1.5000000000000000        3.1250000000000000E-002   0.0000000000000000     
   1.3750000000000000        6.2500000000000000E-002   0.0000000000000000     
   1.4062500000000000        6.2500000000000000E-002   0.0000000000000000     
   1.4375000000000000        6.2500000000000000E-002   0.0000000000000000     
   1.4687500000000000        6.2500000000000000E-002   0.0000000000000000     
   1.5000000000000000        6.2500000000000000E-002   0.0000000000000000     
   1.3750000000000000        9.3750000000000000E-002   0.0000000000000000     
   1.4062500000000000        9.3750000000000000E-002   0.0000000000000000     
   1.4375000000000000        9.3750000000000000E-002   0.0000000000000000     
   1.4687500000000000        9.3750000000000000E-002   0.0000000000000000     
   1.5000000000000000        9.3750000000000000E-002   0.0000000000000000     
   1.3750000000000000       0.12500000000000000        0.0000000000000000     
   1.4062500000000000       0.12500000000000000        0.0000000000000000     
   1.4375000000000000       0.12500000000000000        0.0000000000000000     
   1.4687500000000000       0.12500000000000000        0.0000000000000000     
   1.5000000000000000       0.12500000000000000        0.0000000000000000     
  0.50000000000000000       0.12500000000000000        0.0000000000000000     
  0.53125000000000000       0.12500000000000000        0.0000000000000000     
  0.56250000000000000       0.12500000000000000        0.0000000000000000     
  0.59375000000000000       0.12500000000000000        0.0000000000000000     
  0.62500000000000000       0.12500000000000000        0.0000000000000000     
  0.50000000000000000       0.15625000000000000        0.0000000000000000     
  0.53125000000000000       0.15625000000000000        0.0000000000000000     
  0.56250000000000000       0.15625000000000000        0.0000000000000000     
  0.59375000000000000       0.15625000000000000        0.0000000000000000     
  0.62500000000000000       0.15625000000000000        0.0000000000000000     
  0.50000000000000000       0.18750000000000000        0.0000000000000000     
  0.53125000000000000       0.18750000000000000        0.0000000000000000     
  0.56250000000000000       0.18750000000000000        0.0000000000000000     
  0.59375000000000000       0.18750000000000000        0.0000000000000000     
  0.62500000000000000       0.18750000000000000        0.0000000000000000     
  0.50000000000000000       0.21875000000000000        0.0000000000000000     
  0.53125000000000000       0.21875000000000000        0.0000000000000000     
  0.56250000000000000       0.21875000000000000        0.0000000000000000     
  0.59375000000000000       0.21875000000000000        0.0000000000000000     
  0.62500000000000000       0.21875000000000000        0.0000000000000000     
  0.50000000000000000       0.25000000000000000        0.0000000000000000     
  0.53125000000000000       0.25000000000000000        0.0000000000000000     
  0.56250000000000000       0.25000000000000000        0.0000000000000000     
  0.59375000000000000       0.25000000000000000        0.0000000000000000     
  0.62500000000000000       0.25000000000000000        0.0000000000000000     
  0.62500000000000000       0.12500000000000000        0.0000000000000000     
  0.65625000000000000       0.12500000000000000        0.0000000000000000     
  0.68750000000000000       0.12500000000000000        0.0000000000000000     
  0.71875000000000000       0.12500000000000000        0.0000000000000000     
  0.75000000000000000       0.12500000000000000        0.0000000000000000     
  0.62500000000000000       0.15625000000000000        0.0000000000000000     
  0.65625000000000000       0.15625000000000000        0.0000000000000000     
  0.68750000000000000       0.15625000000000000        0.0000000000000000     
  0.71875000000000000       0.15625000000000000        0.0000000000000000     
  0.75000000000000000       0.15625000000000000        0.0000000000000000     
  0.62500000000000000       0.18750000000000000        0.0000000000000000     
  0.65625000000000000       0.18750000000000000        0.0000000000000000     
  0.68750000000000000       0.18750000000000000        0.0000000000000000     
  0.71875000000000000       0.18750000000000000        0.0000000000000000     
  0.75000000000000000       0.18750000000000000        0.0000000000000000     
  0.62500000000000000       0.21875000000000000        0.0000000000000000     
  0.65625000000000000       0.21875000000000000        0.0000000000000000     
  0.68750000000000000       0.21875000000000000        0.0000000000000000     
  0.71875000000000000       0.21875000000000000        0.0000000000000000     
  0.75000000000000000       0.21875000000000000        0.0000000000000000     
  0.62500000000000000       0.25000000000000000        0.0000000000000000     
  0.65625000000000000       0.25000000000000000        0.0000000000000000     
  0.68750000000000000       0.25000000000000000        0.0000000000000000     
  0.71875000000000000       0.25000000000000000        0.0000000000000000     
  0.75000000000000000       0.25000000000000000        0.0000000000000000     
  0.75000000000000000       0.12500000000000000        0.0000000000000000     
  0.78125000000000000       0.12500000000000000        0.0000000000000000     
  0.81250000000000000       0.12500000000000000        0.0000000000000000     
  0.84375000000000000       0.12500000000000000        0.0000000000000000     
  0.87500000000000000       0.12500000000000000        0.0000000000000000     
  0.75000000000000000       0.15625000000000000        0.0000000000000000     
  0.78125000000000000       0.15625000000000000        0.0000000000000000     
  0.81250000000000000       0.15625000000000000        0.0000000000000000     
  0.84375000000000000       0.15625000000000000        0.0000000000000000     
  0.87500000000000000       0.15625000000000000        0.0000000000000000     
  0.75000000000000000       0.18750000000000000        0.0000000000000000     
  0.78125000000000000       0.18750000000000000        0.0000000000000000     
  0.81250000000000000       0.18750000000000000        0.0000000000000000     
  0.84375000000000000       0.18750000000000000        0.0000000000000000     
  0.87500000000000000       0.18750000000000000        0.0000000000000000     
  0.75000000000000000       0.21875000000000000        0.0000000000000000     
  0.78125000000000000       0.21875000000000000        0.0000000000000000     
  0.81250000000000000       0.21875000000000000        0.0000000000000000     
  0.84375000000000000       0.21875000000000000        0.0000000000000000     
  0.87500000000000000       0.21875000000000000        0.0000000000000000     
  0.75000000000000000       0.25000000000000000        0.0000000000000000     
  0.78125000000000000       0.25000000000000000        0.0000000000000000     
  0.81250000000000000       0.25000000000000000        0.0000000000000000     
  0.84375000000000000       0.25000000000000000        0.0000000000000000     
  0.87500000000000000       0.25000000000000000        0.0000000000000000     
  0.87500000000000000       0.12500000000000000        0.0000000000000000     
  0.90625000000000000       0.12500000000000000        0.0000000000000000     
  0.93750000000000000       0.12500000000000000        0.0000000000000000     
  0.96875000000000000       0.12500000000000000        0.0000000000000000     
   1.0000000000000000       0.12500000000000000        0.0000000000000000     
  0.87500000000000000       0.15625000000000000        0.0000000000000000     
  0.90625000000000000       0.15625000000000000        0.0000000000000000     
  0.93750000000000000       0.15625000000000000        0.0000000000000000     
  0.96875000000000000       0.15625000000000000        0.0000000000000000     
   1.0000000000000000       0.15625000000000000        0.0000000000000000     
  0.87500000000000000       0.18750000000000000        0.0000000000000000     
  0.90625000000000000       0.18750000000000000        0.0000000000000000     
  0.93750000000000000       0.18750000000000000        0.0000000000000000     
  0.96875000000000000       0.18750000000000000        0.0000000000000000     
   1.0000000000000000       0.18750000000000000        0.0000000000000000     
  0.87500000000000000       0.21875000000000000        0.0000000000000000     
  0.90625000000000000       0.21875000000000000        0.0000000000000000     
  0.93750000000000000       0.21875000000000000        0.0000000000000000     
  0.96875000000000000       0.21875000000000000        0.0000000000000000     
   1.0000000000000000       0.21875000000000000        0.0000000000000000     
  0.87500000000000000       0.25000000000000000        0.0000000000000000     
  0.90625000000000000       0.25000000000000000        0.0000000000000000     
  0.93750000000000000       0.25000000000000000        0.0000000000000000     
  0.96875000000000000       0.25000000000000000        0.0000000000000000     
   1.0000000000000000       0.25000000000000000        0.0000000000000000     
   1.0000000000000000       0.12500000000000000        0.0000000000000000     
   1.0312500000000000       0.12500000000000000        0.0000000000000000     
   1.0625000000000000       0.12500000000000000        0.0000000000000000     
   1.0937500000000000       0.12500000000000000        0.0000000000000000     
   1.1250000000000000       0.12500000000000000        0.0000000000000000     
   1.0000000000000000       0.15625000000000000        0.0000000000000000     
   1.0312500000000000       0.15625000000000000        0.0000000000000000     
   1.0625000000000000       0.15625000000000000        0.0000000000000000     
   1.0937500000000000       0.15625000000000000        0.0000000000000000     
   1.1250000000000000       0.15625000000000000        0.0000000000000000     
   1.0000000000000000       0.18750000000000000        0.0000000000000000     
   1.0312500000000000       0.18750000000000000        0.0000000000000000     
   1.0625000000000000       0.18750000000000000        0.0000000000000000     
   1.0937500000000000       0.18750000000000000        0.0000000000000000     
   1.1250000000000000       0.18750000000000000        0.0000000000000000     
   1.0000000000000000       0.21875000000000000        0.0000000000000000     
   1.0312500000000000       0.21875000000000000        0.0000000000000000     
   1.0625000000000000       0.21875000000000000        0.0000000000000000     
   1.0937500000000000       0.21875000000000000        0.0000000000000000     
   1.1250000000000000       0.21875000000000000        0.0000000000000000     
   1.0000000000000000       0.25000000000000000        0.0000000000000000     
   1.0312500000000000       0.25000000000000000        0.0000000000000000     
   1.0625000000000000       0.25000000000000000        0.0000000000000000     
   1.0937500000000000       0.25000000000000000        0.0000000000000000     
   1.1250000000000000       0.25000000000000000        0.0000000000000000     
   1.1250000000000000       0.12500000000000000        0.0000000000000000     
   1.1562500000000000       0.12500000000000000        0.0000000000000000     
   1.1875000000000000       0.12500000000000000        0.0000000000000000     
   1.2187500000000000       0.12500000000000000        0.0000000000000000     
   1.2500000000000000       0.12500000000000000        0.0000000000000000     
   1.1250000000000000       0.15625000000000000        0.0000000000000000     
   1.1562500000000000       0.15625000000000000        0.0000000000000000     
   1.1875000000000000       0.15625000000000000        0.0000000000000000     
   1.2187500000000000       0.15625000000000000        0.0000000000000000     
   1.2500000000000000       0.15625000000000000        0.0000000000000000     
   1.1250000000000000       0.18750000000000000        0.0000000000000000     
   1.1562500000000000       0.18750000000000000        0.0000000000000000     
   1.1875000000000000       0.18750000000000000        0.0000000000000000     
   1.2187500000000000       0.18750000000000000        0.0000000000000000     
   1.2500000000000000       0.18750000000000000        0.0000000000000000     
   1.1250000000000000       0.21875000000000000        0.0000000000000000     
   1.1562500000000000       0.21875000000000000        0.0000000000000000     
   1.1875000000000000       0.21875000000000000        0.0000000000000000     
   1.2187500000000000       0.21875000000000000        0.0000000000000000     
   1.2500000000000000       0.21875000000000000        0.0000000000000000     
   1.1250000000000000       0.25000000000000000        0.0000000000000000     
   1.1562500000000000       0.25000000000000000        0.0000000000000000     
   1.1875000000000000       0.25000000000000000        0.0000000000000000     
   1.2187500000000000       0.25000000000000000        0.0000000000000000     
   1.2500000000000000       0.25000000000000000        0.0000000000000000     
   1.2500000000000000       0.12500000000000000        0.0000000000000000     
   1.2812500000000000       0.12500000000000000        0.0000000000000000     
   1.3125000000000000       0.12500000000000000        0.0000000000000000     
   1.3437500000000000       0.12500000000000000        0.0000000000000000     
   1.3750000000000000       0.12500000000000000        0.0000000000000000     
   1.2500000000000000       0.15625000000000000        0.0000000000000000     
   1.2812500000000000       0.15625000000000000        0.0000000000000000     
   1.3125000000000000       0.15625000000000000        0.0000000000000000     
   1.3437500000000000       0.15625000000000000        0.0000000000000000     
   1.3750000000000000       0.15625000000000000        0.0000000000000000     
   1.2500000000000000       0.18750000000000000        0.0000000000000000     
   1.2812500000000000       0.18750000000000000        0.0000000000000000     
   1.3125000000000000       0.18750000000000000        0.0000000000000000     
   1.3437500000000000       0.18750000000000000        0.0000000000000000     
   1.3750000000000000       0.18750000000000000        0.0000000000000000     
   1.2500000000000000       0.21875000000000000        0.0000000000000000     
   1.2812500000000000       0.21875000000000000        0.0000000000000000     
   1.3125000000000000       0.21875000000000000        0.0000000000000000     
   1.3437500000000000       0.21875000000000000        0.0000000000000000     
   1.3750000000000000       0.21875000000000000        0.0000000000000000     
   1.2500000000000000       0.25000000000000000        0.0000000000000000     
   1.2812500000000000       0.25000000000000000        0.0000000000000000     
   1.3125000000000000       0.25000000000000000        0.0000000000000000     
   1.3437500000000000       0.25000000000000000        0.0000000000000000     
   1.3750000000000000       0.25000000000000000        0.0000000000000000     
   1.3750000000000000       0.12500000000000000        0.0000000000000000     
   1.4062500000000000       0.12500000000000000        0.0000000000000000     
   1.4375000000000000       0.12500000000000000        0.0000000000000000     
   1.4687500000000000       0.12500000000000000        0.0000000000000000     
   1.5000000000000000       0.12500000000000000        0.0000000000000000     
   1.3750000000000000       0.15625000000000000        0.0000000000000000     
   1.4062500000000000       0.15625000000000000        0.0000000000000000     
   1.4375000000000000       0.15625000000000000        0.0000000000000000     
   1.4687500000000000       0.15625000000000000        0.0000000000000000     
   1.5000000000000000       0.15625000000000000        0.0000000000000000     
   1.3750000000000000       0.18750000000000000        0.0000000000000000     
   1.4062500000000000       0.18750000000000000        0.0000000000000000     
   1.4375000000000000       0.18750000000000000        0.0000000000000000     
   1.4687500000000000       0.18750000000000000        0.0000000000000000     
   1.5000000000000000       0.18750000000000000        0.0000000000000000     
   1.3750000000000000       0.21875000000000000        0.0000000000000000     
   1.4062500000000000       0.21875000000000000        0.0000000000000000     
   1.4375000000000000       0.21875000000000000        0.0000000000000000     
   1.4687500000000000       0.21875000000000000        0.0000000000000000     
   1.5000000000000000       0.21875000000000000        0.0000000000000000     
   1.3750000000000000       0.25000000000000000        0.0000000000000000     
   1.4062500000000000       0.25000000000000000        0.0000000000000000     
   1.4375000000000000       0.25000000000000000        0.0000000000000000     
   1.4687500000000000       0.25000000000000000        0.0000000000000000     
   1.5000000000000000       0.25000000000000000        0.0000000000000000     
  0.50000000000000000       0.25000000000000000        0.0000000000000000     
  0.53125000000000000       0.25000000000000000        0.0000000000000000     
  0.56250000000000000       0.25000000000000000        0.0000000000000000     
  0.59375000000000000       0.25000000000000000        0.0000000000000000     
  0.62500000000000000       0.25000000000000000        0.0000000000000000     
  0.50000000000000000       0.28125000000000000        0.0000000000000000     
  0.53125000000000000       0.28125000000000000        0.0000000000000000     
  0.56250000000000000       0.28125000000000000        0.0000000000000000     
  0.59375000000000000       0.28125000000000000        0.0000000000000000     
  0.62500000000000000       0.28125000000000000        0.0000000000000000     
  0.50000000000000000       0.31250000000000000        0.0000000000000000     
  0.53125000000000000       0.31250000000000000        0.0000000000000000     
  0.56250000000000000       0.31250000000000000        0.0000000000000000     
  0.59375000000000000       0.31250000000000000        0.0000000000000000     
  0.62500000000000000       0.31250000000000000        0.0000000000000000     
  0.50000000000000000       0.34375000000000000        0.0000000000000000     
  0.53125000000000000       0.34375000000000000        0.0000000000000000     
  0.56250000000000000       0.34375000000000000        0.0000000000000000     
  0.59375000000000000       0.34375000000000000        0.0000000000000000     
  0.62500000000000000       0.34375000000000000        0.0000000000000000     
  0.50000000000000000       0.37500000000000000        0.0000000000000000     
  0.53125000000000000       0.37500000000000000        0.0000000000000000     
  0.56250000000000000       0.37500000000000000        0.0000000000000000     
  0.59375000000000000       0.37500000000000000        0.0000000000000000     
  0.62500000000000000       0.37500000000000000        0.0000000000000000     
  0.62500000000000000       0.25000000000000000        0.0000000000000000     
  0.65625000000000000       0.25000000000000000        0.0000000000000000     
  0.68750000000000000       0.25000000000000000        0.0000000000000000     
  0.71875000000000000       0.25000000000000000        0.0000000000000000     
  0.75000000000000000       0.25000000000000000        0.0000000000000000     
  0.62500000000000000       0.28125000000000000        0.0000000000000000     
  0.65625000000000000       0.28125000000000000        0.0000000000000000     
  0.68750000000000000       0.28125000000000000        0.0000000000000000     
  0.71875000000000000       0.28125000000000000        0.0000000000000000     
  0.75000000000000000       0.28125000000000000        0.0000000000000000     
  0.62500000000000000       0.31250000000000000        0.0000000000000000     
  0.65625000000000000       0.31250000000000000        0.0000000000000000     
  0.68750000000000000       0.31250000000000000        0.0000000000000000     
  0.71875000000000000       0.31250000000000000        0.0000000000000000     
  0.75000000000000000       0.31250000000000000        0.0000000000000000     
  0.62500000000000000       0.34375000000000000        0.0000000000000000     
  0.65625000000000000       0.34375000000000000        0.0000000000000000     
  0.68750000000000000       0.34375000000000000        0.0000000000000000     
  0.71875000000000000       0.34375000000000000        0.0000000000000000     
  0.75000000000000000       0.34375000000000000        0.0000000000000000     
  0.62500000000000000       0.37500000000000000        0.0000000000000000     
  0.65625000000000000       0.37500000000000000        0.0000000000000000     
  0.68750000000000000       0.37500000000000000        0.0000000000000000     
  0.71875000000000000       0.37500000000000000        0.0000000000000000     
  0.75000000000000000       0.37500000000000000        0.0000000000000000     
  0.75000000000000000       0.25000000000000000        0.0000000000000000     
  0.78125000000000000       0.25000000000000000        0.0000000000000000     
  0.81250000000000000       0.25000000000000000        0.0000000000000000     
  0.84375000000000000       0.25000000000000000        0.0000000000000000     
  0.87500000000000000       0.25000000000000000        0.0000000000000000     
  0.75000000000000000       0.28125000000000000        0.0000000000000000     
  0.78125000000000000       0.28125000000000000        0.0000000000000000     
  0.81250000000000000       0.28125000000000000        0.0000000000000000     
  0.84375000000000000       0.28125000000000000        0.0000000000000000     
  0.87500000000000000       0.28125000000000000        0.0000000000000000     
  0.75000000000000000       0.31250000000000000        0.0000000000000000     
  0.78125000000000000       0.31250000000000000        0.0000000000000000     
  0.81250000000000000       0.31250000000000000        0.0000000000000000     
  0.84375000000000000       0.31250000000000000        0.0000000000000000     
  0.87500000000000000       0.31250000000000000        0.0000000000000000     
  0.75000000000000000       0.34375000000000000        0.0000000000000000     
  0.78125000000000000       0.34375000000000000        0.0000000000000000     
  0.81250000000000000       0.34375000000000000        0.0000000000000000     
  0.84375000000000000       0.34375000000000000        0.0000000000000000     
  0.87500000000000000       0.34375000000000000        0.0000000000000000     
  0.75000000000000000       0.37500000000000000        0.0000000000000000     
  0.78125000000000000       0.37500000000000000        0.0000000000000000     
  0.81250000000000000       0.37500000000000000        0.0000000000000000     
  0.84375000000000000       0.37500000000000000        0.0000000000000000     
  0.87500000000000000       0.37500000000000000        0.0000000000000000     
  0.87500000000000000       0.25000000000000000        0.0000000000000000     
  0.90625000000000000       0.25000000000000000        0.0000000000000000     
  0.93750000000000000       0.25000000000000000        0.0000000000000000     
  0.96875000000000000       0.25000000000000000        0.0000000000000000     
   1.0000000000000000       0.25000000000000000        0.0000000000000000     
  0.87500000000000000       0.28125000000000000        0.0000000000000000     
  0.90625000000000000       0.28125000000000000        0.0000000000000000     
  0.93750000000000000       0.28125000000000000        0.0000000000000000     
  0.96875000000000000       0.28125000000000000        0.0000000000000000     
   1.0000000000000000       0.28125000000000000        0.0000000000000000     
  0.87500000000000000       0.31250000000000000        0.0000000000000000     
  0.90625000000000000       0.31250000000000000        0.0000000000000000     
  0.93750000000000000       0.31250000000000000        0.0000000000000000     
  0.96875000000000000       0.31250000000000000        0.0000000000000000     
   1.0000000000000000       0.31250000000000000        0.0000000000000000     
  0.87500000000000000       0.34375000000000000        0.0000000000000000     
  0.90625000000000000       0.34375000000000000        0.0000000000000000     
  0.93750000000000000       0.34375000000000000        0.0000000000000000     
  0.96875000000000000       0.34375000000000000        0.0000000000000000     
   1.0000000000000000       0.34375000000000000        0.0000000000000000     
  0.87500000000000000       0.37500000000000000        0.0000000000000000     
  0.90625000000000000       0.37500000000000000        0.0000000000000000     
  0.93750000000000000       0.37500000000000000        0.0000000000000000     
  0.96875000000000000       0.37500000000000000        0.0000000000000000     
   1.0000000000000000       0.37500000000000000        0.0000000000000000     
   1.0000000000000000       0.25000000000000000        0.0000000000000000     
   1.0312500000000000       0.25000000000000000        0.0000000000000000     
   1.0625000000000000       0.25000000000000000        0.0000000000000000     
   1.0937500000000000       0.25000000000000000        0.0000000000000000     
   1.1250000000000000       0.25000000000000000        0.0000000000000000     
   1.0000000000000000       0.28125000000000000        0.0000000000000000     
   1.0312500000000000       0.28125000000000000        0.0000000000000000     
   1.0625000000000000       0.28125000000000000        0.0000000000000000     
   1.0937500000000000       0.28125000000000000        0.0000000000000000     
   1.1250000000000000       0.28125000000000000        0.0000000000000000     
   1.0000000000000000       0.31250000000000000        0.0000000000000000     
   1.0312500000000000       0.31250000000000000        0.0000000000000000     
   1.0625000000000000       0.31250000000000000        0.0000000000000000     
   1.0937500000000000       0.31250000000000000        0.0000000000000000     
   1.1250000000000000       0.31250000000000000        0.0000000000000000     
   1.0000000000000000       0.34375000000000000        0.0000000000000000     
   1.0312500000000000       0.34375000000000000        0.0000000000000000     
   1.0625000000000000       0.34375000000000000        0.0000000000000000     
   1.0937500000000000       0.34375000000000000        0.0000000000000000     
   1.1250000000000000       0.34375000000000000        0.0000000000000000     
   1.0000000000000000       0.37500000000000000        0.0000000000000000     
   1.0312500000000000       0.37500000000000000        0.0000000000000000     
   1.0625000000000000       0.37500000000000000        0.0000000000000000     
   1.0937500000000000       0.37500000000000000        0.0000000000000000     
   1.1250000000000000       0.37500000000000000        0.0000000000000000     
   1.1250000000000000       0.25000000000000000        0.0000000000000000     
   1.1562500000000000       0.25000000000000000        0.0000000000000000     
   1.1875000000000000       0.25000000000000000        0.0000000000000000     
   1.2187500000000000       0.25000000000000000        0.0000000000000000     
   1.2500000000000000       0.25000000000000000        0.0000000000000000     
   1.1250000000000000       0.28125000000000000        0.0000000000000000     
   1.1562500000000000       0.28125000000000000        0.0000000000000000     
   1.1875000000000000       0.28125000000000000        0.0000000000000000     
   1.2187500000000000       0.28125000000000000        0.0000000000000000     
   1.2500000000000000       0.28125000000000000        0.0000000000000000     
   1.1250000000000000       0.31250000000000000        0.0000000000000000     
   1.1562500000000000       0.31250000000000000        0.0000000000000000     
   1.1875000000000000       0.31250000000000000        0.0000000000000000     
   1.2187500000000000       0.31250000000000000        0.0000000000000000     
   1.2500000000000000       0.31250000000000000        0.0000000000000000     
   1.1250000000000000       0.34375000000000000        0.0000000000000000     
   1.1562500000000000       0.34375000000000000        0.0000000000000000     
   1.1875000000000000       0.34375000000000000        0.0000000000000000     
   1.2187500000000000       0.34375000000000000        0.0000000000000000     
   1.2500000000000000       0.34375000000000000        0.0000000000000000     
   1.1250000000000000       0.37500000000000000        0.0000000000000000     
   1.1562500000000000       0.37500000000000000        0.0000000000000000     
   1.1875000000000000       0.37500000000000000        0.0000000000000000     
   1.2187500000000000       0.37500000000000000        0.0000000000000000     
   1.2500000000000000       0.37500000000000000        0.0000000000000000     
   1.2500000000000000       0.25000000000000000        0.0000000000000000     
   1.2812500000000000       0.25000000000000000        0.0000000000000000     
   1.3125000000000000       0.25000000000000000        0.0000000000000000     
   1.3437500000000000       0.25000000000000000        0.0000000000000000     
   1.3750000000000000       0.25000000000000000        0.0000000000000000     
   1.2500000000000000       0.28125000000000000        0.0000000000000000     
   1.2812500000000000       0.28125000000000000        0.0000000000000000     
   1.3125000000000000       0.28125000000000000        0.0000000000000000     
   1.3437500000000000       0.28125000000000000        0.0000000000000000     
   1.3750000000000000       0.28125000000000000        0.0000000000000000     
   1.2500000000000000       0.31250000000000000        0.0000000000000000     
   1.2812500000000000       0.31250000000000000        0.0000000000000000     
   1.3125000000000000       0.31250000000000000        0.0000000000000000     
   1.3437500000000000       0.31250000000000000        0.0000000000000000     
   1.3750000000000000       0.31250000000000000        0.0000000000000000     
   1.2500000000000000       0.34375000000000000        0.0000000000000000     
   1.2812500000000000       0.34375000000000000        0.0000000000000000     
   1.3125000000000000       0.34375000000000000        0.0000000000000000     
   1.3437500000000000       0.34375000000000000        0.0000000000000000     
   1.3750000000000000       0.34375000000000000        0.0000000000000000     
   1.2500000000000000       0.37500000000000000        0.0000000000000000     
   1.2812500000000000       0.37500000000000000        0.0000000000000000     
   1.3125000000000000       0.37500000000000000        0.0000000000000000     
   1.3437500000000000       0.37500000000000000        0.0000000000000000     
   1.3750000000000000       0.37500000000000000        0.0000000000000000     
   1.3750000000000000       0.25000000000000000        0.0000000000000000     
   1.4062500000000000       0.25000000000000000        0.0000000000000000     
   1.4375000000000000       0.25000000000000000        0.0000000000000000     
   1.4687500000000000       0.25000000000000000        0.0000000000000000     
   1.5000000000000000       0.25000000000000000        0.0000000000000000     
   1.3750000000000000       0.28125000000000000        0.0000000000000000     
   1.4062500000000000       0.28125000000000000        0.0000000000000000     
   1.4375000000000000       0.28125000000000000        0.0000000000000000     
   1.4687500000000000       0.28125000000000000        0.0000000000000000     
   1.5000000000000000       0.28125000000000000        0.0000000000000000     
   1.3750000000000000       0.31250000000000000        0.0000000000000000     
   1.4062500000000000       0.31250000000000000        0.0000000000000000     
   1.4375000000000000       0.31250000000000000        0.0000000000000000     
   1.4687500000000000       0.31250000000000000        0.0000000000000000     
   1.5000000000000000       0.31250000000000000        0.0000000000000000     
   1.3750000000000000       0.34375000000000000        0.0000000000000000     
   1.4062500000000000       0.34375000000000000        0.0000000000000000     
   1.4375000000000000       0.34375000000000000        0.0000000000000000     
   1.4687500000000000       0.34375000000000000        0.0000000000000000     
   1.5000000000000000       0.34375000000000000        0.0000000000000000     
   1.3750000000000000       0.37500000000000000        0.0000000000000000     
   1.4062500000000000       0.37500000000000000        0.0000000000000000     
   1.4375000000000000       0.37500000000000000        0.0000000000000000     
   1.4687500000000000       0.37500000000000000        0.0000000000000000     
   1.5000000000000000       0.37500000000000000        0.0000000000000000     
  0.50000000000000000       0.37500000000000000        0.0000000000000000     
  0.53125000000000000       0.37500000000000000        0.0000000000000000     
  0.56250000000000000       0.37500000000000000        0.0000000000000000     
  0.59375000000000000       0.37500000000000000        0.0000000000000000     
  0.62500000000000000       0.37500000000000000        0.0000000000000000     
  0.50000000000000000       0.40625000000000000        0.0000000000000000     
  0.53125000000000000       0.40625000000000000        0.0000000000000000     
  0.56250000000000000       0.40625000000000000        0.0000000000000000     
  0.59375000000000000       0.40625000000000000        0.0000000000000000     
  0.62500000000000000       0.40625000000000000        0.0000000000000000     
  0.50000000000000000       0.43750000000000000        0.0000000000000000     
  0.53125000000000000       0.43750000000000000        0.0000000000000000     
  0.56250000000000000       0.43750000000000000        0.0000000000000000     
  0.59375000000000000       0.43750000000000000        0.0000000000000000     
  0.62500000000000000       0.43750000000000000        0.0000000000000000     
  0.50000000000000000       0.46875000000000000        0.0000000000000000     
  0.53125000000000000       0.46875000000000000        0.0000000000000000     
  0.56250000000000000       0.46875000000000000        0.0000000000000000     
  0.59375000000000000       0.46875000000000000        0.0000000000000000     
  0.62500000000000000       0.46875000000000000        0.0000000000000000     
  0.50000000000000000       0.50000000000000000        0.0000000000000000     
  0.53125000000000000       0.50000000000000000        0.0000000000000000     
  0.56250000000000000       0.50000000000000000        0.0000000000000000     
  0.59375000000000000       0.50000000000000000        0.0000000000000000     
  0.62500000000000000       0.50000000000000000        0.0000000000000000     
  0.62500000000000000       0.37500000000000000        0.0000000000000000     
  0.65625000000000000       0.37500000000000000        0.0000000000000000     
  0.68750000000000000       0.37500000000000000        0.0000000000000000     
  0.71875000000000000       0.37500000000000000        0.0000000000000000     
  0.75000000000000000       0.37500000000000000        0.0000000000000000     
  0.62500000000000000       0.40625000000000000        0.0000000000000000     
  0.65625000000000000       0.40625000000000000        0.0000000000000000     
  0.68750000000000000       0.40625000000000000        0.0000000000000000     
  0.71875000000000000       0.40625000000000000        0.0000000000000000     
  0.75000000000000000       0.40625000000000000        0.0000000000000000     
  0.62500000000000000       0.43750000000000000        0.0000000000000000     
  0.65625000000000000       0.43750000000000000        0.0000000000000000     
  0.68750000000000000       0.43750000000000000        0.0000000000000000     
  0.71875000000000000       0.43750000000000000        0.0000000000000000     
  0.75000000000000000       0.43750000000000000        0.0000000000000000     
  0.62500000000000000       0.46875000000000000        0.0000000000000000     
  0.65625000000000000       0.46875000000000000        0.0000000000000000     
  0.68750000000000000       0.46875000000000000        0.0000000000000000     
  0.71875000000000000       0.46875000000000000        0.0000000000000000     
  0.75000000000000000       0.46875000000000000        0.0000000000000000     
  0.62500000000000000       0.50000000000000000        0.0000000000000000     
  0.65625000000000000       0.50000000000000000        0.0000000000000000     
  0.68750000000000000       0.50000000000000000        0.0000000000000000     
  0.71875000000000000       0.50000000000000000        0.0000000000000000     
  0.75000000000000000       0.50000000000000000        0.0000000000000000     
  0.75000000000000000       0.37500000000000000        0.0000000000000000     
  0.78125000000000000       0.37500000000000000        0.0000000000000000     
  0.81250000000000000       0.37500000000000000        0.0000000000000000     
  0.84375000000000000       0.37500000000000000        0.0000000000000000     
  0.87500000000000000       0.37500000000000000        0.0000000000000000     
  0.75000000000000000       0.40625000000000000        0.0000000000000000     
  0.78125000000000000       0.40625000000000000        0.0000000000000000     
  0.81250000000000000       0.40625000000000000        0.0000000000000000     
  0.84375000000000000       0.40625000000000000        0.0000000000000000     
  0.87500000000000000       0.40625000000000000        0.0000000000000000     
  0.75000000000000000       0.43750000000000000        0.0000000000000000     
  0.78125000000000000       0.43750000000000000        0.0000000000000000     
  0.81250000000000000       0.43750000000000000        0.0000000000000000     
  0.84375000000000000       0.43750000000000000        0.0000000000000000     
  0.87500000000000000       0.43750000000000000        0.0000000000000000     
  0.75000000000000000       0.46875000000000000        0.0000000000000000     
  0.78125000000000000       0.46875000000000000        0.0000000000000000     
  0.81250000000000000       0.46875000000000000        0.0000000000000000     
  0.84375000000000000       0.46875000000000000        0.0000000000000000     
  0.87500000000000000       0.46875000000000000        0.0000000000000000     
  0.75000000000000000       0.50000000000000000        0.0000000000000000     
  0.78125000000000000       0.50000000000000000        0.0000000000000000     
  0.81250000000000000       0.50000000000000000        0.0000000000000000     
  0.84375000000000000       0.50000000000000000        0.0000000000000000     
  0.87500000000000000       0.50000000000000000        0.0000000000000000     
  0.87500000000000000       0.37500000000000000        0.0000000000000000     
  0.90625000000000000       0.37500000000000000        0.0000000000000000     
  0.93750000000000000       0.37500000000000000        0.0000000000000000     
  0.96875000000000000       0.37500000000000000        0.0000000000000000     
   1.0000000000000000       0.37500000000000000        0.0000000000000000     
  0.87500000000000000       0.40625000000000000        0.0000000000000000     
  0.90625000000000000       0.40625000000000000        0.0000000000000000     
  0.93750000000000000       0.40625000000000000        0.0000000000000000     
  0.96875000000000000       0.40625000000000000        0.0000000000000000     
   1.0000000000000000       0.40625000000000000        0.0000000000000000     
  0.87500000000000000       0.43750000000000000        0.0000000000000000     
  0.90625000000000000       0.43750000000000000        0.0000000000000000     
  0.93750000000000000       0.43750000000000000        0.0000000000000000     
  0.96875000000000000       0.43750000000000000        0.0000000000000000     
   1.0000000000000000       0.43750000000000000        0.0000000000000000     
  0.87500000000000000       0.46875000000000000        0.0000000000000000     
  0.90625000000000000       0.46875000000000000        0.0000000000000000     
  0.93750000000000000       0.46875000000000000        0.0000000000000000     
  0.96875000000000000       0.46875000000000000        0.0000000000000000     
   1.0000000000000000       0.46875000000000000        0.0000000000000000     
  0.87500000000000000       0.50000000000000000        0.0000000000000000     
  0.90625000000000000       0.50000000000000000        0.0000000000000000     
  0.93750000000000000       0.50000000000000000        0.0000000000000000     
  0.96875000000000000       0.50000000000000000        0.0000000000000000     
   1.0000000000000000       0.50000000000000000        0.0000000000000000     
   1.0000000000000000       0.37500000000000000        0.0000000000000000     
   1.0312500000000000       0.37500000000000000        0.0000000000000000     
   1.0625000000000000       0.37500000000000000        0.0000000000000000     
   1.0937500000000000       0.37500000000000000        0.0000000000000000     
   1.1250000000000000       0.37500000000000000        0.0000000000000000     
   1.0000000000000000       0.40625000000000000        0.0000000000000000     
   1.0312500000000000       0.40625000000000000        0.0000000000000000     
   1.0625000000000000       0.40625000000000000        0.0000000000000000     
   1.0937500000000000       0.40625000000000000        0.0000000000000000     
   1.1250000000000000       0.40625000000000000        0.0000000000000000     
   1.0000000000000000       0.43750000000000000        0.0000000000000000     
   1.0312500000000000       0.43750000000000000        0.0000000000000000     
   1.0625000000000000       0.43750000000000000        0.0000000000000000     
   1.0937500000000000       0.43750000000000000        0.0000000000000000     
   1.1250000000000000       0.43750000000000000        0.0000000000000000     
   1.0000000000000000       0.46875000000000000        0.0000000000000000     
   1.0312500000000000       0.46875000000000000        0.0000000000000000     
   1.0625000000000000       0.46875000000000000        0.0000000000000000     
   1.0937500000000000       0.46875000000000000        0.0000000000000000     
   1.1250000000000000       0.46875000000000000        0.0000000000000000     
   1.0000000000000000       0.50000000000000000        0.0000000000000000     
   1.0312500000000000       0.50000000000000000        0.0000000000000000     
   1.0625000000000000       0.50000000000000000        0.0000000000000000     
   1.0937500000000000       0.50000000000000000        0.0000000000000000     
   1.1250000000000000       0.50000000000000000        0.0000000000000000     
   1.1250000000000000       0.37500000000000000        0.0000000000000000     
   1.1562500000000000       0.37500000000000000        0.0000000000000000     
   1.1875000000000000       0.37500000000000000        0.0000000000000000     
   1.2187500000000000       0.37500000000000000        0.0000000000000000     
   1.2500000000000000       0.37500000000000000        0.0000000000000000     
   1.1250000000000000       0.40625000000000000        0.0000000000000000     
   1.1562500000000000       0.40625000000000000        0.0000000000000000     
   1.1875000000000000       0.40625000000000000        0.0000000000000000     
   1.2187500000000000       0.40625000000000000        0.0000000000000000     
   1.2500000000000000       0.40625000000000000        0.0000000000000000     
   1.1250000000000000       0.43750000000000000        0.0000000000000000     
   1.1562500000000000       0.43750000000000000        0.0000000000000000     
   1.1875000000000000       0.43750000000000000        0.0000000000000000     
   1.2187500000000000       0.43750000000000000        0.0000000000000000     
   1.2500000000000000       0.43750000000000000        0.0000000000000000     
   1.1250000000000000       0.46875000000000000        0.0000000000000000     
   1.1562500000000000       0.46875000000000000        0.0000000000000000     
   1.1875000000000000       0.46875000000000000        0.0000000000000000     
   1.2187500000000000       0.46875000000000000        0.0000000000000000     
   1.2500000000000000       0.46875000000000000        0.0000000000000000     
   1.1250000000000000       0.50000000000000000        0.0000000000000000     
   1.1562500000000000       0.50000000000000000        0.0000000000000000     
   1.1875000000000000       0.50000000000000000        0.0000000000000000     
   1.2187500000000000       0.50000000000000000        0.0000000000000000     
   1.2500000000000000       0.50000000000000000        0.0000000000000000     
   1.2500000000000000       0.37500000000000000        0.0000000000000000     
   1.2812500000000000       0.37500000000000000        0.0000000000000000     
   1.3125000000000000       0.37500000000000000        0.0000000000000000     
   1.3437500000000000       0.37500000000000000        0.0000000000000000     
   1.3750000000000000       0.37500000000000000        0.0000000000000000     
   1.2500000000000000       0.40625000000000000        0.0000000000000000     
   1.2812500000000000       0.40625000000000000        0.0000000000000000     
   1.3125000000000000       0.40625000000000000        0.0000000000000000     
   1.3437500000000000       0.40625000000000000        0.0000000000000000     
   1.3750000000000000       0.40625000000000000        0.0000000000000000     
   1.2500000000000000       0.43750000000000000        0.0000000000000000     
   1.2812500000000000       0.43750000000000000        0.0000000000000000     
   1.3125000000000000       0.43750000000000000        0.0000000000000000     
   1.3437500000000000       0.43750000000000000        0.0000000000000000     
   1.3750000000000000       0.43750000000000000        0.0000000000000000     
   1.2500000000000000       0.46875000000000000        0.0000000000000000     
   1.2812500000000000       0.46875000000000000        0.0000000000000000     
   1.3125000000000000       0.46875000000000000        0.0000000000000000     
   1.3437500000000000       0.46875000000000000        0.0000000000000000     
   1.3750000000000000       0.46875000000000000        0.0000000000000000     
   1.2500000000000000       0.50000000000000000        0.0000000000000000     
   1.2812500000000000       0.50000000000000000        0.0000000000000000     
   1.3125000000000000       0.50000000000000000        0.0000000000000000     
   1.3437500000000000       0.50000000000000000        0.0000000000000000     
   1.3750000000000000       0.50000000000000000        0.0000000000000000     
   1.3750000000000000       0.37500000000000000        0.0000000000000000     
   1.4062500000000000       0.37500000000000000        0.0000000000000000     
   1.4375000000000000       0.37500000000000000        0.0000000000000000     
   1.4687500000000000       0.37500000000000000        0.0000000000000000     
   1.5000000000000000       0.37500000000000000        0.0000000000000000     
   1.3750000000000000       0.40625000000000000        0.0000000000000000     
   1.4062500000000000       0.40625000000000000        0.0000000000000000     
   1.4375000000000000       0.40625000000000000        0.0000000000000000     
   1.4687500000000000       0.40625000000000000        0.0000000000000000     
   1.5000000000000000       0.40625000000000000        0.0000000000000000     
   1.3750000000000000       0.43750000000000000        0.0000000000000000     
   1.4062500000000000       0.43750000000000000        0.0000000000000000     
   1.4375000000000000       0.43750000000000000        0.0000000000000000     
   1.4687500000000000       0.43750000000000000        0.0000000000000000     
   1.5000000000000000       0.43750000000000000        0.0000000000000000     
   1.3750000000000000       0.46875000000000000        0.0000000000000000     
   1.4062500000000000       0.46875000000000000        0.0000000000000000     
   1.4375000000000000       0.46875000000000000        0.0000000000000000     
   1.4687500000000000       0.46875000000000000        0.0000000000000000     
   1.5000000000000000       0.46875000000000000        0.0000000000000000     
   1.3750000000000000       0.50000000000000000        0.0000000000000000     
   1.4062500000000000       0.50000000000000000        0.0000000000000000     
   1.4375000000000000       0.50000000000000000        0.0000000000000000     
   1.4687500000000000       0.50000000000000000        0.0000000000000000     
   1.5000000000000000       0.50000000000000000        0.0000000000000000     
  0.50000000000000000       0.50000000000000000        0.0000000000000000     
  0.53125000000000000       0.50000000000000000        0.0000000000000000     
  0.56250000000000000       0.50000000000000000        0.0000000000000000     
  0.59375000000000000       0.50000000000000000        0.0000000000000000     
  0.62500000000000000       0.50000000000000000        0.0000000000000000     
  0.50000000000000000       0.53125000000000000        0.0000000000000000     
  0.53125000000000000       0.53125000000000000        0.0000000000000000     
  0.56250000000000000       0.53125000000000000        0.0000000000000000     
  0.59375000000000000       0.53125000000000000        0.0000000000000000     
  0.62500000000000000       0.53125000000000000        0.0000000000000000     
  0.50000000000000000       0.56250000000000000        0.0000000000000000     
  0.53125000000000000       0.56250000000000000        0.0000000000000000     
  0.56250000000000000       0.56250000000000000        0.0000000000000000     
  0.59375000000000000       0.56250000000000000        0.0000000000000000     
  0.62500000000000000       0.56250000000000000        0.0000000000000000     
  0.50000000000000000       0.59375000000000000        0.0000000000000000     
  0.53125000000000000       0.59375000000000000        0.0000000000000000     
  0.56250000000000000       0.59375000000000000        0.0000000000000000     
  0.59375000000000000       0.59375000000000000        0.0000000000000000     
  0.62500000000000000       0.59375000000000000        0.0000000000000000     
  0.50000000000000000       0.62500000000000000        0.0000000000000000     
  0.53125000000000000       0.62500000000000000        0.0000000000000000     
  0.56250000000000000       0.62500000000000000        0.0000000000000000     
  0.59375000000000000       0.62500000000000000        0.0000000000000000     
  0.62500000000000000       0.62500000000000000        0.0000000000000000     
  0.62500000000000000       0.50000000000000000        0.0000000000000000     
  0.65625000000000000       0.50000000000000000        0.0000000000000000     
  0.68750000000000000       0.50000000000000000        0.0000000000000000     
  0.71875000000000000       0.50000000000000000        0.0000000000000000     
  0.75000000000000000       0.50000000000000000        0.0000000000000000     
  0.62500000000000000       0.53125000000000000        0.0000000000000000     
  0.65625000000000000       0.53125000000000000        0.0000000000000000     
  0.68750000000000000       0.53125000000000000        0.0000000000000000     
  0.71875000000000000       0.53125000000000000        0.0000000000000000     
  0.75000000000000000       0.53125000000000000        0.0000000000000000     
  0.62500000000000000       0.56250000000000000        0.0000000000000000     
  0.65625000000000000       0.56250000000000000        0.0000000000000000     
  0.68750000000000000       0.56250000000000000        0.0000000000000000     
  0.71875000000000000       0.56250000000000000        0.0000000000000000     
  0.75000000000000000       0.56250000000000000        0.0000000000000000     
  0.62500000000000000       0.59375000000000000        0.0000000000000000     
  0.65625000000000000       0.59375000000000000        0.0000000000000000     
  0.68750000000000000       0.59375000000000000        0.0000000000000000     
  0.71875000000000000       0.59375000000000000        0.0000000000000000     
  0.75000000000000000       0.59375000000000000        0.0000000000000000     
  0.62500000000000000       0.62500000000000000        0.0000000000000000     
  0.65625000000000000       0.62500000000000000        0.0000000000000000     
  0.68750000000000000       0.62500000000000000        0.0000000000000000     
  0.71875000000000000       0.62500000000000000        0.0000000000000000     
  0.75000000000000000       0.62500000000000000        0.0000000000000000     
  0.75000000000000000       0.50000000000000000        0.0000000000000000     
  0.78125000000000000       0.50000000000000000        0.0000000000000000     
  0.81250000000000000       0.50000000000000000        0.0000000000000000     
  0.84375000000000000       0.50000000000000000        0.0000000000000000     
  0.87500000000000000       0.50000000000000000        0.0000000000000000     
  0.75000000000000000       0.53125000000000000        0.0000000000000000     
  0.78125000000000000       0.53125000000000000        0.0000000000000000     
  0.81250000000000000       0.53125000000000000        0.0000000000000000     
  0.84375000000000000       0.53125000000000000        0.0000000000000000     
  0.87500000000000000       0.53125000000000000        0.0000000000000000     
  0.75000000000000000       0.56250000000000000        0.0000000000000000     
  0.78125000000000000       0.56250000000000000        0.0000000000000000     
  0.81250000000000000       0.56250000000000000        0.0000000000000000     
  0.84375000000000000       0.56250000000000000        0.0000000000000000     
  0.87500000000000000       0.56250000000000000        0.0000000000000000     
  0.75000000000000000       0.59375000000000000        0.0000000000000000     
  0.78125000000000000       0.59375000000000000        0.0000000000000000     
  0.81250000000000000       0.59375000000000000        0.0000000000000000     
  0.84375000000000000       0.59375000000000000        0.0000000000000000     
  0.87500000000000000       0.59375000000000000        0.0000000000000000     
  0.75000000000000000       0.62500000000000000        0.0000000000000000     
  0.78125000000000000       0.62500000000000000        0.0000000000000000     
  0.81250000000000000       0.62500000000000000        0.0000000000000000     
  0.84375000000000000       0.62500000000000000        0.0000000000000000     
  0.87500000000000000       0.62500000000000000        0.0000000000000000     
  0.87500000000000000       0.50000000000000000        0.0000000000000000     
  0.90625000000000000       0.50000000000000000        0.0000000000000000     
  0.93750000000000000       0.50000000000000000        0.0000000000000000     
  0.96875000000000000       0.50000000000000000        0.0000000000000000     
   1.0000000000000000       0.50000000000000000        0.0000000000000000     
  0.87500000000000000       0.53125000000000000        0.0000000000000000     
  0.90625000000000000       0.53125000000000000        0.0000000000000000     
  0.93750000000000000       0.53125000000000000        0.0000000000000000     
  0.96875000000000000       0.53125000000000000        0.0000000000000000     
   1.0000000000000000       0.53125000000000000        0.0000000000000000     
  0.87500000000000000       0.56250000000000000        0.0000000000000000     
  0.90625000000000000       0.56250000000000000        0.0000000000000000     
  0.93750000000000000       0.56250000000000000        0.0000000000000000     
  0.96875000000000000       0.56250000000000000        0.0000000000000000     
   1.0000000000000000       0.56250000000000000        0.0000000000000000     
  0.87500000000000000       0.59375000000000000        0.0000000000000000     
  0.90625000000000000       0.59375000000000000        0.0000000000000000     
  0.93750000000000000       0.59375000000000000        0.0000000000000000     
  0.96875000000000000       0.59375000000000000        0.0000000000000000     
   1.0000000000000000       0.59375000000000000        0.0000000000000000     
  0.87500000000000000       0.62500000000000000        0.0000000000000000     
  0.90625000000000000       0.62500000000000000        0.0000000000000000     
  0.93750000000000000       0.62500000000000000        0.0000000000000000     
  0.96875000000000000       0.62500000000000000        0.0000000000000000     
   1.0000000000000000       0.62500000000000000        0.0000000000000000     
   1.0000000000000000       0.50000000000000000        0.0000000000000000     
   1.0312500000000000       0.50000000000000000        0.0000000000000000     
   1.0625000000000000       0.50000000000000000        0.0000000000000000     
   1.0937500000000000       0.50000000000000000        0.0000000000000000     
   1.1250000000000000       0.50000000000000000        0.0000000000000000     
   1.0000000000000000       0.53125000000000000        0.0000000000000000     
   1.0312500000000000       0.53125000000000000        0.0000000000000000     
   1.0625000000000000       0.53125000000000000        0.0000000000000000     
   1.0937500000000000       0.53125000000000000        0.0000000000000000     
   1.1250000000000000       0.53125000000000000        0.0000000000000000     
   1.0000000000000000       0.56250000000000000        0.0000000000000000     
   1.0312500000000000       0.56250000000000000        0.0000000000000000     
   1.0625000000000000       0.56250000000000000        0.0000000000000000     
   1.0937500000000000       0.56250000000000000        0.0000000000000000     
   1.1250000000000000       0.56250000000000000        0.0000000000000000     
   1.0000000000000000       0.59375000000000000        0.0000000000000000     
   1.0312500000000000       0.59375000000000000        0.0000000000000000     
   1.0625000000000000       0.59375000000000000        0.0000000000000000     
   1.0937500000000000       0.59375000000000000        0.0000000000000000     
   1.1250000000000000       0.59375000000000000        0.0000000000000000     
   1.0000000000000000       0.62500000000000000        0.0000000000000000     
   1.0312500000000000       0.62500000000000000        0.0000000000000000     
   1.0625000000000000       0.62500000000000000        0.0000000000000000     
   1.0937500000000000       0.62500000000000000        0.0000000000000000     
   1.1250000000000000       0.62500000000000000        0.0000000000000000     
   1.1250000000000000       0.50000000000000000        0.0000000000000000     
   1.1562500000000000       0.50000000000000000        0.0000000000000000     
   1.1875000000000000       0.50000000000000000        0.0000000000000000     
   1.2187500000000000       0.50000000000000000        0.0000000000000000     
   1.2500000000000000       0.50000000000000000        0.0000000000000000     
   1.1250000000000000       0.53125000000000000        0.0000000000000000     
   1.1562500000000000       0.53125000000000000        0.0000000000000000     
   1.1875000000000000       0.53125000000000000        0.0000000000000000     
   1.2187500000000000       0.53125000000000000        0.0000000000000000     
   1.2500000000000000       0.53125000000000000        0.0000000000000000     
   1.1250000000000000       0.56250000000000000        0.0000000000000000     
   1.1562500000000000       0.56250000000000000        0.0000000000000000     
   1.1875000000000000       0.56250000000000000        0.0000000000000000     
   1.2187500000000000       0.56250000000000000        0.0000000000000000     
   1.2500000000000000       0.56250000000000000        0.0000000000000000     
   1.1250000000000000       0.59375000000000000        0.0000000000000000     
   1.1562500000000000       0.59375000000000000        0.0000000000000000     
   1.1875000000000000       0.59375000000000000        0.0000000000000000     
   1.2187500000000000       0.59375000000000000        0.0000000000000000     
   1.2500000000000000       0.59375000000000000        0.0000000000000000     
   1.1250000000000000       0.62500000000000000        0.0000000000000000     
   1.1562500000000000       0.62500000000000000        0.0000000000000000     
   1.1875000000000000       0.62500000000000000        0.0000000000000000     
   1.2187500000000000       0.62500000000000000        0.0000000000000000     
   1.2500000000000000       0.62500000000000000        0.0000000000000000     
   1.2500000000000000       0.50000000000000000        0.0000000000000000     
   1.2812500000000000       0.50000000000000000        0.0000000000000000     
   1.3125000000000000       0.50000000000000000        0.0000000000000000     
   1.3437500000000000       0.50000000000000000        0.0000000000000000     
   1.3750000000000000       0.50000000000000000        0.0000000000000000     
   1.2500000000000000       0.53125000000000000        0.0000000000000000     
   1.2812500000000000       0.53125000000000000        0.0000000000000000     
   1.3125000000000000       0.53125000000000000        0.0000000000000000     
   1.3437500000000000       0.53125000000000000        0.0000000000000000     
   1.3750000000000000       0.53125000000000000        0.0000000000000000     
   1.2500000000000000       0.56250000000000000        0.0000000000000000     
   1.2812500000000000       0.56250000000000000        0.0000000000000000     
   1.3125000000000000       0.56250000000000000        0.0000000000000000     
   1.3437500000000000       0.56250000000000000        0.0000000000000000     
   1.3750000000000000       0.56250000000000000        0.0000000000000000     
   1.2500000000000000       0.59375000000000000        0.0000000000000000     
   1.2812500000000000       0.59375000000000000        0.0000000000000000     
   1.3125000000000000       0.59375000000000000        0.0000000000000000     
   1.3437500000000000       0.59375000000000000        0.0000000000000000     
   1.3750000000000000       0.59375000000000000        0.0000000000000000     
   1.2500000000000000       0.62500000000000000        0.0000000000000000     
   1.2812500000000000       0.62500000000000000        0.0000000000000000     
   1.3125000000000000       0.62500000000000000        0.0000000000000000     
   1.3437500000000000       0.62500000000000000        0.0000000000000000     
   1.3750000000000000       0.62500000000000000        0.0000000000000000     
   1.3750000000000000       0.50000000000000000        0.0000000000000000     
   1.4062500000000000       0.50000000000000000        0.0000000000000000     
   1.4375000000000000       0.50000000000000000        0.0000000000000000     
   1.4687500000000000       0.50000000000000000        0.0000000000000000     
   1.5000000000000000       0.50000000000000000        0.0000000000000000     
   1.3750000000000000       0.53125000000000000        0.0000000000000000     
   1.4062500000000000       0.53125000000000000        0.0000000000000000     
   1.4375000000000000       0.53125000000000000        0.0000000000000000     
   1.4687500000000000       0.53125000000000000        0.0000000000000000     
   1.5000000000000000       0.53125000000000000        0.0000000000000000     
   1.3750000000000000       0.56250000000000000        0.0000000000000000     
   1.4062500000000000       0.56250000000000000        0.0000000000000000     
   1.4375000000000000       0.56250000000000000        0.0000000000000000     
   1.4687500000000000       0.56250000000000000        0.0000000000000000     
   1.5000000000000000       0.56250000000000000        0.0000000000000000     
   1.3750000000000000       0.59375000000000000        0.0000000000000000     
   1.4062500000000000       0.59375000000000000        0.0000000000000000     
   1.4375000000000000       0.59375000000000000        0.0000000000000000     
   1.4687500000000000       0.59375000000000000        0.0000000000000000     
   1.5000000000000000       0.59375000000000000        0.0000000000000000     
   1.3750000000000000       0.62500000000000000        0.0000000000000000     
   1.4062500000000000       0.62500000000000000        0.0000000000000000     
   1.4375000000000000       0.62500000000000000        0.0000000000000000     
   1.4687500000000000       0.62500000000000000        0.0000000000000000     
   1.5000000000000000       0.62500000000000000        0.0000000000000000     
  0.50000000000000000       0.62500000000000000        0.0000000000000000     
  0.53125000000000000       0.62500000000000000        0.0000000000000000     
  0.56250000000000000       0.62500000000000000        0.0000000000000000     
  0.59375000000000000       0.62500000000000000        0.0000000000000000     
  0.62500000000000000       0.62500000000000000        0.0000000000000000     
  0.50000000000000000       0.65625000000000000        0.0000000000000000     
  0.53125000000000000       0.65625000000000000        0.0000000000000000     
  0.56250000000000000       0.65625000000000000        0.0000000000000000     
  0.59375000000000000       0.65625000000000000        0.0000000000000000     
  0.62500000000000000       0.65625000000000000        0.0000000000000000     
  0.50000000000000000       0.68750000000000000        0.0000000000000000     
  0.53125000000000000       0.68750000000000000        0.0000000000000000     
  0.56250000000000000       0.68750000000000000        0.0000000000000000     
  0.59375000000000000       0.68750000000000000        0.0000000000000000     
  0.62500000000000000       0.68750000000000000        0.0000000000000000     
  0.50000000000000000       0.71875000000000000        0.0000000000000000     
  0.53125000000000000       0.71875000000000000        0.0000000000000000     
  0.56250000000000000       0.71875000000000000        0.0000000000000000     
  0.59375000000000000       0.71875000000000000        0.0000000000000000     
  0.62500000000000000       0.71875000000000000        0.0000000000000000     
  0.50000000000000000       0.75000000000000000        0.0000000000000000     
  0.53125000000000000       0.75000000000000000        0.0000000000000000     
  0.56250000000000000       0.75000000000000000        0.0000000000000000     
  0.59375000000000000       0.75000000000000000        0.0000000000000000     
  0.62500000000000000       0.75000000000000000        0.0000000000000000     
  0.62500000000000000       0.62500000000000000        0.0000000000000000     
  0.65625000000000000       0.62500000000000000        0.0000000000000000     
  0.68750000000000000       0.62500000000000000        0.0000000000000000     
  0.71875000000000000       0.62500000000000000        0.0000000000000000     
  0.75000000000000000       0.62500000000000000        0.0000000000000000     
  0.62500000000000000       0.65625000000000000        0.0000000000000000     
  0.65625000000000000       0.65625000000000000        0.0000000000000000     
  0.68750000000000000       0.65625000000000000        0.0000000000000000     
  0.71875000000000000       0.65625000000000000        0.0000000000000000     
  0.75000000000000000       0.65625000000000000        0.0000000000000000     
  0.62500000000000000       0.68750000000000000        0.0000000000000000     
  0.65625000000000000       0.68750000000000000        0.0000000000000000     
  0.68750000000000000       0.68750000000000000        0.0000000000000000     
  0.71875000000000000       0.68750000000000000        0.0000000000000000     
  0.75000000000000000       0.68750000000000000        0.0000000000000000     
  0.62500000000000000       0.71875000000000000        0.0000000000000000     
  0.65625000000000000       0.71875000000000000        0.0000000000000000     
  0.68750000000000000       0.71875000000000000        0.0000000000000000     
  0.71875000000000000       0.71875000000000000        0.0000000000000000     
  0.75000000000000000       0.71875000000000000        0.0000000000000000     
  0.62500000000000000       0.75000000000000000        0.0000000000000000     
  0.65625000000000000       0.75000000000000000        0.0000000000000000     
  0.68750000000000000       0.75000000000000000        0.0000000000000000     
  0.71875000000000000       0.75000000000000000        0.0000000000000000     
  0.75000000000000000       0.75000000000000000        0.0000000000000000     
  0.75000000000000000       0.62500000000000000        0.0000000000000000     
  0.78125000000000000       0.62500000000000000        0.0000000000000000     
  0.81250000000000000       0.62500000000000000        0.0000000000000000     
  0.84375000000000000       0.62500000000000000        0.0000000000000000     
  0.87500000000000000       0.62500000000000000        0.0000000000000000     
  0.75000000000000000       0.65625000000000000        0.0000000000000000     
  0.78125000000000000       0.65625000000000000        0.0000000000000000     
  0.81250000000000000       0.65625000000000000        0.0000000000000000     
  0.84375000000000000       0.65625000000000000        0.0000000000000000     
  0.87500000000000000       0.65625000000000000        0.0000000000000000     
  0.75000000000000000       0.68750000000000000        0.0000000000000000     
  0.78125000000000000       0.68750000000000000        0.0000000000000000     
  0.81250000000000000       0.68750000000000000        0.0000000000000000     
  0.84375000000000000       0.68750000000000000        0.0000000000000000     
  0.87500000000000000       0.68750000000000000        0.0000000000000000     
  0.75000000000000000       0.71875000000000000        0.0000000000000000     
  0.78125000000000000       0.71875000000000000        0.0000000000000000     
  0.81250000000000000       0.71875000000000000        0.0000000000000000     
  0.84375000000000000       0.71875000000000000        0.0000000000000000     
  0.87500000000000000       0.71875000000000000        0.0000000000000000     
  0.75000000000000000       0.75000000000000000        0.0000000000000000     
  0.78125000000000000       0.75000000000000000        0.0000000000000000     
  0.81250000000000000       0.75000000000000000        0.0000000000000000     
  0.84375000000000000       0.75000000000000000        0.0000000000000000     
  0.87500000000000000       0.75000000000000000        0.0000000000000000     
  0.87500000000000000       0.62500000000000000        0.0000000000000000     
  0.90625000000000000       0.62500000000000000        0.0000000000000000     
  0.93750000000000000       0.62500000000000000        0.0000000000000000     
  0.96875000000000000       0.62500000000000000        0.0000000000000000     
   1.0000000000000000       0.62500000000000000        0.0000000000000000     
  0.87500000000000000       0.65625000000000000        0.0000000000000000     
  0.90625000000000000       0.65625000000000000        0.0000000000000000     
  0.93750000000000000       0.65625000000000000        0.0000000000000000     
  0.96875000000000000       0.65625000000000000        0.0000000000000000     
   1.0000000000000000       0.65625000000000000        0.0000000000000000     
  0.87500000000000000       0.68750000000000000        0.0000000000000000     
  0.90625000000000000       0.68750000000000000        0.0000000000000000     
  0.93750000000000000       0.68750000000000000        0.0000000000000000     
  0.96875000000000000       0.68750000000000000        0.0000000000000000     
   1.0000000000000000       0.68750000000000000        0.0000000000000000     
  0.87500000000000000       0.71875000000000000        0.0000000000000000     
  0.90625000000000000       0.71875000000000000        0.0000000000000000     
  0.93750000000000000       0.71875000000000000        0.0000000000000000     
  0.96875000000000000       0.71875000000000000        0.0000000000000000     
   1.0000000000000000       0.71875000000000000        0.0000000000000000     
  0.87500000000000000       0.75000000000000000        0.0000000000000000     
  0.90625000000000000       0.75000000000000000        0.0000000000000000     
  0.93750000000000000       0.75000000000000000        0.0000000000000000     
  0.96875000000000000       0.75000000000000000        0.0000000000000000     
   1.0000000000000000       0.75000000000000000        0.0000000000000000     
   1.0000000000000000       0.62500000000000000        0.0000000000000000     
   1.0312500000000000       0.62500000000000000        0.0000000000000000     
   1.0625000000000000       0.62500000000000000        0.0000000000000000     
   1.0937500000000000       0.62500000000000000        0.0000000000000000     
   1.1250000000000000       0.62500000000000000        0.0000000000000000     
   1.0000000000000000       0.65625000000000000        0.0000000000000000     
   1.0312500000000000       0.65625000000000000        0.0000000000000000     
   1.0625000000000000       0.65625000000000000        0.0000000000000000     
   1.0937500000000000       0.65625000000000000        0.0000000000000000     
   1.1250000000000000       0.65625000000000000        0.0000000000000000     
   1.0000000000000000       0.68750000000000000        0.0000000000000000     
   1.0312500000000000       0.68750000000000000        0.0000000000000000     
   1.0625000000000000       0.68750000000000000        0.0000000000000000     
   1.0937500000000000       0.68750000000000000        0.0000000000000000     
   1.1250000000000000       0.68750000000000000        0.0000000000000000     
   1.0000000000000000       0.71875000000000000        0.0000000000000000     
   1.0312500000000000       0.71875000000000000        0.0000000000000000     
   1.0625000000000000       0.71875000000000000        0.0000000000000000     
   1.0937500000000000       0.71875000000000000        0.0000000000000000     
   1.1250000000000000       0.71875000000000000        0.0000000000000000     
   1.0000000000000000       0.75000000000000000        0.0000000000000000     
   1.0312500000000000       0.75000000000000000        0.0000000000000000     
   1.0625000000000000       0.75000000000000000        0.0000000000000000     
   1.0937500000000000       0.75000000000000000        0.0000000000000000     
   1.1250000000000000       0.75000000000000000        0.0000000000000000     
   1.1250000000000000       0.62500000000000000        0.0000000000000000     
   1.1562500000000000       0.62500000000000000        0.0000000000000000     
   1.1875000000000000       0.62500000000000000        0.0000000000000000     
   1.2187500000000000       0.62500000000000000        0.0000000000000000     
   1.2500000000000000       0.62500000000000000        0.0000000000000000     
   1.1250000000000000       0.65625000000000000        0.0000000000000000     
   1.1562500000000000       0.65625000000000000        0.0000000000000000     
   1.1875000000000000       0.65625000000000000        0.0000000000000000     
   1.2187500000000000       0.65625000000000000        0.0000000000000000     
   1.2500000000000000       0.65625000000000000        0.0000000000000000     
   1.1250000000000000       0.68750000000000000        0.0000000000000000     
   1.1562500000000000       0.68750000000000000        0.0000000000000000     
   1.1875000000000000       0.68750000000000000        0.0000000000000000     
   1.2187500000000000       0.68750000000000000        0.0000000000000000     
   1.2500000000000000       0.68750000000000000        0.0000000000000000     
   1.1250000000000000       0.71875000000000000        0.0000000000000000     
   1.1562500000000000       0.71875000000000000        0.0000000000000000     
   1.1875000000000000       0.71875000000000000        0.0000000000000000     
   1.2187500000000000       0.71875000000000000        0.0000000000000000     
   1.2500000000000000       0.71875000000000000        0.0000000000000000     
   1.1250000000000000       0.75000000000000000        0.0000000000000000     
   1.1562500000000000       0.75000000000000000        0.0000000000000000     
   1.1875000000000000       0.75000000000000000        0.0000000000000000     
   1.2187500000000000       0.75000000000000000        0.0000000000000000     
   1.2500000000000000       0.75000000000000000        0.0000000000000000     
   1.2500000000000000       0.62500000000000000        0.0000000000000000     
   1.2812500000000000       0.62500000000000000        0.0000000000000000     
   1.3125000000000000       0.62500000000000000        0.0000000000000000     
   1.3437500000000000       0.62500000000000000        0.0000000000000000     
   1.3750000000000000       0.62500000000000000        0.0000000000000000     
   1.2500000000000000       0.65625000000000000        0.0000000000000000     
   1.2812500000000000       0.65625000000000000        0.0000000000000000     
   1.3125000000000000       0.65625000000000000        0.0000000000000000     
   1.3437500000000000       0.65625000000000000        0.0000000000000000     
   1.3750000000000000       0.65625000000000000        0.0000000000000000     
   1.2500000000000000       0.68750000000000000        0.0000000000000000     
   1.2812500000000000       0.68750000000000000        0.0000000000000000     
   1.3125000000000000       0.68750000000000000        0.0000000000000000     
   1.3437500000000000       0.68750000000000000        0.0000000000000000     
   1.3750000000000000       0.68750000000000000        0.0000000000000000     
   1.2500000000000000       0.71875000000000000        0.0000000000000000     
   1.2812500000000000       0.71875000000000000        0.0000000000000000     
   1.3125000000000000       0.71875000000000000        0.0000000000000000     
   1.3437500000000000       0.71875000000000000        0.0000000000000000     
   1.3750000000000000       0.71875000000000000        0.0000000000000000     
   1.2500000000000000       0.75000000000000000        0.0000000000000000     
   1.2812500000000000       0.75000000000000000        0.0000000000000000     
   1.3125000000000000       0.75000000000000000        0.0000000000000000     
   1.3437500000000000       0.75000000000000000        0.0000000000000000     
   1.3750000000000000       0.75000000000000000        0.0000000000000000     
   1.3750000000000000       0.62500000000000000        0.0000000000000000     
   1.4062500000000000       0.62500000000000000        0.0000000000000000     
   1.4375000000000000       0.62500000000000000        0.0000000000000000     
   1.4687500000000000       0.62500000000000000        0.0000000000000000     
   1.5000000000000000       0.62500000000000000        0.0000000000000000     
   1.3750000000000000       0.65625000000000000        0.0000000000000000     
   1.4062500000000000       0.65625000000000000        0.0000000000000000     
   1.4375000000000000       0.65625000000000000        0.0000000000000000     
   1.4687500000000000       0.65625000000000000        0.0000000000000000     
   1.5000000000000000       0.65625000000000000        0.0000000000000000     
   1.3750000000000000       0.68750000000000000        0.0000000000000000     
   1.4062500000000000       0.68750000000000000        0.0000000000000000     
   1.4375000000000000       0.68750000000000000        0.0000000000000000     
   1.4687500000000000       0.68750000000000000        0.0000000000000000     
   1.5000000000000000       0.68750000000000000        0.0000000000000000     
   1.3750000000000000       0.71875000000000000        0.0000000000000000     
   1.4062500000000000       0.71875000000000000        0.0000000000000000     
   1.4375000000000000       0.71875000000000000        0.0000000000000000     
   1.4687500000000000       0.71875000000000000        0.0000000000000000     
   1.5000000000000000       0.71875000000000000        0.0000000000000000     
   1.3750000000000000       0.75000000000000000        0.0000000000000000     
   1.4062500000000000       0.75000000000000000        0.0000000000000000     
   1.4375000000000000       0.75000000000000000        0.0000000000000000     
   1.4687500000000000       0.75000000000000000        0.0000000000000000     
   1.5000000000000000       0.75000000000000000        0.0000000000000000     
  0.50000000000000000       0.75000000000000000        0.0000000000000000     
  0.53125000000000000       0.75000000000000000        0.0000000000000000     
  0.56250000000000000       0.75000000000000000        0.0000000000000000     
  0.59375000000000000       0.75000000000000000        0.0000000000000000     
  0.62500000000000000       0.75000000000000000        0.0000000000000000     
  0.50000000000000000       0.78125000000000000        0.0000000000000000     
  0.53125000000000000       0.78125000000000000        0.0000000000000000     
  0.56250000000000000       0.78125000000000000        0.0000000000000000     
  0.59375000000000000       0.78125000000000000        0.0000000000000000     
  0.62500000000000000       0.78125000000000000        0.0000000000000000     
  0.50000000000000000       0.81250000000000000        0.0000000000000000     
  0.53125000000000000       0.81250000000000000        0.0000000000000000     
  0.56250000000000000       0.81250000000000000        0.0000000000000000     
  0.59375000000000000       0.81250000000000000        0.0000000000000000     
  0.62500000000000000       0.81250000000000000        0.0000000000000000     
  0.50000000000000000       0.84375000000000000        0.0000000000000000     
  0.53125000000000000       0.84375000000000000        0.0000000000000000     
  0.56250000000000000       0.84375000000000000        0.0000000000000000     
  0.59375000000000000       0.84375000000000000        0.0000000000000000     
  0.62500000000000000       0.84375000000000000        0.0000000000000000     
  0.50000000000000000       0.87500000000000000        0.0000000000000000     
  0.53125000000000000       0.87500000000000000        0.0000000000000000     
  0.56250000000000000       0.87500000000000000        0.0000000000000000     
  0.59375000000000000       0.87500000000000000        0.0000000000000000     
  0.62500000000000000       0.87500000000000000        0.0000000000000000     
  0.62500000000000000       0.75000000000000000        0.0000000000000000     
  0.65625000000000000       0.75000000000000000        0.0000000000000000     
  0.68750000000000000       0.75000000000000000        0.0000000000000000     
  0.71875000000000000       0.75000000000000000        0.0000000000000000     
  0.75000000000000000       0.75000000000000000        0.0000000000000000     
  0.62500000000000000       0.78125000000000000        0.0000000000000000     
  0.65625000000000000       0.78125000000000000        0.0000000000000000     
  0.68750000000000000       0.78125000000000000        0.0000000000000000     
  0.71875000000000000       0.78125000000000000        0.0000000000000000     
  0.75000000000000000       0.78125000000000000        0.0000000000000000     
  0.62500000000000000       0.81250000000000000        0.0000000000000000     
  0.65625000000000000       0.81250000000000000        0.0000000000000000     
  0.68750000000000000       0.81250000000000000        0.0000000000000000     
  0.71875000000000000       0.81250000000000000        0.0000000000000000     
  0.75000000000000000       0.81250000000000000        0.0000000000000000     
  0.62500000000000000       0.84375000000000000        0.0000000000000000     
  0.65625000000000000       0.84375000000000000        0.0000000000000000     
  0.68750000000000000       0.84375000000000000        0.0000000000000000     
  0.71875000000000000       0.84375000000000000        0.0000000000000000     
  0.75000000000000000       0.84375000000000000        0.0000000000000000     
  0.62500000000000000       0.87500000000000000        0.0000000000000000     
  0.65625000000000000       0.87500000000000000        0.0000000000000000     
  0.68750000000000000       0.87500000000000000        0.0000000000000000     
  0.71875000000000000       0.87500000000000000        0.0000000000000000     
  0.75000000000000000       0.87500000000000000        0.0000000000000000     
  0.75000000000000000       0.75000000000000000        0.0000000000000000     
  0.78125000000000000       0.75000000000000000        0.0000000000000000     
  0.81250000000000000       0.75000000000000000        0.0000000000000000     
  0.84375000000000000       0.75000000000000000        0.0000000000000000     
  0.87500000000000000       0.75000000000000000        0.0000000000000000     
  0.75000000000000000       0.78125000000000000        0.0000000000000000     
  0.78125000000000000       0.78125000000000000        0.0000000000000000     
  0.81250000000000000       0.78125000000000000        0.0000000000000000     
  0.84375000000000000       0.78125000000000000        0.0000000000000000     
  0.87500000000000000       0.78125000000000000        0.0000000000000000     
  0.75000000000000000       0.81250000000000000        0.0000000000000000     
  0.78125000000000000       0.81250000000000000        0.0000000000000000     
  0.81250000000000000       0.81250000000000000        0.0000000000000000     
  0.84375000000000000       0.81250000000000000        0.0000000000000000     
  0.87500000000000000       0.81250000000000000        0.0000000000000000     
  0.75000000000000000       0.84375000000000000        0.0000000000000000     
  0.78125000000000000       0.84375000000000000        0.0000000000000000     
  0.81250000000000000       0.84375000000000000        0.0000000000000000     
  0.84375000000000000       0.84375000000000000        0.0000000000000000     
  0.87500000000000000       0.84375000000000000        0.0000000000000000     
  0.75000000000000000       0.87500000000000000        0.0000000000000000     
  0.78125000000000000       0.87500000000000000        0.0000000000000000     
  0.81250000000000000       0.87500000000000000        0.0000000000000000     
  0.84375000000000000       0.87500000000000000        0.0000000000000000     
  0.87500000000000000       0.87500000000000000        0.0000000000000000     
  0.87500000000000000       0.75000000000000000        0.0000000000000000     
  0.90625000000000000       0.75000000000000000        0.0000000000000000     
  0.93750000000000000       0.75000000000000000        0.0000000000000000     
  0.96875000000000000       0.75000000000000000        0.0000000000000000     
   1.0000000000000000       0.75000000000000000        0.0000000000000000     
  0.87500000000000000       0.78125000000000000        0.0000000000000000     
  0.90625000000000000       0.78125000000000000        0.0000000000000000     
  0.93750000000000000       0.78125000000000000        0.0000000000000000     
  0.96875000000000000       0.78125000000000000        0.0000000000000000     
   1.0000000000000000       0.78125000000000000        0.0000000000000000     
  0.87500000000000000       0.81250000000000000        0.0000000000000000     
  0.90625000000000000       0.81250000000000000        0.0000000000000000     
  0.93750000000000000       0.81250000000000000        0.0000000000000000     
  0.96875000000000000       0.81250000000000000        0.0000000000000000     
   1.0000000000000000       0.81250000000000000        0.0000000000000000     
  0.87500000000000000       0.84375000000000000        0.0000000000000000     
  0.90625000000000000       0.84375000000000000        0.0000000000000000     
  0.93750000000000000       0.84375000000000000        0.0000000000000000     
  0.96875000000000000       0.84375000000000000        0.0000000000000000     
   1.0000000000000000       0.84375000000000000        0.0000000000000000     
  0.87500000000000000       0.87500000000000000        0.0000000000000000     
  0.90625000000000000       0.87500000000000000        0.0000000000000000     
  0.93750000000000000       0.87500000000000000        0.0000000000000000     
  0.96875000000000000       0.87500000000000000        0.0000000000000000     
   1.0000000000000000       0.87500000000000000        0.0000000000000000     
   1.0000000000000000       0.75000000000000000        0.0000000000000000     
   1.0312500000000000       0.75000000000000000        0.0000000000000000     
   1.0625000000000000       0.75000000000000000        0.0000000000000000     
   1.0937500000000000       0.75000000000000000        0.0000000000000000     
   1.1250000000000000       0.75000000000000000        0.0000000000000000     
   1.0000000000000000       0.78125000000000000        0.0000000000000000     
   1.0312500000000000       0.78125000000000000        0.0000000000000000     
   1.0625000000000000       0.78125000000000000        0.0000000000000000     
   1.0937500000000000       0.78125000000000000        0.0000000000000000     
   1.1250000000000000       0.78125000000000000        0.0000000000000000     
   1.0000000000000000       0.81250000000000000        0.0000000000000000     
   1.0312500000000000       0.81250000000000000        0.0000000000000000     
   1.0625000000000000       0.81250000000000000        0.0000000000000000     
   1.0937500000000000       0.81250000000000000        0.0000000000000000     
   1.1250000000000000       0.81250000000000000        0.0000000000000000     
   1.0000000000000000       0.84375000000000000        0.0000000000000000     
   1.0312500000000000       0.84375000000000000        0.0000000000000000     
   1.0625000000000000       0.84375000000000000        0.0000000000000000     
   1.0937500000000000       0.84375000000000000        0.0000000000000000     
   1.1250000000000000       0.84375000000000000        0.0000000000000000     
   1.0000000000000000       0.87500000000000000        0.0000000000000000     
   1.0312500000000000       0.87500000000000000        0.0000000000000000     
   1.0625000000000000       0.87500000000000000        0.0000000000000000     
   1.0937500000000000       0.87500000000000000        0.0000000000000000     
   1.1250000000000000       0.87500000000000000        0.0000000000000000     
   1.1250000000000000       0.75000000000000000        0.0000000000000000     
   1.1562500000000000       0.75000000000000000        0.0000000000000000     
   1.1875000000000000       0.75000000000000000        0.0000000000000000     
   1.2187500000000000       0.75000000000000000        0.0000000000000000     
   1.2500000000000000       0.75000000000000000        0.0000000000000000     
   1.1250000000000000       0.78125000000000000        0.0000000000000000     
   1.1562500000000000       0.78125000000000000        0.0000000000000000     
   1.1875000000000000       0.78125000000000000        0.0000000000000000     
   1.2187500000000000       0.78125000000000000        0.0000000000000000     
   1.2500000000000000       0.78125000000000000        0.0000000000000000     
   1.1250000000000000       0.81250000000000000        0.0000000000000000     
   1.1562500000000000       0.81250000000000000        0.0000000000000000     
   1.1875000000000000       0.81250000000000000        0.0000000000000000     
   1.2187500000000000       0.81250000000000000        0.0000000000000000     
   1.2500000000000000       0.81250000000000000        0.0000000000000000     
   1.1250000000000000       0.84375000000000000        0.0000000000000000     
   1.1562500000000000       0.84375000000000000        0.0000000000000000     
   1.1875000000000000       0.84375000000000000        0.0000000000000000     
   1.2187500000000000       0.84375000000000000        0.0000000000000000     
   1.2500000000000000       0.84375000000000000        0.0000000000000000     
   1.1250000000000000       0.87500000000000000        0.0000000000000000     
   1.1562500000000000       0.87500000000000000        0.0000000000000000     
   1.1875000000000000       0.87500000000000000        0.0000000000000000     
   1.2187500000000000       0.87500000000000000        0.0000000000000000     
   1.2500000000000000       0.87500000000000000        0.0000000000000000     
   1.2500000000000000       0.75000000000000000        0.0000000000000000     
   1.2812500000000000       0.75000000000000000        0.0000000000000000     
   1.3125000000000000       0.75000000000000000        0.0000000000000000     
   1.3437500000000000       0.75000000000000000        0.0000000000000000     
   1.3750000000000000       0.75000000000000000        0.0000000000000000     
   1.2500000000000000       0.78125000000000000        0.0000000000000000     
   1.2812500000000000       0.78125000000000000        0.0000000000000000     
   1.3125000000000000       0.78125000000000000        0.0000000000000000     
   1.3437500000000000       0.78125000000000000        0.0000000000000000     
   1.3750000000000000       0.78125000000000000        0.0000000000000000     
   1.2500000000000000       0.81250000000000000        0.0000000000000000     
   1.2812500000000000       0.81250000000000000        0.0000000000000000     
   1.3125000000000000       0.81250000000000000        0.0000000000000000     
   1.3437500000000000       0.81250000000000000        0.0000000000000000     
   1.3750000000000000       0.81250000000000000        0.0000000000000000     
   1.2500000000000000       0.84375000000000000        0.0000000000000000     
   1.2812500000000000       0.84375000000000000        0.0000000000000000     
   1.3125000000000000       0.84375000000000000        0.0000000000000000     
   1.3437500000000000       0.84375000000000000        0.0000000000000000     
   1.3750000000000000       0.84375000000000000        0.0000000000000000     
   1.2500000000000000       0.87500000000000000        0.0000000000000000     
   1.2812500000000000       0.87500000000000000        0.0000000000000000     
   1.3125000000000000       0.87500000000000000        0.0000000000000000     
   1.3437500000000000       0.87500000000000000        0.0000000000000000     
   1.3750000000000000       0.87500000000000000        0.0000000000000000     
   1.3750000000000000       0.75000000000000000        0.0000000000000000     
   1.4062500000000000       0.75000000000000000        0.0000000000000000     
   1.4375000000000000       0.75000000000000000        0.0000000000000000     
   1.4687500000000000       0.75000000000000000        0.0000000000000000     
   1.5000000000000000       0.75000000000000000        0.0000000000000000     
   1.3750000000000000       0.78125000000000000        0.0000000000000000     
   1.4062500000000000       0.78125000000000000        0.0000000000000000     
   1.4375000000000000       0.78125000000000000        0.0000000000000000     
   1.4687500000000000       0.78125000000000000        0.0000000000000000     
   1.5000000000000000       0.78125000000000000        0.0000000000000000     
   1.3750000000000000       0.81250000000000000        0.0000000000000000     
   1.4062500000000000       0.81250000000000000        0.0000000000000000     
   1.4375000000000000       0.81250000000000000        0.0000000000000000     
   1.4687500000000000       0.81250000000000000        0.0000000000000000     
   1.5000000000000000       0.81250000000000000        0.0000000000000000     
   1.3750000000000000       0.84375000000000000        0.0000000000000000     
   1.4062500000000000       0.84375000000000000        0.0000000000000000     
   1.4375000000000000       0.84375000000000000        0.0000000000000000     
   1.4687500000000000       0.84375000000000000        0.0000000000000000     
   1.5000000000000000       0.84375000000000000        0.0000000000000000     
   1.3750000000000000       0.87500000000000000        0.0000000000000000     
   1.4062500000000000       0.87500000000000000        0.0000000000000000     
   1.4375000000000000       0.87500000000000000        0.0000000000000000     
   1.4687500000000000       0.87500000000000000        0.0000000000000000     
   1.5000000000000000       0.87500000000000000        0.0000000000000000     
  0.50000000000000000       0.87500000000000000        0.0000000000000000     
  0.53125000000000000       0.87500000000000000        0.0000000000000000     
  0.56250000000000000       0.87500000000000000        0.0000000000000000     
  0.59375000000000000       0.87500000000000000        0.0000000000000000     
  0.62500000000000000       0.87500000000000000        0.0000000000000000     
  0.50000000000000000       0.90625000000000000        0.0000000000000000     
  0.53125000000000000       0.90625000000000000        0.0000000000000000     
  0.56250000000000000       0.90625000000000000        0.0000000000000000     
  0.59375000000000000       0.90625000000000000        0.0000000000000000     
  0.62500000000000000       0.90625000000000000        0.0000000000000000     
  0.50000000000000000       0.93750000000000000        0.0000000000000000     
  0.53125000000000000       0.93750000000000000        0.0000000000000000     
  0.56250000000000000       0.93750000000000000        0.0000000000000000     
  0.59375000000000000       0.93750000000000000        0.0000000000000000     
  0.62500000000000000       0.93750000000000000        0.0000000000000000     
  0.50000000000000000       0.96875000000000000        0.0000000000000000     
  0.53125000000000000       0.96875000000000000        0.0000000000000000     
  0.56250000000000000       0.96875000000000000        0.0000000000000000     
  0.59375000000000000       0.96875000000000000        0.0000000000000000     
  0.62500000000000000       0.96875000000000000        0.0000000000000000     
  0.50000000000000000        1.0000000000000000        0.0000000000000000     
  0.53125000000000000        1.0000000000000000        0.0000000000000000     
  0.56250000000000000        1.0000000000000000        0.0000000000000000     
  0.59375000000000000        1.0000000000000000        0.0000000000000000     
  0.62500000000000000        1.0000000000000000        0.0000000000000000     
  0.62500000000000000       0.87500000000000000        0.0000000000000000     
  0.65625000000000000       0.87500000000000000        0.0000000000000000     
  0.68750000000000000       0.87500000000000000        0.0000000000000000     
  0.71875000000000000       0.87500000000000000        0.0000000000000000     
  0.75000000000000000       0.87500000000000000        0.0000000000000000     
  0.62500000000000000       0.90625000000000000        0.0000000000000000     
  0.65625000000000000       0.90625000000000000        0.0000000000000000     
  0.68750000000000000       0.90625000000000000        0.0000000000000000     
  0.71875000000000000       0.90625000000000000        0.0000000000000000     
  0.75000000000000000       0.90625000000000000        0.0000000000000000     
  0.62500000000000000       0.93750000000000000        0.0000000000000000     
  0.65625000000000000       0.93750000000000000        0.0000000000000000     
  0.68750000000000000       0.93750000000000000        0.0000000000000000     
  0.71875000000000000       0.93750000000000000        0.0000000000000000     
  0.75000000000000000       0.93750000000000000        0.0000000000000000     
  0.62500000000000000       0.96875000000000000        0.0000000000000000     
  0.65625000000000000       0.96875000000000000        0.0000000000000000     
  0.68750000000000000       0.96875000000000000        0.0000000000000000     
  0.71875000000000000       0.96875000000000000        0.0000000000000000     
  0.75000000000000000       0.96875000000000000        0.0000000000000000     
  0.62500000000000000        1.0000000000000000        0.0000000000000000     
  0.65625000000000000        1.0000000000000000        0.0000000000000000     
  0.68750000000000000        1.0000000000000000        0.0000000000000000     
  0.71875000000000000        1.0000000000000000        0.0000000000000000     
  0.75000000000000000        1.0000000000000000        0.0000000000000000     
  0.75000000000000000       0.87500000000000000        0.0000000000000000     
  0.78125000000000000       0.87500000000000000        0.0000000000000000     
  0.81250000000000000       0.87500000000000000        0.0000000000000000     
  0.84375000000000000       0.87500000000000000        0.0000000000000000     
  0.87500000000000000       0.87500000000000000        0.0000000000000000     
  0.75000000000000000       0.90625000000000000        0.0000000000000000     
  0.78125000000000000       0.90625000000000000        0.0000000000000000     
  0.81250000000000000       0.90625000000000000        0.0000000000000000     
  0.84375000000000000       0.90625000000000000        0.0000000000000000     
  0.87500000000000000       0.90625000000000000        0.0000000000000000     
  0.75000000000000000       0.93750000000000000        0.0000000000000000     
  0.78125000000000000       0.93750000000000000        0.0000000000000000     
  0.81250000000000000       0.93750000000000000        0.0000000000000000     
  0.84375000000000000       0.93750000000000000        0.0000000000000000     
  0.87500000000000000       0.93750000000000000        0.0000000000000000     
  0.75000000000000000       0.96875000000000000        0.0000000000000000     
  0.78125000000000000       0.96875000000000000        0.0000000000000000     
  0.81250000000000000       0.96875000000000000        0.0000000000000000     
  0.84375000000000000       0.96875000000000000        0.0000000000000000     
  0.87500000000000000       0.96875000000000000        0.0000000000000000     
  0.75000000000000000        1.0000000000000000        0.0000000000000000     
  0.78125000000000000        1.0000000000000000        0.0000000000000000     
  0.81250000000000000        1.0000000000000000        0.0000000000000000     
  0.84375000000000000        1.0000000000000000        0.0000000000000000     
  0.87500000000000000        1.0000000000000000        0.0000000000000000     
  0.87500000000000000       0.87500000000000000        0.0000000000000000     
  0.90625000000000000       0.87500000000000000        0.0000000000000000     
  0.93750000000000000       0.87500000000000000        0.0000000000000000     
  0.96875000000000000       0.87500000000000000        0.0000000000000000     
   1.0000000000000000       0.87500000000000000        0.0000000000000000     
  0.87500000000000000       0.90625000000000000        0.0000000000000000     
  0.90625000000000000       0.90625000000000000        0.0000000000000000     
  0.93750000000000000       0.90625000000000000        0.0000000000000000     
  0.96875000000000000       0.90625000000000000        0.0000000000000000     
   1.0000000000000000       0.90625000000000000        0.0000000000000000     
  0.87500000000000000       0.93750000000000000        0.0000000000000000     
  0.90625000000000000       0.93750000000000000        0.0000000000000000     
  0.93750000000000000       0.93750000000000000        0.0000000000000000     
  0.96875000000000000       0.93750000000000000        0.0000000000000000     
   1.0000000000000000       0.93750000000000000        0.0000000000000000     
  0.87500000000000000       0.96875000000000000        0.0000000000000000     
  0.90625000000000000       0.96875000000000000        0.0000000000000000     
  0.93750000000000000       0.96875000000000000        0.0000000000000000     
  0.96875000000000000       0.96875000000000000        0.0000000000000000     
   1.0000000000000000       0.96875000000000000        0.0000000000000000     
  0.87500000000000000        1.0000000000000000        0.0000000000000000     
  0.90625000000000000        1.0000000000000000        0.0000000000000000     
  0.93750000000000000        1.0000000000000000        0.0000000000000000     
  0.96875000000000000        1.0000000000000000        0.0000000000000000     
   1.0000000000000000        1.0000000000000000        0.0000000000000000     
   1.0000000000000000       0.87500000000000000        0.0000000000000000     
   1.0312500000000000       0.87500000000000000        0.0000000000000000     
   1.0625000000000000       0.87500000000000000        0.0000000000000000     
   1.0937500000000000       0.87500000000000000        0.0000000000000000     
   1.1250000000000000       0.87500000000000000        0.0000000000000000     
   1.0000000000000000       0.90625000000000000        0.0000000000000000     
   1.0312500000000000       0.90625000000000000        0.0000000000000000     
   1.0625000000000000       0.90625000000000000        0.0000000000000000     
   1.0937500000000000       0.90625000000000000        0.0000000000000000     
   1.1250000000000000       0.90625000000000000        0.0000000000000000     
   1.0000000000000000       0.93750000000000000        0.0000000000000000     
   1.0312500000000000       0.93750000000000000        0.0000000000000000     
   1.0625000000000000       0.93750000000000000        0.0000000000000000     
   1.0937500000000000       0.93750000000000000        0.0000000000000000     
   1.1250000000000000       0.93750000000000000        0.0000000000000000     
   1.0000000000000000       0.96875000000000000        0.0000000000000000     
   1.0312500000000000       0.96875000000000000        0.0000000000000000     
   1.0625000000000000       0.96875000000000000        0.0000000000000000     
   1.0937500000000000       0.96875000000000000        0.0000000000000000     
   1.1250000000000000       0.96875000000000000        0.0000000000000000     
   1.0000000000000000        1.0000000000000000        0.0000000000000000     
   1.0312500000000000        1.0000000000000000        0.0000000000000000     
   1.0625000000000000        1.0000000000000000        0.0000000000000000     
   1.0937500000000000        1.0000000000000000        0.0000000000000000     
   1.1250000000000000        1.0000000000000000        0.0000000000000000     
   1.1250000000000000       0.87500000000000000        0.0000000000000000     
   1.1562500000000000       0.87500000000000000        0.0000000000000000     
   1.1875000000000000       0.87500000000000000        0.0000000000000000     
   1.2187500000000000       0.87500000000000000        0.0000000000000000     
   1.2500000000000000       0.87500000000000000        0.0000000000000000     
   1.1250000000000000       0.90625000000000000        0.0000000000000000     
   1.1562500000000000       0.90625000000000000        0.0000000000000000     
   1.1875000000000000       0.90625000000000000        0.0000000000000000     
   1.2187500000000000       0.90625000000000000        0.0000000000000000     
   1.2500000000000000       0.90625000000000000        0.0000000000000000     
   1.1250000000000000       0.93750000000000000        0.0000000000000000     
   1.1562500000000000       0.93750000000000000        0.0000000000000000     
   1.1875000000000000       0.93750000000000000        0.0000000000000000     
   1.2187500000000000       0.93750000000000000        0.0000000000000000     
   1.2500000000000000       0.93750000000000000        0.0000000000000000     
   1.1250000000000000       0.96875000000000000        0.0000000000000000     
   1.1562500000000000       0.96875000000000000        0.0000000000000000     
   1.1875000000000000       0.96875000000000000        0.0000000000000000     
   1.2187500000000000       0.96875000000000000        0.0000000000000000     
   1.2500000000000000       0.96875000000000000        0.0000000000000000     
   1.1250000000000000        1.0000000000000000        0.0000000000000000     
   1.1562500000000000        1.0000000000000000        0.0000000000000000     
   1.1875000000000000        1.0000000000000000        0.0000000000000000     
   1.2187500000000000        1.0000000000000000        0.0000000000000000     
   1.2500000000000000        1.0000000000000000        0.0000000000000000     
   1.2500000000000000       0.87500000000000000        0.0000000000000000     
   1.2812500000000000       0.87500000000000000        0.0000000000000000     
   1.3125000000000000       0.87500000000000000        0.0000000000000000     
   1.3437500000000000       0.87500000000000000        0.0000000000000000     
   1.3750000000000000       0.87500000000000000        0.0000000000000000     
   1.2500000000000000       0.90625000000000000        0.0000000000000000     
   1.2812500000000000       0.90625000000000000        0.0000000000000000     
   1.3125000000000000       0.90625000000000000        0.0000000000000000     
   1.3437500000000000       0.90625000000000000        0.0000000000000000     
   1.3750000000000000       0.90625000000000000        0.0000000000000000     
   1.2500000000000000       0.93750000000000000        0.0000000000000000     
   1.2812500000000000       0.93750000000000000        0.0000000000000000     
   1.3125000000000000       0.93750000000000000        0.0000000000000000     
   1.3437500000000000       0.93750000000000000        0.0000000000000000     
   1.3750000000000000       0.93750000000000000        0.0000000000000000     
   1.2500000000000000       0.96875000000000000        0.0000000000000000     
   1.2812500000000000       0.96875000000000000        0.0000000000000000     
   1.3125000000000000       0.96875000000000000        0.0000000000000000     
   1.3437500000000000       0.96875000000000000        0.0000000000000000     
   1.3750000000000000       0.96875000000000000        0.0000000000000000     
   1.2500000000000000        1.0000000000000000        0.0000000000000000     
   1.2812500000000000        1.0000000000000000        0.0000000000000000     
   1.3125000000000000        1.0000000000000000        0.0000000000000000     
   1.3437500000000000        1.0000000000000000        0.0000000000000000     
   1.3750000000000000        1.0000000000000000        0.0000000000000000     
   1.3750000000000000       0.87500000000000000        0.0000000000000000     
   1.4062500000000000       0.87500000000000000        0.0000000000000000     
   1.4375000000000000       0.87500000000000000        0.0000000000000000     
   1.4687500000000000       0.87500000000000000        0.0000000000000000     
   1.5000000000000000       0.87500000000000000        0.0000000000000000     
   1.3750000000000000       0.90625000000000000        0.0000000000000000     
   1.4062500000000000       0.90625000000000000        0.0000000000000000     
   1.4375000000000000       0.90625000000000000        0.0000000000000000     
   1.4687500000000000       0.90625000000000000        0.0000000000000000     
   1.5000000000000000       0.90625000000000000        0.0000000000000000     
   1.3750000000000000       0.93750000000000000        0.0000000000000000     
   1.4062500000000000       0.93750000000000000        0.0000000000000000     
   1.4375000000000000       0.93750000000000000        0.0000000000000000     
   1.4687500000000000       0.93750000000000000        0.0000000000000000     
   1.5000000000000000       0.93750000000000000        0.0000000000000000     
   1.3750000000000000       0.96875000000000000        0.0000000000000000     
   1.4062500000000000       0.96875000000000000        0.0000000000000000     
   1.4375000000000000       0.96875000000000000        0.0000000000000000     
   1.4687500000000000       0.96875000000000000        0.0000000000000000     
   1.5000000000000000       0.96875000000000000        0.0000000000000000     
   1.3750000000000000        1.0000000000000000        0.0000000000000000     
   1.4062500000000000        1.0000000000000000        0.0000000000000000     
   1.4375000000000000        1.0000000000000000        0.0000000000000000     
   1.4687500000000000        1.0000000000000000        0.0000000000000000     
   1.5000000000000000        1.0000000000000000        0.0000000000000000     
 </DataArray>
 </Points>
 <Cells>
 <DataArray  type="Int32"  Name="connectivity"  format="ascii">
           0           1           6           5
           1           2           7           6
           2           3           8           7
           3           4           9           8
           5           6          11          10
           6           7          12          11
           7           8          13          12
           8           9          14          13
          10          11          16          15
          11          12          17          16
          12          13          18          17
          13          14          19          18
          15          16          21          20
          16          17          22          21
          17          18          23          22
          18          19          24          23
          25          26          31          30
          26          27          32          31
          27          28          33          32
          28          29          34          33
          30          31          36          35
          31          32          37          36
          32          33          38          37
          33          34          39          38
          35          36          41          40
          36          37          42          41
          37          38          43          42
          38          39          44          43
          40          41          46          45
          41          42          47          46
          42          43          48          47
          43          44          49          48
          50          51          56          55
          51          52          57          56
          52          53          58          57
          53          54          59          58
          55          56          61          60
          56          57          62          61
          57          58          63          62
          58          59          64          63
          60          61          66          65
          61          62          67          66
          62          63          68          67
          63          64          69          68
          65          66          71          70
          66          67          72          71
          67          68          73          72
          68          69          74          73
          75          76          81          80
          76          77          82          81
          77          78          83          82
          78          79          84          83
          80          81          86          85
          81          82          87          86
          82          83          88          87
          83          84          89          88
          85          86          91          90
          86          87          92          91
          87          88          93          92
          88          89          94          93
          90          91          96          95
          91          92          97          96
          92          93          98          97
          93          94          99          98
         100         101         106         105
         101         102         107         106
         102         103         108         107
         103         104         109         108
         105         106         111         110
         106         107         112         111
         107         108         113         112
         108         109         114         113
         110         111         116         115
         111         112         117         116
         112         113         118         117
         113         114         119         118
         115         116         121         120
         116         117         122         121
         117         118         123         122
         118         119         124         123
         125         126         131         130
         126         127         132         131
         127         128         133         132
         128         129         134         133
         130         131         136         135
         131         132         137         136
         132         133         138         137
         133         134         139         138
         135         136         141         140
         136         137         142         141
         137         138         143         142
         138         139         144         143
         140         141         146         145
         141         142         147         146
         142         143         148         147
         143         144         149         148
         150         151         156         155
         151         152         157         156
         152         153         158         157
         153         154         159         158
         155         156         161         160
         156         157         162         161
         157         158         163         162
         158         159         164         163
         160         161         166         165
         161         162         167         166
         162         163         168         167
         163         164         169         168
         165         166         171         170
         166         167         172         171
         167         168         173         172
         168         169         174         173
         175         176         181         180
         176         177         182         181
         177         178         183         182
         178         179         184         183
         180         181         186         185
         181         182         187         186
         182         183         188         187
         183         184         189         188
         185         186         191         190
         186         187         192         191
         187         188         193         192
         188         189         194         193
         190         191         196         195
         191         192         197         196
         192         193         198         197
         193         194         199         198
         200         201         206         205
         201         202         207         206
         202         203         208         207
         203         204         209         208
         205         206         211         210
         206         207         212         211
         207         208         213         212
         208         209         214         213
         210         211         216         215
         211         212         217         216
         212         213         218         217
         213         214         219         218
         215         216         221         220
         216         217         222         221
         217         218         223         222
         218         219         224         223
         225         226         231         230
         226         227         232         231
         227         228         233         232
         228         229         234         233
         230         231         236         235
         231         232         237         236
         232         233         238         237
         233         234         239         238
         235         236         241         240
         236         237         242         241
         237         238         243         242
         238         239         244         243
         240         241         246         245
         241         242         247         246
         242         243         248         247
         243         244         249         248
         250         251         256         255
         251         252         257         256
         252         253         258         257
         253         254         259         258
         255         256         261         260
         256         257         262         261
         257         258         263         262
         258         259         264         263
         260         261         266         265
         261         262         267         266
         262         263         268         267
         263         264         269         268
         265         266         271         270
         266         267         272         271
         267         268         273         272
         268         269         274         273
         275         276         281         280
         276         277         282         281
         277         278         283         282
         278         279         284         283
         280         281         286         285
         281         282         287         286
         282         283         288         287
         283         284         289         288
         285         286         291         290
         286         287         292         291
         287         288         293         292
         288         289         294         293
         290         291         296         295
         291         292         297         296
         292         293         298         297
         293         294         299         298
         300         301         306         305
         301         302         307         306
         302         303         308         307
         303         304         309         308
         305         306         311         310
         306         307         312         311
         307         308         313         312
         308         309         314         313
         310         311         316         315
         311         312         317         316
         312         313         318         317
         313         314         319         318
         315         316         321         320
         316         317         322         321
         317         318         323         322
         318         319         324         323
         325         326         331         330
         326         327         332         331
         327         328         333         332
         328         329         334         333
         330         331         336         335
         331         332         337         336
         332         333         338         337
         333         334         339         338
         335         336         341         340
         336         337         342         341
         337         338         343         342
         338         339         344         343
         340         341         346         345
         341         342         347         346
         342         343         348         347
         343         344         349         348
         350         351         356         355
         351         352         357         356
         352         353         358         357
         353         354         359         358
         355         356         361         360
         356         357         362         361
         357         358         363         362
         358         359         364         363
         360         361         366         365
         361         362         367         366
         362         363         368         367
         363         364         369         368
         365         366         371         370
         366         367         372         371
         367         368         373         372
         368         369         374         373
         375         376         381         380
         376         377         382         381
         377         378         383         382
         378         379         384         383
         380         381         386         385
         381         382         387         386
         382         383         388         387
         383         384         389         388
         385         386         391         390
         386         387         392         391
         387         388         393         392
         388         389         394         393
         390         391         396         395
         391         392         397         396
         392         393         398         397
         393         394         399         398
         400         401         406         405
         401         402         407         406
         402         403         408         407
         403         404         409         408
         405         406         411         410
         406         407         412         411
         407         408         413         412
         408         409         414         413
         410         411         416         415
         411         412         417         416
         412         413         418         417
         413         414         419         418
         415         416         421         420
         416         417         422         421
         417         418         423         422
         418         419         424         423
         425         426         431         430
         426         427         432         431
         427         428         433         432
         428         429         434         433
         430         431         436         435
         431         432         437         436
         432         433         438         437
         433         434         439         438
         435         436         441         440
         436         437         442         441
         437         438         443         442
         438         439         444         443
         440         441         446         445
         441         442         447         446
         442         443         448         447
         443         444         449         448
         450         451         456         455
         451         452         457         456
         452         453         458         457
         453         454         459         458
         455         456         461         460
         456         457         462         461
         457         458         463         462
         458         459         464         463
         460         461         466         465
         461         462         467         466
         462         463         468         467
         463         464         469         468
         465         466         471         470
         466         467         472         471
         467         468         473         472
         468         469         474         473
         475         476         481         480
         476         477         482         481
         477         478         483         482
         478         479         484         483
         480         481         486         485
         481         482         487         486
         482         483         488         487
         483         484         489         488
         485         486         491         490
         486         487         492         491
         487         488         493         492
         488         489         494         493
         490         491         496         495
         491         492         497         496
         492         493         498         497
         493         494         499         498
         500         501         506         505
         501         502         507         506
         502         503         508         507
         503         504         509         508
         505         506         511         510
         506         507         512         511
         507         508         513         512
         508         509         514         513
         510         511         516         515
         511         512         517         516
         512         513         518         517
         513         514         519         518
         515         516         521         520
         516         517         522         521
         517         518         523         522
         518         519         524         523
         525         526         531         530
         526         527         532         531
         527         528         533         532
         528         529         534         533
         530         531         536         535
         531         532         537         536
         532         533         538         537
         533         534         539         538
         535         536         541         540
         536         537         542         541
         537         538         543         542
         538         539         544         543
         540         541         546         545
         541         542         547         546
         542         543         548         547
         543         544         549         548
         550         551         556         555
         551         552         557         556
         552         553         558         557
         553         554         559         558
         555         556         561         560
         556         557         562         561
         557         558         563         562
         558         559         564         563
         560         561         566         565
         561         562         567         566
         562         563         568         567
         563         564         569         568
         565         566         571         570
         566         567         572         571
         567         568         573         572
         568         569         574         573
         575         576         581         580
         576         577         582         581
         577         578         583         582
         578         579         584         583
         580         581         586         585
         581         582         587         586
         582         583         588         587
         583         584         589         588
         585         586         591         590
         586         587         592         591
         587         588         593         592
         588         589         594         593
         590         591         596         595
         591         592         597         596
         592         593         598         597
         593         594         599         598
         600         601         606         605
         601         602         607         606
         602         603         608         607
         603         604         609         608
         605         606         611         610
         606         607         612         611
         607         608         613         612
         608         609         614         613
         610         611         616         615
         611         612         617         616
         612         613         618         617
         613         614         619         618
         615         616         621         620
         616         617         622         621
         617         618         623         622
         618         619         624         623
         625         626         631         630
         626         627         632         631
         627         628         633         632
         628         629         634         633
         630         631         636         635
         631         632         637         636
         632         633         638         637
         633         634         639         638
         635         636         641         640
         636         637         642         641
         637         638         643         642
         638         639         644         643
         640         641         646         645
         641         642         647         646
         642         643         648         647
         643         644         649         648
         650         651         656         655
         651         652         657         656
         652         653         658         657
         653         654         659         658
         655         656         661         660
         656         657         662         661
         657         658         663         662
         658         659         664         663
         660         661         666         665
         661         662         667         666
         662         663         668         667
         663         664         669         668
         665         666         671         670
         666         667         672         671
         667         668         673         672
         668         669         674         673
         675         676         681         680
         676         677         682         681
         677         678         683         682
         678         679         684         683
         680         681         686         685
         681         682         687         686
         682         683         688         687
         683         684         689         688
         685         686         691         690
         686         687         692         691
         687         688         693         692
         688         689         694         693
         690         691         696         695
         691         692         697         696
         692         693         698         697
         693         694         699         698
         700         701         706         705
         701         702         707         706
         702         703         708         707
         703         704         709         708
         705         706         711         710
         706         707         712         711
         707         708         713         712
         708         709         714         713
         710         711         716         715
         711         712         717         716
         712         713         718         717
         713         714         719         718
         715         716         721         720
         716         717         722         721
         717         718         723         722
         718         719         724         723
         725         726         731         730
         726         727         732         731
         727         728         733         732
         728         729         734         733
         730         731         736         735
         731         732         737         736
         732         733         738         737
         733         734         739         738
         735         736         741         740
         736         737         742         741
         737         738         743         742
         738         739         744         743
         740         741         746         745
         741         742         747         746
         742         743         748         747
         743         744         749         748
         750         751         756         755
         751         752         757         756
         752         753         758         757
         753         754         759         758
         755         756         761         760
         756         757         762         761
         757         758         763         762
         758         759         764         763
         760         761         766         765
         761         762         767         766
         762         763         768         767
         763         764         769         768
         765         766         771         770
         766         767         772         771
         767         768         773         772
         768         769         774         773
         775         776         781         780
         776         777         782         781
         777         778         783         782
         778         779         784         783
         780         781         786         785
         781         782         787         786
         782         783         788         787
         783         784         789         788
         785         786         791         790
         786         787         792         791
         787         788         793         792
         788         789         794         793
         790         791         796         795
         791         792         797         796
         792         793         798         797
         793         794         799         798
         800         801         806         805
         801         802         807         806
         802         803         808         807
         803         804         809         808
         805         806         811         810
         806         807         812         811
         807         808         813         812
         808         809         814         813
         810         811         816         815
         811         812         817         816
         812         813         818         817
         813         814         819         818
         815         816         821         820
         816         817         822         821
         817         818         823         822
         818         819         824         823
         825         826         831         830
         826         827         832         831
         827         828         833         832
         828         829         834         833
         830         831         836         835
         831         832         837         836
         832         833         838         837
         833         834         839         838
         835         836         841         840
         836         837         842         841
         837         838         843         842
         838         839         844         843
         840         841         846         845
         841         842         847         846
         842         843         848         847
         843         844         849         848
         850         851         856         855
         851         852         857         856
         852         853         858         857
         853         854         859         858
         855         856         861         860
         856         857         862         861
         857         858         863         862
         858         859         864         863
         860         861         866         865
         861         862         867         866
         862         863         868         867
         863         864         869         868
         865         866         871         870
         866         867         872         871
         867         868         873         872
         868         869         874         873
         875         876         881         880
         876         877         882         881
         877         878         883         882
         878         879         884         883
         880         881         886         885
         881         882         887         886
         882         883         888         887
         883         884         889         888
         885         886         891         890
         886         887         892         891
         887         888         893         892
         888         889         894         893
         890         891         896         895
         891         892         897         896
         892         893         898         897
         893         894         899         898
         900         901         906         905
         901         902         907         906
         902         903         908         907
         903         904         909         908
         905         906         911         910
         906         907         912         911
         907         908         913         912
         908         909         914         913
         910         911         916         915
         911         912         917         916
         912         913         918         917
         913         914         919         918
         915         916         921         920
         916         917         922         921
         917         918         923         922
         918         919         924         923
         925         926         931         930
         926         927         932         931
         927         928         933         932
         928         929         934         933
         930         931         936         935
         931         932         937         936
         932         933         938         937
         933         934         939         938
         935         936         941         940
         936         937         942         941
         937         938         943         942
         938         939         944         943
         940         941         946         945
         941         942         947         946
         942         943         948         947
         943         944         949         948
         950         951         956         955
         951         952         957         956
         952         953         958         957
         953         954         959         958
         955         956         961         960
         956         957         962         961
         957         958         963         962
         958         959         964         963
         960         961         966         965
         961         962         967         966
         962         963         968         967
         963         964         969         968
         965         966         971         970
         966         967         972         971
         967         968         973         972
         968         969         974         973
         975         976         981         980
         976         977         982         981
         977         978         983         982
         978         979         984         983
         980         981         986         985
         981         982         987         986
         982         983         988         987
         983         984         989         988
         985         986         991         990
         986         987         992         991
         987         988         993         992
         988         989         994         993
         990         991         996         995
         991         992         997         996
         992         993         998         997
         993         994         999         998
        1000        1001        1006        1005
        1001        1002        1007        1006
        1002        1003        1008        1007
        1003        1004        1009        1008
        1005        1006        1011        1010
        1006        1007        1012        1011
        1007        1008        1013        1012
        1008        1009        1014        1013
        1010        1011        1016        1015
        1011        1012        1017        1016
        1012        1013        1018        1017
        1013        1014        1019        1018
        1015        1016        1021        1020
        1016        1017        1022        1021
        1017        1018        1023        1022
        1018        1019        1024        1023
        1025        1026        1031        1030
        1026        1027        1032        1031
        1027        1028        1033        1032
        1028        1029        1034        1033
        1030        1031        1036        1035
        1031        1032        1037        1036
        1032        1033        1038        1037
        1033        1034        1039        1038
        1035        1036        1041        1040
        1036        1037        1042        1041
        1037        1038        1043        1042
        1038        1039        1044        1043
        1040        1041        1046        1045
        1041        1042        1047        1046
        1042        1043        1048        1047
        1043        1044        1049        1048
        1050        1051        1056        1055
        1051        1052        1057        1056
        1052        1053        1058        1057
        1053        1054        1059        1058
        1055        1056        1061        1060
        1056        1057        1062        1061
        1057        1058        1063        1062
        1058        1059        1064        1063
        1060        1061        1066        1065
        1061        1062        1067        1066
        1062        1063        1068        1067
        1063        1064        1069        1068
        1065        1066        1071        1070
        1066        1067        1072        1071
        1067        1068        1073        1072
        1068        1069        1074        1073
        1075        1076        1081        1080
        1076        1077        1082        1081
        1077        1078        1083        1082
        1078        1079        1084        1083
        1080        1081        1086        1085
        1081        1082        1087        1086
        1082        1083        1088        1087
        1083        1084        1089        1088
        1085        1086        1091        1090
        1086        1087        1092        1091
        1087        1088        1093        1092
        1088        1089        1094        1093
        1090        1091        1096        1095
        1091        1092        1097        1096
        1092        1093        1098        1097
        1093        1094        1099        1098
        1100        1101        1106        1105
        1101        1102        1107        1106
        1102        1103        1108        1107
        1103        1104        1109        1108
        1105        1106        1111        1110
        1106        1107        1112        1111
        1107        1108        1113        1112
        1108        1109        1114        1113
        1110        1111        1116        1115
        1111        1112        1117        1116
        1112        1113        1118        1117
        1113        1114        1119        1118
        1115        1116        1121        1120
        1116        1117        1122        1121
        1117        1118        1123        1122
        1118        1119        1124        1123
        1125        1126        1131        1130
        1126        1127        1132        1131
        1127        1128        1133        1132
        1128        1129        1134        1133
        1130        1131        1136        1135
        1131        1132        1137        1136
        1132        1133        1138        1137
        1133        1134        1139        1138
        1135        1136        1141        1140
        1136        1137        1142        1141
        1137        1138        1143        1142
        1138        1139        1144        1143
        1140        1141        1146        1145
        1141        1142        1147        1146
        1142        1143        1148        1147
        1143        1144        1149        1148
        1150        1151        1156        1155
        1151        1152        1157        1156
        1152        1153        1158        1157
        1153        1154        1159        1158
        1155        1156        1161        1160
        1156        1157        1162        1161
        1157        1158        1163        1162
        1158        1159        1164        1163
        1160        1161        1166        1165
        1161        1162        1167        1166
        1162        1163        1168        1167
        1163        1164        1169        1168
        1165        1166        1171        1170
        1166        1167        1172        1171
        1167        1168        1173        1172
        1168        1169        1174        1173
        1175        1176        1181        1180
        1176        1177        1182        1181
        1177        1178        1183        1182
        1178        1179        1184        1183
        1180        1181        1186        1185
        1181        1182        1187        1186
        1182        1183        1188        1187
        1183        1184        1189        1188
        1185        1186        1191        1190
        1186        1187        1192        1191
        1187        1188        1193        1192
        1188        1189        1194        1193
        1190        1191        1196        1195
        1191        1192        1197        1196
        1192        1193        1198        1197
        1193        1194        1199        1198
        1200        1201        1206        1205
        1201        1202        1207        1206
        1202        1203        1208        1207
        1203        1204        1209        1208
        1205        1206        1211        1210
        1206        1207        1212        1211
        1207        1208        1213        1212
        1208        1209        1214        1213
        1210        1211        1216        1215
        1211        1212        1217        1216
        1212        1213        1218        1217
        1213        1214        1219        1218
        1215        1216        1221        1220
        1216        1217        1222        1221
        1217        1218        1223        1222
        1218        1219        1224        1223
        1225        1226        1231        1230
        1226        1227        1232        1231
        1227        1228        1233        1232
        1228        1229        1234        1233
        1230        1231        1236        1235
        1231        1232        1237        1236
        1232        1233        1238        1237
        1233        1234        1239        1238
        1235        1236        1241        1240
        1236        1237        1242        1241
        1237        1238        1243        1242
        1238        1239        1244        1243
        1240        1241        1246        1245
        1241        1242        1247        1246
        1242        1243        1248        1247
        1243        1244        1249        1248
        1250        1251        1256        1255
        1251        1252        1257        1256
        1252        1253        1258        1257
        1253        1254        1259        1258
        1255        1256        1261        1260
        1256        1257        1262        1261
        1257        1258        1263        1262
        1258        1259        1264        1263
        1260        1261        1266        1265
        1261        1262        1267        1266
        1262        1263        1268        1267
        1263        1264        1269        1268
        1265        1266        1271        1270
        1266        1267        1272        1271
        1267        1268        1273        1272
        1268        1269        1274        1273
        1275        1276        1281        1280
        1276        1277        1282        1281
        1277        1278        1283        1282
        1278        1279        1284        1283
        1280        1281        1286        1285
        1281        1282        1287        1286
        1282        1283        1288        1287
        1283        1284        1289        1288
        1285        1286        1291        1290
        1286        1287        1292        1291
        1287        1288        1293        1292
        1288        1289        1294        1293
        1290        1291        1296        1295
        1291        1292        1297        1296
        1292        1293        1298        1297
        1293        1294        1299        1298
        1300        1301        1306        1305
        1301        1302        1307        1306
        1302        1303        1308        1307
        1303        1304        1309        1308
        1305        1306        1311        1310
        1306        1307        1312        1311
        1307        1308        1313        1312
        1308        1309        1314        1313
        1310        1311        1316        1315
        1311        1312        1317        1316
        1312        1313        1318        1317
        1313        1314        1319        1318
        1315        1316        1321        1320
        1316        1317        1322        1321
        1317        1318        1323        1322
        1318        1319        1324        1323
        1325        1326        1331        1330
        1326        1327        1332        1331
        1327        1328        1333        1332
        1328        1329        1334        1333
        1330        1331        1336        1335
        1331        1332        1337        1336
        1332        1333        1338        1337
        1333        1334        1339        1338
        1335        1336        1341        1340
        1336        1337        1342        1341
        1337        1338        1343        1342
        1338        1339        1344        1343
        1340        1341        1346        1345
        1341        1342        1347        1346
        1342        1343        1348        1347
        1343        1344        1349        1348
        1350        1351        1356        1355
        1351        1352        1357        1356
        1352        1353        1358        1357
        1353        1354        1359        1358
        1355        1356        1361        1360
        1356        1357        1362        1361
        1357        1358        1363        1362
        1358        1359        1364        1363
        1360        1361        1366        1365
        1361        1362        1367        1366
        1362        1363        1368        1367
        1363        1364        1369        1368
        1365        1366        1371        1370
        1366        1367        1372        1371
        1367        1368        1373        1372
        1368        1369        1374        1373
        1375        1376        1381        1380
        1376        1377        1382        1381
        1377        1378        1383        1382
        1378        1379        1384        1383
        1380        1381        1386        1385
        1381        1382        1387        1386
        1382        1383        1388        1387
        1383        1384        1389        1388
        1385        1386        1391        1390
        1386        1387        1392        1391
        1387        1388        1393        1392
        1388        1389        1394        1393
        1390        1391        1396        1395
        1391        1392        1397        1396
        1392        1393        1398        1397
        1393        1394        1399        1398
        1400        1401        1406        1405
        1401        1402        1407        1406
        1402        1403        1408        1407
        1403        1404        1409        1408
        1405        1406        1411        1410
        1406        1407        1412        1411
        1407        1408        1413        1412
        1408        1409        1414        1413
        1410        1411        1416        1415
        1411        1412        1417        1416
        1412        1413        1418        1417
        1413        1414        1419        1418
        1415        1416        1421        1420
        1416        1417        1422        1421
        1417        1418        1423        1422
        1418        1419        1424        1423
        1425        1426        1431        1430
        1426        1427        1432        1431
        1427        1428        1433        1432
        1428        1429        1434        1433
        1430        1431        1436        1435
        1431        1432        1437        1436
        1432        1433        1438        1437
        1433        1434        1439        1438
        1435        1436        1441        1440
        1436        1437        1442        1441
        1437        1438        1443        1442
        1438        1439        1444        1443
        1440        1441        1446        1445
        1441        1442        1447        1446
        1442        1443        1448        1447
        1443        1444        1449        1448
        1450        1451        1456        1455
        1451        1452        1457        1456
        1452        1453        1458        1457
        1453        1454        1459        1458
        1455        1456        1461        1460
        1456        1457        1462        1461
        1457        1458        1463        1462
        1458        1459        1464        1463
        1460        1461        1466        1465
        1461        1462        1467        1466
        1462        1463        1468        1467
        1463        1464        1469        1468
        1465        1466        1471        1470
        1466        1467        1472        1471
        1467        1468        1473        1472
        1468        1469        1474        1473
        1475        1476        1481        1480
        1476        1477        1482        1481
        1477        1478        1483        1482
        1478        1479        1484        1483
        1480        1481        1486        1485
        1481        1482        1487        1486
        1482        1483        1488        1487
        1483        1484        1489        1488
        1485        1486        1491        1490
        1486        1487        1492        1491
        1487        1488        1493        1492
        1488        1489        1494        1493
        1490        1491        1496        1495
        1491        1492        1497        1496
        1492        1493        1498        1497
        1493        1494        1499        1498
        1500        1501        1506        1505
        1501        1502        1507        1506
        1502        1503        1508        1507
        1503        1504        1509        1508
        1505        1506        1511        1510
        1506        1507        1512        1511
        1507        1508        1513        1512
        1508        1509        1514        1513
        1510        1511        1516        1515
        1511        1512        1517        1516
        1512        1513        1518        1517
        1513        1514        1519        1518
        1515        1516        1521        1520
        1516        1517        1522        1521
        1517        1518        1523        1522
        1518        1519        1524        1523
        1525        1526        1531        1530
        1526        1527        1532        1531
        1527        1528        1533        1532
        1528        1529        1534        1533
        1530        1531        1536        1535
        1531        1532        1537        1536
        1532        1533        1538        1537
        1533        1534        1539        1538
        1535        1536        1541        1540
        1536        1537        1542        1541
        1537        1538        1543        1542
        1538        1539        1544        1543
        1540        1541        1546        1545
        1541        1542        1547        1546
        1542        1543        1548        1547
        1543        1544        1549        1548
        1550        1551        1556        1555
        1551        1552        1557        1556
        1552        1553        1558        1557
        1553        1554        1559        1558
        1555        1556        1561        1560
        1556        1557        1562        1561
        1557        1558        1563        1562
        1558        1559        1564        1563
        1560        1561        1566        1565
        1561        1562        1567        1566
        1562        1563        1568        1567
        1563        1564        1569        1568
        1565        1566        1571        1570
        1566        1567        1572        1571
        1567        1568        1573        1572
        1568        1569        1574        1573
        1575        1576        1581        1580
        1576        1577        1582        1581
        1577        1578        1583        1582
        1578        1579        1584        1583
        1580        1581        1586        1585
        1581        1582        1587        1586
        1582        1583        1588        1587
        1583        1584        1589        1588
        1585        1586        1591        1590
        1586        1587        1592        1591
        1587        1588        1593        1592
        1588        1589        1594        1593
        1590        1591        1596        1595
        1591        1592        1597        1596
        1592        1593        1598        1597
        1593        1594        1599        1598
 </DataArray>
 <DataArray  type="Int32"  Name="offsets"  format="ascii"> 
           4
           8
          12
          16
          20
          24
          28
          32
          36
          40
          44
          48
          52
          56
          60
          64
          68
          72
          76
          80
          84
          88
          92
          96
         100
         104
         108
         112
         116
         120
         124
         128
         132
         136
         140
         144
         148
         152
         156
         160
         164
         168
         172
         176
         180
         184
         188
         192
         196
         200
         204
         208
         212
         216
         220
         224
         228
         232
         236
         240
         244
         248
         252
         256
         260
         264
         268
         272
         276
         280
         284
         288
         292
         296
         300
         304
         308
         312
         316
         320
         324
         328
         332
         336
         340
         344
         348
         352
         356
         360
         364
         368
         372
         376
         380
         384
         388
         392
         396
         400
         404
         408
         412
         416
         420
         424
         428
         432
         436
         440
         444
         448
         452
         456
         460
         464
         468
         472
         476
         480
         484
         488
         492
         496
         500
         504
         508
         512
         516
         520
         524
         528
         532
         536
         540
         544
         548
         552
         556
         560
         564
         568
         572
         576
         580
         584
         588
         592
         596
         600
         604
         608
         612
         616
         620
         624
         628
         632
         636
         640
         644
         648
         652
         656
         660
         664
         668
         672
         676
         680
         684
         688
         692
         696
         700
         704
         708
         712
         716
         720
         724
         728
         732
         736
         740
         744
         748
         752
         756
         760
         764
         768
         772
         776
         780
         784
         788
         792
         796
         800
         804
         808
         812
         816
         820
         824
         828
         832
         836
         840
         844
         848
         852
         856
         860
         864
         868
         872
         876
         880
         884
         888
         892
         896
         900
         904
         908
         912
         916
         920
         924
         928
         932
         936
         940
         944
         948
         952
         956
         960
         964
         968
         972
         976
         980
         984
         988
         992
         996
        1000
        1004
        1008
        1012
        1016
        1020
        1024
        1028
        1032
        1036
        1040
        1044
        1048
        1052
        1056
        1060
        1064
        1068
        1072
        1076
        1080
        1084
        1088
        1092
        1096
        1100
        1104
        1108
        1112
        1116
        1120
        1124
        1128
        1132
        1136
        1140
        1144
        1148
        1152
        1156
        1160
        1164
        1168
        1172
        1176
        1180
        1184
        1188
        1192
        1196
        1200
        1204
        1208
        1212
        1216
        1220
        1224
        1228
        1232
        1236
        1240
        1244
        1248
        1252
        1256
        1260
        1264
        1268
        1272
        1276
        1280
        1284
        1288
        1292
        1296
        1300
        1304
        1308
        1312
        1316
        1320
        1324
        1328
        1332
        1336
        1340
        1344
        1348
        1352
        1356
        1360
        1364
        1368
        1372
        1376
        1380
        1384
        1388
        1392
        1396
        1400
        1404
        1408
        1412
        1416
        1420
        1424
        1428
        1432
        1436
        1440
        1444
        1448
        1452
        1456
        1460
        1464
        1468
        1472
        1476
        1480
        1484
        1488
        1492
        1496
        1500
        1504
        1508
        1512
        1516
        1520
        1524
        1528
        1532
        1536
        1540
        1544
        1548
        1552
        1556
        1560
        1564
        1568
        1572
        1576
        1580
        1584
        1588
        1592
        1596
        1600
        1604
        1608
        1612
        1616
        1620
        1624
        1628
        1632
        1636
        1640
        1644
        1648
        1652
        1656
        1660
        1664
        1668
        1672
        1676
        1680
        1684
        1688
        1692
        1696
        1700
        1704
        1708
        1712
        1716
        1720
        1724
        1728
        1732
        1736
        1740
        1744
        1748
        1752
        1756
        1760
        1764
        1768
        1772
        1776
        1780
        1784
        1788
        1792
        1796
        1800
        1804
        1808
        1812
        1816
        1820
        1824
        1828
        1832
        1836
        1840
        1844
        1848
        1852
        1856
        1860
        1864
        1868
        1872
        1876
        1880
        1884
        1888
        1892
        1896
        1900
        1904
        1908
        1912
        1916
        1920
        1924
        1928
        1932
        1936
        1940
        1944
        1948
        1952
        1956
        1960
        1964
        1968
        1972
        1976
        1980
        1984
        1988
        1992
        1996
        2000
        2004
        2008
        2012
        2016
        2020
        2024
        2028
        2032
        2036
        2040
        2044
        2048
        2052
        2056
        2060
        2064
        2068
        2072
        2076
        2080
        2084
        2088
        2092
        2096
        2100
        2104
        2108
        2112
        2116
        2120
        2124
        2128
        2132
        2136
        2140
        2144
        2148
        2152
        2156
        2160
        2164
        2168
        2172
        2176
        2180
        2184
        2188
        2192
        2196
        2200
        2204
        2208
        2212
        2216
        2220
        2224
        2228
        2232
        2236
        2240
        2244
        2248
        2252
        2256
        2260
        2264
        2268
        2272
        2276
        2280
        2284
        2288
        2292
        2296
        2300
        2304
        2308
        2312
        2316
        2320
        2324
        2328
        2332
        2336
        2340
        2344
        2348
        2352
        2356
        2360
        2364
        2368
        2372
        2376
        2380
        2384
        2388
        2392
        2396
        2400
        2404
        2408
        2412
        2416
        2420
        2424
        2428
        2432
        2436
        2440
        2444
        2448
        2452
        2456
        2460
        2464
        2468
        2472
        2476
        2480
        2484
        2488
        2492
        2496
        2500
        2504
        2508
        2512
        2516
        2520
        2524
        2528
        2532
        2536
        2540
        2544
        2548
        2552
        2556
        2560
        2564
        2568
        2572
        2576
        2580
        2584
        2588
        2592
        2596
        2600
        2604
        2608
        2612
        2616
        2620
        2624
        2628
        2632
        2636
        2640
        2644
        2648
        2652
        2656
        2660
        2664
        2668
        2672
        2676
        2680
        2684
        2688
        2692
        2696
        2700
        2704
        2708
        2712
        2716
        2720
        2724
        2728
        2732
        2736
        2740
        2744
        2748
        2752
        2756
        2760
        2764
        2768
        2772
        2776
        2780
        2784
        2788
        2792
        2796
        2800
        2804
        2808
        2812
        2816
        2820
        2824
        2828
        2832
        2836
        2840
        2844
        2848
        2852
        2856
        2860
        2864
        2868
        2872
        2876
        2880
        2884
        2888
        2892
        2896
        2900
        2904
        2908
        2912
        2916
        2920
        2924
        2928
        2932
        2936
        2940
        2944
        2948
        2952
        2956
        2960
        2964
        2968
        2972
        2976
        2980
        2984
        2988
        2992
        2996
        3000
        3004
        3008
        3012
        3016
        3020
        3024
        3028
        3032
        3036
        3040
        3044
        3048
        3052
        3056
        3060
        3064
        3068
        3072
        3076
        3080
        3084
        3088
        3092
        3096
        3100
        3104
        3108
        3112
        3116
        3120
        3124
        3128
        3132
        3136
        3140
        3144
        3148
        3152
        3156
        3160
        3164
        3168
        3172
        3176
        3180
        3184
        3188
        3192
        3196
        3200
        3204
        3208
        3212
        3216
        3220
        3224
        3228
        3232
        3236
        3240
        3244
        3248
        3252
        3256
        3260
        3264
        3268
        3272
        3276
        3280
        3284
        3288
        3292
        3296
        3300
        3304
        3308
        3312
        3316
        3320
        3324
        3328
        3332
        3336
        3340
        3344
        3348
        3352
        3356
        3360
        3364
        3368
        3372
        3376
        3380
        3384
        3388
        3392
        3396
        3400
        3404
        3408
        3412
        3416
        3420
        3424
        3428
        3432
        3436
        3440
        3444
        3448
        3452
        3456
        3460
        3464
        3468
        3472
        3476
        3480
        3484
        3488
        3492
        3496
        3500
        3504
        3508
        3512
        3516
        3520
        3524
        3528
        3532
        3536
        3540
        3544
        3548
        3552
        3556
        3560
        3564
        3568
        3572
        3576
        3580
        3584
        3588
        3592
        3596
        3600
        3604
        3608
        3612
        3616
        3620
        3624
        3628
        3632
        3636
        3640
        3644
        3648
        3652
        3656
        3660
        3664
        3668
        3672
        3676
        3680
        3684
        3688
        3692
        3696
        3700
        3704
        3708
        3712
        3716
        3720
        3724
        3728
        3732
        3736
        3740
        3744
        3748
        3752
        3756
        3760
        3764
        3768
        3772
        3776
        3780
        3784
        3788
        3792
        3796
        3800
        3804
        3808
        3812
        3816
        3820
        3824
        3828
        3832
        3836
        3840
        3844
        3848
        3852
        3856
        3860
        3864
        3868
        3872
        3876
        3880
        3884
        3888
        3892
        3896
        3900
        3904
        3908
        3912
        3916
        3920
        3924
        3928
        3932
        3936
        3940
        3944
        3948
        3952
        3956
        3960
        3964
        3968
        3972
        3976
        3980
        3984
        3988
        3992
        3996
        4000
        4004
        4008
        4012
        4016
        4020
        4024
        4028
        4032
        4036
        4040
        4044
        4048
        4052
        4056
        4060
        4064
        4068
        4072
        4076
        4080
        4084
        4088
        4092
        4096
 </DataArray>
 <DataArray  type="UInt8"  Name="types"  format="ascii">
 9
 9
 9
 9
 9
 9
 9
 9
 9
 9
 9
 9
 9
 9
 9
 9
 9
 9
 9
 9
 9
 9
 9
 9
 9
 9
 9
 9
 9
 9
 9
 9
 9
 9
 9
 9
 9
 9
 9
 9
 9
 9
 9
 9
 9
 9
 9
 9
 9
 9
 9
 9
 9
 9
 9
 9
 9
 9
 9
 9
 9
 9
 9
 9
 9
 9
 9
 9
 9
 9
 9
 9
 9
 9
 9
 9
 9
 9
 9
 9
 9
 9
 9
 9
 9
 9
 9
 9
 9
 9
 9
 9
 9
 9
 9
 9
 9
 9
 9
 9
 9
 9
 9
 9
 9
 9
 9
 9
 9
 9
 9
 9
 9
 9
 9
 9
 9
 9
 9
 9
 9
 9
 9
 9
 9
 9
 9
 9
 9
 9
 9
 9
 9
 9
 9
 9
 9
 9
 9
 9
 9
 9
 9
 9
 9
 9
 9
 9
 9
 9
 9
 9
 9
 9
 9
 9
 9
 9
 9
 9
 9
 9
 9
 9
 9
 9
 9
 9
 9
 9
 9
 9
 9
 9
 9
 9
 9
 9
 9
 9
 9
 9
 9
 9
 9
 9
 9
 9
 9
 9
 9
 9
 9
 9
 9
 9
 9
 9
 9
 9
 9
 9
 9
 9
 9
 9
 9
 9
 9
 9
 9
 9
 9
 9
 9
 9
 9
 9
 9
 9
 9
 9
 9
 9
 9
 9
 9
 9
 9
 9
 9
 9
 9
 9
 9
 9
 9
 9
 9
 9
 9
 9
 9
 9
 9
 9
 9
 9
 9
 9
 9
 9
 9
 9
 9
 9
 9
 9
 9
 9
 9
 9
 9
 9
 9
 9
 9
 9
 9
 9
 9
 9
 9
 9
 9
 9
 9
 9
 9
 9
 9
 9
 9
 9
 9
 9
 9
 9
 9
 9
 9
 9
 9
 9
 9
 9
 9
 9
 9
 9
 9
 9
 9
 9
 9
 9
 9
 9
 9
 9
 9
 9
 9
 9
 9
 9
 9
 9
 9
 9
 9
 9
 9
 9
 9
 9
 9
 9
 9
 9
 9
 9
 9
 9
 9
 9
 9
 9
 9
 9
 9
 9
 9
 9
 9
 9
 9
 9
 9
 9
 9
 9
 9
 9
 9
 9
 9
 9
 9
 9
 9
 9
 9
 9
 9
 9
 9
 9
 9
 9
 9
 9
 9
 9
 9
 9
 9
 9
 9
 9
 9
 9
 9
 9
 9
 9
 9
 9
 9
 9
 9
 9
 9
 9
 9
 9
 9
 9
 9
 9
 9
 9
 9
 9
 9
 9
 9
 9
 9
 9
 9
 9
 9
 9
 9
 9
 9
 9
 9
 9
 9
 9
 9
 9
 9
 9
 9
 9
 9
 9
 9
 9
 9
 9
 9
 9
 9
 9
 9
 9
 9
 9
 9
 9
 9
 9
 9
 9
 9
 9
 9
 9
 9
 9
 9
 9
 9
 9
 9
 9
 9
 9
 9
 9
 9
 9
 9
 9
 9
 9
 9
 9
 9
 9
 9
 9
 9
 9
 9
 9
 9
 9
 9
 9
 9
 9
 9
 9
 9
 9
 9
 9
 9
 9
 9
 9
 9
 9
 9
 9
 9
 9
 9
 9
 9
 9
 9
 9
 9
 9
 9
 9
 9
 9
 9
 9
 9
 9
 9
 9
 9
 9
 9
 9
 9
 9
 9
 9
 9
 9
 9
 9
 9
 9
 9
 9
 9
 9
 9
 9
 9
 9
 9
 9
 9
 9
 9
 9
 9
 9
 9
 9
 9
 9
 9
 9
 9
 9
 9
 9
 9
 9
 9
 9
 9
 9
 9
 9
 9
 9
 9
 9
 9
 9
 9
 9
 9
 9
 9
 9
 9
 9
 9
 9
 9
 9
 9
 9
 9
 9
 9
 9
 9
 9
 9
 9
 9
 9
 9
 9
 9
 9
 9
 9
 9
 9
 9
 9
 9
 9
 9
 9
 9
 9
 9
 9
 9
 9
 9
 9
 9
 9
 9
 9
 9
 9
 9
 9
 9
 9
 9
 9
 9
 9
 9
 9
 9
 9
 9
 9
 9
 9
 9
 9
 9
 9
 9
 9
 9
 9
 9
 9
 9
 9
 9
 9
 9
 9
 9
 9
 9
 9
 9
 9
 9
 9
 9
 9
 9
 9
 9
 9
 9
 9
 9
 9
 9
 9
 9
 9
 9
 9
 9
 9
 9
 9
 9
 9
 9
 9
 9
 9
 9
 9
 9
 9
 9
 9
 9
 9
 9
 9
 9
 9
 9
 9
 9
 9
 9
 9
 9
 9
 9
 9
 9
 9
 9
 9
 9
 9
 9
 9
 9
 9
 9
 9
 9
 9
 9
 9
 9
 9
 9
 9
 9
 9
 9
 9
 9
 9
 9
 9
 9
 9
 9
 9
 9
 9
 9
 9
 9
 9
 9
 9
 9
 9
 9
 9
 9
 9
 9
 9
 9
 9
 9
 9
 9
 9
 9
 9
 9
 9
 9
 9
 9
 9
 9
 9
 9
 9
 9
 9
 9
 9
 9
 9
 9
 9
 9
 9
 9
 9
 9
 9
 9
 9
 9
 9
 9
 9
 9
 9
 9
 9
 9
 9
 9
 9
 9
 9
 9
 9
 9
 9
 9
 9
 9
 9
 9
 9
 9
 9
 9
 9
 9
 9
 9
 9
 9
 9
 9
 9
 9
 9
 9
 9
 9
 9
 9
 9
 9
 9
 9
 9
 9
 9
 9
 9
 9
 9
 9
 9
 9
 9
 9
 9
 9
 9
 9
 9
 9
 9
 9
 9
 9
 9
 9
 9
 9
 9
 9
 9
 9
 9
 9
 9
 9
 9
 9
 9
 9
 9
 9
 9
 9
 9
 9
 9
 9
 9
 9
 9
 9
 9
 9
 9
 9
 9
 9
 9
 9
 9
 9
 9
 9
 9
 9
 9
 9
 9
 9
 9
 9
 9
 9
 9
 9
 9
 9
 9
 9
 9
 9
 9
 9
 9
 9
 9
 9
 9
 9
 9
 9
 9
 9
 9
 9
 9
 9
 9
 9
 9
 9
 9
 9
 9
 9
 9
 9
 9
 9
 9
 9
 9
 9
 9
 9
 9
 9
 9
 9
 9
 9
 9
 9
 9
 9
 9
 9
 9
 9
 9
 9
 9
 9
 9
 9
 9
 9
 9
 9
 9
 9
 9
 9
 9
 9
 9
 9
 9
 9
 9
 9
 9
 9
 9
 9
 9
 9
 9
 9
 9
 9
 9
 9
 9
 9
 9
 9
 9
 9
 9
 9
 9
 9
 9
 9
 9
 9
 9
 9
 9
 9
 9
 </DataArray>
 </Cells> 
 <PointData>
 <DataArray  type="Float64" Name="disp" NumberOfComponents="3" format="ascii">
   6.7704730673068758E-002   6.2672267040691176E-002   0.0000000000000000     
   7.0066265090317353E-002   6.8131851681543704E-002   0.0000000000000000     
   7.2498363977879010E-002   7.3742383545484153E-002   0.0000000000000000     
   7.5001027335753701E-002   7.9503862632512509E-002   0.0000000000000000     
   7.7574255163941466E-002   8.5416288942628787E-002   0.0000000000000000     
   6.0848810053526839E-002   6.1794630271873964E-002   0.0000000000000000     
   6.3511104603897806E-002   6.7267196953122083E-002   0.0000000000000000     
   6.6135279119322460E-002   7.2896526335823053E-002   0.0000000000000000     
   6.8721333599800802E-002   7.8682618419976896E-002   0.0000000000000000     
   7.1269268045332845E-002   8.4625473205583612E-002   0.0000000000000000     
   5.4825064795016545E-002   6.0971366244103341E-002   0.0000000000000000     
   5.7602547456723170E-002   6.6455031734715578E-002   0.0000000000000000     
   6.0276486756888736E-002   7.2101472694109506E-002   0.0000000000000000     
   6.2846882695513251E-002   7.7910689122285118E-002   0.0000000000000000     
   6.5313735272596665E-002   8.3882681019242428E-002   0.0000000000000000     
   4.9633494897537850E-002   6.0202474957379321E-002   0.0000000000000000     
   5.2340593648793440E-002   6.5695356026324189E-002   0.0000000000000000     
   5.4921986890577798E-002   7.1357222620343469E-002   0.0000000000000000     
   5.7377674622890978E-002   7.7188074739437174E-002   0.0000000000000000     
   5.9707656845732954E-002   8.3187912383605289E-002   0.0000000000000000     
   4.5274100361090780E-002   5.9487956411701882E-002   0.0000000000000000     
   4.7725243180108588E-002   6.4988169827947945E-002   0.0000000000000000     
   5.0071779520389673E-002   7.0663776114525012E-002   0.0000000000000000     
   5.2313709381934033E-002   7.6514775271433064E-002   0.0000000000000000     
   5.4451032764741655E-002   8.2541167298672155E-002   0.0000000000000000     
   7.7574255163941466E-002   8.5416288942628787E-002   0.0000000000000000     
   8.0144388915308382E-002   9.1489631619146222E-002   0.0000000000000000     
   8.2637770042720576E-002   9.7733859805378021E-002   0.0000000000000000     
   8.5054398546178023E-002  0.10414897350132418        0.0000000000000000     
   8.7394274425680762E-002  0.11073497270698472        0.0000000000000000     
   7.1269268045332845E-002   8.4625473205583612E-002   0.0000000000000000     
   7.3755017814960674E-002   9.0730946002143611E-002   0.0000000000000000     
   7.6154518267726401E-002   9.7004892119157360E-002   0.0000000000000000     
   7.8467769403630053E-002  0.10344731155662489        0.0000000000000000     
   8.0694771222671602E-002  0.11005820431454619        0.0000000000000000     
   6.5313735272596665E-002   8.3882681019242428E-002   0.0000000000000000     
   6.7683849762561171E-002   9.0019024734744463E-002   0.0000000000000000     
   6.9964031439828878E-002   9.6321296618554292E-002   0.0000000000000000     
   7.2154280304399770E-002  0.10278949667067189        0.0000000000000000     
   7.4254596356273850E-002  0.10942362489109729        0.0000000000000000     
   5.9707656845732954E-002   8.3187912383605289E-002   0.0000000000000000     
   6.1930884758109872E-002   8.9353867816948790E-002   0.0000000000000000     
   6.4066309559027937E-002   9.5683073303568775E-002   0.0000000000000000     
   6.6113931248487162E-002  0.10217552884346516        0.0000000000000000     
   6.8073749826487506E-002  0.10883123443663804        0.0000000000000000     
   5.4451032764741655E-002   8.2541167298672155E-002   0.0000000000000000     
   5.6496122801606791E-002   8.8735475248756635E-002   0.0000000000000000     
   5.8461352625323648E-002   9.5090222174200822E-002   0.0000000000000000     
   6.0346722235892221E-002  0.10160540807500475        0.0000000000000000     
   6.2152231633312516E-002  0.10828103295116843        0.0000000000000000     
   8.7394274425680762E-002  0.11073497270698472        0.0000000000000000     
   8.9651181507941421E-002  0.11746799273871233        0.0000000000000000     
   9.1818903619672640E-002  0.12432416891285966        0.0000000000000000     
   9.3897440760874487E-002  0.13130350122942677        0.0000000000000000     
   9.5886792931546894E-002  0.13840598968841361        0.0000000000000000     
   8.0694771222671602E-002  0.11005820431454619        0.0000000000000000     
   8.2835120554949931E-002  0.11681587910499824        0.0000000000000000     
   8.4888414230563911E-002  0.12369864464005811        0.0000000000000000     
   8.6854652249513511E-002  0.13070650091972580        0.0000000000000000     
   8.8733834611798762E-002  0.13783944794400130        0.0000000000000000     
   7.4254596356273850E-002  0.10942362489109729        0.0000000000000000     
   7.6268112029726609E-002  0.11620424974036983        0.0000000000000000     
   7.8197959759033472E-002  0.12311193967902891        0.0000000000000000     
   8.0044139544194468E-002  0.13014669470707449        0.0000000000000000     
   8.1806651385209567E-002  0.13730851482450657        0.0000000000000000     
   6.8073749826487506E-002  0.10883123443663804        0.0000000000000000     
   6.9950155932271399E-002  0.11563310464482705        0.0000000000000000     
   7.1747540205081353E-002  0.12256405402977197        0.0000000000000000     
   7.3465902644917314E-002  0.12962408259147276        0.0000000000000000     
   7.5105243251779280E-002  0.13681319032992950        0.0000000000000000     
   6.2152231633312516E-002  0.10828103295116843        0.0000000000000000     
   6.3881252262584357E-002  0.11510244381836994        0.0000000000000000     
   6.5537155568707539E-002  0.12205498769228736        0.0000000000000000     
   6.7119941551682050E-002  0.12913866457292072        0.0000000000000000     
   6.8629610211507902E-002  0.13635347446027002        0.0000000000000000     
   9.5886792931546894E-002  0.13840598968841361        0.0000000000000000     
   9.7784466856703584E-002  0.14562901538731288        0.0000000000000000     
   9.9587969261358211E-002  0.15296995942361724        0.0000000000000000     
  0.10129730014551079       0.16042882179732668        0.0000000000000000     
  0.10291245950916132       0.16800560250844124        0.0000000000000000     
   8.8733834611798762E-002  0.13783944794400130        0.0000000000000000     
   9.0525379379840648E-002  0.14509272869590281        0.0000000000000000     
   9.2228704616060128E-002  0.15246158615844854        0.0000000000000000     
   9.3843810320457244E-002  0.15994602033163852        0.0000000000000000     
   9.5370696493031967E-002  0.16754603121547273        0.0000000000000000     
   8.1806651385209567E-002  0.13730851482450657        0.0000000000000000     
   8.3485915099667907E-002  0.14459072009565146        0.0000000000000000     
   8.5082350505158597E-002  0.15198663058483539        0.0000000000000000     
   8.6595957601681650E-002  0.15949624629205836        0.0000000000000000     
   8.8026736389237067E-002  0.16711956721732033        0.0000000000000000     
   7.5105243251779280E-002  0.13681319032992950        0.0000000000000000     
   7.6666074016185332E-002  0.14412298958655889        0.0000000000000000     
   7.8148906928653603E-002  0.15154509270277783        0.0000000000000000     
   7.9553741989184024E-002  0.15907949967858614        0.0000000000000000     
   8.0880579197776664E-002  0.16672621051398406        0.0000000000000000     
   6.8629610211507902E-002  0.13635347446027002        0.0000000000000000     
   7.0065856129392978E-002  0.14368953716862506        0.0000000000000000     
   7.1428373886545132E-002  0.15113697251227576        0.0000000000000000     
   7.2717163482964364E-002  0.15869578049122202        0.0000000000000000     
   7.3932224918650702E-002  0.16636596110546387        0.0000000000000000     
  0.10291245950916132       0.16800560250844124        0.0000000000000000     
  0.10443998428597145       0.17568420798685180        0.0000000000000000     
  0.10588641140960284       0.18344854466244934        0.0000000000000000     
  0.10725174088005546       0.19129861253523386        0.0000000000000000     
  0.10853597269732931       0.19923441160520533        0.0000000000000000     
   9.5370696493031967E-002  0.16754603121547273        0.0000000000000000     
   9.6812286542515086E-002  0.17524746281638437        0.0000000000000000     
   9.8171503877637456E-002  0.18303615914080662        0.0000000000000000     
   9.9448348498399036E-002  0.19091212018873949        0.0000000000000000     
  0.10064282040479983       0.19887534596018294        0.0000000000000000     
   8.8026736389237067E-002  0.16711956721732033        0.0000000000000000     
   8.9375216289560133E-002  0.17484388696327724        0.0000000000000000     
   9.0641926724386160E-002  0.18265649913258494        0.0000000000000000     
   9.1826867693715147E-002  0.19055740372524343        0.0000000000000000     
   9.2930039197547096E-002  0.19854660074125277        0.0000000000000000     
   8.0880579197776664E-002  0.16672621051398406        0.0000000000000000     
   8.2128773527106583E-002  0.17447348042753044        0.0000000000000000     
   8.3297679949848977E-002  0.18230956463778433        0.0000000000000000     
   8.4387298466003804E-002  0.19023446314474582        0.0000000000000000     
   8.5397629075571121E-002  0.19824817594841479        0.0000000000000000     
   7.3932224918650702E-002  0.16636596110546387        0.0000000000000000     
   7.5072958255154434E-002  0.17413624320914389        0.0000000000000000     
   7.6138763554025879E-002  0.18199535565640484        0.0000000000000000     
   7.7129640815265021E-002  0.18994329844724650        0.0000000000000000     
   7.8045590038871876E-002  0.19798007158166903        0.0000000000000000     
  0.10853597269732931       0.19923441160520533        0.0000000000000000     
  0.10974221663393940       0.20725418410625987        0.0000000000000000     
  0.11087358246240069       0.21535617227229364        0.0000000000000000     
  0.11193007018271314       0.22354037610330657        0.0000000000000000     
  0.11291167979487679       0.23180679559929873        0.0000000000000000     
  0.10064282040479983       0.19887534596018294        0.0000000000000000     
  0.10175952245595415       0.20692113073375293        0.0000000000000000     
  0.10280305751097628       0.21504476878806528        0.0000000000000000     
  0.10377342556986621       0.22324626012311999        0.0000000000000000     
  0.10467062663262397       0.23152560473891709        0.0000000000000000     
   9.2930039197547096E-002  0.19854660074125277        0.0000000000000000     
   9.3956117928984006E-002  0.20661755291387557        0.0000000000000000     
   9.4909780581127881E-002  0.21476372297637453        0.0000000000000000     
   9.5791027153978706E-002  0.22298511092874967        0.0000000000000000     
   9.6599857647536480E-002  0.23128171677100098        0.0000000000000000     
   8.5397629075571121E-002  0.19824817594841479        0.0000000000000000     
   8.6332003053028961E-002  0.20634345064662785        0.0000000000000000     
   8.7193751672855438E-002  0.21451303483722148        0.0000000000000000     
   8.7982874935050567E-002  0.22275692852019566        0.0000000000000000     
   8.8699372839614321E-002  0.23107513169555041        0.0000000000000000     
   7.8045590038871876E-002  0.19798007158166903        0.0000000000000000     
   7.8887177828089017E-002  0.20609882393200973        0.0000000000000000     
   7.9654970786159005E-002  0.21429270437060605        0.0000000000000000     
   8.0348968913081825E-002  0.22256171289745791        0.0000000000000000     
   8.0969172208857521E-002  0.23090584951256535        0.0000000000000000     
  0.11291167979487679       0.23180679559929873        0.0000000000000000     
  0.11384634300977847       0.24017179295078783        0.0000000000000000     
  0.11476199153830505       0.24865173034829161        0.0000000000000000     
  0.11565862538045650       0.25724660779181002        0.0000000000000000     
  0.11653624453623285       0.26595642528134317        0.0000000000000000     
  0.10467062663262397       0.23152560473891709        0.0000000000000000     
  0.10549972518296377       0.23990618306590900        0.0000000000000000     
  0.10626578570459991       0.24841137553454812        0.0000000000000000     
  0.10696880819753234       0.25704118214483451        0.0000000000000000     
  0.10760879266176110       0.26579560289676807        0.0000000000000000     
   9.6599857647536480E-002  0.23128171677100098        0.0000000000000000     
   9.7327345052122732E-002  0.23967999306414906        0.0000000000000000     
   9.7964562358058921E-002  0.24820639236921441        0.0000000000000000     
   9.8511509565345115E-002  0.25686091468619715        0.0000000000000000     
   9.8968186673981273E-002  0.26564356001509715        0.0000000000000000     
   8.8699372839614321E-002  0.23107513169555041        0.0000000000000000     
   8.9329202617255313E-002  0.23949322294550790        0.0000000000000000     
   8.9858321498682170E-002  0.24803678085229039        0.0000000000000000     
   9.0286729483894837E-002  0.25670580541589794        0.0000000000000000     
   9.0614426572893328E-002  0.26550029663633040        0.0000000000000000     
   8.0969172208857521E-002  0.23090584951256535        0.0000000000000000     
   8.1505297878361582E-002  0.23934587270998567        0.0000000000000000     
   8.1947063126469571E-002  0.24790254098377620        0.0000000000000000     
   8.2294467953181502E-002  0.25657585433393693        0.0000000000000000     
   8.2547512358497346E-002  0.26536581276046778        0.0000000000000000     
  0.11653624453623285       0.26595642528134317        0.0000000000000000     
  0.11733519661527102       0.27494573897566593        0.0000000000000000     
  0.11799582922720797       0.28437910503355329        0.0000000000000000     
  0.11851814237204371       0.29425652345500530        0.0000000000000000     
  0.11890213604977823       0.30457799424002197        0.0000000000000000     
  0.10760879266176110       0.26579560289676807        0.0000000000000000     
  0.10816670641005546       0.27480671591158029        0.0000000000000000     
  0.10862351675518475       0.28420659931050257        0.0000000000000000     
  0.10897922369714896       0.29399525309353503        0.0000000000000000     
  0.10923382723594809       0.30417267726067743        0.0000000000000000     
   9.8968186673981273E-002  0.26564356001509715        0.0000000000000000     
   9.9345528116743798E-002  0.27465254613493423        0.0000000000000000     
   9.9654468326409174E-002  0.28398609082472809        0.0000000000000000     
   9.9895007302977346E-002  0.29364419408447873        0.0000000000000000     
  0.10006714504644836       0.30362685591418614        0.0000000000000000     
   9.0614426572893328E-002  0.26550029663633040        0.0000000000000000     
   9.0871661735336007E-002  0.27448322964572774        0.0000000000000000     
   9.1088683940881182E-002  0.28371757957622978        0.0000000000000000     
   9.1265493189528854E-002  0.29320334642783646        0.0000000000000000     
   9.1402089481279009E-002  0.30294053020054801        0.0000000000000000     
   8.2547512358497346E-002  0.26536581276046778        0.0000000000000000     
   8.2745107265832119E-002  0.27429876644396073        0.0000000000000000     
   8.2926163598600847E-002  0.28340106556500755        0.0000000000000000     
   8.3090681356803503E-002  0.29267271012360840        0.0000000000000000     
   8.3238660540440074E-002  0.30211370011976307        0.0000000000000000     
   4.5274100361090780E-002   5.9487956411701882E-002   0.0000000000000000     
   4.7725243180108588E-002   6.4988169827947945E-002   0.0000000000000000     
   5.0071779520389673E-002   7.0663776114525012E-002   0.0000000000000000     
   5.2313709381934033E-002   7.6514775271433064E-002   0.0000000000000000     
   5.4451032764741655E-002   8.2541167298672155E-002   0.0000000000000000     
   4.1307533622277098E-002   5.8827531262579905E-002   0.0000000000000000     
   4.3437405700507539E-002   6.4335758488742345E-002   0.0000000000000000     
   4.5498955051624969E-002   7.0024804642722302E-002   0.0000000000000000     
   4.7492181675629373E-002   7.5894669724519748E-002   0.0000000000000000     
   4.9417085572520780E-002   8.1945353734134710E-002   0.0000000000000000     
   3.7294447117698595E-002   5.8220920165522244E-002   0.0000000000000000     
   3.9157990859829170E-002   6.3740407357863002E-002   0.0000000000000000     
   4.0976603889584295E-002   6.9443979671003644E-002   0.0000000000000000     
   4.2750286206964000E-002   7.5331637104944185E-002   0.0000000000000000     
   4.4479037811968269E-002   8.1403379659684555E-002   0.0000000000000000     
   3.3234840847355292E-002   5.7668123120528887E-002   0.0000000000000000     
   3.4886998658073473E-002   6.3202116435309902E-002   0.0000000000000000     
   3.6504726034267673E-002   6.8921301199369053E-002   0.0000000000000000     
   3.8088022975937871E-002   7.4825677412706307E-002   0.0000000000000000     
   3.9636889483084088E-002   8.0915245075321718E-002   0.0000000000000000     
   2.9128714811247167E-002   5.7169140127599855E-002   0.0000000000000000     
   3.0624429095240456E-002   6.2720885721083044E-002   0.0000000000000000     
   3.2083321485675068E-002   6.8456769227818501E-002   0.0000000000000000     
   3.3505391982551015E-002   7.4376790647806210E-002   0.0000000000000000     
   3.4890640585868278E-002   8.0480949981046185E-002   0.0000000000000000     
   5.4451032764741655E-002   8.2541167298672155E-002   0.0000000000000000     
   5.6496122801606791E-002   8.8735475248756635E-002   0.0000000000000000     
   5.8461352625323648E-002   9.5090222174200822E-002   0.0000000000000000     
   6.0346722235892221E-002  0.10160540807500475        0.0000000000000000     
   6.2152231633312516E-002  0.10828103295116843        0.0000000000000000     
   4.9417085572520780E-002   8.1945353734134710E-002   0.0000000000000000     
   5.1272905299274613E-002   8.8165499819073234E-002   0.0000000000000000     
   5.3058879412866314E-002   9.4543751126841435E-002   0.0000000000000000     
   5.4775007913295905E-002  0.10108010765743930        0.0000000000000000     
   5.6421290800563351E-002  0.10777456941086683        0.0000000000000000     
   4.4479037811968269E-002   8.1403379659684555E-002   0.0000000000000000     
   4.6154573657336051E-002   8.7645594316803993E-002   0.0000000000000000     
   4.7768608695806340E-002   9.4044668057881656E-002   0.0000000000000000     
   4.9321142927379123E-002  0.10060060088291752        0.0000000000000000     
   5.0812176352054400E-002  0.10731339279191159        0.0000000000000000     
   3.9636889483084088E-002   8.0915245075321718E-002   0.0000000000000000     
   4.1141127875791113E-002   8.7175758741948883E-002   0.0000000000000000     
   4.2590540474143707E-002   9.3592972967321442E-002   0.0000000000000000     
   4.3985127278141897E-002  0.10016688775143938        0.0000000000000000     
   4.5324888287785657E-002  0.10689750309430274        0.0000000000000000     
   3.4890640585868278E-002   8.0480949981046185E-002   0.0000000000000000     
   3.6232567954639784E-002   8.6755993094507891E-002   0.0000000000000000     
   3.7524674747878420E-002   9.3188665855160807E-002   0.0000000000000000     
   3.8766960965584206E-002   9.9778968263004933E-002   0.0000000000000000     
   3.9959426607757129E-002  0.10652690031804027        0.0000000000000000     
   6.2152231633312516E-002  0.10828103295116843        0.0000000000000000     
   6.3881252262584357E-002  0.11510244381836994        0.0000000000000000     
   6.5537155568707539E-002  0.12205498769228736        0.0000000000000000     
   6.7119941551682050E-002  0.12913866457292072        0.0000000000000000     
   6.8629610211507902E-002  0.13635347446027002        0.0000000000000000     
   5.6421290800563351E-002  0.10777456941086683        0.0000000000000000     
   5.7999268624511768E-002  0.11461453858094064        0.0000000000000000     
   5.9510481934984212E-002  0.12158741736147741        0.0000000000000000     
   6.0954930731980710E-002  0.12869320575247709        0.0000000000000000     
   6.2332615015501240E-002  0.13593190375393971        0.0000000000000000     
   5.0812176352054400E-002  0.10731339279191159        0.0000000000000000     
   5.2242072621899956E-002  0.11417166025248139        0.0000000000000000     
   5.3611195388983589E-002  0.12116401973224442        0.0000000000000000     
   5.4919544653305293E-002  0.12829047123120063        0.0000000000000000     
   5.6167120414865067E-002  0.13555101474935002        0.0000000000000000     
   4.5324888287785657E-002  0.10689750309430274        0.0000000000000000     
   4.6609664254748939E-002  0.11377380883299218        0.0000000000000000     
   4.7839295930705648E-002  0.12078479480458836        0.0000000000000000     
   4.9013783315655805E-002  0.12793046100909131        0.0000000000000000     
   5.0133126409599403E-002  0.13521080744650102        0.0000000000000000     
   3.9959426607757129E-002  0.10652690031804027        0.0000000000000000     
   4.1102043523058691E-002  0.11342098432247298        0.0000000000000000     
   4.2194783560150398E-002  0.12044974257850929        0.0000000000000000     
   4.3237646719032241E-002  0.12761317508614919        0.0000000000000000     
   4.4230632999704228E-002  0.13491128184539267        0.0000000000000000     
   6.8629610211507902E-002  0.13635347446027002        0.0000000000000000     
   7.0065856129392978E-002  0.14368953716862506        0.0000000000000000     
   7.1428373886545132E-002  0.15113697251227576        0.0000000000000000     
   7.2717163482964364E-002  0.15869578049122202        0.0000000000000000     
   7.3932224918650702E-002  0.16636596110546387        0.0000000000000000     
   6.2332615015501240E-002  0.13593190375393971        0.0000000000000000     
   6.3642183235302893E-002  0.14329247111627608        0.0000000000000000     
   6.4882283841142765E-002  0.15076386758989713        0.0000000000000000     
   6.6052916833020836E-002  0.15834609317480280        0.0000000000000000     
   6.7154082210937133E-002  0.16603914787099316        0.0000000000000000     
   5.6167120414865067E-002  0.13555101474935002        0.0000000000000000     
   5.7351977129927227E-002  0.14293389970393797        0.0000000000000000     
   5.8472169254756061E-002  0.15042737551220986        0.0000000000000000     
   5.9527696789351596E-002  0.15803144217416559        0.0000000000000000     
   6.0518559733713805E-002  0.16574609968980528        0.0000000000000000     
   5.0133126409599403E-002  0.13521080744650102        0.0000000000000000     
   5.1195237813265973E-002  0.14261382293161079        0.0000000000000000     
   5.2198030127385053E-002  0.15012749627921390        0.0000000000000000     
   5.3141503351956637E-002  0.15775182748931038        0.0000000000000000     
   5.4025657486980738E-002  0.16548681656190017        0.0000000000000000     
   4.4230632999704228E-002  0.13491128184539267        0.0000000000000000     
   4.5171965285319124E-002  0.14233224079929446        0.0000000000000000     
   4.6059866459029708E-002  0.14986422989090925        0.0000000000000000     
   4.6894336520835973E-002  0.15750724912023711        0.0000000000000000     
   4.7675375470737927E-002  0.16526129848727797        0.0000000000000000     
   7.3932224918650702E-002  0.16636596110546387        0.0000000000000000     
   7.5072958255154434E-002  0.17413624320914389        0.0000000000000000     
   7.6138763554025879E-002  0.18199535565640484        0.0000000000000000     
   7.7129640815265021E-002  0.18994329844724650        0.0000000000000000     
   7.8045590038871876E-002  0.19798007158166903        0.0000000000000000     
   6.7154082210937133E-002  0.16603914787099316        0.0000000000000000     
   6.8185657682018841E-002  0.17383193357349144        0.0000000000000000     
   6.9147520953393229E-002  0.18171335217732090        0.0000000000000000     
   7.0039672025060271E-002  0.18968340368248157        0.0000000000000000     
   7.0862110897019964E-002  0.19774208808897353        0.0000000000000000     
   6.0518559733713805E-002  0.16574609968980528        0.0000000000000000     
   6.1444759016014990E-002  0.17356030978594650        0.0000000000000000     
   6.2306295564427405E-002  0.18146303418940712        0.0000000000000000     
   6.3103169378951052E-002  0.18945427290018707        0.0000000000000000     
   6.3835380459585950E-002  0.19753402591828639        0.0000000000000000     
   5.4025657486980738E-002  0.16548681656190017        0.0000000000000000     
   5.4850262257142818E-002  0.17332137184650928        0.0000000000000000     
   5.5615087387128372E-002  0.18124440169266356        0.0000000000000000     
   5.6320132876937372E-002  0.18925590610036297        0.0000000000000000     
   5.6965398726569839E-002  0.19735588506960758        0.0000000000000000     
   4.7675375470737927E-002  0.16526129848727797        0.0000000000000000     
   4.8402167405402374E-002  0.17311511975517965        0.0000000000000000     
   4.9073896421496149E-002  0.18105745468709009        0.0000000000000000     
   4.9690562519019224E-002  0.18908830328300927        0.0000000000000000     
   5.0252165697971612E-002  0.19720766554293712        0.0000000000000000     
   7.8045590038871876E-002  0.19798007158166903        0.0000000000000000     
   7.8887177828089017E-002  0.20609882393200973        0.0000000000000000     
   7.9654970786159005E-002  0.21429270437060605        0.0000000000000000     
   8.0348968913081825E-002  0.22256171289745791        0.0000000000000000     
   8.0969172208857521E-002  0.23090584951256535        0.0000000000000000     
   7.0862110897019964E-002  0.19774208808897353        0.0000000000000000     
   7.1612581777387052E-002  0.20588317037842702        0.0000000000000000     
   7.2288828874276304E-002  0.21410041553247242        0.0000000000000000     
   7.2890852187687677E-002  0.22239382355110973        0.0000000000000000     
   7.3418651717621214E-002  0.23076339443433894        0.0000000000000000     
   6.3835380459585950E-002  0.19753402591828639        0.0000000000000000     
   6.4499154424146013E-002  0.20569598759428551        0.0000000000000000     
   6.5090716890445127E-002  0.21393385227876485        0.0000000000000000     
   6.5610067858483334E-002  0.22224761997172451        0.0000000000000000     
   6.6057207328260606E-002  0.23063729067316446        0.0000000000000000     
   5.6965398726569839E-002  0.19735588506960758        0.0000000000000000     
   5.7546895768365851E-002  0.20553727557958507        0.0000000000000000     
   5.8060634834665496E-002  0.21379301460948327        0.0000000000000000     
   5.8506615925468790E-002  0.22212310215930217        0.0000000000000000     
   5.8884839040775711E-002  0.23052753822904171        0.0000000000000000     
   5.0252165697971612E-002  0.19720766554293712        0.0000000000000000     
   5.0755805810046586E-002  0.20540703433432586        0.0000000000000000     
   5.1198582706937383E-002  0.21367790252462773        0.0000000000000000     
   5.1580496388644023E-002  0.22202027011384273        0.0000000000000000     
   5.1901546855166500E-002  0.23043413710197080        0.0000000000000000     
   8.0969172208857521E-002  0.23090584951256535        0.0000000000000000     
   8.1505297878361582E-002  0.23934587270998567        0.0000000000000000     
   8.1947063126469571E-002  0.24790254098377620        0.0000000000000000     
   8.2294467953181502E-002  0.25657585433393693        0.0000000000000000     
   8.2547512358497346E-002  0.26536581276046778        0.0000000000000000     
   7.3418651717621214E-002  0.23076339443433894        0.0000000000000000     
   7.3869247661885531E-002  0.23922297364366524        0.0000000000000000     
   7.4239660218289247E-002  0.24778640664059384        0.0000000000000000     
   7.4529889386832401E-002  0.25645369342512464        0.0000000000000000     
   7.4739935167514954E-002  0.26522483399725777        0.0000000000000000     
   6.6057207328260606E-002  0.23063729067316446        0.0000000000000000     
   6.6434668794271165E-002  0.23910955703262970        0.0000000000000000     
   6.6744985751009220E-002  0.24767111169966555        0.0000000000000000     
   6.6988158198474784E-002  0.25632195467427188        0.0000000000000000     
   6.7164186136667844E-002  0.26506208595644870        0.0000000000000000     
   5.8884839040775711E-002  0.23052753822904171        0.0000000000000000     
   5.9201561275518524E-002  0.23900562287687907        0.0000000000000000     
   5.9463039724629539E-002  0.24755665616099132        0.0000000000000000     
   5.9669274388108692E-002  0.25618063808137848        0.0000000000000000     
   5.9820265265956026E-002  0.26487756863804052        0.0000000000000000     
   5.1901546855166500E-002  0.23043413710197080        0.0000000000000000     
   5.2169925105627610E-002  0.23891117117641322        0.0000000000000000     
   5.2393822139150142E-002  0.24744304002457113        0.0000000000000000     
   5.2573237955734105E-002  0.25602974364644449        0.0000000000000000     
   5.2708172555379490E-002  0.26467128204203327        0.0000000000000000     
   8.2547512358497346E-002  0.26536581276046778        0.0000000000000000     
   8.2745107265832119E-002  0.27429876644396073        0.0000000000000000     
   8.2926163598600847E-002  0.28340106556500755        0.0000000000000000     
   8.3090681356803503E-002  0.29267271012360840        0.0000000000000000     
   8.3238660540440074E-002  0.30211370011976307        0.0000000000000000     
   7.4739935167514954E-002  0.26522483399725777        0.0000000000000000     
   7.4910706406161709E-002  0.27409347135685846        0.0000000000000000     
   7.5083111948597431E-002  0.28305324850379193        0.0000000000000000     
   7.5257151794822119E-002  0.29210416543805834        0.0000000000000000     
   7.5432825944835760E-002  0.30124622215965757        0.0000000000000000     
   6.7164186136667844E-002  0.26506208595644870        0.0000000000000000     
   6.7313300854254354E-002  0.27386165921164579        0.0000000000000000     
   6.7475733639900268E-002  0.28269082810531304        0.0000000000000000     
   6.7651484493605557E-002  0.29154959263745023        0.0000000000000000     
   6.7840553415370278E-002  0.30043795280805757        0.0000000000000000     
   5.9820265265956026E-002  0.26487756863804052        0.0000000000000000     
   5.9952890610110061E-002  0.27360333000832288        0.0000000000000000     
   6.0104028672509358E-002  0.28231380436957071        0.0000000000000000     
   6.0273679453153865E-002  0.29100899172178418        0.0000000000000000     
   6.0461842952043626E-002  0.29968889206496324        0.0000000000000000     
   5.2708172555379490E-002  0.26467128204203327        0.0000000000000000     
   5.2829475673728837E-002  0.27331848374688950        0.0000000000000000     
   5.2967997046424665E-002  0.28192217729656510        0.0000000000000000     
   5.3123736673467002E-002  0.29048236269106009        0.0000000000000000     
   5.3296694554855813E-002  0.29899903993037447        0.0000000000000000     
   2.9128714811247167E-002   5.7169140127599855E-002   0.0000000000000000     
   3.0624429095240456E-002   6.2720885721083044E-002   0.0000000000000000     
   3.2083321485675068E-002   6.8456769227818501E-002   0.0000000000000000     
   3.3505391982551015E-002   7.4376790647806210E-002   0.0000000000000000     
   3.4890640585868278E-002   8.0480949981046185E-002   0.0000000000000000     
   2.5085077468030209E-002   5.6727702504563035E-002   0.0000000000000000     
   2.6439461774466363E-002   6.2296768975415251E-002   0.0000000000000000     
   2.7751058688541833E-002   6.8048306767819186E-002   0.0000000000000000     
   2.9019868210256622E-002   7.3982315881774841E-002   0.0000000000000000     
   3.0245890339610729E-002   8.0098796317282228E-002   0.0000000000000000     
   2.1212937276360394E-002   5.6347541569246345E-002   0.0000000000000000     
   2.2401276298887430E-002   6.1929819958539370E-002   0.0000000000000000     
   2.3546606087603263E-002   6.7693836830838336E-002   0.0000000000000000     
   2.4648926642507896E-002   7.3639592186143257E-002   0.0000000000000000     
   2.5708237963601326E-002   7.9767086024454120E-002   0.0000000000000000     
   1.7512294236237718E-002   5.6028657321649779E-002   0.0000000000000000     
   1.8509872668503662E-002   6.1620038670455381E-002   0.0000000000000000     
   1.9469963682859370E-002   6.7393359416875936E-002   0.0000000000000000     
   2.0392567279304840E-002   7.3348619560911432E-002   0.0000000000000000     
   2.1277683457840077E-002   7.9485819102561875E-002   0.0000000000000000     
   1.3983148347662185E-002   5.5771049761773335E-002   0.0000000000000000     
   1.4765250883315048E-002   6.1367425111163304E-002   0.0000000000000000     
   1.5521131474310137E-002   6.7146874525931974E-002   0.0000000000000000     
   1.6250790120647451E-002   7.3109398006079379E-002   0.0000000000000000     
   1.6954226822326987E-002   7.9254995551605478E-002   0.0000000000000000     
   3.4890640585868278E-002   8.0480949981046185E-002   0.0000000000000000     
   3.6232567954639784E-002   8.6755993094507891E-002   0.0000000000000000     
   3.7524674747878420E-002   9.3188665855160807E-002   0.0000000000000000     
   3.8766960965584206E-002   9.9778968263004933E-002   0.0000000000000000     
   3.9959426607757129E-002  0.10652690031804027        0.0000000000000000     
   3.0245890339610729E-002   8.0098796317282228E-002   0.0000000000000000     
   3.1427901195066138E-002   8.6385960817420671E-002   0.0000000000000000     
   3.2564676895084840E-002   9.2832022125269517E-002   0.0000000000000000     
   3.3656217439666840E-002   9.9436980240828782E-002   0.0000000000000000     
   3.4702522828812143E-002  0.10620083516409844        0.0000000000000000     
   2.5708237963601326E-002   7.9767086024454120E-002   0.0000000000000000     
   2.6726134898254240E-002   8.6065325353626834E-002   0.0000000000000000     
   2.7704212293837321E-002   9.2523317181517337E-002   0.0000000000000000     
   2.8642470150350586E-002   9.9141061508125558E-002   0.0000000000000000     
   2.9540908467794020E-002  0.10591855833345154        0.0000000000000000     
   2.1277683457840077E-002   7.9485819102561875E-002   0.0000000000000000     
   2.2127269064204088E-002   8.5794086703126438E-002   0.0000000000000000     
   2.2943280944135870E-002   9.2262551023904224E-002   0.0000000000000000     
   2.3725719097635434E-002   9.8891212064895304E-002   0.0000000000000000     
   2.4474583524702765E-002  0.10568006982609961        0.0000000000000000     
   1.6954226822326987E-002   7.9254995551605478E-002   0.0000000000000000     
   1.7631303692915684E-002   8.5572244865919411E-002   0.0000000000000000     
   1.8281882845980486E-002   9.2049723652430249E-002   0.0000000000000000     
   1.8905964281521383E-002   9.8687431911137977E-002   0.0000000000000000     
   1.9503547999538379E-002  0.10548536964204261        0.0000000000000000     
   3.9959426607757129E-002  0.10652690031804027        0.0000000000000000     
   4.1102043523058691E-002  0.11342098432247298        0.0000000000000000     
   4.2194783560150398E-002  0.12044974257850929        0.0000000000000000     
   4.3237646719032241E-002  0.12761317508614919        0.0000000000000000     
   4.4230632999704228E-002  0.13491128184539267        0.0000000000000000     
   3.4702522828812143E-002  0.10620083516409844        0.0000000000000000     
   3.5703922059110806E-002  0.11311137438452749        0.0000000000000000     
   3.6660744127152894E-002  0.12015638539156495        0.0000000000000000     
   3.7572989032938403E-002  0.12733586818521075        0.0000000000000000     
   3.8440656776467352E-002  0.13464982276546500        0.0000000000000000     
   2.9540908467794020E-002  0.10591855833345154        0.0000000000000000     
   3.0400011495186820E-002  0.11284316668275934        0.0000000000000000     
   3.1220263481548174E-002  0.11990224558131304        0.0000000000000000     
   3.2001664426878094E-002  0.12709579502911258        0.0000000000000000     
   3.2744214331176573E-002  0.13442381502615799        0.0000000000000000     
   2.4474583524702765E-002  0.10568006982609961        0.0000000000000000     
   2.5190311831286751E-002  0.11261636121716857        0.0000000000000000     
   2.5873341623336273E-002  0.11968732314775357        0.0000000000000000     
   2.6523672900851322E-002  0.12689295561785460        0.0000000000000000     
   2.7141305663831893E-002  0.13423325862747165        0.0000000000000000     
   1.9503547999538379E-002  0.10548536964204261        0.0000000000000000     
   2.0074823067410600E-002  0.11243095798775518        0.0000000000000000     
   2.0619978552517161E-002  0.11951161809088656        0.0000000000000000     
   2.1139014454858069E-002  0.12672734995143686        0.0000000000000000     
   2.1631930774433317E-002  0.13407815356940603        0.0000000000000000     
   4.4230632999704228E-002  0.13491128184539267        0.0000000000000000     
   4.5171965285319124E-002  0.14233224079929446        0.0000000000000000     
   4.6059866459029708E-002  0.14986422989090925        0.0000000000000000     
   4.6894336520835973E-002  0.15750724912023711        0.0000000000000000     
   4.7675375470737927E-002  0.16526129848727797        0.0000000000000000     
   3.8440656776467352E-002  0.13464982276546500        0.0000000000000000     
   3.9262424922660036E-002  0.14208676505022547        0.0000000000000000     
   4.0036971036436768E-002  0.14963521095738999        0.0000000000000000     
   4.0764295117797555E-002  0.15729516048695860        0.0000000000000000     
   4.1444397166742392E-002  0.16506661363893133        0.0000000000000000     
   3.2744214331176573E-002  0.13442381502615799        0.0000000000000000     
   3.3446882101862051E-002  0.14187500742764020        0.0000000000000000     
   3.4108636646352976E-002  0.14943807408875015        0.0000000000000000     
   3.4729477964649341E-002  0.15711301500948779        0.0000000000000000     
   3.5309406056751154E-002  0.16489983018985310        0.0000000000000000     
   2.7141305663831893E-002  0.13423325862747165        0.0000000000000000     
   2.7725336822925179E-002  0.14169696793153871        0.0000000000000000     
   2.8274863288778318E-002  0.14927281928498967        0.0000000000000000     
   2.8789885061391334E-002  0.15696081268782450        0.0000000000000000     
   2.9270402140764214E-002  0.16476094814004330        0.0000000000000000     
   2.1631930774433317E-002  0.13407815356940603        0.0000000000000000     
   2.2097789085849397E-002  0.14155264656192096        0.0000000000000000     
   2.2535650963712801E-002  0.14913944654610861        0.0000000000000000     
   2.2945516408023520E-002  0.15683855352196890        0.0000000000000000     
   2.3327385418781564E-002  0.16464996748950189        0.0000000000000000     
   4.7675375470737927E-002  0.16526129848727797        0.0000000000000000     
   4.8402167405402374E-002  0.17311511975517965        0.0000000000000000     
   4.9073896421496149E-002  0.18105745468709009        0.0000000000000000     
   4.9690562519019224E-002  0.18908830328300927        0.0000000000000000     
   5.0252165697971612E-002  0.19720766554293712        0.0000000000000000     
   4.1444397166742392E-002  0.16506661363893133        0.0000000000000000     
   4.2075869457114119E-002  0.17293808100231464        0.0000000000000000     
   4.2657304262755574E-002  0.18089807316611511        0.0000000000000000     
   4.3188701583666764E-002  0.18894659013033271        0.0000000000000000     
   4.3670061419847681E-002  0.19708363189496747        0.0000000000000000     
   3.5309406056751154E-002  0.16489983018985310        0.0000000000000000     
   3.5846763408598506E-002  0.17278678307827111        0.0000000000000000     
   3.6339892506131503E-002  0.18076213712316683        0.0000000000000000     
   3.6788793349350139E-002  0.18882589232454022        0.0000000000000000     
   3.7193465938254414E-002  0.19697804868239122        0.0000000000000000     
   2.9270402140764214E-002  0.16476094814004330        0.0000000000000000     
   2.9714849259855552E-002  0.17266122598304914        0.0000000000000000     
   3.0121661151623930E-002  0.18064964655824528        0.0000000000000000     
   3.0490837816069358E-002  0.18872620986563168        0.0000000000000000     
   3.0822379253191826E-002  0.19689091590520830        0.0000000000000000     
   2.3327385418781564E-002  0.16464996748950189        0.0000000000000000     
   2.3680127010885236E-002  0.17256140971664871        0.0000000000000000     
   2.4002610199232853E-002  0.18056060147135045        0.0000000000000000     
   2.4294834983824416E-002  0.18864754275360712        0.0000000000000000     
   2.4556801364659916E-002  0.19682223356341877        0.0000000000000000     
   5.0252165697971612E-002  0.19720766554293712        0.0000000000000000     
   5.0755805810046586E-002  0.20540703433432586        0.0000000000000000     
   5.1198582706937383E-002  0.21367790252462773        0.0000000000000000     
   5.1580496388644023E-002  0.22202027011384273        0.0000000000000000     
   5.1901546855166500E-002  0.23043413710197080        0.0000000000000000     
   4.3670061419847681E-002  0.19708363189496747        0.0000000000000000     
   4.4100004172329309E-002  0.20529893727841320        0.0000000000000000     
   4.4477150242142646E-002  0.21358224509906368        0.0000000000000000     
   4.4801499629287679E-002  0.22193355535691892        0.0000000000000000     
   4.5073052333764407E-002  0.23035286805197894        0.0000000000000000     
   3.7193465938254414E-002  0.19697804868239122        0.0000000000000000     
   3.7553610478355141E-002  0.20520665783175246        0.0000000000000000     
   3.7868927175163131E-002  0.21349977140765658        0.0000000000000000     
   3.8139416028678368E-002  0.22185738941010344        0.0000000000000000     
   3.8365077038900866E-002  0.23027951183909320        0.0000000000000000     
   3.0822379253191826E-002  0.19689091590520830        0.0000000000000000     
   3.1116624728124074E-002  0.20513019599434371        0.0000000000000000     
   3.1373913505998829E-002  0.21343048145040641        0.0000000000000000     
   3.1594245586816089E-002  0.22179177227339636        0.0000000000000000     
   3.1777620970575855E-002  0.23021406846331363        0.0000000000000000     
   2.4556801364659916E-002  0.19682223356341877        0.0000000000000000     
   2.4789046921636113E-002  0.20506955176618694        0.0000000000000000     
   2.4992109234649760E-002  0.21337437522731320        0.0000000000000000     
   2.5165988303700846E-002  0.22173670394679762        0.0000000000000000     
   2.5310684128789389E-002  0.23015653792464014        0.0000000000000000     
   5.1901546855166500E-002  0.23043413710197080        0.0000000000000000     
   5.2169925105627610E-002  0.23891117117641322        0.0000000000000000     
   5.2393822139150142E-002  0.24744304002457113        0.0000000000000000     
   5.2573237955734105E-002  0.25602974364644449        0.0000000000000000     
   5.2708172555379490E-002  0.26467128204203327        0.0000000000000000     
   4.5073052333764407E-002  0.23035286805197894        0.0000000000000000     
   4.5300660204958598E-002  0.23882483312501679        0.0000000000000000     
   4.5493175092255957E-002  0.24733410051680549        0.0000000000000000     
   4.5650596995656489E-002  0.25588067022734506        0.0000000000000000     
   4.5772925915160217E-002  0.26446454225663552        0.0000000000000000     
   3.8365077038900866E-002  0.23027951183909320        0.0000000000000000     
   3.8554666493871674E-002  0.23874523991647423        0.0000000000000000     
   3.8716940681631826E-002  0.24723367486409503        0.0000000000000000     
   3.8851899602181342E-002  0.25574481668195553        0.0000000000000000     
   3.8959543255520195E-002  0.26427866537005590        0.0000000000000000     
   3.1777620970575855E-002  0.23021406846331363        0.0000000000000000     
   3.1931943972366844E-002  0.23867239155078557        0.0000000000000000     
   3.2065118907277770E-002  0.24714176306643962        0.0000000000000000     
   3.2177145775308627E-002  0.25562218301027578        0.0000000000000000     
   3.2268024576459428E-002  0.26411365138229426        0.0000000000000000     
   2.5310684128789389E-002  0.23015653792464014        0.0000000000000000     
   2.5432492640444115E-002  0.23860628802795075        0.0000000000000000     
   2.5537709769193777E-002  0.24705836512383936        0.0000000000000000     
   2.5626335515038370E-002  0.25551276921230598        0.0000000000000000     
   2.5698369877977901E-002  0.26396950029335070        0.0000000000000000     
   5.2708172555379490E-002  0.26467128204203327        0.0000000000000000     
   5.2829475673728837E-002  0.27331848374688950        0.0000000000000000     
   5.2967997046424665E-002  0.28192217729656510        0.0000000000000000     
   5.3123736673467002E-002  0.29048236269106009        0.0000000000000000     
   5.3296694554855813E-002  0.29899903993037447        0.0000000000000000     
   4.5772925915160217E-002  0.26446454225663552        0.0000000000000000     
   4.5884320625695987E-002  0.27303584136871334        0.0000000000000000     
   4.6008939902192632E-002  0.28154469232761498        0.0000000000000000     
   4.6146783744650186E-002  0.28999109513334043        0.0000000000000000     
   4.6297852153068600E-002  0.29837504978588980        0.0000000000000000     
   3.8959543255520195E-002  0.26427866537005590        0.0000000000000000     
   3.9058690046596831E-002  0.27278412381516171        0.0000000000000000     
   3.9168158380359634E-002  0.28121009490403903        0.0000000000000000     
   3.9287948256808612E-002  0.28955657863668766        0.0000000000000000     
   3.9418059675943765E-002  0.29782357501310774        0.0000000000000000     
   3.2268024576459428E-002  0.26411365138229426        0.0000000000000000     
   3.2352583936431374E-002  0.27256333108623471        0.0000000000000000     
   3.2445652480925659E-002  0.28091838502583721        0.0000000000000000     
   3.2547230209942303E-002  0.28917881320110173        0.0000000000000000     
   3.2657317123481293E-002  0.29734461561202841        0.0000000000000000     
   2.5698369877977901E-002  0.26396950029335070        0.0000000000000000     
   2.5766002295199597E-002  0.27237346318193234        0.0000000000000000     
   2.5841422203890716E-002  0.28066956269300969        0.0000000000000000     
   2.5924629604051248E-002  0.28885779882658275        0.0000000000000000     
   2.6015624495681195E-002  0.29693817158265168        0.0000000000000000     
   1.3983148347662185E-002   5.5771049761773335E-002   0.0000000000000000     
   1.4765250883315048E-002   6.1367425111163304E-002   0.0000000000000000     
   1.5521131474310137E-002   6.7146874525931974E-002   0.0000000000000000     
   1.6250790120647451E-002   7.3109398006079379E-002   0.0000000000000000     
   1.6954226822326987E-002   7.9254995551605478E-002   0.0000000000000000     
   1.0526653600697017E-002   5.5572451680316270E-002   0.0000000000000000     
   1.1088999559296635E-002   6.1171399118616000E-002   0.0000000000000000     
   1.1637365423279941E-002   6.6954821971485792E-002   0.0000000000000000     
   1.2171751192646936E-002   7.2922720238925653E-002   0.0000000000000000     
   1.2692156867397622E-002   7.9075093920935591E-002   0.0000000000000000     
   7.0439639854054346E-003   5.5430595867977862E-002   0.0000000000000000     
   7.4027073124234531E-003   6.1031380530766330E-002   0.0000000000000000     
   7.7559214910931460E-003   6.6817641567016639E-002   0.0000000000000000     
   8.1036065214145133E-003   7.2789378976728783E-002   0.0000000000000000     
   8.4457624033875550E-003   7.8946592759902776E-002   0.0000000000000000     
   3.5350795017874376E-003   5.5345482324758097E-002   0.0000000000000000     
   3.7063741426955031E-003   6.0947369347614321E-002   0.0000000000000000     
   3.8767996777497506E-003   6.6735333312524570E-002   0.0000000000000000     
   4.0463561069501780E-003   7.2709374219488809E-002   0.0000000000000000     
   4.2150434302967877E-003   7.8869492068507074E-002   0.0000000000000000     
   1.4984302774273539E-010   5.5317111050656981E-002   0.0000000000000000     
   5.0112787183809182E-011   6.0919365569159951E-002   0.0000000000000000     
  -1.6750243770138895E-011   6.6707897208009515E-002   0.0000000000000000     
  -5.0746067016462643E-011   7.2682705967205705E-002   0.0000000000000000     
  -5.1874680549388041E-011   7.8843791846748487E-002   0.0000000000000000     
   1.6954226822326987E-002   7.9254995551605478E-002   0.0000000000000000     
   1.7631303692915684E-002   8.5572244865919411E-002   0.0000000000000000     
   1.8281882845980486E-002   9.2049723652430249E-002   0.0000000000000000     
   1.8905964281521383E-002   9.8687431911137977E-002   0.0000000000000000     
   1.9503547999538379E-002  0.10548536964204261        0.0000000000000000     
   1.2692156867397622E-002   7.9075093920935591E-002   0.0000000000000000     
   1.3195960854823200E-002   8.5399744366266059E-002   0.0000000000000000     
   1.3680541562214880E-002   9.1884472923667568E-002   0.0000000000000000     
   1.4145898989572660E-002   9.8529279593140090E-002   0.0000000000000000     
   1.4592033136896543E-002  0.10533416437468365        0.0000000000000000     
   8.4457624033875550E-003   7.8946592759902776E-002   0.0000000000000000     
   8.7789626203607987E-003   8.5276529728426642E-002   0.0000000000000000     
   9.0997806556827789E-003   9.1766436694188450E-002   0.0000000000000000     
   9.4082165093534904E-003   9.8416313657188156E-002   0.0000000000000000     
   9.7042701813729385E-003  0.10522616061742580        0.0000000000000000     
   4.2150434302967877E-003   7.8869492068507074E-002   0.0000000000000000     
   4.3803089895284855E-003   8.5202600952401147E-002   0.0000000000000000     
   4.5396001263841804E-003   9.1695614963992852E-002   0.0000000000000000     
   4.6929168408638726E-003   9.8348534103282134E-002   0.0000000000000000     
   4.8402591329675618E-003  0.10516135837026905        0.0000000000000000     
  -5.1874680549388041E-011   7.8843791846748487E-002   0.0000000000000000     
  -3.7673743898819501E-011   8.5177958038189616E-002   0.0000000000000000     
  -2.5680915673089583E-011   9.1672007733080818E-002   0.0000000000000000     
  -1.5896194720233479E-011   9.8325940931422065E-002   0.0000000000000000     
  -8.3195824361614878E-012  0.10513975763321341        0.0000000000000000     
   1.9503547999538379E-002  0.10548536964204261        0.0000000000000000     
   2.0074823067410600E-002  0.11243095798775518        0.0000000000000000     
   2.0619978552517161E-002  0.11951161809088656        0.0000000000000000     
   2.1139014454858069E-002  0.12672734995143686        0.0000000000000000     
   2.1631930774433317E-002  0.13407815356940603        0.0000000000000000     
   1.4592033136896543E-002  0.10533416437468365        0.0000000000000000     
   1.5018859140108750E-002  0.11228684364231425        0.0000000000000000     
   1.5426292135131501E-002  0.11937503377004784        0.0000000000000000     
   1.5814332121964800E-002  0.12659873475788447        0.0000000000000000     
   1.6182979100608647E-002  0.13395794660582414        0.0000000000000000     
   9.7042701813729385E-003  0.10522616061742580        0.0000000000000000     
   9.9877339859315954E-003  0.11218390482864096        0.0000000000000000     
   1.0258400237219939E-002  0.11927747354457324        0.0000000000000000     
   1.0516268935237973E-002  0.12650686676522260        0.0000000000000000     
   1.0761340079985693E-002  0.13387208449058910        0.0000000000000000     
   4.8402591329675618E-003  0.10516135837026905        0.0000000000000000     
   4.9814476048791346E-003  0.11212214154673532        0.0000000000000000     
   5.1163028587824736E-003  0.11921893741446271        0.0000000000000000     
   5.2448248946775824E-003  0.12645174597345124        0.0000000000000000     
   5.3670137125644574E-003  0.13382056722370089        0.0000000000000000     
  -8.3195824361614878E-012  0.10513975763321341        0.0000000000000000     
  -3.0486320932998634E-012  0.11210155379659732        0.0000000000000000     
  -1.8089392830877848E-013  0.11919942537971633        0.0000000000000000     
   2.8362956514677018E-013  0.12643337238257038        0.0000000000000000     
  -1.6550593361086552E-012  0.13380339480515954        0.0000000000000000     
   2.1631930774433317E-002  0.13407815356940603        0.0000000000000000     
   2.2097789085849397E-002  0.14155264656192096        0.0000000000000000     
   2.2535650963712801E-002  0.14913944654610861        0.0000000000000000     
   2.2945516408023520E-002  0.15683855352196890        0.0000000000000000     
   2.3327385418781564E-002  0.16464996748950189        0.0000000000000000     
   1.6182979100608647E-002  0.13395794660582414        0.0000000000000000     
   1.6531265543120205E-002  0.14144111704409823        0.0000000000000000     
   1.6858223921556649E-002  0.14903669380293816        0.0000000000000000     
   1.7163854235917972E-002  0.15674467688234395        0.0000000000000000     
   1.7448156486204177E-002  0.16456506628231563        0.0000000000000000     
   1.0761340079985693E-002  0.13387208449058910        0.0000000000000000     
   1.0992792847223074E-002  0.14136145310338175        0.0000000000000000     
   1.1209806412710089E-002  0.14896329898630967        0.0000000000000000     
   1.1412380776446737E-002  0.15667762213937281        0.0000000000000000     
   1.1600515938433014E-002  0.16450442256257125        0.0000000000000000     
   5.3670137125644574E-003  0.13382056722370089        0.0000000000000000     
   5.4823709981580045E-003  0.14131365473977153        0.0000000000000000     
   5.5903984371731231E-003  0.14891926209622305        0.0000000000000000     
   5.6910960296098160E-003  0.15663738929305548        0.0000000000000000     
   5.7844637754680796E-003  0.16446803633026874        0.0000000000000000     
  -1.6550593361086552E-012  0.13380339480515954        0.0000000000000000     
  -4.0750040061071635E-012  0.14129772195326756        0.0000000000000000     
  -5.0542485778223845E-012  0.14890458313267835        0.0000000000000000     
  -4.5927913978460050E-012  0.15662397834339190        0.0000000000000000     
  -2.6906302706686258E-012  0.16445590758540815        0.0000000000000000     
   2.3327385418781564E-002  0.16464996748950189        0.0000000000000000     
   2.3680127010885236E-002  0.17256140971664871        0.0000000000000000     
   2.4002610199232853E-002  0.18056060147135045        0.0000000000000000     
   2.4294834983824416E-002  0.18864754275360712        0.0000000000000000     
   2.4556801364659916E-002  0.19682223356341877        0.0000000000000000     
   1.7448156486204177E-002  0.16456506628231563        0.0000000000000000     
   1.7710524348362431E-002  0.17248533209610326        0.0000000000000000     
   1.7950351498339897E-002  0.18049294441695690        0.0000000000000000     
   1.8167637936136571E-002  0.18858790324487670        0.0000000000000000     
   1.8362383661752465E-002  0.19677020857986247        0.0000000000000000     
   1.1600515938433014E-002  0.16450442256257125        0.0000000000000000     
   1.1773968958961977E-002  0.17243099093844630        0.0000000000000000     
   1.1932496898326671E-002  0.18044461794953934        0.0000000000000000     
   1.2076099756527098E-002  0.18854530359585037        0.0000000000000000     
   1.2204777533563256E-002  0.19673304787737936        0.0000000000000000     
   5.7844637754680796E-003  0.16446803633026874        0.0000000000000000     
   5.8704608426838811E-003  0.17239838624367787        0.0000000000000000     
   5.9490463991931841E-003  0.18041562206909761        0.0000000000000000     
   6.0202204449959877E-003  0.18851974380652819        0.0000000000000000     
   6.0839829800922928E-003  0.19671075145596942        0.0000000000000000     
  -2.6906302706686258E-012  0.16445590758540815        0.0000000000000000     
  -4.7185866325349934E-013  0.17238751801179791        0.0000000000000000     
   9.3943125847872899E-013  0.18040595677563190        0.0000000000000000     
   1.5432437229165319E-012  0.18851122387691016        0.0000000000000000     
   1.3395747185118712E-012  0.19670331931563265        0.0000000000000000     
   2.4556801364659916E-002  0.19682223356341877        0.0000000000000000     
   2.4789046921636113E-002  0.20506955176618694        0.0000000000000000     
   2.4992109234649760E-002  0.21337437522731320        0.0000000000000000     
   2.5165988303700846E-002  0.22173670394679762        0.0000000000000000     
   2.5310684128789389E-002  0.23015653792464014        0.0000000000000000     
   1.8362383661752465E-002  0.19677020857986247        0.0000000000000000     
   1.8535076113122793E-002  0.20502340827060622        0.0000000000000000     
   1.8686202728182787E-002  0.21333105016579984        0.0000000000000000     
   1.8815763506932443E-002  0.22169313426544326        0.0000000000000000     
   1.8923758449371768E-002  0.23010966056953647        0.0000000000000000     
   1.2204777533563256E-002  0.19673304787737936        0.0000000000000000     
   1.2318911356815652E-002  0.20499044863092578        0.0000000000000000     
   1.2418882353664795E-002  0.21330010369328911        0.0000000000000000     
   1.2504690524110683E-002  0.22166201306446923        0.0000000000000000     
   1.2576335868153316E-002  0.23007617674446623        0.0000000000000000     
   6.0839829800922928E-003  0.19671075145596942        0.0000000000000000     
   6.1405526527146927E-003  0.20497067284714562        0.0000000000000000     
   6.1901481110957822E-003  0.21328153580978104        0.0000000000000000     
   6.2327693552355606E-003  0.22164334034387567        0.0000000000000000     
   6.2684163851340268E-003  0.23005608644942951        0.0000000000000000     
   1.3395747185118712E-012  0.19670331931563265        0.0000000000000000     
   8.1991488251609290E-013  0.20496408091926568        0.0000000000000000     
   4.7574867222816009E-013  0.21327534651527560        0.0000000000000000     
   3.0707790368671162E-013  0.22163711610366243        0.0000000000000000     
   3.1390254978669319E-013  0.23004938968442618        0.0000000000000000     
   2.5310684128789389E-002  0.23015653792464014        0.0000000000000000     
   2.5432492640444115E-002  0.23860628802795075        0.0000000000000000     
   2.5537709769193777E-002  0.24705836512383936        0.0000000000000000     
   2.5626335515038370E-002  0.25551276921230598        0.0000000000000000     
   2.5698369877977901E-002  0.26396950029335070        0.0000000000000000     
   1.8923758449371768E-002  0.23010966056953647        0.0000000000000000     
   1.9014600047592235E-002  0.23855139831422681        0.0000000000000000     
   1.9092700793685309E-002  0.24698911673566160        0.0000000000000000     
   1.9158060687650996E-002  0.25542281583384074        0.0000000000000000     
   1.9210679729489297E-002  0.26385249560876434        0.0000000000000000     
   1.2576335868153316E-002  0.23007617674446623        0.0000000000000000     
   1.2636553743299946E-002  0.23851219137587082        0.0000000000000000     
   1.2688079507057819E-002  0.24693965360127371        0.0000000000000000     
   1.2730913159426935E-002  0.25535856342067481        0.0000000000000000     
   1.2765054700407293E-002  0.26376892083407427        0.0000000000000000     
   6.2684163851340268E-003  0.23005608644942951        0.0000000000000000     
   6.2983537275672534E-003  0.23848866721288275        0.0000000000000000     
   6.3238459093113058E-003  0.24690997572067566        0.0000000000000000     
   6.3448929303661838E-003  0.25532001197280818        0.0000000000000000     
   6.3614947907318885E-003  0.26371877596928051        0.0000000000000000     
   3.1390254978669319E-013  0.23004938968442618        0.0000000000000000     
   3.9415649563667721E-013  0.23848082582526256        0.0000000000000000     
   4.4577059057915314E-013  0.24690008309386752        0.0000000000000000     
   4.6874776195998669E-013  0.25530716149024107        0.0000000000000000     
   4.6308399823113966E-013  0.26370206101438298        0.0000000000000000     
   2.5698369877977901E-002  0.26396950029335070        0.0000000000000000     
   2.5766002295199597E-002  0.27237346318193234        0.0000000000000000     
   2.5841422203890716E-002  0.28066956269300969        0.0000000000000000     
   2.5924629604051248E-002  0.28885779882658275        0.0000000000000000     
   2.6015624495681195E-002  0.29693817158265168        0.0000000000000000     
   1.9210679729489297E-002  0.26385249560876434        0.0000000000000000     
   1.9260512596703694E-002  0.27222085837644305        0.0000000000000000     
   1.9317513966797671E-002  0.28047060645288774        0.0000000000000000     
   1.9381683839771232E-002  0.28860173983809828        0.0000000000000000     
   1.9453022215624373E-002  0.29661425853207485        0.0000000000000000     
   1.2765054700407293E-002  0.26376892083407427        0.0000000000000000     
   1.2797682314745807E-002  0.27211185494395573        0.0000000000000000     
   1.2835974187189386E-002  0.28032849485280309        0.0000000000000000     
   1.2879930317738030E-002  0.28841884056061634        0.0000000000000000     
   1.2929550706391740E-002  0.29638289206739532        0.0000000000000000     
   6.3614947907318885E-003  0.26371877596928051        0.0000000000000000     
   6.3775114493259408E-003  0.27204645288447027        0.0000000000000000     
   6.3968028650658584E-003  0.28024322789275569        0.0000000000000000     
   6.4193690379516439E-003  0.28830910099413659        0.0000000000000000     
   6.4452099679832980E-003  0.29624407218861298        0.0000000000000000     
   4.6308399823113966E-013  0.26370206101438298        0.0000000000000000     
   4.4409549822266303E-013  0.27202465219798677        0.0000000000000000     
   4.2709130503026937E-013  0.28021480557274553        0.0000000000000000     
   4.1207374968862953E-013  0.28827252113865920        0.0000000000000000     
   3.9904104326415890E-013  0.29619779889572795        0.0000000000000000     
   1.4984302774273539E-010   5.5317111050656981E-002   0.0000000000000000     
   5.0112787183809182E-011   6.0919365569159951E-002   0.0000000000000000     
  -1.6750243770138895E-011   6.6707897208009515E-002   0.0000000000000000     
  -5.0746067016462643E-011   7.2682705967205705E-002   0.0000000000000000     
  -5.1874680549388041E-011   7.8843791846748487E-002   0.0000000000000000     
  -3.5350792660298188E-003   5.5345482101580482E-002   0.0000000000000000     
  -3.7063740699553524E-003   6.0947369226885033E-002   0.0000000000000000     
  -3.8767997131999013E-003   6.6735333266792249E-002   0.0000000000000000     
  -4.0463561957634672E-003   7.2709374221302137E-002   0.0000000000000000     
  -4.2150435176460509E-003   7.8869492090414689E-002   0.0000000000000000     
  -7.0439639414331245E-003   5.5430595533434573E-002   0.0000000000000000     
  -7.4027073221395708E-003   6.1031380352271354E-002   0.0000000000000000     
  -7.7559215323922811E-003   6.6817641502193409E-002   0.0000000000000000     
  -8.1036065721912676E-003   7.2789378983200745E-002   0.0000000000000000     
  -8.4457624415365234E-003   7.8946592795293369E-002   0.0000000000000000     
  -1.0526653876366889E-002   5.5572451346219243E-002   0.0000000000000000     
  -1.1088999706439865E-002   6.1171398945318915E-002   0.0000000000000000     
  -1.1637365474327392E-002   6.6954821914213009E-002   0.0000000000000000     
  -1.2171751180029469E-002   7.2922720252901557E-002   0.0000000000000000     
  -1.2692156823546095E-002   7.9075093961384540E-002   0.0000000000000000     
  -1.3983149070831112E-002   5.5771049539934517E-002   0.0000000000000000     
  -1.4765251222856237E-002   6.1367425006027723E-002   0.0000000000000000     
  -1.5521131539005223E-002   6.7146874502851062E-002   0.0000000000000000     
  -1.6250790019278070E-002   7.3109398030404546E-002   0.0000000000000000     
  -1.6954226663674774E-002   7.9254995588688176E-002   0.0000000000000000     
  -5.1874680549388041E-011   7.8843791846748487E-002   0.0000000000000000     
  -3.7673743898819501E-011   8.5177958038189616E-002   0.0000000000000000     
  -2.5680915673089583E-011   9.1672007733080818E-002   0.0000000000000000     
  -1.5896194720233479E-011   9.8325940931422065E-002   0.0000000000000000     
  -8.3195824361614878E-012  0.10513975763321341        0.0000000000000000     
  -4.2150435176460509E-003   7.8869492090414689E-002   0.0000000000000000     
  -4.3803090506268896E-003   8.5202600979557203E-002   0.0000000000000000     
  -4.5396001664852236E-003   9.1695614994156960E-002   0.0000000000000000     
  -4.6929168652210529E-003   9.8348534134213961E-002   0.0000000000000000     
  -4.8402591468343784E-003  0.10516135839972816        0.0000000000000000     
  -8.4457624415365234E-003   7.8946592795293369E-002   0.0000000000000000     
  -8.7789626387119509E-003   8.5276529770269158E-002   0.0000000000000000     
  -9.0997806620014571E-003   9.1766436739925974E-002   0.0000000000000000     
  -9.4082165114050438E-003   9.8416313704263805E-002   0.0000000000000000     
  -9.7042701869227074E-003  0.10522616066328266        0.0000000000000000     
  -1.2692156823546095E-002   7.9075093961384540E-002   0.0000000000000000     
  -1.3195960801928931E-002   8.5399744410325454E-002   0.0000000000000000     
  -1.3680541512229619E-002   9.1884472970387820E-002   0.0000000000000000     
  -1.4145898954448165E-002   9.8529279641571599E-002   0.0000000000000000     
  -1.4592033128584564E-002  0.10533416442387684        0.0000000000000000     
  -1.6954226663674774E-002   7.9254995588688176E-002   0.0000000000000000     
  -1.7631303540277827E-002   8.5572244899726119E-002   0.0000000000000000     
  -1.8281882717169708E-002   9.2049723685542525E-002   0.0000000000000000     
  -1.8905964194350422E-002   9.8687431946137383E-002   0.0000000000000000     
  -1.9503547971819957E-002  0.10548536968151073        0.0000000000000000     
  -8.3195824361614878E-012  0.10513975763321341        0.0000000000000000     
  -3.0486320932998634E-012  0.11210155379659732        0.0000000000000000     
  -1.8089392830877848E-013  0.11919942537971633        0.0000000000000000     
   2.8362956514677018E-013  0.12643337238257038        0.0000000000000000     
  -1.6550593361086552E-012  0.13380339480515954        0.0000000000000000     
  -4.8402591468343784E-003  0.10516135839972816        0.0000000000000000     
  -4.9814476124114852E-003  0.11212214157301652        0.0000000000000000     
  -5.1163028630386654E-003  0.11921893743639583        0.0000000000000000     
  -5.2448248987159119E-003  0.12645174598986608        0.0000000000000000     
  -5.3670137194432302E-003  0.13382056723342739        0.0000000000000000     
  -9.7042701869227074E-003  0.10522616066328266        0.0000000000000000     
  -9.9877339977692166E-003  0.11218390487078245        0.0000000000000000     
  -1.0258400253159338E-002  0.11927747358056308        0.0000000000000000     
  -1.0516268953093077E-002  0.12650686679262454        0.0000000000000000     
  -1.0761340097570429E-002  0.13387208450696683        0.0000000000000000     
  -1.4592033128584564E-002  0.10533416442387684        0.0000000000000000     
  -1.5018859159121819E-002  0.11228684368989512        0.0000000000000000     
  -1.5426292170542918E-002  0.11937503381221806        0.0000000000000000     
  -1.5814332162847861E-002  0.12659873479084566        0.0000000000000000     
  -1.6182979136036651E-002  0.13395794662577790        0.0000000000000000     
  -1.9503547971819957E-002  0.10548536968151073        0.0000000000000000     
  -2.0074823096469296E-002  0.11243095803035455        0.0000000000000000     
  -2.0619978615189400E-002  0.11951161813136080        0.0000000000000000     
  -2.1139014527980265E-002  0.12672734998452947        0.0000000000000000     
  -2.1631930834841898E-002  0.13407815358986061        0.0000000000000000     
  -1.6550593361086552E-012  0.13380339480515954        0.0000000000000000     
  -4.0750040061071635E-012  0.14129772195326756        0.0000000000000000     
  -5.0542485778223845E-012  0.14890458313267835        0.0000000000000000     
  -4.5927913978460050E-012  0.15662397834339190        0.0000000000000000     
  -2.6906302706686258E-012  0.16445590758540815        0.0000000000000000     
  -5.3670137194432302E-003  0.13382056723342739        0.0000000000000000     
  -5.4823710082182600E-003  0.14131365474330468        0.0000000000000000     
  -5.5903984480386434E-003  0.14891926209572301        0.0000000000000000     
  -5.6910960389043820E-003  0.15663738929068244        0.0000000000000000     
  -5.7844637808154749E-003  0.16446803632818296        0.0000000000000000     
  -1.0761340097570429E-002  0.13387208450696683        0.0000000000000000     
  -1.0992792863014069E-002  0.14136145310931764        0.0000000000000000     
  -1.1209806425846682E-002  0.14896329898540450        0.0000000000000000     
  -1.1412380786068262E-002  0.15667762213522757        0.0000000000000000     
  -1.1600515943678813E-002  0.16450442255878675        0.0000000000000000     
  -1.6182979136036651E-002  0.13395794662577790        0.0000000000000000     
  -1.6531265568462437E-002  0.14144111705130644        0.0000000000000000     
  -1.6858223938478367E-002  0.14903669380172294        0.0000000000000000     
  -1.7163854246084433E-002  0.15674467687702726        0.0000000000000000     
  -1.7448156491280644E-002  0.16456506627721951        0.0000000000000000     
  -2.1631930834841898E-002  0.13407815358986061        0.0000000000000000     
  -2.2097789124563352E-002  0.14155264656927113        0.0000000000000000     
  -2.2535650985933683E-002  0.14913944654467806        0.0000000000000000     
  -2.2945516418952889E-002  0.15683855351608147        0.0000000000000000     
  -2.3327385423620971E-002  0.16464996748348126        0.0000000000000000     
  -2.6906302706686258E-012  0.16445590758540815        0.0000000000000000     
  -4.7185866325349934E-013  0.17238751801179791        0.0000000000000000     
   9.3943125847872899E-013  0.18040595677563190        0.0000000000000000     
   1.5432437229165319E-012  0.18851122387691016        0.0000000000000000     
   1.3395747185118712E-012  0.19670331931563265        0.0000000000000000     
  -5.7844637808154749E-003  0.16446803632818296        0.0000000000000000     
  -5.8704608436849718E-003  0.17239838624276374        0.0000000000000000     
  -5.9490463974259250E-003  0.18041562206896403        0.0000000000000000     
  -6.0202204420383310E-003  0.18851974380678380        0.0000000000000000     
  -6.0839829775221968E-003  0.19671075145622308        0.0000000000000000     
  -1.1600515943678813E-002  0.16450442255878675        0.0000000000000000     
  -1.1773968960135186E-002  0.17243099093653269        0.0000000000000000     
  -1.1932496896894226E-002  0.18044461794891600        0.0000000000000000     
  -1.2076099753955939E-002  0.18854530359593674        0.0000000000000000     
  -1.2204777531320323E-002  0.19673304787759485        0.0000000000000000     
  -1.7448156491280644E-002  0.16456506627721951        0.0000000000000000     
  -1.7710524349822492E-002  0.17248533209310474        0.0000000000000000     
  -1.7950351497465471E-002  0.18049294441548780        0.0000000000000000     
  -1.8167637934209571E-002  0.18858790324436889        0.0000000000000000     
  -1.8362383660054795E-002  0.19677020857974786        0.0000000000000000     
  -2.3327385423620971E-002  0.16464996748348126        0.0000000000000000     
  -2.3680127012746903E-002  0.17256140971247980        0.0000000000000000     
  -2.4002610199139660E-002  0.18056060146867950        0.0000000000000000     
  -2.4294834982799236E-002  0.18864754275208032        0.0000000000000000     
  -2.4556801363725629E-002  0.19682223356268225        0.0000000000000000     
   1.3395747185118712E-012  0.19670331931563265        0.0000000000000000     
   8.1991488251609290E-013  0.20496408091926568        0.0000000000000000     
   4.7574867222816009E-013  0.21327534651527560        0.0000000000000000     
   3.0707790368671162E-013  0.22163711610366243        0.0000000000000000     
   3.1390254978669319E-013  0.23004938968442618        0.0000000000000000     
  -6.0839829775221968E-003  0.19671075145622308        0.0000000000000000     
  -6.1405526511486147E-003  0.20497067284723780        0.0000000000000000     
  -6.1901481101886849E-003  0.21328153580978385        0.0000000000000000     
  -6.2327693546424040E-003  0.22164334034386129        0.0000000000000000     
  -6.2684163845097719E-003  0.23005608644947009        0.0000000000000000     
  -1.2204777531320323E-002  0.19673304787759485        0.0000000000000000     
  -1.2318911355470823E-002  0.20499044863101371        0.0000000000000000     
  -1.2418882352890889E-002  0.21330010369331670        0.0000000000000000     
  -1.2504690523580523E-002  0.22166201306450384        0.0000000000000000     
  -1.2576335867539722E-002  0.23007617674457506        0.0000000000000000     
  -1.8362383660054795E-002  0.19677020857974786        0.0000000000000000     
  -1.8535076112146713E-002  0.20502340827059345        0.0000000000000000     
  -1.8686202727630875E-002  0.21333105016587417        0.0000000000000000     
  -1.8815763506507283E-002  0.22169313426559001        0.0000000000000000     
  -1.8923758448775935E-002  0.23010966056974105        0.0000000000000000     
  -2.4556801363725629E-002  0.19682223356268225        0.0000000000000000     
  -2.4789046921176283E-002  0.20506955176597699        0.0000000000000000     
  -2.4992109234408630E-002  0.21337437522745620        0.0000000000000000     
  -2.5165988303422680E-002  0.22173670394711995        0.0000000000000000     
  -2.5310684128218422E-002  0.23015653792496812        0.0000000000000000     
   3.1390254978669319E-013  0.23004938968442618        0.0000000000000000     
   3.9415649563667721E-013  0.23848082582526256        0.0000000000000000     
   4.4577059057915314E-013  0.24690008309386752        0.0000000000000000     
   4.6874776195998669E-013  0.25530716149024107        0.0000000000000000     
   4.6308399823113966E-013  0.26370206101438298        0.0000000000000000     
  -6.2684163845097719E-003  0.23005608644947009        0.0000000000000000     
  -6.2983537267708722E-003  0.23848866721299483        0.0000000000000000     
  -6.3238459084057775E-003  0.24690997572082010        0.0000000000000000     
  -6.3448929294144833E-003  0.25532001197294596        0.0000000000000000     
  -6.3614947897970000E-003  0.26371877596937232        0.0000000000000000     
  -1.2576335867539722E-002  0.23007617674457506        0.0000000000000000     
  -1.2636553742479361E-002  0.23851219137606403        0.0000000000000000     
  -1.2688079506110330E-002  0.24693965360150433        0.0000000000000000     
  -1.2730913158432621E-002  0.25535856342089591        0.0000000000000000     
  -1.2765054699446240E-002  0.26376892083423892        0.0000000000000000     
  -1.8923758448775935E-002  0.23010966056974105        0.0000000000000000     
  -1.9014600046731306E-002  0.23855139831447011        0.0000000000000000     
  -1.9092700792667890E-002  0.24698911673592008        0.0000000000000000     
  -1.9158060686585661E-002  0.25542281583409099        0.0000000000000000     
  -1.9210679728484639E-002  0.26385249560898272        0.0000000000000000     
  -2.5310684128218422E-002  0.23015653792496812        0.0000000000000000     
  -2.5432492639526721E-002  0.23860628802821321        0.0000000000000000     
  -2.5537709768078447E-002  0.24705836512406748        0.0000000000000000     
  -2.5626335513873607E-002  0.25551276921253108        0.0000000000000000     
  -2.5698369876912194E-002  0.26396950029360383        0.0000000000000000     
   4.6308399823113966E-013  0.26370206101438298        0.0000000000000000     
   4.4409549822266303E-013  0.27202465219798677        0.0000000000000000     
   4.2709130503026937E-013  0.28021480557274553        0.0000000000000000     
   4.1207374968862953E-013  0.28827252113865920        0.0000000000000000     
   3.9904104326415890E-013  0.29619779889572795        0.0000000000000000     
  -6.3614947897970000E-003  0.26371877596937232        0.0000000000000000     
  -6.3775114484355957E-003  0.27204645288451429        0.0000000000000000     
  -6.3968028642125523E-003  0.28024322789278694        0.0000000000000000     
  -6.4193690371278688E-003  0.28830910099419027        0.0000000000000000     
  -6.4452099671815444E-003  0.29624407218872428        0.0000000000000000     
  -1.2765054699446240E-002  0.26376892083423892        0.0000000000000000     
  -1.2797682313848998E-002  0.27211185494406209        0.0000000000000000     
  -1.2835974186338705E-002  0.28032849485289429        0.0000000000000000     
  -1.2879930316915368E-002  0.28841884056073563        0.0000000000000000     
  -1.2929550705578980E-002  0.29638289206758606        0.0000000000000000     
  -1.9210679728484639E-002  0.26385249560898272        0.0000000000000000     
  -1.9260512595796114E-002  0.27222085837663007        0.0000000000000000     
  -1.9317513965951369E-002  0.28047060645306759        0.0000000000000000     
  -1.9381683838950416E-002  0.28860173983829546        0.0000000000000000     
  -1.9453022214793263E-002  0.29661425853231355        0.0000000000000000     
  -2.5698369876912194E-002  0.26396950029360383        0.0000000000000000     
  -2.5766002294276932E-002  0.27237346318221828        0.0000000000000000     
  -2.5841422203050544E-002  0.28066956269330690        0.0000000000000000     
  -2.5924629603233031E-002  0.28885779882686963        0.0000000000000000     
  -2.6015624494824394E-002  0.29693817158290647        0.0000000000000000     
  -1.3983149070831112E-002   5.5771049539934517E-002   0.0000000000000000     
  -1.4765251222856237E-002   6.1367425006027723E-002   0.0000000000000000     
  -1.5521131539005223E-002   6.7146874502851062E-002   0.0000000000000000     
  -1.6250790019278070E-002   7.3109398030404546E-002   0.0000000000000000     
  -1.6954226663674774E-002   7.9254995588688176E-002   0.0000000000000000     
  -1.7512295349517298E-002   5.6028657283221012E-002   0.0000000000000000     
  -1.8509873177593453E-002   6.1620038662962860E-002   0.0000000000000000     
  -1.9469963761974043E-002   6.7393359429480132E-002   0.0000000000000000     
  -2.0392567102659048E-002   7.3348619582772820E-002   0.0000000000000000     
  -2.1277683199648487E-002   7.9485819122840917E-002   0.0000000000000000     
  -2.1212938537116949E-002   5.6347541744719357E-002   0.0000000000000000     
  -2.2401276876856280E-002   6.1929820044689401E-002   0.0000000000000000     
  -2.3546606178782084E-002   6.7693836855472755E-002   0.0000000000000000     
  -2.4648926442894376E-002   7.3639592177069432E-002   0.0000000000000000     
  -2.5708237669193147E-002   7.9767086009479377E-002   0.0000000000000000     
  -2.5085078633630076E-002   5.6727702924429552E-002   0.0000000000000000     
  -2.6439462320644713E-002   6.2296769151207375E-002   0.0000000000000000     
  -2.7751058789429371E-002   6.8048306780828988E-002   0.0000000000000000     
  -2.9019868039984062E-002   7.3982315813294383E-002   0.0000000000000000     
  -3.0245890072308764E-002   8.0098796248603540E-002   0.0000000000000000     
  -2.9128715639056661E-002   5.7169140822351625E-002   0.0000000000000000     
  -3.0624429508958759E-002   6.2720885982516739E-002   0.0000000000000000     
  -3.2083321593915901E-002   6.8456769205548731E-002   0.0000000000000000     
  -3.3505391893928094E-002   7.4376790491447645E-002   0.0000000000000000     
  -3.4890640408995338E-002   8.0480949840213450E-002   0.0000000000000000     
  -1.6954226663674774E-002   7.9254995588688176E-002   0.0000000000000000     
  -1.7631303540277827E-002   8.5572244899726119E-002   0.0000000000000000     
  -1.8281882717169708E-002   9.2049723685542525E-002   0.0000000000000000     
  -1.8905964194350422E-002   9.8687431946137383E-002   0.0000000000000000     
  -1.9503547971819957E-002  0.10548536968151073        0.0000000000000000     
  -2.1277683199648487E-002   7.9485819122840917E-002   0.0000000000000000     
  -2.2127268823512042E-002   8.5794086718446849E-002   0.0000000000000000     
  -2.2943280744819425E-002   9.2262551038353000E-002   0.0000000000000000     
  -2.3725718963570626E-002   9.8891212082559354E-002   0.0000000000000000     
  -2.4474583479765652E-002  0.10568006985106596        0.0000000000000000     
  -2.5708237669193147E-002   7.9767086009479377E-002   0.0000000000000000     
  -2.6726134621384980E-002   8.6065325346463370E-002   0.0000000000000000     
  -2.7704212063176470E-002   9.2523317181782166E-002   0.0000000000000000     
  -2.8642469994567609E-002   9.9141061515435752E-002   0.0000000000000000     
  -2.9540908415558405E-002  0.10591855834742409        0.0000000000000000     
  -3.0245890072308764E-002   8.0098796248603540E-002   0.0000000000000000     
  -3.1427900933896642E-002   8.6385960783775723E-002   0.0000000000000000     
  -3.2564676672240847E-002   9.2832022115830026E-002   0.0000000000000000     
  -3.3656217287341361E-002   9.9436980244766521E-002   0.0000000000000000     
  -3.4702522779198226E-002  0.10620083517058515        0.0000000000000000     
  -3.4890640408995338E-002   8.0480949840213450E-002   0.0000000000000000     
  -3.6232567761047024E-002   8.6755993030383866E-002   0.0000000000000000     
  -3.7524674572012549E-002   9.3188665840496607E-002   0.0000000000000000     
  -3.8766960841891913E-002   9.9778968270551702E-002   0.0000000000000000     
  -3.9959426570685103E-002  0.10652690032054912        0.0000000000000000     
  -1.9503547971819957E-002  0.10548536968151073        0.0000000000000000     
  -2.0074823096469296E-002  0.11243095803035455        0.0000000000000000     
  -2.0619978615189400E-002  0.11951161813136080        0.0000000000000000     
  -2.1139014527980265E-002  0.12672734998452947        0.0000000000000000     
  -2.1631930834841898E-002  0.13407815358986061        0.0000000000000000     
  -2.4474583479765652E-002  0.10568006985106596        0.0000000000000000     
  -2.5190311870200960E-002  0.11261636124860151        0.0000000000000000     
  -2.5873341711673038E-002  0.11968732317989485        0.0000000000000000     
  -2.6523673004181871E-002  0.12689295564494588        0.0000000000000000     
  -2.7141305747727461E-002  0.13423325864375465        0.0000000000000000     
  -2.9540908415558405E-002  0.10591855834742409        0.0000000000000000     
  -3.0400011540706137E-002  0.11284316670107689        0.0000000000000000     
  -3.1220263584568080E-002  0.11990224559972379        0.0000000000000000     
  -3.2001664547144246E-002  0.12709579504336477        0.0000000000000000     
  -3.2744214428434629E-002  0.13442381503199985        0.0000000000000000     
  -3.4702522779198226E-002  0.10620083517058515        0.0000000000000000     
  -3.5703922107984815E-002  0.11311137438778064        0.0000000000000000     
  -3.6660744233874533E-002  0.12015638539084766        0.0000000000000000     
  -3.7572989156867402E-002  0.12733586817978618        0.0000000000000000     
  -3.8440656876963401E-002  0.13464982275459625        0.0000000000000000     
  -3.9959426570685103E-002  0.10652690032054912        0.0000000000000000     
  -4.1102043572036985E-002  0.11342098430871274        0.0000000000000000     
  -4.2194783659592387E-002  0.12044974255326639        0.0000000000000000     
  -4.3237646833351323E-002  0.12761317505421008        0.0000000000000000     
  -4.4230633093313786E-002  0.13491128181154383        0.0000000000000000     
  -2.1631930834841898E-002  0.13407815358986061        0.0000000000000000     
  -2.2097789124563352E-002  0.14155264656927113        0.0000000000000000     
  -2.2535650985933683E-002  0.14913944654467806        0.0000000000000000     
  -2.2945516418952889E-002  0.15683855351608147        0.0000000000000000     
  -2.3327385423620971E-002  0.16464996748348126        0.0000000000000000     
  -2.7141305747727461E-002  0.13423325864375465        0.0000000000000000     
  -2.7725336874367693E-002  0.14169696793611250        0.0000000000000000     
  -2.8274863316160446E-002  0.14927281928181071        0.0000000000000000     
  -2.8789885073105703E-002  0.15696081268084935        0.0000000000000000     
  -2.9270402145203482E-002  0.16476094813322836        0.0000000000000000     
  -3.2744214428434629E-002  0.13442381503199985        0.0000000000000000     
  -3.3446882160926325E-002  0.14187500742473133        0.0000000000000000     
  -3.4108636677106431E-002  0.14943807408066140        0.0000000000000000     
  -3.4729477976974947E-002  0.15711301499979002        0.0000000000000000     
  -3.5309406060531866E-002  0.16489983018211726        0.0000000000000000     
  -3.8440656876963401E-002  0.13464982275459625        0.0000000000000000     
  -3.9262424984239257E-002  0.14208676503512763        0.0000000000000000     
  -4.0036971068771667E-002  0.14963521094123003        0.0000000000000000     
  -4.0764295130560624E-002  0.15729516047290346        0.0000000000000000     
  -4.1444397169606129E-002  0.16506661363014793        0.0000000000000000     
  -4.4230633093313786E-002  0.13491128181154383        0.0000000000000000     
  -4.5171965344306488E-002  0.14233224076730142        0.0000000000000000     
  -4.6059866491156128E-002  0.14986422986351672        0.0000000000000000     
  -4.6894336533862727E-002  0.15750724910018971        0.0000000000000000     
  -4.7675375472426271E-002  0.16526129847732038        0.0000000000000000     
  -2.3327385423620971E-002  0.16464996748348126        0.0000000000000000     
  -2.3680127012746903E-002  0.17256140971247980        0.0000000000000000     
  -2.4002610199139660E-002  0.18056060146867950        0.0000000000000000     
  -2.4294834982799236E-002  0.18864754275208032        0.0000000000000000     
  -2.4556801363725629E-002  0.19682223356268225        0.0000000000000000     
  -2.9270402145203482E-002  0.16476094813322836        0.0000000000000000     
  -2.9714849261670961E-002  0.17266122597820266        0.0000000000000000     
  -3.0121661151725324E-002  0.18064964655502710        0.0000000000000000     
  -3.0490837815366583E-002  0.18872620986370167        0.0000000000000000     
  -3.0822379252594713E-002  0.19689091590422642        0.0000000000000000     
  -3.5309406060531866E-002  0.16489983018211726        0.0000000000000000     
  -3.5846763409357225E-002  0.17278678307381792        0.0000000000000000     
  -3.6339892505031016E-002  0.18076213712106667        0.0000000000000000     
  -3.6788793347553257E-002  0.18882589232386371        0.0000000000000000     
  -3.7193465936923950E-002  0.19697804868220881        0.0000000000000000     
  -4.1444397169606129E-002  0.16506661363014793        0.0000000000000000     
  -4.2075869455805680E-002  0.17293808099932551        0.0000000000000000     
  -4.2657304259056728E-002  0.18089807316679835        0.0000000000000000     
  -4.3188701579359286E-002  0.18894659013256632        0.0000000000000000     
  -4.3670061416713341E-002  0.19708363189662956        0.0000000000000000     
  -4.7675375472426271E-002  0.16526129847732038        0.0000000000000000     
  -4.8402167401016334E-002  0.17311511975472554        0.0000000000000000     
  -4.9073896413802449E-002  0.18105745469222195        0.0000000000000000     
  -4.9690562510784637E-002  0.18908830328980963        0.0000000000000000     
  -5.0252165691962884E-002  0.19720766554748853        0.0000000000000000     
  -2.4556801363725629E-002  0.19682223356268225        0.0000000000000000     
  -2.4789046921176283E-002  0.20506955176597699        0.0000000000000000     
  -2.4992109234408630E-002  0.21337437522745620        0.0000000000000000     
  -2.5165988303422680E-002  0.22173670394711995        0.0000000000000000     
  -2.5310684128218422E-002  0.23015653792496812        0.0000000000000000     
  -3.0822379252594713E-002  0.19689091590422642        0.0000000000000000     
  -3.1116624727950438E-002  0.20513019599402921        0.0000000000000000     
  -3.1373913505974467E-002  0.21343048145053795        0.0000000000000000     
  -3.1594245586666785E-002  0.22179177227375277        0.0000000000000000     
  -3.1777620970027405E-002  0.23021406846367357        0.0000000000000000     
  -3.7193465936923950E-002  0.19697804868220881        0.0000000000000000     
  -3.7553610477860086E-002  0.20520665783161485        0.0000000000000000     
  -3.7868927175078664E-002  0.21349977140759455        0.0000000000000000     
  -3.8139416028579676E-002  0.22185738941014774        0.0000000000000000     
  -3.8365077038363143E-002  0.23027951183927464        0.0000000000000000     
  -4.3670061416713341E-002  0.19708363189662956        0.0000000000000000     
  -4.4100004170905212E-002  0.20529893727873405        0.0000000000000000     
  -4.4477150241721226E-002  0.21358224509862583        0.0000000000000000     
  -4.4801499629161357E-002  0.22193355535630496        0.0000000000000000     
  -4.5073052333225602E-002  0.23035286805177138        0.0000000000000000     
  -5.0252165691962884E-002  0.19720766554748853        0.0000000000000000     
  -5.0755805807085844E-002  0.20540703433538668        0.0000000000000000     
  -5.1198582705902163E-002  0.21367790252363195        0.0000000000000000     
  -5.1580496388411820E-002  0.22202027011222430        0.0000000000000000     
  -5.1901546854614830E-002  0.23043413710116384        0.0000000000000000     
  -2.5310684128218422E-002  0.23015653792496812        0.0000000000000000     
  -2.5432492639526721E-002  0.23860628802821321        0.0000000000000000     
  -2.5537709768078447E-002  0.24705836512406748        0.0000000000000000     
  -2.5626335513873607E-002  0.25551276921253108        0.0000000000000000     
  -2.5698369876912194E-002  0.26396950029360383        0.0000000000000000     
  -3.1777620970027405E-002  0.23021406846367357        0.0000000000000000     
  -3.1931943971379183E-002  0.23867239155106318        0.0000000000000000     
  -3.2065118906044965E-002  0.24714176306668456        0.0000000000000000     
  -3.2177145774024758E-002  0.25562218301053752        0.0000000000000000     
  -3.2268024575318556E-002  0.26411365138262227        0.0000000000000000     
  -3.8365077038363143E-002  0.23027951183927464        0.0000000000000000     
  -3.8554666492802286E-002  0.23874523991679014        0.0000000000000000     
  -3.8716940680270373E-002  0.24723367486450917        0.0000000000000000     
  -3.8851899600767417E-002  0.25574481668243182        0.0000000000000000     
  -3.8959543254293377E-002  0.26427866537055805        0.0000000000000000     
  -4.5073052333225602E-002  0.23035286805177138        0.0000000000000000     
  -4.5300660203796042E-002  0.23882483312539393        0.0000000000000000     
  -4.5493175090754692E-002  0.24733410051754151        0.0000000000000000     
  -4.5650596994101560E-002  0.25588067022821387        0.0000000000000000     
  -4.5772925913836644E-002  0.26446454225741123        0.0000000000000000     
  -5.1901546854614830E-002  0.23043413710116384        0.0000000000000000     
  -5.2169925104360443E-002  0.23891117117687474        0.0000000000000000     
  -5.2393822137497902E-002  0.24744304002578141        0.0000000000000000     
  -5.2573237954027213E-002  0.25602974364788378        0.0000000000000000     
  -5.2708172553948385E-002  0.26467128204318185        0.0000000000000000     
  -2.5698369876912194E-002  0.26396950029360383        0.0000000000000000     
  -2.5766002294276932E-002  0.27237346318221828        0.0000000000000000     
  -2.5841422203050544E-002  0.28066956269330690        0.0000000000000000     
  -2.5924629603233031E-002  0.28885779882686963        0.0000000000000000     
  -2.6015624494824394E-002  0.29693817158290647        0.0000000000000000     
  -3.2268024575318556E-002  0.26411365138262227        0.0000000000000000     
  -3.2352583935486463E-002  0.27256333108662784        0.0000000000000000     
  -3.2445652480088558E-002  0.28091838502624350        0.0000000000000000     
  -3.2547230209124853E-002  0.28917881320146921        0.0000000000000000     
  -3.2657317122595356E-002  0.29734461561230502        0.0000000000000000     
  -3.8959543254293377E-002  0.26427866537055805        0.0000000000000000     
  -3.9058690045619689E-002  0.27278412381565975        0.0000000000000000     
  -3.9168158379517745E-002  0.28121009490450893        0.0000000000000000     
  -3.9287948255987561E-002  0.28955657863710538        0.0000000000000000     
  -3.9418059675029121E-002  0.29782357501344925        0.0000000000000000     
  -4.5772925913836644E-002  0.26446454225741123        0.0000000000000000     
  -4.5884320624676608E-002  0.27303584136931419        0.0000000000000000     
  -4.6008939901338121E-002  0.28154469232810297        0.0000000000000000     
  -4.6146783743821140E-002  0.28999109513377808        0.0000000000000000     
  -4.6297852152125687E-002  0.29837504978633922        0.0000000000000000     
  -5.2708172553948385E-002  0.26467128204318185        0.0000000000000000     
  -5.2829475672657236E-002  0.27331848374759082        0.0000000000000000     
  -5.2967997045549643E-002  0.28192217729702601        0.0000000000000000     
  -5.3123736672625585E-002  0.29048236269148736        0.0000000000000000     
  -5.3296694553885068E-002  0.29899903993097482        0.0000000000000000     
  -2.9128715639056661E-002   5.7169140822351625E-002   0.0000000000000000     
  -3.0624429508958759E-002   6.2720885982516739E-002   0.0000000000000000     
  -3.2083321593915901E-002   6.8456769205548731E-002   0.0000000000000000     
  -3.3505391893928094E-002   7.4376790491447645E-002   0.0000000000000000     
  -3.4890640408995338E-002   8.0480949840213450E-002   0.0000000000000000     
  -3.3234841276631066E-002   5.7668124052960873E-002   0.0000000000000000     
  -3.4886998910704486E-002   6.3202116762886951E-002   0.0000000000000000     
  -3.6504726144597675E-002   6.8921301135080465E-002   0.0000000000000000     
  -3.8088022978310633E-002   7.4825677169541416E-002   0.0000000000000000     
  -3.9636889411843360E-002   8.0915244866269789E-002   0.0000000000000000     
  -3.7294447269587638E-002   5.8220921230732629E-002   0.0000000000000000     
  -3.9157990994787992E-002   6.3740407716587399E-002   0.0000000000000000     
  -4.0976603993830713E-002   6.9443979574872444E-002   0.0000000000000000     
  -4.2750286266715815E-002   7.5331636805587743E-002   0.0000000000000000     
  -4.4479037813443298E-002   8.1403379408733337E-002   0.0000000000000000     
  -4.1307533617926377E-002   5.8827532355666894E-002   0.0000000000000000     
  -4.3437405761209261E-002   6.4335758843618113E-002   0.0000000000000000     
  -4.5498955141615012E-002   7.0024804524924725E-002   0.0000000000000000     
  -4.7492181759143659E-002   7.5894669399586709E-002   0.0000000000000000     
  -4.9417085613795174E-002   8.1945353467604093E-002   0.0000000000000000     
  -4.5274100321647283E-002   5.9487957427763666E-002   0.0000000000000000     
  -4.7725243209968293E-002   6.4988170143979063E-002   0.0000000000000000     
  -5.0071779587950574E-002   7.0663775985237251E-002   0.0000000000000000     
  -5.2313709455594139E-002   7.6514774951538231E-002   0.0000000000000000     
  -5.4451032812898981E-002   8.2541167042882030E-002   0.0000000000000000     
  -3.4890640408995338E-002   8.0480949840213450E-002   0.0000000000000000     
  -3.6232567761047024E-002   8.6755993030383866E-002   0.0000000000000000     
  -3.7524674572012549E-002   9.3188665840496607E-002   0.0000000000000000     
  -3.8766960841891913E-002   9.9778968270551702E-002   0.0000000000000000     
  -3.9959426570685103E-002  0.10652690032054912        0.0000000000000000     
  -3.9636889411843360E-002   8.0915244866269789E-002   0.0000000000000000     
  -4.1141127765302467E-002   8.7175758651773419E-002   0.0000000000000000     
  -4.2590540358794560E-002   9.3592972952560055E-002   0.0000000000000000     
  -4.3985127192319652E-002  0.10016688776862971        0.0000000000000000     
  -4.5324888265877737E-002  0.10689750309998239        0.0000000000000000     
  -4.4479037813443298E-002   8.1403379408733337E-002   0.0000000000000000     
  -4.6154573609129279E-002   8.7645594213430017E-002   0.0000000000000000     
  -4.7768608628889847E-002   9.4044668048798560E-002   0.0000000000000000     
  -4.9321142872725030E-002  0.10060060091483902        0.0000000000000000     
  -5.0812176340634799E-002  0.10731339281155133        0.0000000000000000     
  -4.9417085613795174E-002   8.1945353467604093E-002   0.0000000000000000     
  -5.1272905292527468E-002   8.8165499715353632E-002   0.0000000000000000     
  -5.3058879382298418E-002   9.4543751129212122E-002   0.0000000000000000     
  -5.4775007883108032E-002  0.10108010770917956        0.0000000000000000     
  -5.6421290794956294E-002  0.10777456945525596        0.0000000000000000     
  -5.4451032812898981E-002   8.2541167042882030E-002   0.0000000000000000     
  -5.6496122815497041E-002   8.8735475157544305E-002   0.0000000000000000     
  -5.8461352619020267E-002   9.5090222193800755E-002   0.0000000000000000     
  -6.0346722223468659E-002  0.10160540815165141        0.0000000000000000     
  -6.2152231628842231E-002  0.10828103303109624        0.0000000000000000     
  -3.9959426570685103E-002  0.10652690032054912        0.0000000000000000     
  -4.1102043572036985E-002  0.11342098430871274        0.0000000000000000     
  -4.2194783659592387E-002  0.12044974255326639        0.0000000000000000     
  -4.3237646833351323E-002  0.12761317505421008        0.0000000000000000     
  -4.4230633093313786E-002  0.13491128181154383        0.0000000000000000     
  -4.5324888265877737E-002  0.10689750309998239        0.0000000000000000     
  -4.6609664300063296E-002  0.11377380881008251        0.0000000000000000     
  -4.7839296015470843E-002  0.12078479476239445        0.0000000000000000     
  -4.9013783412100366E-002  0.12793046095691823        0.0000000000000000     
  -5.0133126489951864E-002  0.13521080739365390        0.0000000000000000     
  -5.0812176340634799E-002  0.10731339281155133        0.0000000000000000     
  -5.2242072659264407E-002  0.11417166023809920        0.0000000000000000     
  -5.3611195455259109E-002  0.12116401969364625        0.0000000000000000     
  -5.4919544728618881E-002  0.12829047117819245        0.0000000000000000     
  -5.6167120479343732E-002  0.13555101469173780        0.0000000000000000     
  -5.6421290794956294E-002  0.10777456945525596        0.0000000000000000     
  -5.7999268649640306E-002  0.11461453859276283        0.0000000000000000     
  -5.9510481978957176E-002  0.12158741734702173        0.0000000000000000     
  -6.0954930782906855E-002  0.12869320571803261        0.0000000000000000     
  -6.2332615061489391E-002  0.13593190370579561        0.0000000000000000     
  -6.2152231628842231E-002  0.10828103303109624        0.0000000000000000     
  -6.3881252271190986E-002  0.11510244387407338        0.0000000000000000     
  -6.5537155586565032E-002  0.12205498772252091        0.0000000000000000     
  -6.7119941574964315E-002  0.12913866457643888        0.0000000000000000     
  -6.8629610236388847E-002  0.13635347443582721        0.0000000000000000     
  -4.4230633093313786E-002  0.13491128181154383        0.0000000000000000     
  -4.5171965344306488E-002  0.14233224076730142        0.0000000000000000     
  -4.6059866491156128E-002  0.14986422986351672        0.0000000000000000     
  -4.6894336533862727E-002  0.15750724910018971        0.0000000000000000     
  -4.7675375472426271E-002  0.16526129847732038        0.0000000000000000     
  -5.0133126489951864E-002  0.13521080739365390        0.0000000000000000     
  -5.1195237866171313E-002  0.14261382288429017        0.0000000000000000     
  -5.2198030157904723E-002  0.15012749624051597        0.0000000000000000     
  -5.3141503365152082E-002  0.15775182746233124        0.0000000000000000     
  -5.4025657487913388E-002  0.16548681654973607        0.0000000000000000     
  -5.6167120479343732E-002  0.13555101469173780        0.0000000000000000     
  -5.7351977174877063E-002  0.14293389964913145        0.0000000000000000     
  -5.8472169282662322E-002  0.15042737546522239        0.0000000000000000     
  -5.9527696802699481E-002  0.15803144214001075        0.0000000000000000     
  -6.0518559734988563E-002  0.16574609967349641        0.0000000000000000     
  -6.2332615061489391E-002  0.13593190370579561        0.0000000000000000     
  -6.3642183270423758E-002  0.14329247106182513        0.0000000000000000     
  -6.4882283865428936E-002  0.15076386753763601        0.0000000000000000     
  -6.6052916846504939E-002  0.15834609313322809        0.0000000000000000     
  -6.7154082213651795E-002  0.16603914784860144        0.0000000000000000     
  -6.8629610236388847E-002  0.13635347443582721        0.0000000000000000     
  -7.0065856152811357E-002  0.14368953712237137        0.0000000000000000     
  -7.1428373906204559E-002  0.15113697245775679        0.0000000000000000     
  -7.2717163496568482E-002  0.15869578044198335        0.0000000000000000     
  -7.3932224923903084E-002  0.16636596107505114        0.0000000000000000     
  -4.7675375472426271E-002  0.16526129847732038        0.0000000000000000     
  -4.8402167401016334E-002  0.17311511975472554        0.0000000000000000     
  -4.9073896413802449E-002  0.18105745469222195        0.0000000000000000     
  -4.9690562510784637E-002  0.18908830328980963        0.0000000000000000     
  -5.0252165691962884E-002  0.19720766554748853        0.0000000000000000     
  -5.4025657487913388E-002  0.16548681654973607        0.0000000000000000     
  -5.4850262250178930E-002  0.17332137184784280        0.0000000000000000     
  -5.5615087375939003E-002  0.18124440170176401        0.0000000000000000     
  -5.6320132865193606E-002  0.18925590611149964        0.0000000000000000     
  -5.6965398717942747E-002  0.19735588507704979        0.0000000000000000     
  -6.0518559734988563E-002  0.16574609967349641        0.0000000000000000     
  -6.1444759008483237E-002  0.17356030978650222        0.0000000000000000     
  -6.2306295552137222E-002  0.18146303419985094        0.0000000000000000     
  -6.3103169365950493E-002  0.18945427291354261        0.0000000000000000     
  -6.3835380449923096E-002  0.19753402592757716        0.0000000000000000     
  -6.7154082213651795E-002  0.16603914784860144        0.0000000000000000     
  -6.8185657675929254E-002  0.17383193357070376        0.0000000000000000     
  -6.9147520942397081E-002  0.18171335218648271        0.0000000000000000     
  -7.0039672013055332E-002  0.18968340369593842        0.0000000000000000     
  -7.0862110887903951E-002  0.19774208809907068        0.0000000000000000     
  -7.3932224923903084E-002  0.16636596107505114        0.0000000000000000     
  -7.5072958252516961E-002  0.17413624320044740        0.0000000000000000     
  -7.6138763546718613E-002  0.18199535566165936        0.0000000000000000     
  -7.7129640806508054E-002  0.18994329845868704        0.0000000000000000     
  -7.8045590031885284E-002  0.19798007159153039        0.0000000000000000     
  -5.0252165691962884E-002  0.19720766554748853        0.0000000000000000     
  -5.0755805807085844E-002  0.20540703433538668        0.0000000000000000     
  -5.1198582705902163E-002  0.21367790252363195        0.0000000000000000     
  -5.1580496388411820E-002  0.22202027011222430        0.0000000000000000     
  -5.1901546854614830E-002  0.23043413710116384        0.0000000000000000     
  -5.6965398717942747E-002  0.19735588507704979        0.0000000000000000     
  -5.7546895763956468E-002  0.20553727558156393        0.0000000000000000     
  -5.8060634833004832E-002  0.21379301460819183        0.0000000000000000     
  -5.8506615925087845E-002  0.22212310215693334        0.0000000000000000     
  -5.8884839040205500E-002  0.23052753822778857        0.0000000000000000     
  -6.3835380449923096E-002  0.19753402592757716        0.0000000000000000     
  -6.4499154419071614E-002  0.20569598759725699        0.0000000000000000     
  -6.5090716888412656E-002  0.21393385227788447        0.0000000000000000     
  -6.5610067857946236E-002  0.22224761996945958        0.0000000000000000     
  -6.6057207327672340E-002  0.23063729067198227        0.0000000000000000     
  -7.0862110887903951E-002  0.19774208809907068        0.0000000000000000     
  -7.1612581772431294E-002  0.20588317038246581        0.0000000000000000     
  -7.2288828872125621E-002  0.21410041553270992        0.0000000000000000     
  -7.2890852186986987E-002  0.22239382354980289        0.0000000000000000     
  -7.3418651717015365E-002  0.23076339443374491        0.0000000000000000     
  -7.8045590031885284E-002  0.19798007159153039        0.0000000000000000     
  -7.8887177824035468E-002  0.20609882393719042        0.0000000000000000     
  -7.9654970784143728E-002  0.21429270437266809        0.0000000000000000     
  -8.0348968912210092E-002  0.22256171289796348        0.0000000000000000     
  -8.0969172208234547E-002  0.23090584951307649        0.0000000000000000     
  -5.1901546854614830E-002  0.23043413710116384        0.0000000000000000     
  -5.2169925104360443E-002  0.23891117117687474        0.0000000000000000     
  -5.2393822137497902E-002  0.24744304002578141        0.0000000000000000     
  -5.2573237954027213E-002  0.25602974364788378        0.0000000000000000     
  -5.2708172553948385E-002  0.26467128204318185        0.0000000000000000     
  -5.8884839040205500E-002  0.23052753822778857        0.0000000000000000     
  -5.9201561274197581E-002  0.23900562287745597        0.0000000000000000     
  -5.9463039722903892E-002  0.24755665616263409        0.0000000000000000     
  -5.9669274386324411E-002  0.25618063808332286        0.0000000000000000     
  -5.9820265264459140E-002  0.26487756863952239        0.0000000000000000     
  -6.6057207327672340E-002  0.23063729067198227        0.0000000000000000     
  -6.6434668793009577E-002  0.23910955703336109        0.0000000000000000     
  -6.6744985749376512E-002  0.24767111170150460        0.0000000000000000     
  -6.6988158196773159E-002  0.25632195467641272        0.0000000000000000     
  -6.7164186135199505E-002  0.26506208595808561        0.0000000000000000     
  -7.3418651717015365E-002  0.23076339443374491        0.0000000000000000     
  -7.3869247660796403E-002  0.23922297364459014        0.0000000000000000     
  -7.4239660216915762E-002  0.24778640664239299        0.0000000000000000     
  -7.4529889385373485E-002  0.25645369342715352        0.0000000000000000     
  -7.4739935166169474E-002  0.26522483399887159        0.0000000000000000     
  -8.0969172208234547E-002  0.23090584951307649        0.0000000000000000     
  -8.1505297877558072E-002  0.23934587271114310        0.0000000000000000     
  -8.1947063125521677E-002  0.24790254098529924        0.0000000000000000     
  -8.2294467952125333E-002  0.25657585433554486        0.0000000000000000     
  -8.2547512357369068E-002  0.26536581276188004        0.0000000000000000     
  -5.2708172553948385E-002  0.26467128204318185        0.0000000000000000     
  -5.2829475672657236E-002  0.27331848374759082        0.0000000000000000     
  -5.2967997045549643E-002  0.28192217729702601        0.0000000000000000     
  -5.3123736672625585E-002  0.29048236269148736        0.0000000000000000     
  -5.3296694553885068E-002  0.29899903993097482        0.0000000000000000     
  -5.9820265264459140E-002  0.26487756863952239        0.0000000000000000     
  -5.9952890608990152E-002  0.27360333000912496        0.0000000000000000     
  -6.0104028671599481E-002  0.28231380437002268        0.0000000000000000     
  -6.0273679452287149E-002  0.29100899172221584        0.0000000000000000     
  -6.0461842951053141E-002  0.29968889206570420        0.0000000000000000     
  -6.7164186135199505E-002  0.26506208595808561        0.0000000000000000     
  -6.7313300853103941E-002  0.27386165921255140        0.0000000000000000     
  -6.7475733638934790E-002  0.28269082810583829        0.0000000000000000     
  -6.7651484492692066E-002  0.29154959263794628        0.0000000000000000     
  -6.7840553414375795E-002  0.30043795280887531        0.0000000000000000     
  -7.4739935166169474E-002  0.26522483399887159        0.0000000000000000     
  -7.4910706404998598E-002  0.27409347135787021        0.0000000000000000     
  -7.5083111947555556E-002  0.28305324850447255        0.0000000000000000     
  -7.5257151793840349E-002  0.29210416543867856        0.0000000000000000     
  -7.5432825943853019E-002  0.30124622216048824        0.0000000000000000     
  -8.2547512357369068E-002  0.26536581276188004        0.0000000000000000     
  -8.2745107264674114E-002  0.27429876644508144        0.0000000000000000     
  -8.2926163597461758E-002  0.28340106556592565        0.0000000000000000     
  -8.3090681355731999E-002  0.29267271012441287        0.0000000000000000     
  -8.3238660539484838E-002  0.30211370012054289        0.0000000000000000     
  -4.5274100321647283E-002   5.9487957427763666E-002   0.0000000000000000     
  -4.7725243209968293E-002   6.4988170143979063E-002   0.0000000000000000     
  -5.0071779587950574E-002   7.0663775985237251E-002   0.0000000000000000     
  -5.2313709455594139E-002   7.6514774951538231E-002   0.0000000000000000     
  -5.4451032812898981E-002   8.2541167042882030E-002   0.0000000000000000     
  -4.9633494843362574E-002   6.0202475865507810E-002   0.0000000000000000     
  -5.2340593649139885E-002   6.5695356298325458E-002   0.0000000000000000     
  -5.4921986925283876E-002   7.1357222490114031E-002   0.0000000000000000     
  -5.7377674671794519E-002   7.7188074440873541E-002   0.0000000000000000     
  -5.9707656888671849E-002   8.3187912150603990E-002   0.0000000000000000     
  -5.4825064645684485E-002   6.0971367087384154E-002   0.0000000000000000     
  -5.7602547386798840E-002   6.6455031987312466E-002   0.0000000000000000     
  -6.0276486746061363E-002   7.2101472573858988E-002   0.0000000000000000     
  -6.2846882723472067E-002   7.7910688847023762E-002   0.0000000000000000     
  -6.5313735319030924E-002   8.3882680806806748E-002   0.0000000000000000     
  -6.0848809728613007E-002   6.1794631093392734E-002   0.0000000000000000     
  -6.3511104422945136E-002   6.7267197210940058E-002   0.0000000000000000     
  -6.6135279050283075E-002   7.2896526236472123E-002   0.0000000000000000     
  -6.8721333610626753E-002   7.8682618169988880E-002   0.0000000000000000     
  -7.1269268103976213E-002   8.4625473011490371E-002   0.0000000000000000     
  -6.7704730092148141E-002   6.2672267883533514E-002   0.0000000000000000     
  -7.0066264757578808E-002   6.8131851969208290E-002   0.0000000000000000     
  -7.2498363837948956E-002   7.3742383477953435E-002   0.0000000000000000     
  -7.5001027333258585E-002   7.9503862409768936E-002   0.0000000000000000     
  -7.7574255243507709E-002   8.5416288764654819E-002   0.0000000000000000     
  -5.4451032812898981E-002   8.2541167042882030E-002   0.0000000000000000     
  -5.6496122815497041E-002   8.8735475157544305E-002   0.0000000000000000     
  -5.8461352619020267E-002   9.5090222193800755E-002   0.0000000000000000     
  -6.0346722223468659E-002  0.10160540815165141        0.0000000000000000     
  -6.2152231628842231E-002  0.10828103303109624        0.0000000000000000     
  -5.9707656888671849E-002   8.3187912150603990E-002   0.0000000000000000     
  -6.1930884786139867E-002   8.9353867742529874E-002   0.0000000000000000     
  -6.4066309574422581E-002   9.5683073339875732E-002   0.0000000000000000     
  -6.6113931253519997E-002  0.10217552894264159        0.0000000000000000     
  -6.8073749823432145E-002  0.10883123455082744        0.0000000000000000     
  -6.5313735319030924E-002   8.3882680806806748E-002   0.0000000000000000     
  -6.7683849812557817E-002   9.0019024672838233E-002   0.0000000000000000     
  -6.9964031483872535E-002   9.6321296664748382E-002   0.0000000000000000     
  -7.2154280332975149E-002  0.10278949678253721        0.0000000000000000     
  -7.4254596359865588E-002  0.10942362502620476        0.0000000000000000     
  -7.1269268103976213E-002   8.4625473011490371E-002   0.0000000000000000     
  -7.3755017894750863E-002   9.0730945948469380E-002   0.0000000000000000     
  -7.6154518347370179E-002   9.7004892168418691E-002   0.0000000000000000     
  -7.8467769461834064E-002  0.10344731167133829        0.0000000000000000     
  -8.0694771238142601E-002  0.11005820445722822        0.0000000000000000     
  -7.7574255243507709E-002   8.5416288764654819E-002   0.0000000000000000     
  -8.0144389032719074E-002   9.1489631569423302E-002   0.0000000000000000     
  -8.2637770164915428E-002   9.7733859850886645E-002   0.0000000000000000     
  -8.5054398640096784E-002  0.10414897360904479        0.0000000000000000     
  -8.7394274458263144E-002  0.11073497284389783        0.0000000000000000     
  -6.2152231628842231E-002  0.10828103303109624        0.0000000000000000     
  -6.3881252271190986E-002  0.11510244387407338        0.0000000000000000     
  -6.5537155586565032E-002  0.12205498772252091        0.0000000000000000     
  -6.7119941574964315E-002  0.12913866457643888        0.0000000000000000     
  -6.8629610236388847E-002  0.13635347443582721        0.0000000000000000     
  -6.8073749823432145E-002  0.10883123455082744        0.0000000000000000     
  -6.9950155924287521E-002  0.11563310474537240        0.0000000000000000     
  -7.1747540196214668E-002  0.12256405410721569        0.0000000000000000     
  -7.3465902639213584E-002  0.12962408263635730        0.0000000000000000     
  -7.5105243253284285E-002  0.13681319033279721        0.0000000000000000     
  -7.4254596359865588E-002  0.10942362502620476        0.0000000000000000     
  -7.6268112009300906E-002  0.11620424987000150        0.0000000000000000     
  -7.8197959726038060E-002  0.12311193978817796        0.0000000000000000     
  -8.0044139510077078E-002  0.13014669478073421        0.0000000000000000     
  -8.1806651361417931E-002  0.13730851484767015        0.0000000000000000     
  -8.0694771238142601E-002  0.11005820445722822        0.0000000000000000     
  -8.2835120526231182E-002  0.11681587924796064        0.0000000000000000     
  -8.4888414176035223E-002  0.12369864476540773        0.0000000000000000     
  -8.6854652187554782E-002  0.13070650100956951        0.0000000000000000     
  -8.8733834560789759E-002  0.13783944798044592        0.0000000000000000     
  -8.7394274458263144E-002  0.11073497284389783        0.0000000000000000     
  -8.9651181475078334E-002  0.11746799287924982        0.0000000000000000     
  -9.1818903546206143E-002  0.12432416903890495        0.0000000000000000     
  -9.3897440671646654E-002  0.13130350132286320        0.0000000000000000     
  -9.5886792851399810E-002  0.13840598973112461        0.0000000000000000     
  -6.8629610236388847E-002  0.13635347443582721        0.0000000000000000     
  -7.0065856152811357E-002  0.14368953712237137        0.0000000000000000     
  -7.1428373906204559E-002  0.15113697245775679        0.0000000000000000     
  -7.2717163496568482E-002  0.15869578044198335        0.0000000000000000     
  -7.3932224923903084E-002  0.16636596107505114        0.0000000000000000     
  -7.5105243253284285E-002  0.13681319033279721        0.0000000000000000     
  -7.6666074024965114E-002  0.14412298955183603        0.0000000000000000     
  -7.8148906940794446E-002  0.15154509264877428        0.0000000000000000     
  -7.9553742000772268E-002  0.15907949962361193        0.0000000000000000     
  -8.0880579204898592E-002  0.16672621047634903        0.0000000000000000     
  -8.1806651361417931E-002  0.13730851484767015        0.0000000000000000     
  -8.3485915089810306E-002  0.14459072007128504        0.0000000000000000     
  -8.5082350505003831E-002  0.15198663053387804        0.0000000000000000     
  -8.6595957606998550E-002  0.15949624623544922        0.0000000000000000     
  -8.8026736395794433E-002  0.16711956717599852        0.0000000000000000     
  -8.8733834560789759E-002  0.13783944798044592        0.0000000000000000     
  -9.0525379347346890E-002  0.14509272868071835        0.0000000000000000     
  -9.2228704598832742E-002  0.15246158611306815        0.0000000000000000     
  -9.3843810315247314E-002  0.15994602027749519        0.0000000000000000     
  -9.5370696496590607E-002  0.16754603117399960        0.0000000000000000     
  -9.5886792851399810E-002  0.13840598973112461        0.0000000000000000     
  -9.7784466797574895E-002  0.14562901538013606        0.0000000000000000     
  -9.9587969222281136E-002  0.15296995938634453        0.0000000000000000     
 -0.10129730012551855       0.16042882174974993        0.0000000000000000     
 -0.10291245950728714       0.16800560247035234        0.0000000000000000     
  -7.3932224923903084E-002  0.16636596107505114        0.0000000000000000     
  -7.5072958252516961E-002  0.17413624320044740        0.0000000000000000     
  -7.6138763546718613E-002  0.18199535566165936        0.0000000000000000     
  -7.7129640806508054E-002  0.18994329845868704        0.0000000000000000     
  -7.8045590031885284E-002  0.19798007159153039        0.0000000000000000     
  -8.0880579204898592E-002  0.16672621047634903        0.0000000000000000     
  -8.2128773528745980E-002  0.17447348041267494        0.0000000000000000     
  -8.3297679947887018E-002  0.18230956463827902        0.0000000000000000     
  -8.4387298462321708E-002  0.19023446315316134        0.0000000000000000     
  -8.5397629072050008E-002  0.19824817595732178        0.0000000000000000     
  -8.8026736395794433E-002  0.16711956717599852        0.0000000000000000     
  -8.9375216295115939E-002  0.17484388694432804        0.0000000000000000     
  -9.0641926728687566E-002  0.18265649912923990        0.0000000000000000     
  -9.1826867696509232E-002  0.19055740373073402        0.0000000000000000     
  -9.2930039198581019E-002  0.19854660074881050        0.0000000000000000     
  -9.5370696496590607E-002  0.16754603117399960        0.0000000000000000     
  -9.6812286551626839E-002  0.17524746279540673        0.0000000000000000     
  -9.8171503889120215E-002  0.18303615913454191        0.0000000000000000     
  -9.9448348509070694E-002  0.19091212019140516        0.0000000000000000     
 -0.10064282041147830       0.19887534596599649        0.0000000000000000     
 -0.10291245950728714       0.16800560247035234        0.0000000000000000     
 -0.10443998429827868       0.17568420796591094        0.0000000000000000     
 -0.10588641142918499       0.18344854465418509        0.0000000000000000     
 -0.10725174090000605       0.19129861253517469        0.0000000000000000     
 -0.10853597271074189       0.19923441160887981        0.0000000000000000     
  -7.8045590031885284E-002  0.19798007159153039        0.0000000000000000     
  -7.8887177824035468E-002  0.20609882393719042        0.0000000000000000     
  -7.9654970784143728E-002  0.21429270437266809        0.0000000000000000     
  -8.0348968912210092E-002  0.22256171289796348        0.0000000000000000     
  -8.0969172208234547E-002  0.23090584951307649        0.0000000000000000     
  -8.5397629072050008E-002  0.19824817595732178        0.0000000000000000     
  -8.6332003050504008E-002  0.20634345065266785        0.0000000000000000     
  -8.7193751671115732E-002  0.21451303484110693        0.0000000000000000     
  -8.7982874933885194E-002  0.22275692852263904        0.0000000000000000     
  -8.8699372838812379E-002  0.23107513169726415        0.0000000000000000     
  -9.2930039198581019E-002  0.19854660074881050        0.0000000000000000     
  -9.3956117928456762E-002  0.20661755292013526        0.0000000000000000     
  -9.4909780579690406E-002  0.21476372298137428        0.0000000000000000     
  -9.5791027152281938E-002  0.22298511093252751        0.0000000000000000     
  -9.6599857646231344E-002  0.23128171677359505        0.0000000000000000     
 -0.10064282041147830       0.19887534596599649        0.0000000000000000     
 -0.10175952245789377       0.20692113073959259        0.0000000000000000     
 -0.10280305750986776       0.21504476879347004        0.0000000000000000     
 -0.10377342556740034       0.22324626012762888        0.0000000000000000     
 -0.10467062663049141       0.23152560474206910        0.0000000000000000     
 -0.10853597271074189       0.19923441160887981        0.0000000000000000     
 -0.10974221663881496       0.20725418411103985        0.0000000000000000     
 -0.11087358246164777       0.21535617227739431        0.0000000000000000     
 -0.11193007017924034       0.22354037610794314        0.0000000000000000     
 -0.11291167979159264       0.23180679560268641        0.0000000000000000     
  -8.0969172208234547E-002  0.23090584951307649        0.0000000000000000     
  -8.1505297877558072E-002  0.23934587271114310        0.0000000000000000     
  -8.1947063125521677E-002  0.24790254098529924        0.0000000000000000     
  -8.2294467952125333E-002  0.25657585433554486        0.0000000000000000     
  -8.2547512357369068E-002  0.26536581276188004        0.0000000000000000     
  -8.8699372838812379E-002  0.23107513169726415        0.0000000000000000     
  -8.9329202616640693E-002  0.23949322294690653        0.0000000000000000     
  -8.9858321498113528E-002  0.24803678085349043        0.0000000000000000     
  -9.0286729483230910E-002  0.25670580541701582        0.0000000000000000     
  -9.0614426571992798E-002  0.26550029663748281        0.0000000000000000     
  -9.6599857646231344E-002  0.23128171677359505        0.0000000000000000     
  -9.7327345051390332E-002  0.23967999306576701        0.0000000000000000     
  -9.7964562357610668E-002  0.24820639237023376        0.0000000000000000     
  -9.8511509564892297E-002  0.25686091468699523        0.0000000000000000     
  -9.8968186673235259E-002  0.26564356001605133        0.0000000000000000     
 -0.10467062663049141       0.23152560474206910        0.0000000000000000     
 -0.10549972518180703       0.23990618306772457        0.0000000000000000     
 -0.10626578570401306       0.24841137553552922        0.0000000000000000     
 -0.10696880819710954       0.25704118214548288        0.0000000000000000     
 -0.10760879266109644       0.26579560289758575        0.0000000000000000     
 -0.11291167979159264       0.23180679560268641        0.0000000000000000     
 -0.11384634300789073       0.24017179295277918        0.0000000000000000     
 -0.11476199153732074       0.24865173034937671        0.0000000000000000     
 -0.11565862537988260       0.25724660779247899        0.0000000000000000     
 -0.11653624453557634       0.26595642528208596        0.0000000000000000     
  -8.2547512357369068E-002  0.26536581276188004        0.0000000000000000     
  -8.2745107264674114E-002  0.27429876644508144        0.0000000000000000     
  -8.2926163597461758E-002  0.28340106556592565        0.0000000000000000     
  -8.3090681355731999E-002  0.29267271012441287        0.0000000000000000     
  -8.3238660539484838E-002  0.30211370012054289        0.0000000000000000     
  -9.0614426571992798E-002  0.26550029663748281        0.0000000000000000     
  -9.0871661734201400E-002  0.27448322964692329        0.0000000000000000     
  -9.1088683939658827E-002  0.28371757957736948        0.0000000000000000     
  -9.1265493188365118E-002  0.29320334642882134        0.0000000000000000     
  -9.1402089480320248E-002  0.30294053020127887        0.0000000000000000     
  -9.8968186673235259E-002  0.26564356001605133        0.0000000000000000     
  -9.9345528115651296E-002  0.27465254613613427        0.0000000000000000     
  -9.9654468325152137E-002  0.28398609082597592        0.0000000000000000     
  -9.9895007301737809E-002  0.29364419408557635        0.0000000000000000     
 -0.10006714504540830       0.30362685591493560        0.0000000000000000     
 -0.10760879266109644       0.26579560289758575        0.0000000000000000     
 -0.10816670640902384       0.27480671591271422        0.0000000000000000     
 -0.10862351675394170       0.28420659931174491        0.0000000000000000     
 -0.10897922369585011       0.29399525309467789        0.0000000000000000     
 -0.10923382723474899       0.30417267726151315        0.0000000000000000     
 -0.11653624453557634       0.26595642528208596        0.0000000000000000     
 -0.11733519661431899       0.27494573897666330        0.0000000000000000     
 -0.11799582922602754       0.28437910503467662        0.0000000000000000     
 -0.11851814237070198       0.29425652345612602        0.0000000000000000     
 -0.11890213604834232       0.30457799424101145        0.0000000000000000     
 </DataArray>
 <DataArray  type="Float64" Name="stress" NumberOfComponents="3" format="ascii">
   4335413254.2380695       -436636451.26235914       -1394139523.0147531     
   4493109747.4314547       -362594083.95460081       -992052113.46129131     
   4654424808.0057364       -276489825.37721348       -686197389.14475775     
   4819358435.9609089       -178323675.53018498       -476575350.06515509     
   4987910631.2969522       -68095634.413568258       -363185996.22247297     
   5119056418.5092592       -97147839.171544313       -772170541.66480041     
   5046248525.7992268       -95872591.215242863       -502826425.71510655     
   4977184077.8802013       -82119193.955593586       -297768278.45001602     
   4911863074.7521648       -55887647.392649651       -156996099.86951208     
   4850285516.4151278       -17177951.526377201       -80509889.973616570     
   5465524842.8370190        111188350.93624473       -151665099.15552479     
   5253488897.2302313        67079379.443105221       -14918586.497805966     
   5045321273.8245506        35864815.286977768        89488674.027644768     
   4841021972.6199760        17544658.467859030        161556682.42082965     
   4640590993.6164980        12118908.985762358        201285438.68174455     
   5374818527.2213640        188372119.06100917        467376804.51307893     
   5114830861.7244740        126261828.02040339        471671404.19061303     
   4858836395.8387966        77462202.350518465        475573468.28821361     
   4606835129.5643339        41973242.051341534        479082996.80587906     
   4358827062.9010849        19794947.122875452        482199989.74360305     
   4846937471.6622868        134403465.20274401        1084955169.3410006     
   4630274419.2819500        81674754.516677141        956943546.35015047     
   4417729443.9229336        42672967.235026121        860486104.33169627     
   4209302545.5852423        17398103.357780933        795582843.28563559     
   4004993724.2688670        5850162.8849401474        762233763.21196306     
   4987910631.2969522       -68095634.413568258       -363185996.22247297     
   4846706852.2512398       -47558104.588997364       -287769004.02254349     
   4704018317.4878120       -31969760.490157127       -221511365.50411060     
   4559845027.0066509       -21330602.117074966       -164413080.66716909     
   4414186980.8077803       -15640629.469716549       -116474149.51171643     
   4850285516.4151278       -17177951.526377201       -80509889.973616570     
   4688247726.1429844       -5308291.1828088760       -29952088.310190752     
   4524641019.0300798        1331646.3582472801        15739182.125386011     
   4359465395.0764036        2741861.0967113972        56563921.333125249     
   4192720854.2819734       -1077646.9673421383        92522129.313021839     
   4640590993.6164980        12118908.985762358        201285438.68174455     
   4469984399.1283636        19000261.951503515        226885861.83178017     
   4297724726.6764078        20371355.037869215        251912576.20761642     
   4123811976.2606440        16232188.244857788        276365581.80926937     
   3948246147.8810782        6582761.5725057125        300244878.63672167     
   4358827062.9010849        19794947.122875452        482199989.74360305     
   4191916871.2073631        25367554.813875437        482744846.40336657     
   4023269440.4267969        25149365.548712730        487008816.74257898     
   3852884770.5593700        19140379.327356577        494991900.76125014     
   3680762861.6050892        7340596.1498188972        506694098.45937806     
   4004993724.2688670        5850162.8849401474        762233763.21196306     
   3854045142.3800054        13793587.404356718        737624865.40456355     
   3701275160.2812433        15665677.890770197        721027903.73026764     
   3546683777.9725852        11466434.344192505        712442878.18907952     
   3390270995.4540272        1195856.7646269798        711869788.78099561     
   4414186980.8077803       -15640629.469716549       -116474149.51171643     
   4242161652.4354305       -18274579.322615862       -107807308.75426909     
   4071348285.5951977       -16868657.401816368       -98032691.106949911     
   3901746880.2870569       -11422863.707372665       -87150296.569803059     
   3733357436.5110073       -1937198.2392785549       -75160125.142777950     
   4192720854.2819734       -1077646.9673421383        92522129.313021839     
   4024109125.3340297       -5960540.8085885048        95029235.925089613     
   3856734513.6678843       -6719710.3771750927        99573398.432629645     
   3690597019.2835226       -3355155.6731383801        106154616.83562592     
   3525696642.1809535        4133123.3035304546        114772891.13407908     
   3948246147.8810782        6582761.5725057125        300244878.63672167     
   3785703101.2306857        247448.60485959053        296621599.47805834     
   3624422327.6117892       -1880287.5911691189        295964655.22046322     
   3464403827.0243697        199552.98441004753        298274045.86392969     
   3305647599.4684362        6486970.3316035271        303549771.40845948     
   3680762861.6050892        7340596.1498188972        506694098.45937806     
   3526943580.1254177        349388.91772532463        496969781.90462792     
   3374411727.4269223       -2350389.0437810421        491141079.25653911     
   3223167303.5095959       -758737.73472094536        489207990.51511568     
   3073210308.3734455        5124342.8449326754        491170515.68036157     
   3390270995.4540272        1195856.7646269798        711869788.78099561     
   3247830562.0182109       -5654719.8699936867        696073783.20478606     
   3106702713.1132727       -8130014.7350376844        685102670.54085124     
   2966887448.7391901       -6230027.8305523396        678956450.78918612     
   2828384768.8959832        45240.843517184258        677635123.94979048     
   3733357436.5110073       -1937198.2392785549       -75160125.142777950     
   3554237419.9043193        3693810.9515149593       -64182799.463042580     
   3373486441.0436816        3888279.2958431244       -48603107.069116019     
   3191104499.9291344       -1353793.2062166929       -28421047.961015556     
   3007091596.5606227       -12032406.554813504       -3636622.1387226144     
   3525696642.1809535        4133123.3035304546        114772891.13407908     
   3358292483.6180496        10724265.090449333        119478076.58273908     
   3189554942.2228065        12870797.436259389        128371524.75179991     
   3019484017.9952259        10572720.340935349        141453235.64125964     
   2848079710.9353218        3830033.8045207262        158723209.25109842     
   3305647599.4684362        6486970.3316035271        303549771.40845948     
   3148776144.6813545        13683298.434253097        302329992.61790937     
   2990868886.4835458        17426948.501145959        304884372.55396998     
   2831925824.8749995        17717920.532258153        311212911.21664059     
   2671946959.8557167        14556214.527577043        321315608.60592359     
   3073210308.3734455        5124342.8449326754        491170515.68036157     
   2925688403.0942307        12570910.982936382        484372948.64246935     
   2777428273.8258853        17556732.490492940        480935436.33740127     
   2628429920.5684109        20081807.367626071        480857978.76515973     
   2478693343.3218050        20146135.614321232        484140575.92574161     
   2828384768.8959832        45240.843517184258        677635123.94979048     
   2689029258.8566775        7387102.7364776134        665606944.65642083     
   2549233104.2498436        13260149.404333353        656524716.10209298     
   2408996305.0754843        17664380.847110868        650388438.28680682     
   2268318861.3335948        20599797.064782619        647198111.21055281     
   3007091596.5606227       -12032406.554813504       -3636622.1387226144     
   2850413014.1042094       -15269367.732129455       -1137534.7960815509     
   2694865188.9990840       -14737137.738517761       -273560.95858577231     
   2540448121.2452092       -10435716.574053884       -1044700.6262493696     
   2387161810.8426037       -2365104.2386932373       -3450953.7990659373     
   2848079710.9353218        3830033.8045207262        158723209.25109842     
   2688750147.7272544       -83138.313405036926        157055973.75602108     
   2530231170.3820181       -1294357.5552091599        155140684.48188290     
   2372522778.8996134        196376.07908964157        152977341.42868584     
   2215624973.2800722        4389062.5895780325        150565944.59642410     
   2671946959.8557167        14556214.527577043        321315608.60592359     
   2513929443.6848216        11155739.805649400        315108516.86994690     
   2356402341.8883595        9389979.6651500463        310040431.08100730     
   2199365654.4662867        9258934.1059544086        306111351.23911798     
   2042819381.4186363        10762603.128171444        303321277.34426123     
   2478693343.3218050        20146135.614321232        484140575.92574161     
   2325950901.9769597        18447266.625114918        473020094.54570103     
   2173378703.5180907        17315873.922498822        464425678.83880317     
   2020976747.9452050        16751957.506492376        458357328.80504388     
   1868745035.2582991        16755517.377097726        454815044.44441885     
   2268318861.3335948        20599797.064782619        647198111.21055281     
   2124814522.6036301        21791442.144900203        630790706.78328478     
   1981160255.2712216        22483325.216865540        618296427.75525916     
   1837356059.3363731        22675446.280694842        609715274.12646985     
   1693401934.7990689        22367805.336349487        605047245.89690495     
   2387161810.8426037       -2365104.2386932373       -3450953.7990659373     
   2245909530.4913855        6013853.4096287489       -8461787.0389987081     
   2101349439.7982364        3366776.5848357677       -11854496.262666035     
   1953481538.7631946       -10306334.712924719       -13629081.470083289     
   1802305827.3862236       -35005480.483784914       -13785542.661219725     
   2215624973.2800722        4389062.5895780325        150565944.59642410     
   2077448174.2007887        12068507.571327090        141535060.77301002     
   1937056694.6493216        12365684.312453747        133413233.75788288     
   1794450534.6257079        5280592.8130915165        126200463.55104074     
   1649629694.1299083       -9186766.9268789291        119896750.15246631     
   2042819381.4186363        10762603.128171444        303321277.34426123     
   1905692157.3027747        17134763.550763726        291545661.11873186     
   1767443382.5844917        19768421.965298653        279970034.49351156     
   1628073057.2637892        18663578.371765137        268594397.46860158     
   1487581181.3406734        13820232.770171046        257418750.04398915     
   1868745035.2582991        16755517.377097726        454815044.44441885     
   1730641479.7973628        21212621.348019242        441570013.99815112     
   1592509503.6037507        25574989.543356359        427815905.94421601     
   1454349106.6774724        29842621.963139296        413552720.28261220     
   1316160289.0185230        34015518.607349753        398780457.01332766     
   1693401934.7990689        22367805.336349487        605047245.89690495     
   1552296141.6845431        24302080.963032365        591608119.41127396     
   1412255057.7070985        29785387.046647191        576950848.10999680     
   1273278682.8667262        38817723.587166190        561075431.99307358     
   1135367017.1634326        51399090.584626436        543981871.06049144     
   1802305827.3862236       -35005480.483784914       -13785542.661219725     
   1771379179.8491285       -16400312.806682110       -8321944.8407005733     
   1748527108.1238163        29120107.576363325       -41567746.542386502     
   1733749612.2102928        101555780.66537166       -113522947.76629288     
   1727046692.1085706        200906706.46038467       -224187548.51245046     
   1649629694.1299083       -9186766.9268789291        119896750.15246631     
   1527158617.3021221       -13980305.982582986        135423817.09856007     
   1408859731.8808756       -4866540.3498209715        124641193.35853016     
   1294733037.8661940        18154529.971500993        87548878.932382330     
   1184778535.2580345        55082904.981230438        24146873.820099287     
   1487581181.3406734        13820232.770171046        257418750.04398915     
   1308993414.7538948       -3743691.1588668823        278456504.30953044     
   1130675455.1684344       -20408258.416865647        285584276.72505635     
   952627302.58428693       -36173469.003804505        278802067.29054260     
   774848957.00144160       -51039322.919747412        258109876.00601211     
   1316160289.0185230        34015518.607349753        398780457.01332766     
   1116883572.2044680        14309531.664497793        420776116.79220545     
   913974277.98649979       -17505046.624753237        441261503.55714828     
   707432406.36460805       -61428216.260422021        460236617.30818146     
   497257957.33878583       -117459977.24251425        477701458.04529095     
   1135367017.1634326        51399090.584626436        543981871.06049144     
   950829089.65383768        40179362.487518013        562382654.54659021     
   758756200.33507669        3843095.0265175700        591672873.85486579     
   559148349.20715177       -57609711.798351467        631852528.98531628     
   352005536.27005941       -144179057.98712885        682921619.93795013     
   1727046692.1085706        200906706.46038467       -224187548.51245046     
   1456578320.4837308        184590057.15870482       -96595410.507634893     
   1153944423.8341162        61054991.107776523        60146027.832122311     
   819145002.15963328       -169698491.69269079        246036766.50685319     
   452180055.46038556       -507670391.24241877        461076805.51652825     
   1184778535.2580345        55082904.981230438        24146873.820099287     
   977687463.24832976        11841111.872056305        155567230.23038438     
   732778575.23966074       -157460067.90032110        312803549.96525878     
   450051871.23204052       -452820634.33591366        495855833.02468657     
   129507351.22540420       -874240587.43479335        704724079.40867805     
   774848957.00144160       -51039322.919747412        258109876.00601211     
   621611364.57718718       -124063405.84533474        386764111.35193932     
   424903665.17980707       -341987845.34801328        537900973.01203501     
   184725858.80931583       -704812641.42772329        711520460.98632944     
  -98922054.534312308       -1212537794.0845618        907622575.27478790     
   497257957.33878583       -117459977.24251425        477701458.04529095     
   388350024.47030687       -223123495.99341050        596995232.85699320     
   230319693.65454894       -492528341.23525929        735438296.97248888     
   23166964.891505837       -925674512.96803474        893030650.39178085     
  -233108161.81882104       -1522562011.1917810        1069772293.1148704     
   352005536.27005941       -144179057.98712885        682921619.93795013     
   277903442.92768282       -285339158.57223600        786260594.74557173     
   149026660.66385460       -609081555.56219268        905415521.84661043     
  -34624810.521397233       -1115406248.9568784        1040386401.2410417     
  -273050970.62810296       -1804313238.7564328        1191173232.9288976     
   4846937471.6622868        134403465.20274401        1084955169.3410006     
   4630274419.2819500        81674754.516677141        956943546.35015047     
   4417729443.9229336        42672967.235026121        860486104.33169627     
   4209302545.5852423        17398103.357780933        795582843.28563559     
   4004993724.2688670        5850162.8849401474        762233763.21196306     
   4164876669.5947342        33108204.545960665        1054516534.5656202     
   4026823055.8126330        10194945.462263346        971084699.02632749     
   3891520396.0250826       -3548466.9729630947        909686992.60505617     
   3758968690.2320642       -8122032.7597210407        870323415.30179548     
   3629167938.4335890       -3525751.8980159760        852993967.11655426     
   3612338377.8685818       -29330303.008398771        1027272549.7697974     
   3525694054.5293732       -30588154.936335087        986825524.81748295     
   3440433562.1579108       -27233236.971748829        958892577.12880850     
   3356556900.7542124       -19265549.114630461        943473706.70377743     
   3274064070.3182745       -6685091.3649866581        940568913.54238284     
   3189322596.4838357       -52912057.460340023        1003223214.9535319     
   3126887415.4321418       -40674546.679124236        1004166023.7236149     
   3064468942.3214278       -28381342.761327863        1008102857.9029641     
   3002067177.1516848       -16032445.706941605        1015033717.4915739     
   2939682119.9229217       -3627855.5159686804        1024958602.4894547     
   2895829325.4404888       -37637058.809857965        982368530.11682320     
   2830403138.5209622       -20064229.766097665        1023106195.7447244     
   2763626536.5156217       -6992784.3417054415        1057317834.9275147     
   2695499519.4244847        1577277.4633486271        1085003447.6651933     
   2626022087.2475376        5645955.6490396261        1106163033.9577649     
   4004993724.2688670        5850162.8849401474        762233763.21196306     
   3854045142.3800054        13793587.404356718        737624865.40456355     
   3701275160.2812433        15665677.890770197        721027903.73026764     
   3546683777.9725852        11466434.344192505        712442878.18907952     
   3390270995.4540272        1195856.7646269798        711869788.78099561     
   3629167938.4335890       -3525751.8980159760        852993967.11655426     
   3496963053.1091847        2803221.2582361698        833297814.80713904     
   3363625191.1653991        5355605.6832156181        820380520.19031239     
   3229154352.6022301        4131401.3769215345        814242083.26607656     
   3093550537.4196820       -869391.66064429283        814882504.03443265     
   3274064070.3182745       -6685091.3649866581        940568913.54238284     
   3157079800.2997150       -3027493.9494773149        926588667.58654952     
   3039650977.2522907       -851739.96351861954        918154200.88279808     
   2921777601.1760015       -157829.40711820126        915265513.43112016     
   2803459672.0708413       -945762.28026914597        917922605.23151648     
   2939682119.9229217       -3627855.5159686804        1024958602.4894547     
   2834395383.9515967       -3698558.2187880278        1017497423.7428113     
   2729352518.5419240       -2956359.0494266748        1014348945.8077270     
   2624553523.6938939       -1401258.0079181194        1015513168.6842091     
   2519998399.4075222        966744.90577173233        1020990092.3722496     
   2626022087.2475376        5645955.6490396261        1106163033.9577649     
   2528909804.0648298        790028.45031166077        1106024083.2759089     
   2432729815.0342913       -958251.57451951504        1108964754.9650998     
   2337482120.1559129        401115.57451856136        1114985049.0253417     
   2243166719.4297051        4868129.8974529505        1124084965.4566245     
   3390270995.4540272        1195856.7646269798        711869788.78099561     
   3247830562.0182109       -5654719.8699936867        696073783.20478606     
   3106702713.1132727       -8130014.7350376844        685102670.54085124     
   2966887448.7391901       -6230027.8305523396        678956450.78918612     
   2828384768.8959832        45240.843517184258        677635123.94979048     
   3093550537.4196820       -869391.66064429283        814882504.03443265     
   2964349255.0199261       -4247446.7470140457        802585222.12658584     
   2836084451.2942953       -4503906.2529666424        794845658.51537919     
   2708756126.2427912       -1638770.1784857512        791663813.20081413     
   2582364279.8654218        4347961.4764214754        793039686.18288147     
   2803459672.0708413       -945762.28026914597        917922605.23151648     
   2686734184.6624870       -1080302.6317924261        908685256.82583404     
   2570569070.0715160        653066.40798366070        903738452.10116005     
   2454964328.2979350        4254344.8390403986        903082191.05749452     
   2339919959.3417387        9723532.6613907814        906716473.69483829     
   2519998399.4075222        966744.90577173233        1020990092.3722496     
   2414985350.9458995        3846712.4756854773        1014373887.3025322     
   2310156569.4449344        7340903.2477915287        1011781051.2981939     
   2205512054.9046049        11449317.222019196        1013211584.3592339     
   2101051807.3249290        16171954.398421526        1018665486.4856545     
   2243166719.4297051        4868129.8974529505        1124084965.4566245     
   2149102753.8701658        10533598.575429678        1119651113.5566771     
   2054846949.4145379        15559604.266439080        1118973456.1064837     
   1960399306.0628157        19946146.970465660        1122051993.1060328     
   1865759823.8149993        23693226.687516093        1128886724.5553319     
   2828384768.8959832        45240.843517184258        677635123.94979048     
   2689029258.8566775        7387102.7364776134        665606944.65642083     
   2549233104.2498436        13260149.404333353        656524716.10209298     
   2408996305.0754843        17664380.847110868        650388438.28680682     
   2268318861.3335948        20599797.064782619        647198111.21055281     
   2582364279.8654218        4347961.4764214754        793039686.18288147     
   2450613717.3472271        9772149.1045542955        782062093.47385192     
   2318615733.8354354        14371600.087371111        774431049.87236536     
   2186370329.3300576        18146314.424873233        770146555.37841868     
   2053877503.8310750        21096292.117055893        769208609.99202645     
   2339919959.3417387        9723532.6613907814        906716473.69483829     
   2216918911.1118112        13573416.054847836        897014895.07306862     
   2093863665.4622235        17242641.382760644        891060463.92734659     
   1970754222.3929710        20731208.645134211        888853180.25767803     
   1847590581.9040642        24039117.841984987        890393044.06404984     
   2101051807.3249290        16171954.398421526        1018665486.4856545     
   1987944840.1504238        18790903.587336659        1010465349.4540687     
   1874976899.1301913        21873273.290496111        1006412958.2670370     
   1762147984.2642386        25419063.507909775        1006508312.9245578     
   1649458095.5525486        29428274.239554405        1010751413.4266317     
   1865759823.8149993        23693226.687516093        1128886724.5553319     
   1763691504.4630740        25424611.702043414        1122413456.6168523     
   1661955434.8393574        28263495.810600996        1120488532.8914325     
   1560551614.9438465        32209879.013174176        1123111953.3790679     
   1459480044.7765489        37263761.309791982        1130283718.0797670     
   2268318861.3335948        20599797.064782619        647198111.21055281     
   2124814522.6036301        21791442.144900203        630790706.78328478     
   1981160255.2712216        22483325.216865540        618296427.75525916     
   1837356059.3363731        22675446.280694842        609715274.12646985     
   1693401934.7990689        22367805.336349487        605047245.89690495     
   2053877503.8310750        21096292.117055893        769208609.99202645     
   1920694908.6560516        23312386.327306747        755448024.80798388     
   1787412293.2136588        25195079.646320820        745477705.62155724     
   1654029657.5039039        26744372.074130893        739297652.43273664     
   1520547001.5267756        27960263.610685408        736907865.24153638     
   1847590581.9040642        24039117.841984987        890393044.06404984     
   1724378703.4221945        27174353.123823166        879337504.51416349     
   1601116713.0080345        30142548.631345272        871949371.56025970     
   1477804610.6615863        32943704.364585876        868228645.20234525     
   1354442396.3828497        35577820.323521554        868175325.44041896     
   1649458095.5525486        29428274.239554405        1010751413.4266317     
   1535865906.9020565        33377342.534438610        1002459145.9018147     
   1422273514.6543543        37325732.171959043        997711425.57136154     
   1308680918.8094397        41273443.152108848        996508252.43527043     
   1195088119.3673124        45220475.474872708        998849626.49354827     
   1459480044.7765489        37263761.309791982        1130283718.0797670     
   1355156519.0956507        41921354.559207082        1124812948.9709487     
   1250882698.1526179        46744630.268162727        1122763867.6548653     
   1146658581.9474530        51733588.436678052        1124136474.1315339     
   1042484170.4801555        56888229.064751208        1128930768.4009333     
   1693401934.7990689        22367805.336349487        605047245.89690495     
   1552296141.6845431        24302080.963032365        591608119.41127396     
   1412255057.7070985        29785387.046647191        576950848.10999680     
   1273278682.8667262        38817723.587166190        561075431.99307358     
   1135367017.1634326        51399090.584626436        543981871.06049144     
   1520547001.5267756        27960263.610685408        736907865.24153638     
   1377618014.1774645        26562520.037951171        727496876.14371288     
   1234934276.3058634        25982274.724217594        718670502.26542485     
   1092495787.9119730        26219527.669525981        710428743.60665905     
   950302548.99577999        27274278.873845160        702771600.16742504     
   1354442396.3828497        35577820.323521554        868175325.44041896     
   1214840957.7564108        32393280.438654304        861836437.46114063     
   1074665308.9483042        27294706.614904165        857884924.73657382     
   933915449.95853305        20282098.852266371        856320787.26670682     
   792591380.78710246        11355457.150766462        857144025.05154932     
   1195088119.3673124        45220475.474872708        998849626.49354827     
   1063964972.4213866        41794362.165177882        994626803.36355448     
   931448155.63442719        33722682.718698740        994594115.52344084     
   797537669.00643015        21005437.135424495        998751562.97321522     
   662233512.53739679        3642625.4153742790        1007099145.7128681     
   1042484170.4801555        56888229.064751208        1128930768.4009333     
   924990058.17238820        54765765.217505783        1125867973.8509538     
   805282816.36421919        45266203.035577357        1128798074.6260319     
   683362445.05563879        28389542.518947005        1137721070.7261753     
   559228944.24666762        4135783.6676750481        1152636962.1513715     
   1135367017.1634326        51399090.584626436        543981871.06049144     
   950829089.65383768        40179362.487518013        562382654.54659021     
   758756200.33507669        3843095.0265175700        591672873.85486579     
   559148349.20715177       -57609711.798351467        631852528.98531628     
   352005536.27005941       -144179057.98712885        682921619.93795013     
   950302548.99577999        27274278.873845160        702771600.16742504     
   791328841.27780151        10535602.121638507        720879922.02995360     
   623697167.17047322       -35062962.595078647        749037196.06119251     
   447407526.67379481       -109521415.27629054        787243422.26113141     
   262459919.78775471       -212839755.92204142        835498600.62977099     
   792591380.78710246        11355457.150766462        857144025.05154932     
   656780510.99367237       -11622582.816670626        873649713.28030455     
   511188670.23070359       -67203859.349230528        899363870.02427781     
   355815858.49819952       -155388372.44691426        934286495.28348136     
   190662075.79615426       -276176122.10972947        978417589.05792320     
   662233512.53739679        3642625.4153742790        1007099145.7128681     
   547184098.80145097       -26295192.327396572        1020692028.2976097     
   421230709.51577598       -92579595.235920280        1042652895.7441154     
   284373344.68037987       -195210583.31019202        1072981748.0523752     
   136612004.29525554       -334188156.55021363        1111678585.2224004     
   559228944.24666762        4135783.6676750481        1152636962.1513715     
   462539604.70112938       -33482226.410569221        1162006867.0819011     
   353823285.02568233       -111190170.25517645        1178904273.2207177     
   233079985.22032714       -228988047.86614388        1203329180.5678234     
   100309705.28506297       -386875859.24348593        1235281589.1231930     
   352005536.27005941       -144179057.98712885        682921619.93795013     
   277903442.92768282       -285339158.57223600        786260594.74557173     
   149026660.66385460       -609081555.56219268        905415521.84661043     
  -34624810.521397233       -1115406248.9568784        1040386401.2410417     
  -273050970.62810296       -1804313238.7564328        1191173232.9288976     
   262459919.78775471       -212839755.92204142        835498600.62977099     
   223695414.21150371       -352514318.75890857        884901450.44543684     
   140702400.79332340       -639617241.06887639        945328291.38436401     
   13480879.533245564       -1074148522.8518455        1016779123.4465219     
  -157969149.56875962       -1656108164.1078944        1099253946.6319387     
   190662075.79615426       -276176122.10972947        978417589.05792320     
   173543840.35699135       -418472542.48709446        986188191.80774939     
   122743278.15543282       -673043385.40577281        1000190824.5106552     
   38260389.191485107       -1039888650.8657328        1020425487.1666477     
  -79904826.534843147       -1519008338.8669977        1046892179.7757286     
   136612004.29525554       -334188156.55021363        1111678585.2224004     
   127448721.36414939       -483213829.75677919        1090120818.8324959     
   95149292.750188500       -709359988.57286608        1070003121.2255131     
   39713718.453349292       -1012626632.9985332        1051325492.4014614     
  -38858001.526336730       -1393013763.0337238        1034087932.3603392     
   100309705.28506297       -386875859.24348593        1235281589.1231930     
   85410057.232990086       -546738180.56793916        1196699331.5196683     
   57920444.577574819       -748567050.57020032        1154765181.5289128     
   17840867.318826258       -992362469.25023067        1109479139.1509199     
  -34828674.543254852       -1278124436.6080642        1060841204.3857036     
   2895829325.4404888       -37637058.809857965        982368530.11682320     
   2830403138.5209622       -20064229.766097665        1023106195.7447244     
   2763626536.5156217       -6992784.3417054415        1057317834.9275147     
   2695499519.4244847        1577277.4633486271        1085003447.6651933     
   2626022087.2475376        5645955.6490396261        1106163033.9577649     
   2642718000.2394080        4080784.0524537563        1122418739.1751137     
   2562104430.8555822        9208197.2147437334        1143674387.7796135     
   2480731481.3498483        11804343.303994417        1162645479.9831853     
   2398599151.7222013        11869222.320220709        1179332015.7858152     
   2315707441.9726477        9402834.2634140253        1193733995.1875167     
   2331400851.6831326        28336879.908210516        1259089869.7061911     
   2247718385.6755114        24654422.941177964        1261553042.0785067     
   2163867574.5098767        20410815.447432518        1265973128.0940652     
   2079848418.1862326        15606057.426987648        1272350127.7528641     
   1995660916.7045784        10240148.879839420        1280684041.0549064     
   1961877879.7716544        35131228.757404566        1392381921.7100506     
   1887245002.9807429        26274447.413199544        1376742158.6413925     
   1813034815.9957175        18826632.088612199        1367300779.2601545     
   1739247318.8165810        12787782.783654451        1364057783.5663366     
   1665882511.4433279        8157899.4983096123        1367013171.5599375     
   1534149084.5049729        24463830.600037754        1522294895.1866925     
   1480684282.7712789        14068270.630820811        1489241737.4682772     
   1428233205.8073661        7051793.2275392413        1466628433.4814587     
   1376795853.6132381        3414398.3902059793        1454454983.2262366     
   1326372226.1888945        3156086.1188216209        1452721386.7026100     
   2626022087.2475376        5645955.6490396261        1106163033.9577649     
   2528909804.0648298        790028.45031166077        1106024083.2759089     
   2432729815.0342913       -958251.57451951504        1108964754.9650998     
   2337482120.1559129        401115.57451856136        1114985049.0253417     
   2243166719.4297051        4868129.8974529505        1124084965.4566245     
   2315707441.9726477        9402834.2634140253        1193733995.1875167     
   2227607454.8147368        5241205.1986215115        1191431169.8221836     
   2140179315.1729190        3319067.8541337252        1192821034.8432031     
   2053423023.0471971        3636422.2299616337        1197903590.2505696     
   1967338578.4375682        6193268.3261078596        1206678836.0442927     
   1995660916.7045784        10240148.879839420        1280684041.0549064     
   1918324848.4723275        7298304.8192254305        1275913486.5973485     
   1841400181.1201019        5727797.0253599882        1275448690.5414441     
   1764886914.6478953        5528625.4982290268        1279289652.8871932     
   1688785049.0557151        6700790.2378462553        1287436373.6345961     
   1665882511.4433279        8157899.4983096123        1367013171.5599375     
   1601061985.0376043        6961327.3121407032        1359471033.6014040     
   1536392412.8758357        6267935.9391517043        1356847722.0598245     
   1471873794.9580150        6077725.3793243766        1359143236.9352036     
   1407506131.2841499        6390695.6326769590        1366357578.2275381     
   1326372226.1888945        3156086.1188216209        1452721386.7026100     
   1275818864.5105665        4230272.6773598194        1442103810.8343484     
   1225156010.4401205        4939484.5955045223        1437018129.3983452     
   1174383663.9775503        5283721.8732351065        1437464342.3946056     
   1123501825.1228647        5262984.5105815530        1443442449.8231261     
   2243166719.4297051        4868129.8974529505        1124084965.4566245     
   2149102753.8701658        10533598.575429678        1119651113.5566771     
   2054846949.4145379        15559604.266439080        1118973456.1064837     
   1960399306.0628157        19946146.970465660        1122051993.1060328     
   1865759823.8149993        23693226.687516093        1128886724.5553319     
   1967338578.4375682        6193268.3261078596        1206678836.0442927     
   1882946116.6698835        10178900.875886321        1201299027.5426357     
   1798489186.4637089        13949638.630694628        1199990297.3837752     
   1713967787.8190563        17505481.590574145        1202752645.5677235     
   1629381920.7359123        20846429.755488515        1209586072.0944676     
   1688785049.0557151        6700790.2378462553        1287436373.6345961     
   1614963759.3457439        9276487.1391691566        1281259207.3984368     
   1541205371.6548948        12061857.437560678        1279468003.3981333     
   1467509885.9831688        15056901.133034229        1282062761.6336803     
   1393877302.3305671        18261618.225583553        1289043482.1050787     
   1407506131.2841499        6390695.6326769590        1366357578.2275381     
   1345155681.8977537        7826357.3652984500        1359531653.1240878     
   1282995504.9880898        9896260.6870263815        1357406574.1495445     
   1221025600.5551589        12600405.597859144        1359982341.3039041     
   1159245968.5989566        15938792.097798944        1367258954.5871677     
   1123501825.1228647        5262984.5105815530        1443442449.8231261     
   1073521884.3259135        5828511.5542776585        1436116364.7195892     
   1023859586.4632989        7452848.3790988326        1433806009.6380131     
   974514931.53502345        10135994.985047162        1436511384.5783949     
   925487919.54108858        13877951.372133791        1444232489.5407314     
   1865759823.8149993        23693226.687516093        1128886724.5553319     
   1763691504.4630740        25424611.702043414        1122413456.6168523     
   1661955434.8393574        28263495.810600996        1120488532.8914325     
   1560551614.9438465        32209879.013174176        1123111953.3790679     
   1459480044.7765489        37263761.309791982        1130283718.0797670     
   1629381920.7359123        20846429.755488515        1209586072.0944676     
   1539317009.3782616        22851066.025394738        1203804926.2035444     
   1449519248.6925194        25746204.534999371        1202645768.8823757     
   1359988638.6786683        29531845.284236908        1206108600.1309669     
   1270725179.3367276        34207988.273180127        1214193419.9493113     
   1393877302.3305671        18261618.225583553        1289043482.1050787     
   1316026211.4149046        20602629.485195994        1283878509.3626835     
   1238377172.1148372        23617146.130131125        1283409169.5467448     
   1160930184.4303646        27305168.160375416        1287635462.6572618     
   1083685248.3614862        31666695.575935423        1296557388.6942306     
   1159245968.5989566        15938792.097798944        1367258954.5871677     
   1093819110.5729914        18679302.081423640        1362634206.0942783     
   1028529205.1063180        21876320.596025050        1362778734.8845437     
   963376252.19892824        25529847.641567349        1367692540.9579601     
   898360251.85082924        29639883.218082845        1377375624.3145320     
   925487919.54108858        13877951.372133791        1444232489.5407314     
   872695706.85253072        17081083.814090371        1440072016.3983207     
   819975347.66695416        20523727.932651460        1440754464.8957665     
   767326841.98435664        24205883.727811962        1446279835.0330620     
   714750189.80474353        28127551.199581593        1456648126.8102133     
   1459480044.7765489        37263761.309791982        1130283718.0797670     
   1355156519.0956507        41921354.559207082        1124812948.9709487     
   1250882698.1526179        46744630.268162727        1122763867.6548653     
   1146658581.9474530        51733588.436678052        1124136474.1315339     
   1042484170.4801555        56888229.064751208        1128930768.4009333     
   1270725179.3367276        34207988.273180127        1214193419.9493113     
   1175637196.9483459        37487949.252310514        1209620503.5248885     
   1080513607.7809145        40649220.967927814        1209048078.5181890     
   985354411.83443654        43691803.420058370        1212476144.9292085     
   890159609.10888529        46615696.608627886        1219904702.7579448     
   1083685248.3614862        31666695.575935423        1296557388.6942306     
   999486533.90843761        34065141.677669466        1292782794.8511343     
   915166901.15940261        36060526.792790294        1293587496.0507329     
   830726350.11438465        37652850.921301335        1298971492.2930348     
   746164880.77339292        38842114.063224614        1308934783.5780368     
   898360251.85082924        29639883.218082845        1377375624.3145320     
   826704529.97589254        31652931.835209161        1374299822.9496756     
   754842578.28805864        32978547.742673159        1376382120.2524967     
   682774396.78731501        33616730.940442413        1383622516.2230041     
   610499985.47367597        33567481.428557396        1396021010.8611896     
   714750189.80474353        28127551.199581593        1456648126.8102133     
   657291185.15073478        30251319.724988341        1454171587.8205185     
   599540639.16689861        31403283.817631245        1457431951.1234889     
   541498551.85323024        31583443.477502257        1466429216.7191174     
   483164923.20973843        30791798.704630628        1481163384.6074073     
   1042484170.4801555        56888229.064751208        1128930768.4009333     
   924990058.17238820        54765765.217505783        1125867973.8509538     
   805282816.36421919        45266203.035577357        1128798074.6260319     
   683362445.05563879        28389542.518947005        1137721070.7261753     
   559228944.24666762        4135783.6676750481        1152636962.1513715     
   890159609.10888529        46615696.608627886        1219904702.7579448     
   788018501.82640839        44044108.077476948        1217138906.7340610     
   683663601.09047890        34093208.034816802        1220293863.4085450     
   577094906.90109682        16762996.480644196        1229369572.7813957     
   468312419.25825268       -7946526.5850602984        1244366034.8526266     
   746164880.77339292        38842114.063224614        1308934783.5780368     
   659170656.72566640        35759564.311020970        1306465211.4683490     
   569961975.27143538        25295489.870463610        1309844249.4303429     
   478538836.41069967        7449890.7415644825        1319071897.4640203     
   384901240.14345843       -17777233.075696141        1334148155.5693758     
   610499985.47367597        33567481.428557396        1396021010.8611896     
   538446522.87016189        29912133.918135464        1393846888.0538082     
   464177938.90709072        18873048.542520881        1397449232.6914270     
   387694233.58446604        450225.30173067749        1406828044.7740352     
   308995406.90228325       -25356335.804256275        1421983324.3016386     
   483164923.20973843        30791798.704630628        1481163384.6074073     
   425846100.25989527        26501816.898821369        1479283936.4904523     
   366311491.99744344        14825884.050989062        1483108813.1917892     
   304561098.42238671       -4235999.8388597518        1492638014.7114353     
   240594919.53472510       -30683834.770724624        1507871541.0493872     
   559228944.24666762        4135783.6676750481        1152636962.1513715     
   462539604.70112938       -33482226.410569221        1162006867.0819011     
   353823285.02568233       -111190170.25517645        1178904273.2207177     
   233079985.22032714       -228988047.86614388        1203329180.5678234     
   100309705.28506297       -386875859.24348593        1235281589.1231930     
   468312419.25825268       -7946526.5850602984        1244366034.8526266     
   390691917.90049076       -42086434.171291351        1242821114.9799156     
   302903464.67347807       -110119514.65503325        1247614391.9298403     
   204947059.57724243       -212045768.03618771        1258745865.7023804     
   96822702.611770302       -347865194.31478882        1276215536.2975347     
   384901240.14345843       -17777233.075696141        1334148155.5693758     
   322951564.44299394       -49458441.929099217        1323857277.1975620     
   252692965.13396329       -108836062.81105487        1318715291.2627017     
   174125442.21637341       -195910095.72153977        1318722197.7647972     
   87248995.690221682       -310680540.66056842        1323877996.7038469     
   308995406.90228325       -25356335.804256275        1421983324.3016386     
   259318544.32864833       -55598249.683960944        1405115353.7348247     
   203191786.40712598       -107339814.72329076        1392206971.2193065     
   140615133.13771641       -180581030.92224842        1383258176.7550752     
   71588584.520416766       -275321898.28083163        1378268970.3421342     
   240594919.53472510       -30683834.770724624        1507871541.0493872     
   199792857.55745944       -60505857.435848951        1486595344.5917013     
   154399928.49297285       -105630770.39170972        1468089431.7996407     
   104416132.34126931       -166058573.63828951        1452353802.6732163     
   49841469.102358103       -241789267.17556426        1439388457.2124085     
   100309705.28506297       -386875859.24348593        1235281589.1231930     
   85410057.232990086       -546738180.56793916        1196699331.5196683     
   57920444.577574819       -748567050.57020032        1154765181.5289128     
   17840867.318826258       -992362469.25023067        1109479139.1509199     
  -34828674.543254852       -1278124436.6080642        1060841204.3857036     
   96822702.611770302       -347865194.31478882        1276215536.2975347     
   79865678.256611168       -489025830.98167193        1221919179.2667484     
   51521829.833525211       -668142547.87498629        1165076344.0844617     
   11791157.342503011       -885215344.99475193        1105687030.7506716     
  -39326339.216445506       -1140244222.3409467        1043751239.2653823     
   87248995.690221682       -310680540.66056842        1323877996.7038469     
   70535778.562653571       -432449137.61066175        1255271204.2037697     
   43638877.902549803       -588163346.33586824        1184923347.7879245     
   6558293.7099236548       -777823166.83615279        1112834427.4563141     
  -40705974.015223265       -1001428599.1115055        1039004443.2089257     
   71588584.520416766       -275321898.28083163        1378268970.3421342     
   57420358.151094124       -377008100.45495373        1296755406.3307500     
   34271588.784655452       -508629445.95280355        1214306192.6393158     
   2142276.4210906327       -670185934.77440190        1130921329.2678535     
  -38967578.939597815       -861677566.91974306        1046600816.2163602     
   49841469.102358103       -241789267.17556426        1439388457.2124085     
   40519417.021955281       -322702719.51449955        1346371785.6476674     
   23419962.479826838       -429540846.72585076        1253224878.6386321     
  -1456894.5240170360       -562303648.80958116        1159947736.1852942     
  -34111153.989562303       -720991125.76565778        1066540358.2876478     
   1534149084.5049729        24463830.600037754        1522294895.1866925     
   1480684282.7712789        14068270.630820811        1489241737.4682772     
   1428233205.8073661        7051793.2275392413        1466628433.4814587     
   1376795853.6132381        3414398.3902059793        1454454983.2262366     
   1326372226.1888945        3156086.1188216209        1452721386.7026100     
   1093488362.5602529        1210770.7244254947        1504332959.9160442     
   1065387374.2036049       -2986584.9200070500        1484243712.1026132     
   1038046676.7567835       -4649637.5316896439        1471794881.3880599     
   1011466270.2197841       -3778387.1106287241        1466986467.7723784     
   985646154.59260917       -372833.65682178736        1469818471.2555690     
   690909885.59146523       -10617615.658410430        1485976191.9528072     
   680174320.23266065       -11016284.091810197        1478555181.2077467     
   669945611.92371798       -9725429.0256659091        1475975150.9288359     
   660223760.66464114       -6745050.4599703550        1478236101.1160758     
   651008766.45542765       -2075148.3947307467        1485338031.7694669     
   326413653.59861416       -11021328.548463777        1467224591.2969911     
   325045120.85844141       -10020826.884597093        1472176144.7836773     
   323930011.30817270       -8175581.2543831617        1479169242.1037915     
   323068324.94781029       -5485591.6578166038        1488203883.2573302     
   322460061.77735084       -1950858.0949066132        1499280068.2443018     
  -333.41830313155145       -367.94573692822740        1448078157.9485915     
  -223.91905115818187       -213.29836765885244        1465106602.8304017     
  -125.08985568982554       -94.217852018409644        1481377154.9129221     
  -36.930711922632909       -10.704176075735152        1496889814.1961467     
   40.558374378776513        37.242640953772565        1511644580.6800728     
   1326372226.1888945        3156086.1188216209        1452721386.7026100     
   1275818864.5105665        4230272.6773598194        1442103810.8343484     
   1225156010.4401205        4939484.5955045223        1437018129.3983452     
   1174383663.9775503        5283721.8732351065        1437464342.3946056     
   1123501825.1228647        5262984.5105815530        1443442449.8231261     
   985646154.59260917       -372833.65682178736        1469818471.2555690     
   949102579.58972871        844241.88386440277        1461060158.8346226     
   912476885.03938949        1787585.5996880531        1457513736.5820308     
   875769070.94159365        2457197.4906577468        1459179204.4977961     
   838979137.29633582        2853077.5567513704        1466056562.5819204     
   651008766.45542765       -2075148.3947307467        1485338031.7694669     
   627560680.23112464       -989473.24096840620        1478470917.7812715     
   604057847.30402875       -86287.096516817808        1476495689.6975303     
   580500267.67413318        634410.03860267997        1479412347.5182438     
   556887941.34144533        1172618.1644159853        1487220891.2434111     
   322460061.77735084       -1950858.0949066132        1499280068.2443018     
   311193166.43476015       -1270872.6971222609        1494336087.6743002     
   299898897.23403746       -682133.49311441183        1493963988.7448463     
   288577254.17518133       -184640.48288315535        1498163771.4559448     
   277228237.25819170        221606.33357004821        1506935435.8075936     
   40.558374378776513        37.242640953772565        1511644580.6800728     
   38.200630433641024        43.515385960341902        1508655668.5137019     
   34.829418813339274        46.409906423857826        1509918633.7239776     
   30.444731477142028        45.926173286748970        1515433476.3109021     
   25.046575253378386        42.064211912197578        1525200196.2744720     
   1123501825.1228647        5262984.5105815530        1443442449.8231261     
   1073521884.3259135        5828511.5542776585        1436116364.7195892     
   1023859586.4632989        7452848.3790988326        1433806009.6380131     
   974514931.53502345        10135994.985047162        1436511384.5783949     
   925487919.54108858        13877951.372133791        1444232489.5407314     
   838979137.29633582        2853077.5567513704        1466056562.5819204     
   801909152.17656195        3401712.9033401012        1459857346.6653037     
   765077399.16875541        4744455.2898215055        1458577033.9469619     
   728483878.27291787        6881304.7161963880        1462215624.4269011     
   692128589.48904407        9812261.1824519634        1470773118.1051230     
   556887941.34144533        1172618.1644159853        1487220891.2434111     
   532451263.83120203        1621367.3936008811        1482055898.5542719     
   508173407.61055601        2599520.9214445055        1481712982.2397368     
   484054372.67950547        4107078.7479369938        1486192142.2998064     
   460094159.03805327        6144040.8730946183        1495493378.7344818     
   277228237.25819170        221606.33357004821        1506935435.8075936     
   265148219.28983390        487475.02506209910        1502712020.3865030     
   253147611.78869948        1018045.2739651352        1503213854.5163383     
   241226414.75479117        1813317.0802886784        1508440938.1970999     
   229384628.18811479        2873290.4440521151        1518393271.4287968     
   25.046575253378386        42.064211912197578        1525200196.2744720     
   18.552454581756983        35.797709965726433        1521825712.1619940     
   11.703192490200484        28.347403980027693        1523079650.7767699     
   4.4987793252586927        19.713261083044639        1528962012.1187963     
  -3.0607726060631597        9.8953216042386583        1539472796.1880765     
   925487919.54108858        13877951.372133791        1444232489.5407314     
   872695706.85253072        17081083.814090371        1440072016.3983207     
   819975347.66695416        20523727.932651460        1440754464.8957665     
   767326841.98435664        24205883.727811962        1446279835.0330620     
   714750189.80474353        28127551.199581593        1456648126.8102133     
   692128589.48904407        9812261.1824519634        1470773118.1051230     
   651836606.64921522        12005261.797111958        1467231123.1339271     
   611598514.13600349        14377896.833826482        1468694875.2897358     
   571414311.94940674        16930166.292595595        1475164374.5725524     
   531284000.08942401        19662070.173405379        1486639620.9823794     
   460094159.03805327        6144040.8730946183        1495493378.7344818     
   432767621.72453821        7466474.3637267649        1492548904.8954017     
   405477011.56127304        8908665.0218614042        1494773003.6704822     
   378222328.54826301        10470612.847511187        1502165675.0597241     
   351003572.68549955        12152317.840650991        1514726919.0631337     
   229384628.18811479        2873290.4440521151        1518393271.4287968     
   215488752.07849997        3464721.5139357150        1516025361.6827428     
   201610839.94276893        4116032.4967673197        1518988850.0380039     
   187750891.78092900        4827223.3925679848        1527283736.4945862     
   173908907.59297085        5598294.2013069838        1540910021.0524838     
  -3.0607726060631597        9.8953216042386583        1539472796.1880765     
  -2.2889049630018339        3.2477213226437347        1537660493.4959531     
 -0.71951117225416072      -0.74145707888458290        1541342414.3923059     
   1.6474057466172378       -2.0722247063891204        1550518558.8771288     
   4.8118374669396777      -0.74461174405835950        1565188926.9504268     
   714750189.80474353        28127551.199581593        1456648126.8102133     
   657291185.15073478        30251319.724988341        1454171587.8205185     
   599540639.16689861        31403283.817631245        1457431951.1234889     
   541498551.85323024        31583443.477502257        1466429216.7191174     
   483164923.20973843        30791798.704630628        1481163384.6074073     
   531284000.08942401        19662070.173405379        1486639620.9823794     
   488512751.12966955        21351798.264601558        1484942799.7728109     
   445522846.13360119        22312672.901413083        1488907513.0586762     
   402314285.10122412        22544694.083863929        1498533760.8399680     
   358887068.03253686        22047861.811946154        1513821543.1166890     
   351003572.68549955        12152317.840650991        1514726919.0631337     
   322704742.85647601        13343404.528554678        1513894848.4761326     
   294260142.28466600        14048588.740503579        1518648944.5873272     
   265669770.97006240        14267870.476472244        1528989207.3967228     
   236933628.91266361        14001249.736460187        1544915636.9043190     
   173908907.59297085        5598294.2013069838        1540910021.0524838     
   159867160.33116949        6226138.5168980211        1541027733.9304845     
   145752527.62009162        6611031.3348989934        1546656245.7094479     
   131565009.45974295        6752972.6553299204        1557795556.3893824     
   117304605.85011767        6651962.4781724289        1574445665.9702849     
   4.8118374669396777      -0.74461174405835950        1565188926.9504268     
   3.5537332234445707       0.22957913043158673        1566341456.1358643     
   2.1398831424772444       0.68461582556868561        1572929416.4250400     
  0.57027212622458801       0.62045009697740972        1584952807.8179514     
  -1.1550969887545710        3.7090705964457515E-002   1602411630.3145990     
   483164923.20973843        30791798.704630628        1481163384.6074073     
   425846100.25989527        26501816.898821369        1479283936.4904523     
   366311491.99744344        14825884.050989062        1483108813.1917892     
   304561098.42238671       -4235999.8388597518        1492638014.7114353     
   240594919.53472510       -30683834.770724624        1507871541.0493872     
   358887068.03253686        22047861.811946154        1513821543.1166890     
   316576484.41528291        19033935.473910823        1510414530.8739245     
   272604061.82232833        10480545.883537531        1512553518.9607542     
   226969800.25368845       -3612306.9591196775        1520238507.3771627     
   179673699.70934579       -23244623.054118022        1533469496.1231580     
   236933628.91266361        14001249.736460187        1544915636.9043190     
   209178928.94595480        12127672.161592267        1540627331.2621434     
   180316336.34045875        6561119.1240987703        1541726701.4608390     
   150345851.09617391       -2698409.3760247007        1548213747.5004084     
   119267473.21309921       -15650913.338778272        1560088469.3808448     
   117304605.85011767        6651962.4781724289        1574445665.9702849     
   103653433.85190807        5783026.9618614316        1569922337.6550918     
   89448315.551816091        3067603.7726118639        1570628360.6920557     
   74689250.949846208       -1494307.0895669051        1576563735.0811729     
   59376240.045991011       -7902705.6246936694        1587728460.8224485     
  -1.1550969887545710        3.7090705964457515E-002   1602411630.3145990     
 -0.86686070409759264      -0.12529267916212855        1598299550.0527833     
 -0.54359401595423129      -0.17090527710987674        1599258496.6544039     
 -0.18530037852112285       -9.9763112148610278E-002   1605288470.1194596     
  0.20801885854874277        8.8131745491236951E-002   1616389470.4479542     
   240594919.53472510       -30683834.770724624        1507871541.0493872     
   199792857.55745944       -60505857.435848951        1486595344.5917013     
   154399928.49297285       -105630770.39170972        1468089431.7996407     
   104416132.34126931       -166058573.63828951        1452353802.6732163     
   49841469.102358103       -241789267.17556426        1439388457.2124085     
   179673699.70934579       -23244623.054118022        1533469496.1231580     
   148444851.36481586       -45799330.587268151        1507760222.3929675     
   113772852.70054631       -79831205.852887690        1484967602.7610972     
   75657703.716539517       -125340248.85096262        1465091637.2275517     
   34099404.412778616       -182326459.58155131        1448132325.7923532     
   119267473.21309921       -15650913.338778272        1560088469.3808448     
   98030039.737611443       -30812845.369028941        1531285121.2735207     
   74497172.709852934       -53626222.573518239        1505544797.6972325     
   48668872.129820243       -84091044.952252373        1482867498.6519771     
   20545137.997510843       -122207312.50524150        1463253224.1377511     
   59376240.045991011       -7902705.6246936694        1587728460.8224485     
   48548422.675838292       -15546401.781160358        1557170041.2333729     
   36572888.520874262       -27015820.553664759        1529821016.6080446     
   23449637.581120633       -42310961.942133002        1505681386.9464486     
   9178669.8565643281       -61431825.946610346        1484751152.2485883     
  0.20801885854874277        8.8131745491236951E-002   1616389470.4479542     
  0.17948673682852714       0.17631139222588529        1585414982.2725270     
  0.13363010331978920       0.20674405411090668        1557796259.4935400     
   7.0438481055249857E-002  0.17939203236447598        1533533302.1109879     
  -1.0086711685677541E-002   9.4262830142199217E-002   1512626110.1248825     
   49841469.102358103       -241789267.17556426        1439388457.2124085     
   40519417.021955281       -322702719.51449955        1346371785.6476674     
   23419962.479826838       -429540846.72585076        1253224878.6386321     
  -1456894.5240170360       -562303648.80958116        1159947736.1852942     
  -34111153.989562303       -720991125.76565778        1066540358.2876478     
   34099404.412778616       -182326459.58155131        1448132325.7923532     
   29909555.251424640       -242171041.88205218        1347615088.1241693     
   19886654.247637630       -321459130.32400060        1246313887.3676081     
   4030701.4014067650       -420190724.90742242        1144228723.5226684     
  -17658303.287244022       -538365825.63224947        1041359596.5893614     
   20545137.997510843       -122207312.50524150        1463253224.1377511     
   19619698.486433081       -161543362.74791980        1357503829.4219377     
   14805557.752197370       -213841750.40112668        1250316743.9736748     
   6102715.7948037386       -279102475.46485859        1141691967.7929597     
  -6488827.3857467771       -357325537.93911409        1031629500.8798108     
   9178669.8565643281       -61431825.946610346        1484751152.2485883     
   9649846.7269766480       -80819682.112118572        1376038009.5409801     
   8176672.9935058132       -106688706.95723435        1265233448.4568536     
   4759148.6561716497       -139038900.48189667        1152337468.9961960     
  -602726.28505971283       -177870262.68621504        1037350071.1590158     
  -1.0086711685677541E-002   9.4262830142199217E-002   1512626110.1248825     
  -2.6955178016392280E-002   2.5326718744201029E-002   1403217628.4812911     
  -2.8431881391357647E-002   7.6957899759770559E-003   1291064000.8171091     
  -1.4504789311034768E-002   4.1411539948104287E-002   1176165227.1323383     
   1.4820928367360039E-002  0.12645534802441422        1058521307.4269629     
  -333.41830313155145       -367.94573692822740        1448078157.9485915     
  -223.91905115818187       -213.29836765885244        1465106602.8304017     
  -125.08985568982554       -94.217852018409644        1481377154.9129221     
  -36.930711922632909       -10.704176075735152        1496889814.1961467     
   40.558374378776513        37.242640953772565        1511644580.6800728     
  -326414161.26463908        11020855.087093949        1467224582.6696372     
  -325045463.45845973        10020552.749398634        1472176169.7080874     
  -323930202.25366306        8175461.7404272407        1479169284.4707921     
  -323068377.65025306        5485582.0601666272        1488203926.9577539     
  -322459989.64822835        1950913.7086212039        1499280097.1689637     
  -690910057.29229820        10617457.665526211        1485976134.0004432     
  -680174426.82619119        11016201.648673117        1478555199.6089802     
  -669945658.89280117        9725403.8561005890        1475975213.4653234     
  -660223753.49212575        6745064.2878115177        1478236175.5694633     
  -651008710.62416720        2075182.9438005984        1485338085.9214110     
  -1093488021.5012755       -1210560.2104369402        1504332811.9410090     
  -1065387114.0222490        2986733.3994446993        1484243692.5330832     
  -1038046495.0072672        4649732.1291772127        1471794941.8965063     
  -1011466164.4563315        3778435.9787539840        1466986560.0312817     
  -985646122.36944163        372844.94818270206        1469818546.9374065     
  -1534148053.8915744       -24463198.540794969        1522294616.4913359     
  -1480683525.0466294       -14067851.998277307        1489241648.4803922     
  -1428232710.5970612       -7051553.4403444529        1466628469.7643495     
  -1376795610.5428712       -3414302.8670029044        1454455080.3432043     
  -1326372224.8840547       -3156100.2782434225        1452721480.2169590     
   40.558374378776513        37.242640953772565        1511644580.6800728     
   38.200630433641024        43.515385960341902        1508655668.5137019     
   34.829418813339274        46.409906423857826        1509918633.7239776     
   30.444731477142028        45.926173286748970        1515433476.3109021     
   25.046575253378386        42.064211912197578        1525200196.2744720     
  -322459989.64822835        1950913.7086212039        1499280097.1689637     
  -311193103.34802043        1270931.7919536978        1494336111.7676518     
  -299898843.99889243        682193.37168410420        1493964006.7702918     
  -288577211.60085034        184698.44779600203        1498163782.1768775     
  -277228206.15388823       -221552.97969175875        1506935437.9874151     
  -651008710.62416720        2075182.9438005984        1485338085.9214110     
  -627560641.30228746        989501.14683413506        1478470963.6912789     
  -604057824.86910105        86309.720889210701        1476495724.8923995     
  -580500261.32460606       -634391.33402681351        1479412369.5247703     
  -556887950.66880536       -1172602.0179231763        1487220897.5883949     
  -985646122.36944163        372844.94818270206        1469818546.9374065     
  -949102575.66217291       -844248.41997307539        1461060224.2845774     
  -912476907.78120744       -1787604.5424749851        1457513788.0903046     
  -875769118.72654057       -2457223.4193049073        1459179238.3545821     
  -838979208.49818087       -2853105.0504896641        1466056575.0774174     
  -1326372224.8840547       -3156100.2782434225        1452721480.2169590     
  -1275818906.4276724       -4230316.9084578156        1442103893.5475547     
  -1225156092.7352097       -4939549.4184061885        1437018196.3640044     
  -1174383783.8066516       -5283797.8080363870        1437464388.6663129     
  -1123501979.6420150       -5263062.0774037242        1443442470.4544713     
   25.046575253378386        42.064211912197578        1525200196.2744720     
   18.552454581756983        35.797709965726433        1521825712.1619940     
   11.703192490200484        28.347403980027693        1523079650.7767699     
   4.4987793252586927        19.713261083044639        1528962012.1187963     
  -3.0607726060631597        9.8953216042386583        1539472796.1880765     
  -277228206.15388823       -221552.97969175875        1506935437.9874151     
  -265148195.81406346       -487427.52649602294        1502712015.4881475     
  -253147596.71250412       -1018006.2008515745        1503213845.1216598     
  -241226408.84921187       -1813289.0027614236        1508440926.8879428     
  -229384632.22418639       -2873275.9322312325        1518393260.7870018     
  -556887950.66880536       -1172602.0179231763        1487220897.5883949     
  -532451268.05068827       -1621348.2117356956        1482055890.6720352     
  -508173407.55395734       -2599501.4768374860        1481712965.2939715     
  -484054369.17861116       -4107061.8132196367        1486192121.4542089     
  -460094152.92464799       -6144029.2208801210        1495493359.1527405     
  -838979208.49818087       -2853105.0504896641        1466056575.0774174     
  -801909198.15742159       -3401726.2580171525        1459857337.7136531     
  -765077420.82116294       -4744457.4805440903        1458577011.2937152     
  -728483876.48941338       -6881298.7180987597        1462215595.8175967     
  -692128565.16216075       -9812249.9706468284        1470773091.2853007     
  -1123501979.6420150       -5263062.0774037242        1443442470.4544713     
  -1073521986.1342545       -5828561.6653084755        1436116356.6130033     
  -1023859636.5141270       -7452874.2119864821        1433805983.1208835     
  -974514930.78161669       -10135999.717388690        1436511349.9781039     
  -925487868.93673038       -13877938.181540608        1444232457.1846700     
  -3.0607726060631597        9.8953216042386583        1539472796.1880765     
  -2.2889049630018339        3.2477213226437347        1537660493.4959531     
 -0.71951117225416072      -0.74145707888458290        1541342414.3923059     
   1.6474057466172378       -2.0722247063891204        1550518558.8771288     
   4.8118374669396777      -0.74461174405835950        1565188926.9504268     
  -229384632.22418639       -2873275.9322312325        1518393260.7870018     
  -215488754.40569198       -3464716.5136491060        1516025355.0855060     
  -201610839.42146811       -4116033.2093038782        1518988846.7392077     
  -187750887.27151036       -4827226.0191771463        1527283735.7481077     
  -173908897.95582181       -5598294.9432844073        1540910022.1122053     
  -460094152.92464799       -6144029.2208801210        1495493359.1527405     
  -432767615.86889184       -7466469.0789567232        1492548892.8714542     
  -405477005.27918911       -8908663.8238794655        1494772997.7120869     
  -378222321.15554434       -10470613.455661520        1502165673.6746473     
  -351003563.49795413       -12152317.974289000        1514726920.7591290     
  -692128565.16216075       -9812249.9706468284        1470773091.2853007     
  -651836586.67849612       -12005254.448179007        1467231106.8537955     
  -611598498.29267025       -14377892.585176677        1468694867.3109417     
  -571414300.00469530       -16930164.381672680        1475164372.6567376     
  -531283991.81455791       -19662069.837633342        1486639622.8911827     
  -925487868.93673038       -13877938.181540608        1444232457.1846700     
  -872695666.83450985       -17081072.621327400        1440071997.0325334     
  -819975318.46191967       -20523719.493215144        1440754455.5357730     
  -767326823.81896961       -24205878.797236890        1446279832.6943872     
  -714750182.90564263       -28127550.533335328        1456648128.5083754     
   4.8118374669396777      -0.74461174405835950        1565188926.9504268     
   3.5537332234445707       0.22957913043158673        1566341456.1358643     
   2.1398831424772444       0.68461582556868561        1572929416.4250400     
  0.57027212622458801       0.62045009697740972        1584952807.8179514     
  -1.1550969887545710        3.7090705964457515E-002   1602411630.3145990     
  -173908897.95582181       -5598294.9432844073        1540910022.1122053     
  -159867153.43122280       -6226138.2839703560        1541027734.5665507     
  -145752523.64110065       -6611030.7395797074        1546656245.9765203     
  -131565008.58545735       -6752972.3101172447        1557795556.3421066     
  -117304608.26428765       -6651962.9955688901        1574445665.6633177     
  -351003563.49795413       -12152317.974289000        1514726920.7591290     
  -322704736.47098863       -13343404.613977775        1513894849.4738722     
  -294260138.75721669       -14048588.964307427        1518648944.9961245     
  -265669770.35664779       -14267871.025316000        1528989207.3258805     
  -236933631.26927251       -14001250.796970062        1544915636.4631445     
  -531283991.81455791       -19662069.837633342        1486639622.8911827     
  -488512745.56555343       -21351798.760410726        1484942800.8578165     
  -445522843.20846999       -22312673.989586726        1488907513.4838457     
  -402314284.74330336       -22544695.525154397        1498533760.7692666     
  -358887070.17005134       -22047863.367104456        1513821542.7140741     
  -714750182.90564263       -28127550.533335328        1456648128.5083754     
  -657291180.71493077       -30251320.723307461        1454171588.7183979     
  -599540636.99485302       -31403285.815389991        1457431951.4396951     
  -541498551.74542356       -31583445.809635103        1466429216.6722646     
  -483164924.96662521       -30791800.705984011        1481163384.4161141     
  -1.1550969887545710        3.7090705964457515E-002   1602411630.3145990     
 -0.86686070409759264      -0.12529267916212855        1598299550.0527833     
 -0.54359401595423129      -0.17090527710987674        1599258496.6544039     
 -0.18530037852112285       -9.9763112148610278E-002   1605288470.1194596     
  0.20801885854874277        8.8131745491236951E-002   1616389470.4479542     
  -117304608.26428765       -6651962.9955688901        1574445665.6633177     
  -103653435.57845876       -5783027.3954408057        1569922337.4535499     
  -89448316.569466814       -3067604.0514328405        1570628360.5871487     
  -74689251.237286285        1494307.0365346856        1576563735.0641093     
  -59376239.581953518        7902705.8683447056        1587728460.8844304     
  -236933631.26927251       -14001250.796970062        1544915636.4631445     
  -209178930.52892464       -12127672.737259276        1540627330.9749281     
  -180316337.17726177       -6561119.3065037504        1541726701.3099997     
  -150345851.21428290        2698409.4953092858        1548213747.4683607     
  -119267472.63999470        15650913.668150358        1560088469.4500048     
  -358887070.17005134       -22047863.367104456        1513821542.7140741     
  -316576485.71825296       -19033936.150738150        1510414530.6169088     
  -272604062.36699623       -10480545.936169833        1512553518.8229575     
  -226969800.11628363        3612307.2765826583        1520238507.3322237     
  -179673698.96611604        23244623.487515286        1533469496.1446972     
  -483164924.96662521       -30791800.705984011        1481163384.4161141     
  -425846101.14644247       -26501817.635858700        1479283936.3794975     
  -366311492.13866770       -14825883.940428659        1483108813.1260238     
  -304561097.94328034        4236000.3803759515        1492638014.6556888     
  -240594918.56030411        30683835.326480180        1507871540.9684880     
  0.20801885854874277        8.8131745491236951E-002   1616389470.4479542     
  0.17948673682852714       0.17631139222588529        1585414982.2725270     
  0.13363010331978920       0.20674405411090668        1557796259.4935400     
   7.0438481055249857E-002  0.17939203236447598        1533533302.1109879     
  -1.0086711685677541E-002   9.4262830142199217E-002   1512626110.1248825     
  -59376239.581953518        7902705.8683447056        1587728460.8844304     
  -48548422.317960486        15546402.074005328        1557170041.2836363     
  -36572888.284033433        27015820.846116155        1529821016.6381595     
  -23449637.480168503        42310962.184683740        1505681386.9480000     
  -9178669.9063606001        61431826.089730032        1484751152.2131493     
  -119267472.63999470        15650913.668150358        1560088469.4500048     
  -98030039.343842626        30812845.613140486        1531285121.3423343     
  -74497172.490473449        53626222.748854466        1505544797.7488520     
  -48668872.079902865        84091045.075237036        1482867498.6695642     
  -20545138.112113923        122207312.59235007        1463253224.1044662     
  -179673698.96611604        23244623.487515286        1533469496.1446972     
  -148444850.89814970        45799330.793748982        1507760222.4486210     
  -113772852.48569334        79831205.914949253        1484967602.8256123     
  -75657703.728761315        125340248.85106651        1465091637.2756779     
  -34099404.627345115        182326459.60213506        1448132325.7988076     
  -240594918.56030411        30683835.326480180        1507871540.9684880     
  -199792856.98087397        60505857.615852311        1486595344.6024952     
  -154399928.26968056        105630770.34443884        1468089431.8684471     
  -104416132.42675135        166058573.51214114        1452353802.7663496     
  -49841469.452059686        241789267.11905509        1439388457.2961929     
  -1.0086711685677541E-002   9.4262830142199217E-002   1512626110.1248825     
  -2.6955178016392280E-002   2.5326718744201029E-002   1403217628.4812911     
  -2.8431881391357647E-002   7.6957899759770559E-003   1291064000.8171091     
  -1.4504789311034768E-002   4.1411539948104287E-002   1176165227.1323383     
   1.4820928367360039E-002  0.12645534802441422        1058521307.4269629     
  -9178669.9063606001        61431826.089730032        1484751152.2131493     
  -9649846.7793939561        80819682.198456749        1376038009.5217915     
  -8176673.0348660350        106688707.03238666        1265233448.4591410     
  -4759148.6727690548        139038900.59154835        1152337469.0251782     
   602726.30689274520        177870262.87591845        1037350071.2199241     
  -20545138.112113923        122207312.59235007        1463253224.1044662     
  -19619698.557615377        161543362.86383864        1357503829.4011915     
  -14805557.783383444        213841750.53444004        1250316743.9759204     
  -6102715.7894155979        279102475.60416067        1141691967.8286483     
   6488827.4242827892        357325538.07297707        1031629500.9593524     
  -34099404.627345115        182326459.60213506        1448132325.7988076     
  -29909555.361615643        242171042.02148694        1347615088.1194918     
  -19886654.273978531        321459130.51386976        1246313887.3674660     
  -4030701.3644437790        420190725.07924342        1144228723.5427308     
   17658303.366997451        538365825.71763301        1041359596.6452827     
  -49841469.452059686        241789267.11905509        1439388457.2961929     
  -40519417.191390067        322702719.67142290        1346371785.6766880     
  -23419962.506653458        429540846.97067380        1253224878.6337669     
   1456894.6021571457        562303649.01684117        1159947736.1674302     
   34111154.135030359        720991125.80988443        1066540358.2776866     
  -1534148053.8915744       -24463198.540794969        1522294616.4913359     
  -1480683525.0466294       -14067851.998277307        1489241648.4803922     
  -1428232710.5970612       -7051553.4403444529        1466628469.7643495     
  -1376795610.5428712       -3414302.8670029044        1454455080.3432043     
  -1326372224.8840547       -3156100.2782434225        1452721480.2169590     
  -1961876295.4680636       -35130372.046976209        1392381750.0636754     
  -1887243851.4548376       -26273918.321230173        1376742089.4495094     
  -1813034077.4812319       -18826364.727541089        1367300780.3199115     
  -1739246973.5472369       -12787711.265895486        1364057822.6748874     
  -1665882539.6528602       -8157957.9363107681        1367013216.5144327     
  -2331399059.2663975       -28335902.219707608        1259089774.1590316     
  -2247717093.8286934       -24653859.433879018        1261552972.6900263     
  -2163866754.0748429       -20410568.927566409        1265973084.8952658     
  -2079848040.0048461       -15606030.700767636        1272350110.7747447     
  -1995660951.6187053       -10240244.753483295        1280684050.3284669     
  -2642716345.2865901       -4079789.0589981079        1122418688.7773969     
  -2562103252.1681962       -9207675.3362227678        1143674298.2019460     
  -2480730740.3779006       -11804166.040422320        1162645383.4904075     
  -2398598809.9156966       -11869261.171610832        1179331944.6427834     
  -2315707460.7815857       -9402960.7297697067        1193733981.6590681     
  -2895828153.5286255        37637967.435158372        982368493.91878247     
  -2830402326.4733443        20064633.971746683        1023106065.9852686     
  -2763626036.3904014        6992843.9338797331        1057317676.1053394     
  -2695499283.2797871       -1577402.6784205437        1085003324.2789943     
  -2626022067.1415095       -5646105.8651726246        1106163010.5062306     
  -1326372224.8840547       -3156100.2782434225        1452721480.2169590     
  -1275818906.4276724       -4230316.9084578156        1442103893.5475547     
  -1225156092.7352097       -4939549.4184061885        1437018196.3640044     
  -1174383783.8066516       -5283797.8080363870        1437464388.6663129     
  -1123501979.6420150       -5263062.0774037242        1443442470.4544713     
  -1665882539.6528602       -8157957.9363107681        1367013216.5144327     
  -1601062060.1140323       -6961389.1664301753        1359471077.3187377     
  -1536392535.7573848       -6268004.3371514082        1356847760.5313559     
  -1471873966.5829158       -6077803.4484695792        1359143266.1522863     
  -1407506352.5906243       -6390786.5003747940        1366357594.1815271     
  -1995660951.6187053       -10240244.753483295        1280684050.3284669     
  -1918324931.2189851       -7298376.6499737501        1275913499.7851765     
  -1841400316.4197092       -5727860.5479513407        1275448704.5726531     
  -1764887107.2208762       -5528696.4473983049        1279289664.6908977     
  -1688785303.6224849       -6700884.3483229876        1287436380.1399119     
  -2315707460.7815857       -9402960.7297697067        1193733981.6590681     
  -2227607519.7425284       -5241279.3590992689        1191431160.9468703     
  -2140179434.7221766       -3319118.0507907867        1192821028.4878964     
  -2053423205.7205312       -3636476.8048355579        1197903584.2821462     
  -1967338832.7375994       -6193355.6212499142        1206678828.3296230     
  -2626022067.1415095       -5646105.8651726246        1106163010.5062306     
  -2528909825.6846638       -790097.29380106926        1106024060.8038149     
  -2432729890.6647882        958223.15432882309        1108964732.2770829     
  -2337482262.0818920       -401144.52079784870        1114985024.9260292     
  -2243166939.9359612       -4868200.3191475868        1124084938.7506588     
  -1123501979.6420150       -5263062.0774037242        1443442470.4544713     
  -1073521986.1342545       -5828561.6653084755        1436116356.6130033     
  -1023859636.5141270       -7452874.2119864821        1433805983.1208835     
  -974514930.78161669       -10135999.717388690        1436511349.9781039     
  -925487868.93673038       -13877938.181540608        1444232457.1846700     
  -1407506352.5906243       -6390786.5003747940        1366357594.1815271     
  -1345155830.1791847       -7826425.1603111625        1359531649.6955247     
  -1282995579.9265141       -9896304.3494804502        1357406557.6488609     
  -1221025601.8326161       -12600424.067886710        1359982318.0415404     
  -1159245895.8974893       -15938784.315537393        1367258930.8735588     
  -1688785303.6224849       -6700884.3483229876        1287436380.1399119     
  -1614963932.0502300       -9276566.0031384826        1281259205.3597002     
  -1541205460.9078932       -12061915.757681131        1279467995.1088247     
  -1467509890.1954730       -15056933.611948431        1282062749.3872869     
  -1393877219.9129734       -18261619.565946758        1289043468.1950803     
  -1967338832.7375994       -6193355.6212499142        1206678828.3296230     
  -1882946291.7473955       -10178984.193800092        1201299023.6055293     
  -1798489279.4582620       -13949708.436584115        1199990295.5007687     
  -1713967795.8701890       -17505528.349564791        1202752644.0153432     
  -1629381840.9831822       -20846443.932772696        1209586069.1492424     
  -2243166939.9359612       -4868200.3191475868        1124084938.7506588     
  -2149102909.2706842       -10533679.732308626        1119651104.4330137     
  -2054847035.5776153       -15559682.386165738        1118973458.8246984     
  -1960399318.8567617       -19946208.280742049        1122052001.9257116     
  -1865759759.1081212       -23693257.416027546        1128886733.7360508     
  -925487868.93673038       -13877938.181540608        1444232457.1846700     
  -872695666.83450985       -17081072.621327400        1440071997.0325334     
  -819975318.46191967       -20523719.493215144        1440754455.5357730     
  -767326823.81896961       -24205878.797236890        1446279832.6943872     
  -714750182.90564263       -28127550.533335328        1456648128.5083754     
  -1159245895.8974893       -15938784.315537393        1367258930.8735588     
  -1093819054.2012372       -18679295.018595874        1362634191.3943720     
  -1028529165.3025334       -21876315.046811640        1362778727.4698250     
  -963376229.20138383       -25529844.400211811        1367692539.0999112     
  -898360245.89778376       -29639883.078768730        1377375626.2846305     
  -1393877219.9129734       -18261619.565946758        1289043468.1950803     
  -1316026147.4819472       -20602629.190050900        1283878500.4762797     
  -1238377126.9163892       -23617145.032380402        1283409165.2113733     
  -1160930158.2163000       -27305167.092943847        1287635462.4003565     
  -1083685241.3816803       -31666695.371735334        1296557392.0432432     
  -1629381840.9831822       -20846443.932772696        1209586069.1492424     
  -1539316946.6766448       -22851075.135712862        1203804924.2782562     
  -1449519203.3034868       -25746209.449918509        1202645768.7604179     
  -1359988610.8637211       -29531846.875434041        1206108602.5957370     
  -1270725169.3573384       -34207987.412220538        1214193425.7842088     
  -1865759759.1081212       -23693257.416027546        1128886733.7360508     
  -1763691451.7853208       -25424632.855558515        1122413462.8002996     
  -1661955394.4638267       -28263508.299436808        1120488538.1169622     
  -1560551587.1436331       -32209883.747651815        1123111959.6860392     
  -1459480029.8247523       -37263759.200245738        1130283727.5075307     
  -714750182.90564263       -28127550.533335328        1456648128.5083754     
  -657291180.71493077       -30251320.723307461        1454171588.7183979     
  -599540636.99485302       -31403285.815389991        1457431951.4396951     
  -541498551.74542356       -31583445.809635103        1466429216.6722646     
  -483164924.96662521       -30791800.705984011        1481163384.4161141     
  -898360245.89778376       -29639883.078768730        1377375626.2846305     
  -826704525.48967576       -31652930.762350768        1374299824.6849520     
  -754842575.45085454       -32978546.343543619        1376382121.7012875     
  -682774395.78131676       -33616729.822358400        1383622517.3336351     
  -610499986.48107338       -33567481.198812127        1396021011.5820026     
  -1083685241.3816803       -31666695.371735334        1296557392.0432432     
  -999486528.17120564       -34065138.173419535        1292782798.0854356     
  -915166897.22866869       -36060521.868235260        1293587498.8483870     
  -830726348.55406106       -37652846.456150591        1298971494.3320940     
  -746164882.14739144       -38842111.937187940        1308934784.5365477     
  -1270725169.3573384       -34207987.412220538        1214193425.7842088     
  -1175637188.7595227       -37487942.956529498        1209620508.9198549     
  -1080513602.3282988       -40649212.389464557        1209048082.8810005     
  -985354410.06364870       -43691795.710988939        1212476147.6676366     
  -890159611.96558881       -46615692.921140790        1219904703.2797706     
  -1459480029.8247523       -37263759.200245738        1130283727.5075307     
  -1355156507.2546277       -41921345.111675799        1124812957.1882088     
  -1250882690.7497478       -46744617.907252908        1122763873.7991207     
  -1146658580.3100886       -51733577.586894751        1124136477.3402669     
  -1042484175.9356580       -56888224.150641918        1128930767.8116534     
  -483164924.96662521       -30791800.705984011        1481163384.4161141     
  -425846101.14644247       -26501817.635858700        1479283936.3794975     
  -366311492.13866770       -14825883.940428659        1483108813.1260238     
  -304561097.94328034        4236000.3803759515        1492638014.6556888     
  -240594918.56030411        30683835.326480180        1507871540.9684880     
  -610499986.48107338       -33567481.198812127        1396021011.5820026     
  -538446523.45148635       -29912134.023079216        1393846888.4779491     
  -464177938.99765480       -18873048.766538486        1397449232.8813107     
  -387694233.11957324       -450225.42915581167        1406828044.7920878     
  -308995405.81723267        25356335.989080653        1421983324.2102845     
  -746164882.14739144       -38842111.937187940        1308934784.5365477     
  -659170657.83904195       -35759564.035061568        1306465211.9744890     
  -569961975.86978900       -25295490.596593261        1309844249.6441159     
  -478538836.23963499       -7449891.6217851341        1319071897.5454381     
  -384901238.94857812        17777232.889362678        1334148155.6784558     
  -890159611.96558881       -46615692.921140790        1219904703.2797706     
  -788018504.30910540       -44044107.671788812        1217138906.8691189     
  -683663602.75506997       -34093209.430598289        1220293863.4144363     
  -577094907.30347848       -16762998.197552174        1229369572.9157281     
  -468312417.95433706        7946526.0273240209        1244366035.3729837     
  -1042484175.9356580       -56888224.150641918        1128930767.8116534     
  -924990062.86168289       -54765764.933280259        1125867973.1618383     
  -805282819.65349495       -45266205.268536568        1128798074.1922739     
  -683362446.31110716       -28389545.156465679        1137721070.9029648     
  -559228942.83451700       -4135784.5970475674        1152636963.2938986     
  -240594918.56030411        30683835.326480180        1507871540.9684880     
  -199792856.98087397        60505857.615852311        1486595344.6024952     
  -154399928.26968056        105630770.34443884        1468089431.8684471     
  -104416132.42675135        166058573.51214114        1452353802.7663496     
  -49841469.452059686        241789267.11905509        1439388457.2961929     
  -308995405.81723267        25356335.989080653        1421983324.2102845     
  -259318543.58978626        55598249.956899345        1405115353.7484548     
  -203191786.03576913        107339815.01327412        1392206971.3042793     
  -140615133.15519515        180581031.15817252        1383258176.8777583     
  -71588584.948051021        275321898.39164340        1378268970.4688988     
  -384901238.94857812        17777232.889362678        1334148155.6784558     
  -322951563.54251379        49458442.294785157        1323857277.3480616     
  -252692964.61506879        108836063.43814698        1318715291.4210377     
  -174125442.16624868        195910096.31942779        1318722197.8973801     
  -87248996.196048960        310680540.93863314        1323877996.7770941     
  -468312417.95433706        7946526.0273240209        1244366035.3729837     
  -390691916.83905756        42086434.629531130        1242821115.4013195     
  -302903464.00757921        110119515.61906280        1247614392.2187288     
  -204947059.45990983        212045768.99589747        1258745865.8252237     
  -96822703.196060717        347865194.76000369        1276215536.2207947     
  -559228942.83451700       -4135784.5970475674        1152636963.2938986     
  -462539603.47940958        33482226.961141258        1162006867.9082351     
  -353823284.21329975        111190171.55601896        1178904273.6973581     
  -233079985.03618211        228988049.18757790        1203329180.6612756     
  -100309705.94806960        386875859.85579509        1235281588.7999771     
  -49841469.452059686        241789267.11905509        1439388457.2961929     
  -40519417.191390067        322702719.67142290        1346371785.6766880     
  -23419962.506653458        429540846.97067380        1253224878.6337669     
   1456894.6021571457        562303649.01684117        1159947736.1674302     
   34111154.135030359        720991125.80988443        1066540358.2776866     
  -71588584.948051021        275321898.39164340        1378268970.4688988     
  -57420358.404454693        377008100.58249438        1296755406.3797498     
  -34271588.864487410        508629446.09458226        1214306192.6304638     
  -2142276.3281420171        670185934.92791700        1130921329.2210548     
   38967579.204563469        861677567.08247292        1046600816.1514781     
  -87248996.196048960        310680540.93863314        1323877996.7770941     
  -70535778.903022468        432449137.70791829        1255271204.2193270     
  -43638878.041321486        588163346.37278485        1184923347.7646990     
  -6558293.6109454930        777823166.93323517        1112834427.4132090     
   40705974.388099492        1001428599.3892488        1039004443.1648507     
  -96822703.196060717        347865194.76000369        1276215536.2207947     
  -79865678.687094808        489025831.04768240        1221919179.1954145     
  -51521830.037149400        668142547.80529881        1165076344.0364571     
  -11791157.246228993        885215345.03281915        1105687030.7439215     
   39326339.685654938        1140244222.7302375        1043751239.3177878     
  -100309705.94806960        386875859.85579509        1235281588.7999771     
  -85410057.756664574        546738180.60181737        1196699331.3080223     
  -57920444.851976395        748567050.39211130        1154765181.4457550     
  -17840867.234015346        992362469.22665524        1109479139.2131910     
   34828675.097216845        1278124437.1054277        1060841204.6103034     
  -2895828153.5286255        37637967.435158372        982368493.91878247     
  -2830402326.4733443        20064633.971746683        1023106065.9852686     
  -2763626036.3904014        6992843.9338797331        1057317676.1053394     
  -2695499283.2797871       -1577402.6784205437        1085003324.2789943     
  -2626022067.1415095       -5646105.8651726246        1106163010.5062306     
  -3189322070.3079758        52912570.953371763        1003222939.2198418     
  -3126887048.1709805        40674750.256543398        1004165758.6302857     
  -3064468701.6886549        28381344.044143677        1008102648.6423328     
  -3002067030.8609939        16032352.316199303        1015033609.2559814     
  -2939682035.6879992        3627775.0726977587        1024958640.4712319     
  -3612338305.8424716        29330478.845041513        1027272095.2556176     
  -3525693995.6294279        30588198.813086987        986825166.88063514     
  -3440433499.7533755        27233204.324470520        958892341.65526986     
  -3356556818.2143321        19265495.379182577        943473619.57952321     
  -3274063951.0122838        6685071.9772312641        940569000.65339994     
  -4164876860.1321054       -33108308.889829159        1054515962.0261140     
  -4026823168.8486695       -10195020.358600855        971084290.73631060     
  -3891520430.5845666        3548424.7748522758        909686755.14414549     
  -3758968645.3397961        8122026.5105285645        870323355.24961960     
  -3629167813.1143589        3525784.8484301567        852994091.05273104     
  -4846937733.1768837       -134403792.25124502        1084954539.5313294     
  -4630274567.8287191       -81674907.258528233        956943130.19732153     
  -4417729494.1822262       -42672994.604704857        860485889.10896695     
  -4209302512.2373934       -17398054.289766550        795582816.26627064     
  -4004993621.9942312       -5850086.3137166500        762233911.66922617     
  -2626022067.1415095       -5646105.8651726246        1106163010.5062306     
  -2528909825.6846638       -790097.29380106926        1106024060.8038149     
  -2432729890.6647882        958223.15432882309        1108964732.2770829     
  -2337482262.0818920       -401144.52079784870        1114985024.9260292     
  -2243166939.9359612       -4868200.3191475868        1124084938.7506588     
  -2939682035.6879992        3627775.0726977587        1024958640.4712319     
  -2834395349.8416100        3698530.7718206644        1017497441.7998816     
  -2729352542.7972946        2956357.1306929588        1014348945.2230164     
  -2624553614.5550585        1401254.1493034363        1015513150.7406390     
  -2519998565.1149020       -966778.17234814167        1020990058.3527477     
  -3274063951.0122838        6685071.9772312641        940569000.65339994     
  -3157079732.4369054        3027501.3059384823        926588718.58715677     
  -3039650965.0287080        851760.07737839222        918154219.53420627     
  -2921777648.7876883        157848.29155242443        915265503.49454856     
  -2803459783.7138524        945765.94845664501        917922570.46818256     
  -3629167813.1143589        3525784.8484301567        852994091.05273104     
  -3496962973.4705486       -2803185.6914517879        833297891.16564190     
  -3363625157.3590183       -5355568.0056002140        820380555.21065319     
  -3229154364.7797718       -4131362.0940313339        814242083.18776155     
  -3093550595.7328110        869432.04326152802        814882475.09696853     
  -4004993621.9942312       -5850086.3137166500        762233911.66922617     
  -3854045072.9425421       -13793530.220342159        737624959.53533852     
  -3701275119.7882352       -15665627.118254423        721027952.25235343     
  -3546683762.5313196       -11466377.007456303        712442889.82027817     
  -3390271001.1717868       -1195779.8879485130        711869772.23910093     
  -2243166939.9359612       -4868200.3191475868        1124084938.7506588     
  -2149102909.2706842       -10533679.732308626        1119651104.4330137     
  -2054847035.5776153       -15559682.386165738        1118973458.8246984     
  -1960399318.8567617       -19946208.280742049        1122052001.9257116     
  -1865759759.1081212       -23693257.416027546        1128886733.7360508     
  -2519998565.1149020       -966778.17234814167        1020990058.3527477     
  -2414985463.6770191       -3846746.8920980692        1014373873.9143254     
  -2310156627.6111922       -7340933.5187114477        1011781052.7393314     
  -2205512056.9174242       -11449338.052179813        1013211594.8277663     
  -2101051751.5957115       -16171960.492491961        1018665500.1796283     
  -2803459783.7138524        945765.94845664501        917922570.46818256     
  -2686734255.6345110        1080314.6827472448        908685242.77583575     
  -2570569101.3270731       -653049.15595805645        903738452.90101254     
  -2454964320.7915268       -4254325.5676460266        903082200.84372020     
  -2339919914.0278821       -9723514.5523352623        906716486.60395443     
  -3093550595.7328110        869432.04326152802        814882475.09696853     
  -2964349285.1431589        4247504.9922565222        802585211.01754391     
  -2836084456.7252483        4503970.7021201849        794845659.30974555     
  -2708756110.4790802        1638829.1728405952        791663819.97357655     
  -2582364246.4046450       -4347919.5955505371        793039693.00903404     
  -3390271001.1717868       -1195779.8879485130        711869772.23910093     
  -3247830552.2029638        5654824.0364135504        696073778.63945079     
  -3106702693.8057280        8130126.0554887056        685102671.96552837     
  -2966887425.9800649        6230126.1693191528        678956452.21733379     
  -2828384748.7259932       -45175.622151494026        677635119.39486742     
  -1865759759.1081212       -23693257.416027546        1128886733.7360508     
  -1763691451.7853208       -25424632.855558515        1122413462.8002996     
  -1661955394.4638267       -28263508.299436808        1120488538.1169622     
  -1560551587.1436331       -32209883.747651815        1123111959.6860392     
  -1459480029.8247523       -37263759.200245738        1130283727.5075307     
  -2101051751.5957115       -16171960.492491961        1018665500.1796283     
  -1987944794.7996774       -18790911.883095503        1010465359.8614799     
  -1874976863.4398811       -21873281.394499660        1006412967.3359580     
  -1762147957.5163291       -25419069.026705742        1006508322.6030680     
  -1649458077.0290198       -29428274.779726923        1010751425.6628045     
  -2339919914.0278821       -9723514.5523352623        906716486.60395443     
  -2216918874.7865677       -13573412.002387643        897014905.56264448     
  -2093863636.4164257       -17242645.689695835        891060473.85418391     
  -1970754198.9174678       -20731215.614272475        888853191.47856510     
  -1847590562.2896910       -24039121.776129127        890393058.43579340     
  -2582364246.4046450       -4347919.5955505371        793039693.00903404     
  -2450613691.7460003       -9772133.2134382725        782062099.90380538     
  -2318615713.3934689       -14371601.185051918        774431057.67163861     
  -2186370311.3470554       -18146323.510383844        770146566.31253505     
  -2053877485.6067696       -21096300.189463615        769208625.82648766     
  -2828384748.7259932       -45175.622151494026        677635119.39486742     
  -2689029245.6779757       -7387075.5162717104        665606942.88495839     
  -2549233094.3710055       -13260147.880543232        656524718.78832376     
  -2408996294.8050957       -17664392.715021491        650388447.10496831     
  -2268318846.9802446       -20599810.019703746        647198127.83488810     
  -1459480029.8247523       -37263759.200245738        1130283727.5075307     
  -1355156507.2546277       -41921345.111675799        1124812957.1882088     
  -1250882690.7497478       -46744617.907252908        1122763873.7991207     
  -1146658580.3100886       -51733577.586894751        1124136477.3402669     
  -1042484175.9356580       -56888224.150641918        1128930767.8116534     
  -1649458077.0290198       -29428274.779726923        1010751425.6628045     
  -1535865893.7944155       -33377337.632725120        1002459154.9148510     
  -1422273507.9307055       -37325725.055375695        997711430.88815665     
  -1308680919.4379084       -41273437.047727942        996508253.58273089     
  -1195088128.3160043       -45220473.609734595        998849622.99857450     
  -1847590562.2896910       -24039121.776129127        890393058.43579340     
  -1724378690.4162278       -27174353.178361773        879337514.06925094     
  -1601116707.2193334       -30142546.835839570        871949376.21500349     
  -1477804612.6990101       -32943702.748545766        868228644.87305439     
  -1354442406.8552647       -35577820.916501522        868175320.04340208     
  -2053877485.6067696       -21096300.189463615        769208625.82648766     
  -1920694897.1200640       -23312391.748608828        755448034.65140951     
  -1787412288.6156032       -25195083.248569369        745477709.77965999     
  -1654029660.0933881       -26744374.689339817        739297651.21123600     
  -1520547011.5534143       -27960266.070931852        736907858.94614208     
  -2268318846.9802446       -20599810.019703746        647198127.83488810     
  -2124814513.9059370       -21791453.343473673        630790716.66132677     
  -1981160252.1195354       -22483334.293614507        618296431.58212495     
  -1837356061.6210499       -22675452.870133042        609715272.59728277     
  -1693401942.4104784       -22367809.073036373        605047239.70679760     
  -1042484175.9356580       -56888224.150641918        1128930767.8116534     
  -924990062.86168289       -54765764.933280259        1125867973.1618383     
  -805282819.65349495       -45266205.268536568        1128798074.1922739     
  -683362446.31110716       -28389545.156465679        1137721070.9029648     
  -559228942.83451700       -4135784.5970475674        1152636963.2938986     
  -1195088128.3160043       -45220473.609734595        998849622.99857450     
  -1063964979.1658747       -41794362.354236603        994626800.91923487     
  -931448159.84768212       -33722683.871872187        994594114.28635705     
  -797537670.36141908       -21005438.162594259        998751563.09993267     
  -662233510.70708859       -3642625.2264387310        1007099147.3599731     
  -1354442406.8552647       -35577820.916501522        868175320.04340208     
  -1214840965.1541042       -32393280.680435777        861836433.90738654     
  -1074665313.2510149       -27294706.437936485        857884922.98403466     
  -933915451.14599383       -20282098.189001322        856320787.27334249     
  -792591378.83904743       -11355455.933636099        857144026.77532113     
  -1520547011.5534143       -27960266.070931852        736907858.94614208     
  -1377618020.8263552       -26562519.911832452        727496872.12628865     
  -1234934279.8635037       -25982272.966761768        718670500.28530335     
  -1092495788.6648548       -26219525.235687792        710428743.42318952     
  -950302547.23041153       -27274276.718653321        702771601.53994536     
  -1693401942.4104784       -22367809.073036373        605047239.70679760     
  -1552296146.1826322       -24302080.048426747        591608115.57594693     
  -1412255059.6851420       -29785383.458323658        576950846.19016838     
  -1273278682.9179809       -38817719.302661836        561075431.54946625     
  -1135367015.8811719       -51399087.581496119        543981871.65384507     
  -559228942.83451700       -4135784.5970475674        1152636963.2938986     
  -462539603.47940958        33482226.961141258        1162006867.9082351     
  -353823284.21329975        111190171.55601896        1178904273.6973581     
  -233079985.03618211        228988049.18757790        1203329180.6612756     
  -100309705.94806960        386875859.85579509        1235281588.7999771     
  -662233510.70708859       -3642625.2264387310        1007099147.3599731     
  -547184097.49712420        26295192.977764845        1020692029.3648182     
  -421230708.82798517        92579596.045882583        1042652896.2418448     
  -284373344.69964838        195210583.97798717        1072981747.9910469     
  -136612005.11213222        334188156.77403557        1111678584.6124265     
  -792591378.83904743       -11355455.933636099        857144026.77532113     
  -656780509.78170907        11622583.514300704        873649714.31023002     
  -511188669.71700251        67203859.653451622        899363870.41470170     
  -355815858.64492178        155388372.48386717        934286495.08873153     
  -190662076.56547403        276176122.00549567        978417588.33232605     
  -950302547.23041153       -27274276.718653321        702771601.53994536     
  -791328840.33316255       -10535601.429220676        720879922.74446476     
  -623697166.88036180        35062962.378728896        749037196.21593547     
  -447407526.87200576        109521414.70519090        787243421.95434475     
  -262459920.30809444        212839755.55017048        835498599.95970523     
  -1135367015.8811719       -51399087.581496119        543981871.65384507     
  -950829089.15147936       -40179361.852781057        562382654.66752422     
  -758756200.31806159       -3843095.7783092558        591672873.64553571     
  -559148349.38089132        57609710.642000824        631852528.58787775     
  -352005536.33999395        144179057.40806827        682921619.49455869     
  -100309705.94806960        386875859.85579509        1235281588.7999771     
  -85410057.756664574        546738180.60181737        1196699331.3080223     
  -57920444.851976395        748567050.39211130        1154765181.4457550     
  -17840867.234015346        992362469.22665524        1109479139.2131910     
   34828675.097216845        1278124437.1054277        1060841204.6103034     
  -136612005.11213222        334188156.77403557        1111678584.6124265     
  -127448721.91877237        483213829.78651875        1090120818.4813416     
  -95149292.996905267        709359988.56070244        1070003121.1221185     
  -39713718.346524954        1012626633.0965872        1051325492.5347461     
   38858002.032364488        1393013763.3941789        1034087932.7192444     
  -190662076.56547403        276176122.00549567        978417588.33232605     
  -173543840.82113007        418472542.54913515        986188191.41323483     
  -122743278.33303818        673043385.57193315        1000190824.4081612     
  -38260389.101198077        1039888651.0738937        1020425487.3171028     
   79904826.874383748        1519008339.0549910        1046892180.1400807     
  -262459920.30809444        212839755.55017048        835498599.95970523     
  -223695414.46371511        352514318.88968837        884901450.10370719     
  -140702400.86035755        639617241.42579412        945328291.30388927     
  -13480879.498009861        1074148523.1585400        1016779123.5602735     
   157969149.62332076        1656108164.0878787        1099253946.8728249     
  -352005536.33999395        144179057.40806827        682921619.49455869     
  -277903442.84653670        285339158.80818391        786260594.55275679     
  -149026660.57887182        609081556.12232494        905415521.80930555     
   34624810.463020861        1115406249.3505728        1040386401.2642109     
   273050970.27912360        1804313238.4928260        1191173232.9174709     
  -4846937733.1768837       -134403792.25124502        1084954539.5313294     
  -4630274567.8287191       -81674907.258528233        956943130.19732153     
  -4417729494.1822262       -42672994.604704857        860485889.10896695     
  -4209302512.2373934       -17398054.289766550        795582816.26627064     
  -4004993621.9942312       -5850086.3137166500        762233911.66922617     
  -5374818718.2085009       -188372342.22687840        467376288.97003090     
  -5114830975.5653028       -126261923.06953216        471671057.64025027     
  -4858836444.2037306       -77462208.184257746        475573286.56146395     
  -4606835124.1237659       -41973197.571034431        479082975.73366910     
  -4358827015.3254299       -19794891.229886770        482200125.15686792     
  -5465525059.2158909       -111188498.99524021       -151665515.81984323     
  -5253489047.8338394       -67079438.240127563       -14918875.322003858     
  -5045321367.3133678       -35864813.690246582        89488517.432163641     
  -4841022017.6544571       -17544625.345604181        161556662.44266117     
  -4640590998.8571224       -12118873.206194878        201285559.70949325     
  -5119056756.1990662        97147737.443655968       -772170874.83828628     
  -5046248784.6343412        95872547.229693413       -502826668.68944216     
  -4977184263.5111465        82119188.877316475       -297768418.27893126     
  -4911863192.8294668        55887662.386535168       -156996123.60674369     
  -4850285572.5893135        17177967.757352591       -80509784.672898591     
  -4335413809.1580191        436636367.08982515       -1394139788.0853033     
  -4493110185.9668026        362594033.33993316       -992052322.46206307     
  -4654425132.7970543        276489799.51845932       -686197520.57181418     
  -4819358649.6487932        178323665.62537432       -476575382.41456413     
  -4987910736.5219994        68095631.660731554       -363185907.99030524     
  -4004993621.9942312       -5850086.3137166500        762233911.66922617     
  -3854045072.9425421       -13793530.220342159        737624959.53533852     
  -3701275119.7882352       -15665627.118254423        721027952.25235343     
  -3546683762.5313196       -11466377.007456303        712442889.82027817     
  -3390271001.1717868       -1195779.8879485130        711869772.23910093     
  -4358827015.3254299       -19794891.229886770        482200125.15686792     
  -4191916832.8747811       -25367515.180257320        482744932.50867444     
  -4023269407.7494764       -25149330.215119600        487008862.24964088     
  -3852884739.9495192       -19140336.334468842        494991914.37976617     
  -3680762829.4749079       -7340533.5383017063        506694088.89905548     
  -4640590998.8571224       -12118873.206194878        201285559.70949325     
  -4469984390.0410767       -19000239.310405254        226885938.21437430     
  -4297724699.9783211       -20371334.592269182        251912616.64667654     
  -4123811928.6688795       -16232159.051836729        276365595.00639337     
  -3948246076.1127386       -6582712.6890590191        300244873.29352206     
  -4850285572.5893135        17177967.757352591       -80509784.672898591     
  -4688247744.4414129        5308297.3892588615       -29952023.347550597     
  -4524640996.4747772       -1331640.2497088909        15739215.443458309     
  -4359465328.6893950       -2741845.1595308781        56563931.700146914     
  -4192720741.0852823        1077682.6597537994        92522125.422503889     
  -4987910736.5219994        68095631.660731554       -363185907.99030524     
  -4846706896.0758085        47558094.918682098       -287768952.17712069     
  -4704018297.2388296        31969752.812585831       -221511341.36000404     
  -4559844940.0110817        21330605.342386007       -164413075.53897011     
  -4414186824.3925400        15640652.508175850       -116474154.71400118     
  -3390271001.1717868       -1195779.8879485130        711869772.23910093     
  -3247830552.2029638        5654824.0364135504        696073778.63945079     
  -3106702693.8057280        8130126.0554887056        685102671.96552837     
  -2966887425.9800649        6230126.1693191528        678956452.21733379     
  -2828384748.7259932       -45175.622151494026        677635119.39486742     
  -3680762829.4749079       -7340533.5383017063        506694088.89905548     
  -3526943550.5977168       -349309.08831453323        496969779.05662805     
  -3374411704.8569221        2350471.5736939907        491141077.48130190     
  -3223167292.2525110        758808.44774663448        489207984.17308062     
  -3073210312.7844896       -5124298.4661521912        491170499.13196027     
  -3948246076.1127386       -6582712.6890590191        300244873.29352206     
  -3785703049.2089701       -247392.27799868584        296621597.54937291     
  -3624422298.0063949        1880342.4624195099        295964651.41370922     
  -3464403822.5050220       -199508.46782827377        298274034.88651741     
  -3305647622.7048340       -6486945.0686988831        303549747.96780723     
  -4192720741.0852823        1077682.6597537994        92522125.422503889     
  -4024109048.0367122        5960574.4673833847        95029234.117696911     
  -3856734473.2541518        6719738.7216410637        99573393.762746498     
  -3690597016.7375822        3355175.4225969315        106154604.35764493     
  -3525696678.4870205       -4133115.4298055172        114772865.90240712     
  -4414186824.3925400        15640652.508175850       -116474154.71400118     
  -4242161547.0809584        18274591.147804260       -107807311.23841147     
  -4071348230.6001835        16868660.351410389       -98032695.471582279     
  -3901746874.9502296        11422860.118958473       -87150307.413532019     
  -3733357480.1310616        1937190.4505314827       -75160147.064252838     
  -2828384748.7259932       -45175.622151494026        677635119.39486742     
  -2689029245.6779757       -7387075.5162717104        665606942.88495839     
  -2549233094.3710055       -13260147.880543232        656524718.78832376     
  -2408996294.8050957       -17664392.715021491        650388447.10496831     
  -2268318846.9802446       -20599810.019703746        647198127.83488810     
  -3073210312.7844896       -5124298.4661521912        491170499.13196027     
  -2925688407.3875055       -12570891.259156585        484372939.93037051     
  -2777428275.6614699       -17556729.622003913        480935436.17598516     
  -2628429917.6063852       -20081813.554688573        480857987.86881346     
  -2478693333.2222543       -20146143.057202220        484140595.00885332     
  -3305647622.7048340       -6486945.0686988831        303549747.96780723     
  -3148776163.4333611       -13683285.302965760        302329980.48965037     
  -2990868899.7627258       -17426944.206684828        304884371.49263835     
  -2831925831.6929536       -17717921.779935718        311212920.97677612     
  -2671946959.2240076       -14556218.022626877        321315628.94205570     
  -3525696678.4870205       -4133115.4298055172        114772865.90240712     
  -3358292513.8155432       -10724257.647665977        119478064.56280787     
  -3189554966.6747942       -12870791.634638071        128371524.73830144     
  -3019484037.0647855       -10572717.390743732        141453246.42885759     
  -2848079724.9855309       -3830034.9160143137        158723229.63449693     
  -3733357480.1310616        1937190.4505314827       -75160147.064252838     
  -3554237458.5340452       -3693808.2932624817       -64182807.850157946     
  -3373486476.3976541       -3888271.9058067799       -48603104.087064877     
  -3191104533.7219048        1353799.6128470898       -28421035.774951700     
  -3007091630.5067830        12032406.262732863       -3636602.9138188940     
  -2268318846.9802446       -20599810.019703746        647198127.83488810     
  -2124814513.9059370       -21791453.343473673        630790716.66132677     
  -1981160252.1195354       -22483334.293614507        618296431.58212495     
  -1837356061.6210499       -22675452.870133042        609715272.59728277     
  -1693401942.4104784       -22367809.073036373        605047239.70679760     
  -2478693333.2222543       -20146143.057202220        484140595.00885332     
  -2325950895.6387591       -18447274.566241503        473020105.59914571     
  -2173378700.6258097       -17315881.310440660        464425683.14490187     
  -2020976748.1834416       -16751963.289906740        458357327.64611351     
  -1868745038.3116310       -16755520.504565001        454815039.10278881     
  -2671946959.2240076       -14556218.022626877        321315628.94205570     
  -2513929443.2424574       -11155745.550242066        315108528.13311261     
  -2356402341.1141248       -9389985.9218921661        310040435.14072621     
  -2199365652.8390126       -9258939.1376208067        306111349.96490419     
  -2042819378.4171176       -10762605.197410345        303321272.60563827     
  -2848079724.9855309       -3830034.9160143137        158723229.63449693     
  -2688750156.7170706        83133.704464673996        157055984.26321369     
  -2530231173.5844717        1294351.8720661402        155140687.56960240     
  -2372522775.5877657       -196380.41329610348        152977339.55364156     
  -2215624962.7269258       -4389063.1515638828        150565940.21534398     
  -3007091630.5067830        12032406.262732863       -3636602.9138188940     
  -2850413036.0625615        15269363.197921276       -1137526.0105284967     
  -2694865198.0368657        14737132.071380973       -273559.56847595022     
  -2540448116.4296923        10435712.883075476       -1044703.5876602938     
  -2387161791.2410479        2365105.6330283880       -3450958.0680920957     
  -1693401942.4104784       -22367809.073036373        605047239.70679760     
  -1552296146.1826322       -24302080.048426747        591608115.57594693     
  -1412255059.6851420       -29785383.458323658        576950846.19016838     
  -1273278682.9179809       -38817719.302661836        561075431.54946625     
  -1135367015.8811719       -51399087.581496119        543981871.65384507     
  -1868745038.3116310       -16755520.504565001        454815039.10278881     
  -1730641481.3351502       -21212620.773509026        441570010.84203124     
  -1592509504.1083100       -25574986.874577522        427815904.40288889     
  -1454349106.6311364       -29842618.807867467        413552719.78536695     
  -1316160288.9035940       -34015516.573273897        398780456.98945898     
  -2042819378.4171176       -10762605.197410345        303321272.60563827     
  -1905692154.7590187       -17134762.979974747        291545658.52578676     
  -1767443380.8698721       -19768419.992383718        279970033.34408998     
  -1628073056.7496858       -18663576.234664679        268594397.06054866     
  -1487581182.3984509       -13820231.706772029        257418749.67517328     
  -2215624962.7269258       -4389063.1515638828        150565940.21534398     
  -2077448166.4542353       -12068506.667868853        141535058.62720102     
  -1937056689.9698048       -12365682.811697483        133413233.01376154     
  -1794450533.2736366       -5280591.5830755234        126200463.37501812     
  -1649629696.3657415        9186767.0179746151        119896749.71097444     
  -2387161791.2410479        2365105.6330283880       -3450958.0680920957     
  -2245909516.4207969       -6013851.8371400833       -8461788.8537009433     
  -2101349431.4081049       -3366775.3324847221       -11854496.588086495     
  -1953481536.2030056        10306335.146857142       -13629081.271229215     
  -1802305830.8054519        35005479.601035357       -13785542.903136468     
  -1135367015.8811719       -51399087.581496119        543981871.65384507     
  -950829089.15147936       -40179361.852781057        562382654.66752422     
  -758756200.31806159       -3843095.7783092558        591672873.64553571     
  -559148349.38089132        57609710.642000824        631852528.58787775     
  -352005536.33999395        144179057.40806827        682921619.49455869     
  -1316160288.9035940       -34015516.573273897        398780456.98945898     
  -1116883572.3048441       -14309531.252456069        420776116.57625508     
  -913974278.09391081        17505046.108981788        441261503.26904190     
  -707432406.27077579        61428215.511091501        460236617.06783015     
  -497257956.83545178        117459976.95382282        477701457.97261924     
  -1487581182.3984509       -13820231.706772029        257418749.67517328     
  -1308993415.5258851        3743691.3275528550        278456503.92827135     
  -1130675455.5326691        20408258.097386718        285584276.42903036     
  -952627302.41879761        36173468.602734327        278802067.17745483     
  -774848956.18428242        51039322.843562245        258109876.17354798     
  -1649629696.3657415        9186767.0179746151        119896749.71097444     
  -1527158618.8145752        13980305.887323618        135423816.72357127     
  -1408859732.6343346        4866540.1869261265        124641193.12550567     
  -1294733037.8249655       -18154530.083043337        87548878.916764930     
  -1184778534.3865187       -55082904.922758281        24146874.097361635     
  -1802305830.8054519        35005479.601035357       -13785542.903136468     
  -1771379182.1709666        16400312.426690817       -8321945.0378339086     
  -1748527109.3989058       -29120107.622402787       -41567746.641543083     
  -1733749612.4892893       -101555780.54631025       -113522947.71424605     
  -1727046691.4421132       -200906706.34501976       -224187548.25595307     
  -352005536.33999395        144179057.40806827        682921619.49455869     
  -277903442.84653670        285339158.80818391        786260594.55275679     
  -149026660.57887182        609081556.12232494        905415521.80930555     
   34624810.463020861        1115406249.3505728        1040386401.2642109     
   273050970.27912360        1804313238.4928260        1191173232.9174709     
  -497257956.83545178        117459976.95382282        477701457.97261924     
  -388350024.10566896        223123496.17904422        596995232.82813382     
  -230319693.51946309        492528341.59238088        735438296.93820846     
  -23166965.076777399        925674513.19394374        893030650.30285060     
   233108161.22236261        1522562010.9837072        1069772292.9220580     
  -774848956.18428242        51039322.843562245        258109876.17354798     
  -621611364.05759943        124063405.94201842        386764111.42232597     
  -424903664.99221599        341987845.50278765        537900972.98187089     
  -184725858.98814315        704812641.52587748        711520460.85219109     
   98922053.954628706        1212537794.0112963        907622575.03329384     
  -1184778534.3865187       -55082904.922758281        24146874.097361635     
  -977687462.70230472       -11841111.902829826        155567230.33533406     
  -732778574.99715984        157460067.85353076        312803549.94030058     
  -450051871.27108258        452820634.34636259        495855832.91224158     
  -129507351.52406365        874240587.57561123        704724079.25117779     
  -1727046691.4421132       -200906706.34501976       -224187548.25595307     
  -1456578320.0397797       -184590057.35548222       -96595410.432831913     
  -1153944423.5342762       -61054991.355367839        60146027.813485302     
  -819145001.92559886        169698491.65532053        246036766.48300481     
  -452180055.21374327        507670391.67660332        461076805.57571167     
 </DataArray>
 <DataArray  type="Float64" Name="VM" NumberOfComponents="1" format="ascii">
   5168204133.2145376     
   4990108903.8846502     
   4943644262.0723104     
   4979838649.0316429     
   5061546860.7555170     
   5338560070.3220224     
   5168763479.1266994     
   5045178400.6829233     
   4947522419.5480223     
   4860897876.8747816     
   5417160591.0921621     
   5220336402.3786449     
   5029873576.3307867     
   4840368701.0587959     
   4647638133.6732407     
   5344812020.3100758     
   5118500819.5018492     
   4890442282.3970890     
   4660460214.5644388     
   4428434592.8678684     
   5137198177.2449999     
   4880077692.9825678     
   4642299624.6759377     
   4420876939.6025896     
   4214211672.3699899     
   5061546860.7555170     
   4896096636.6475220     
   4735651865.4711676     
   4579410539.3788376     
   4426627460.7553558     
   4860897876.8747816     
   4691190988.0637007     
   4524057478.4366026     
   4359196191.0071745     
   4196320844.4309072     
   4647638133.6732407     
   4477792117.4168034     
   4309719501.3462772     
   4143462804.4218283     
   3979088033.1338949     
   4428434592.8678684     
   4262112111.0467792     
   4098497233.1034236     
   3937815724.3291268     
   3780379195.5666971     
   4214211672.3699899     
   4053759297.2713542     
   3898890092.7065945     
   3749820535.3613582     
   3606959989.0660982     
   4426627460.7553558     
   4255427171.5918751     
   4083340644.5203276     
   3910385383.1887031     
   3736594825.2621799     
   4196320844.4309072     
   4030454976.0969453     
   3863949661.6007276     
   3696850896.5560255     
   3529235073.7885318     
   3979088033.1338949     
   3820283285.9329157     
   3661426079.0188503     
   3502613995.8190832     
   3343999384.8560162     
   3780379195.5666971     
   3630294169.4632926     
   3481127675.0613713     
   3333050697.8901887     
   3186321562.7975864     
   3606959989.0660982     
   3467038656.0355544     
   3329417725.5470023     
   3194352723.8414698     
   3062221502.1268668     
   3736594825.2621799     
   3554130962.0527873     
   3372594789.6520634     
   3192161199.8327956     
   3013132402.1045165     
   3529235073.7885318     
   3359323329.0193081     
   3190895174.7766194     
   3024152511.1786213     
   2859413163.3771329     
   3343999384.8560162     
   3185294817.0599713     
   3028587479.0888643     
   2874108973.9095421     
   2722195835.6281052     
   3186321562.7975864     
   3037578567.1244297     
   2891288669.7220716     
   2747714812.3865762     
   2607214367.2011838     
   3062221502.1268668     
   2922356344.3225279     
   2785325142.2581701     
   2651421724.6596899     
   2521024411.9331088     
   3013132402.1045165     
   2858078968.6470571     
   2702263938.6432266     
   2545682665.1570940     
   2388352720.7318096     
   2859413163.3771329     
   2702517463.1526651     
   2545103607.0680046     
   2387175039.5000367     
   2228743834.6356940     
   2722195835.6281052     
   2567060787.7112126     
   2412253884.9002824     
   2257884785.8802295     
   2104103656.2703445     
   2607214367.2011838     
   2457381633.5969768     
   2309397001.4430962     
   2163572658.7799573     
   2020333422.5351062     
   2521024411.9331088     
   2379642745.6600609     
   2242282275.8024673     
   2109499168.6491542     
   1982039166.1027541     
   2388352720.7318096     
   2242956535.5612411     
   2099768467.3504813     
   1958797292.4738793     
   1820217674.9279227     
   2228743834.6356940     
   2085895823.5323901     
   1944681410.8429477     
   1805099585.6971011     
   1667226133.4470205     
   2104103656.2703445     
   1963236927.0067205     
   1823309352.5797801     
   1684343608.3238070     
   1546390406.8328638     
   2020333422.5351062     
   1882501180.9522259     
   1745019063.9052217     
   1608010532.5978549     
   1471646236.6280017     
   1982039166.1027541     
   1849997399.1803515     
   1718110531.1367314     
   1586737710.2423089     
   1456396967.2245805     
   1820217674.9279227     
   1779694385.5644691     
   1735644365.5536630     
   1696700143.8345661     
   1681326467.2077065     
   1667226133.4470205     
   1552023797.1184433     
   1427715651.4195609     
   1294663035.3750839     
   1158974751.7067730     
   1546390406.8328638     
   1396779265.5044801     
   1243621218.9185102     
   1084646905.6183376     
   917826677.02364755     
   1471646236.6280017     
   1327708257.5260410     
   1198244429.7357709     
   1087724035.7321270     
   1002031077.2620863     
   1456396967.2245805     
   1347705228.3973596     
   1273985925.2415178     
   1243338644.8270400     
   1262772007.0893722     
   1681326467.2077065     
   1383768780.3474441     
   1129475104.9460578     
   1010151501.2162379     
   1153052434.2474456     
   1158974751.7067730     
   1008483797.8171738     
   985230764.91712487     
   1161466748.9553955     
   1544084656.3085201     
   917826677.02364755     
   963156827.17438853     
   1144911817.6899951     
   1476436833.0962076     
   1957402095.2810669     
   1002031077.2620863     
   1164671531.0598423     
   1425369696.1967282     
   1808691877.7893834     
   2334705792.7489648     
   1262772007.0893722     
   1446569273.1853750     
   1715602074.7289767     
   2110431434.4117033     
   2663477919.4676914     
   5137198177.2449999     
   4880077692.9825678     
   4642299624.6759377     
   4420876939.6025896     
   4214211672.3699899     
   4532705329.3230963     
   4359285617.6610098     
   4200040927.1150537     
   4053742787.8534284     
   3920008166.5526686     
   4040008227.2960978     
   3932018886.8643727     
   3832681021.2592072     
   3741916515.2278638     
   3659977771.4908895     
   3655503028.0136409     
   3596013385.0247970     
   3539429792.8959389     
   3485925300.0326037     
   3435699241.7811446     
   3375111600.4946489     
   3347926705.0043244     
   3318247879.3641186     
   3285295426.7026639     
   3248382281.7478004     
   4214211672.3699899     
   4053759297.2713542     
   3898890092.7065945     
   3749820535.3613582     
   3606959989.0660982     
   3920008166.5526686     
   3781813247.1312551     
   3648980878.6410308     
   3521801311.7086930     
   3400712524.8386931     
   3659977771.4908895     
   3542939421.9874802     
   3430902095.8022738     
   3324210943.7127233     
   3223318811.6273861     
   3435699241.7811446     
   3339191080.2185907     
   3247176343.8610754     
   3160025605.3097820     
   3078184363.9008842     
   3248382281.7478004     
   3172263439.3923893     
   3099986277.6539683     
   3031907023.8232675     
   2968434205.3632855     
   3606959989.0660982     
   3467038656.0355544     
   3329417725.5470023     
   3194352723.8414698     
   3062221502.1268668     
   3400712524.8386931     
   3276034886.6379995     
   3154601024.0791411     
   3036773986.5161166     
   2923034722.6589780     
   3223318811.6273861     
   3114252867.0639911     
   3009381429.3993387     
   2909140082.4403133     
   2814066801.9918022     
   3078184363.9008842     
   2984919167.7373490     
   2896725964.8860078     
   2814063973.7006764     
   2737469677.4990587     
   2968434205.3632855     
   2890842725.9106956     
   2819037117.1474204     
   2753445641.5572600     
   2694544660.8536167     
   3062221502.1268668     
   2922356344.3225279     
   2785325142.2581701     
   2651421724.6596899     
   2521024411.9331088     
   2923034722.6589780     
   2795803762.4359555     
   2672469569.3336864     
   2553477450.9559555     
   2439379903.0795884     
   2814066801.9918022     
   2701616127.2980733     
   2594306240.4157395     
   2492714544.2832937     
   2397530752.3696170     
   2737469677.4990587     
   2641598601.8038607     
   2552176729.3688135     
   2469857576.3943372     
   2395389861.0367765     
   2694544660.8536167     
   2616457311.8849134     
   2546056888.4337816     
   2483995776.9625077     
   2430989247.8272333     
   2521024411.9331088     
   2379642745.6600609     
   2242282275.8024673     
   2109499168.6491542     
   1982039166.1027541     
   2439379903.0795884     
   2314506766.5325422     
   2194915609.2245793     
   2081340059.0571103     
   1974697361.8158901     
   2397530752.3696170     
   2290647249.7993450     
   2190230280.8650823     
   2097086154.1189351     
   2012157316.2434273     
   2395389861.0367765     
   2307272854.7191138     
   2226533634.7410245     
   2153931653.5985093     
   2090296577.1635888     
   2430989247.8272333     
   2361569203.9009686     
   2300047095.8866105     
   2247049163.2336521     
   2203215485.9541392     
   1982039166.1027541     
   1849997399.1803515     
   1718110531.1367314     
   1586737710.2423089     
   1456396967.2245805     
   1974697361.8158901     
   1857336552.3639967     
   1744452124.9495251     
   1636984051.8234212     
   1536087162.3009477     
   2012157316.2434273     
   1914633470.9897494     
   1825983977.2626755     
   1747433414.4237375     
   1680302783.6932328     
   2090296577.1635888     
   2014236313.7843587     
   1950634337.6565256     
   1900597008.3445711     
   1865181034.9428873     
   2203215485.9541392     
   2147250379.4464624     
   2106331556.9587927     
   2081253841.9352026     
   2072717338.7628880     
   1456396967.2245805     
   1347705228.3973596     
   1273985925.2415178     
   1243338644.8270400     
   1262772007.0893722     
   1536087162.3009477     
   1475458841.8823445     
   1447503506.5156879     
   1456168176.5975099     
   1504733069.8252795     
   1680302783.6932328     
   1651944513.1353881     
   1651287430.7321267     
   1680688514.9844456     
   1742751997.8559766     
   1865181034.9428873     
   1854703975.3362350     
   1867184737.4300938     
   1904824808.8615737     
   1970656364.7932868     
   2072717338.7628880     
   2069137665.4556913     
   2084788166.3478899     
   2122295381.6107256     
   2185475734.0548406     
   1262772007.0893722     
   1446569273.1853750     
   1715602074.7289767     
   2110431434.4117033     
   2663477919.4676914     
   1504733069.8252795     
   1613168791.7948596     
   1788809603.4916077     
   2066392171.8118279     
   2476108281.7033615     
   1742751997.8559766     
   1787613357.0858507     
   1884624609.5024476     
   2060685160.9734659     
   2341013610.6515102     
   1970656364.7932868     
   1968861083.3549531     
   2003611768.9846923     
   2093576107.8146002     
   2257405836.9982276     
   2185475734.0548406     
   2156196263.2005267     
   2146511732.2947693     
   2166942097.6810565     
   2228553772.0154405     
   3375111600.4946489     
   3347926705.0043244     
   3318247879.3641186     
   3285295426.7026639     
   3248382281.7478004     
   3279125218.4495339     
   3234941244.9704380     
   3190629742.7633567     
   3146016731.1799803     
   3100938198.4520936     
   3182151816.6218882     
   3126016285.3180704     
   3073538199.3486428     
   3024926329.7780876     
   2980400363.9190292     
   3097976450.1199646     
   3032994336.0345559     
   2976886059.2135711     
   2929993951.7348542     
   2892717757.5435328     
   3044474662.8787913     
   2970743350.0940819     
   2912528986.7054172     
   2870051470.9307303     
   2843639460.3505683     
   3248382281.7478004     
   3172263439.3923893     
   3099986277.6539683     
   3031907023.8232675     
   2968434205.3632855     
   3100938198.4520936     
   3034651840.4055896     
   2973506546.2230954     
   2917877868.6956749     
   2868186992.3609180     
   2980400363.9190292     
   2924019262.2272811     
   2874116969.5785947     
   2831050164.9299960     
   2795210349.2591734     
   2892717757.5435328     
   2845485353.5186992     
   2806068093.7423577     
   2774763913.8909144     
   2751893621.1355352     
   2843639460.3505683     
   2803805416.2571635     
   2773092735.8895736     
   2751710558.5888042     
   2739881273.9261713     
   2968434205.3632855     
   2890842725.9106956     
   2819037117.1474204     
   2753445641.5572600     
   2694544660.8536167     
   2868186992.3609180     
   2802816695.2467055     
   2744011627.7920623     
   2692179408.4479284     
   2647762946.1328077     
   2795210349.2591734     
   2741913251.0529571     
   2695920028.8040185     
   2657587364.2776828     
   2627293714.4097247     
   2751893621.1355352     
   2709973494.1271791     
   2676029963.6683431     
   2650345784.1563425     
   2633214656.4644408     
   2739881273.9261713     
   2708046678.3298359     
   2684792794.1099305     
   2670318199.3519363     
   2664826272.3755460     
   2694544660.8536167     
   2616457311.8849134     
   2546056888.4337816     
   2483995776.9625077     
   2430989247.8272333     
   2647762946.1328077     
   2585011197.8519897     
   2530517701.2927351     
   2484828388.2563829     
   2448518061.8025846     
   2627293714.4097247     
   2578811341.9667253     
   2538957688.6585593     
   2508150778.0632334     
   2486813815.4670539     
   2633214656.4644408     
   2597435913.4051151     
   2570476240.9496660     
   2552625978.7241521     
   2544168469.8929787     
   2664826272.3755460     
   2639773704.1100197     
   2623599079.0503907     
   2616482116.6192231     
   2618592392.1876173     
   2430989247.8272333     
   2361569203.9009686     
   2300047095.8866105     
   2247049163.2336521     
   2203215485.9541392     
   2448518061.8025846     
   2393533209.5571170     
   2347473481.8244619     
   2310860356.1041746     
   2284198807.9019227     
   2486813815.4670539     
   2445393256.5026507     
   2413697422.5920610     
   2392117389.2410874     
   2381012163.0720296     
   2544168469.8929787     
   2514830943.8051238     
   2495849457.2897983     
   2487487109.6179399     
   2489973503.7638426     
   2618592392.1876173     
   2599405304.8920426     
   2591125484.3913064     
   2593908199.9172153     
   2607883025.8537550     
   2203215485.9541392     
   2147250379.4464624     
   2106331556.9587927     
   2081253841.9352026     
   2072717338.7628880     
   2284198807.9019227     
   2243320491.0295229     
   2216438882.5613837     
   2204017769.7039895     
   2206454534.4263449     
   2381012163.0720296     
   2352183473.2792115     
   2336269445.2884259     
   2333525630.6320066     
   2344176054.9848762     
   2489973503.7638426     
   2470453551.7306356     
   2462854029.7803960     
   2467311880.2438369     
   2483961718.7725196     
   2607883025.8537550     
   2595304307.0717931     
   2593801896.7534623     
   2603453524.8426867     
   2624355071.3841672     
   2072717338.7628880     
   2069137665.4556913     
   2084788166.3478899     
   2122295381.6107256     
   2185475734.0548406     
   2206454534.4263449     
   2191955119.0336347     
   2192454654.4427376     
   2209920434.0642524     
   2247274874.7486258     
   2344176054.9848762     
   2319592809.7010851     
   2306562634.9292693     
   2306490423.1142359     
   2321465097.9967365     
   2483961718.7725196     
   2451081883.9606194     
   2426796254.0619864     
   2412049771.6218219     
   2408217814.4669342     
   2624355071.3841672     
   2585645748.8519673     
   2552874129.3398495     
   2526620683.2430081     
   2507691118.6032748     
   2185475734.0548406     
   2156196263.2005267     
   2146511732.2947693     
   2166942097.6810565     
   2228553772.0154405     
   2247274874.7486258     
   2182622416.1743665     
   2134408946.8801594     
   2112300731.8398569     
   2127231008.8151612     
   2321465097.9967365     
   2224771466.3752112     
   2141410115.4365399     
   2079748655.8865638     
   2049961655.2338474     
   2408217814.4669342     
   2282937558.7249260     
   2168162489.9324579     
   2070637259.1601899     
   1999137068.4487772     
   2507691118.6032748     
   2357330174.1521583     
   2215136892.7176561     
   2086097924.5815868     
   1977099628.8786922     
   3044474662.8787913     
   2970743350.0940819     
   2912528986.7054172     
   2870051470.9307303     
   2843639460.3505683     
   2825499471.6320267     
   2783375511.3919024     
   2753348794.0475597     
   2735516019.5110450     
   2730011900.7909942     
   2666304699.1185737     
   2651155923.2892375     
   2644039552.2540126     
   2644983944.0648770     
   2654026161.4953470     
   2562910232.3291488     
   2571170895.1879354     
   2582919036.4471083     
   2598158549.7492738     
   2616894254.6871238     
   2508144942.8977346     
   2537639074.6069012     
   2565820497.4810152     
   2592689211.5200629     
   2618245216.7240372     
   2843639460.3505683     
   2803805416.2571635     
   2773092735.8895736     
   2751710558.5888042     
   2739881273.9261713     
   2730011900.7909942     
   2702607169.0832210     
   2684031484.0980644     
   2674404123.9854455     
   2673848536.1724200     
   2654026161.4953470     
   2636680319.0953212     
   2627747434.1760793     
   2627279081.1059523     
   2635327394.3443632     
   2616894254.6871238     
   2606982799.6419654     
   2604981685.9144864     
   2610902948.6122718     
   2624758528.3578558     
   2618245216.7240372     
   2613068268.9925222     
   2615255788.9049115     
   2624807776.4612093     
   2641724231.6614094     
   2739881273.9261713     
   2708046678.3298359     
   2684792794.1099305     
   2670318199.3519363     
   2664826272.3755460     
   2673848536.1724200     
   2652148640.8425388     
   2638953761.0450406     
   2634377875.4509330     
   2638535126.3888259     
   2635327394.3443632     
   2621471483.2300472     
   2615978984.5333362     
   2618900285.5932059     
   2630284943.6166816     
   2624758528.3578558     
   2616219564.8171206     
   2615871310.1508465     
   2623726022.9305639     
   2639795608.5552382     
   2641724231.6614094     
   2635879453.7292638     
   2638051339.1196280     
   2648239887.8324966     
   2666445099.8678756     
   2664826272.3755460     
   2639773704.1100197     
   2623599079.0503907     
   2616482116.6192231     
   2618592392.1876173     
   2638535126.3888259     
   2622119586.3357477     
   2614700724.0175233     
   2616382350.3326354     
   2627260023.3868470     
   2630284943.6166816     
   2620537924.7041759     
   2619907958.2789340     
   2628441874.9434557     
   2646181890.5532336     
   2639795608.5552382     
   2634520732.4764128     
   2638525234.9288549     
   2651820925.1825490     
   2674418279.6916995     
   2666445099.8678756     
   2663306099.5264239     
   2669683373.5883565     
   2685576922.0536628     
   2710986744.9223514     
   2618592392.1876173     
   2599405304.8920426     
   2591125484.3913064     
   2593908199.9172153     
   2607883025.8537550     
   2627260023.3868470     
   2616072502.3181119     
   2615259911.2881346     
   2624901006.1097932     
   2645059609.2606258     
   2646181890.5532336     
   2641144307.7399192     
   2646041629.5194449     
   2660905380.9672523     
   2685760448.7461214     
   2674418279.6916995     
   2673742760.4198260     
   2682677870.6531000     
   2701230735.4171100     
   2729406854.7213097     
   2710986744.9223514     
   2712982984.0287352     
   2724393665.9678335     
   2745218790.7396421     
   2775458358.3441625     
   2607883025.8537550     
   2595304307.0717931     
   2593801896.7534623     
   2603453524.8426867     
   2624355071.3841672     
   2645059609.2606258     
   2634124793.9368281     
   2633442655.5647197     
   2643051944.5358548     
   2663003095.1749368     
   2685760448.7461214     
   2676184555.0651789     
   2676217035.0075521     
   2685873093.5874486     
   2705173640.0881128     
   2729406854.7213097     
   2721056134.2891774     
   2721829598.1909604     
   2731730579.3503199     
   2750763933.8011613     
   2775458358.3441625     
   2768336026.4058962     
   2769996970.6416492     
   2780441191.0514174     
   2799668687.6352091     
   2624355071.3841672     
   2585645748.8519673     
   2552874129.3398495     
   2526620683.2430081     
   2507691118.6032748     
   2663003095.1749368     
   2617432862.9579158     
   2577554315.8610787     
   2543697650.6549139     
   2516323633.7839336     
   2705173640.0881128     
   2654822455.9257503     
   2610060538.7756248     
   2571034934.6021552     
   2537951435.6806331     
   2750763933.8011613     
   2697719222.8216867     
   2650304228.9320993     
   2608555461.6908855     
   2572524039.1450286     
   2799668687.6352091     
   2746019300.3769279     
   2698182269.2835622     
   2656157594.3551035     
   2619945275.5915723     
   2507691118.6032748     
   2357330174.1521583     
   2215136892.7176561     
   2086097924.5815868     
   1977099628.8786922     
   2516323633.7839336     
   2348400285.3855176     
   2184037342.9960861     
   2026338636.6544709     
   1879875628.6205342     
   2537951435.6806331     
   2357562419.8251634     
   2176922007.3128853     
   1997503533.4148858     
   1821588126.4612744     
   2572524039.1450286     
   2384920679.8566637     
   2194258128.4170747     
   2000915065.5380671     
   1805496191.3405499     
   2619945275.5915723     
   2430444226.6059051     
   2236188445.2383795     
   2037177931.4889987     
   1833412685.3577349     
   2508144942.8977346     
   2537639074.6069012     
   2565820497.4810152     
   2592689211.5200629     
   2618245216.7240372     
   2562910251.0741367     
   2571170963.5833230     
   2582919125.6110530     
   2598158630.8349590     
   2616894298.9550514     
   2666304625.9599862     
   2651155970.7270231     
   2644039665.6888242     
   2644984068.8586049     
   2654026242.9620748     
   2825499144.0063128     
   2783375408.9325733     
   2753348840.3981037     
   2735516137.8618774     
   2730012013.4344206     
   3044473883.7941012     
   2970742942.7373052     
   2912528857.4898753     
   2870051524.9176803     
   2843639599.7763305     
   2618245216.7240372     
   2613068268.9925222     
   2615255788.9049115     
   2624807776.4612093     
   2641724231.6614094     
   2616894298.9550514     
   2606982837.0831413     
   2604981714.2541814     
   2610902965.5679412     
   2624758531.6415043     
   2654026242.9620748     
   2636680390.3835578     
   2627747490.9461565     
   2627279118.9410772     
   2635327408.7543235     
   2730012013.4344206     
   2702607272.7078881     
   2684031572.5264392     
   2674404190.8075023     
   2673848574.7451787     
   2843639599.7763305     
   2803805552.9302506     
   2773092862.0753226     
   2751710666.0723038     
   2739881353.9922009     
   2641724231.6614094     
   2635879453.7292638     
   2638051339.1196280     
   2648239887.8324966     
   2666445099.8678756     
   2624758531.6415043     
   2616219556.3975816     
   2615871294.3742270     
   2623726004.1552777     
   2639795591.1551876     
   2635327408.7543235     
   2621471472.6532040     
   2615978957.5969958     
   2618900250.9985275     
   2630284910.1457496     
   2673848574.7451787     
   2652148637.9319468     
   2638953729.4273005     
   2634377828.1348095     
   2638535076.6318192     
   2739881353.9922009     
   2708046695.8573098     
   2684792765.7893672     
   2670318142.3926477     
   2664826204.5471859     
   2666445099.8678756     
   2663306099.5264239     
   2669683373.5883565     
   2685576922.0536628     
   2710986744.9223514     
   2639795591.1551876     
   2634520721.4740872     
   2638525229.1660051     
   2651820923.4894061     
   2674418280.8842697     
   2630284910.1457496     
   2620537903.6217937     
   2619907947.2074008     
   2628441871.4783335     
   2646181892.2598600     
   2638535076.6318192     
   2622119554.9676170     
   2614700707.3835139     
   2616382344.7183642     
   2627260025.0162048     
   2664826204.5471859     
   2639773661.0936770     
   2623599055.8695583     
   2616482108.1751614     
   2618592393.2592340     
   2710986744.9223514     
   2712982984.0287352     
   2724393665.9678335     
   2745218790.7396421     
   2775458358.3441625     
   2674418280.8842697     
   2673742761.1215243     
   2682677870.9184551     
   2701230735.3013730     
   2729406854.2810488     
   2646181892.2598600     
   2641144308.6867628     
   2646041629.8291402     
   2660905380.7610765     
   2685760448.1453018     
   2627260025.0162048     
   2616072503.1071787     
   2615259911.4450641     
   2624901005.8373103     
   2645059608.7579246     
   2618592393.2592340     
   2599405305.1884947     
   2591125484.2285542     
   2593908199.6008739     
   2607883025.6811786     
   2775458358.3441625     
   2768336026.4058962     
   2769996970.6416492     
   2780441191.0514174     
   2799668687.6352091     
   2729406854.2810488     
   2721056133.9969349     
   2721829598.0379539     
   2731730579.3279591     
   2750763933.9011350     
   2685760448.1453018     
   2676184554.6693997     
   2676217034.7965217     
   2685873093.5421581     
   2705173640.1900086     
   2645059608.7579246     
   2634124793.6108141     
   2633442655.3800673     
   2643051944.4604816     
   2663003095.1771598     
   2607883025.6811786     
   2595304306.9700651     
   2593801896.6673665     
   2603453524.7229214     
   2624355071.1816649     
   2799668687.6352091     
   2746019300.3769279     
   2698182269.2835622     
   2656157594.3551035     
   2619945275.5915723     
   2750763933.9011350     
   2697719222.9055767     
   2650304228.9847722     
   2608555461.6968699     
   2572524039.0881124     
   2705173640.1900086     
   2654822456.0353389     
   2610060538.8625402     
   2571034934.6360111     
   2537951435.6312962     
   2663003095.1771598     
   2617432863.0330114     
   2577554315.9630642     
   2543697650.7387428     
   2516323633.8073897     
   2624355071.1816649     
   2585645748.8304529     
   2552874129.4370456     
   2526620683.3990574     
   2507691118.7653480     
   2619945275.5915723     
   2430444226.6059051     
   2236188445.2383795     
   2037177931.4889987     
   1833412685.3577349     
   2572524039.0881124     
   2384920679.8276501     
   2194258128.4259853     
   2000915065.5965061     
   1805496191.4631238     
   2537951435.6312962     
   2357562419.8007822     
   2176922007.3320475     
   1997503533.4953644     
   1821588126.6187937     
   2516323633.8073897     
   2348400285.3998170     
   2184037343.0268316     
   2026338636.7203519     
   1879875628.7268479     
   2507691118.7653480     
   2357330174.2392230     
   2215136892.7610512     
   2086097924.5971053     
   1977099628.8543038     
   3044473883.7941012     
   2970742942.7373052     
   2912528857.4898753     
   2870051524.9176803     
   2843639599.7763305     
   3097975485.9134803     
   3032993690.3030438     
   2976885692.9518251     
   2929993823.0713906     
   2892717820.8197279     
   3182150747.4190912     
   3126015475.6663380     
   3073537656.2225389     
   3024926058.3535762     
   2980400367.4231296     
   3279124233.6700902     
   3234940423.2899313     
   3190629130.7962236     
   3146016376.5520577     
   3100938150.0083904     
   3375110956.7886438     
   3347926070.3729954     
   3318247335.4256873     
   3285295059.4522457     
   3248382181.0967484     
   2843639599.7763305     
   2803805552.9302506     
   2773092862.0753226     
   2751710666.0723038     
   2739881353.9922009     
   2892717820.8197279     
   2845485441.0792832     
   2806068198.1214480     
   2774764027.1401076     
   2751893734.8070545     
   2980400367.4231296     
   2924019310.2910848     
   2874117054.5856051     
   2831050278.8177357     
   2795210483.5408897     
   3100938150.0083904     
   3034651850.4657168     
   2973506606.5451112     
   2917877970.6500854     
   2868187127.0280480     
   3248382181.0967484     
   3172263405.6962404     
   3099986301.5081429     
   3031907095.4912858     
   2968434314.9817772     
   2739881353.9922009     
   2708046695.8573098     
   2684792765.7893672     
   2670318142.3926477     
   2664826204.5471859     
   2751893734.8070545     
   2709973545.7257681     
   2676029964.0432186     
   2650345744.7649126     
   2633214589.4054604     
   2795210483.5408897     
   2741913326.6659818     
   2695920051.4170842     
   2657587340.0848451     
   2627293650.1500940     
   2868187127.0280480     
   2802816779.8002439     
   2744011663.5147643     
   2692179396.8864260     
   2647762889.0814600     
   2968434314.9817772     
   2890842800.6829762     
   2819037154.9120560     
   2753445640.0205150     
   2694544617.5042105     
   2664826204.5471859     
   2639773661.0936770     
   2623599055.8695583     
   2616482108.1751614     
   2618592393.2592340     
   2633214589.4054604     
   2597435868.1701221     
   2570476214.4621739     
   2552625967.7523632     
   2544168471.0483227     
   2627293650.1500940     
   2578811296.3961511     
   2538957660.5063086     
   2508150765.9121494     
   2486813817.7500315     
   2647762889.0814600     
   2585011155.4699945     
   2530517673.9925556     
   2484828376.3706641     
   2448518065.5849857     
   2694544617.5042105     
   2616457277.6658139     
   2546056865.2641172     
   2483995766.8065548     
   2430989252.7164721     
   2618592393.2592340     
   2599405305.1884947     
   2591125484.2285542     
   2593908199.6008739     
   2607883025.6811786     
   2544168471.0483227     
   2514830945.3663039     
   2495849459.0404363     
   2487487111.3402543     
   2489973505.2415032     
   2486813817.7500315     
   2445393259.9945359     
   2413697426.4891686     
   2392117392.7383013     
   2381012165.3706474     
   2448518065.5849857     
   2393533215.2260389     
   2347473487.9287305     
   2310860361.1741161     
   2284198810.4653616     
   2430989252.7164721     
   2361569211.4958286     
   2300047104.0437312     
   2247049169.7511849     
   2203215488.5949225     
   2607883025.6811786     
   2595304306.9700651     
   2593801896.6673665     
   2603453524.7229214     
   2624355071.1816649     
   2489973505.2415032     
   2470453552.5615625     
   2462854030.1009502     
   2467311880.1917219     
   2483961718.4884963     
   2381012165.3706474     
   2352183474.4606009     
   2336269445.7100101     
   2333525630.6478243     
   2344176054.9536853     
   2284198810.4653616     
   2243320492.1603765     
   2216438882.8779621     
   2204017769.8208871     
   2206454534.9664392     
   2203215488.5949225     
   2147250380.3767090     
   2106331557.1047673     
   2081253842.2317631     
   2072717340.1658478     
   2624355071.1816649     
   2585645748.8304529     
   2552874129.4370456     
   2526620683.3990574     
   2507691118.7653480     
   2483961718.4884963     
   2451081883.9181399     
   2426796254.1938887     
   2412049771.8591027     
   2408217814.7360563     
   2344176054.9536853     
   2319592809.8570504     
   2306562635.1956935     
   2306490423.4090858     
   2321465098.2173467     
   2206454534.9664392     
   2191955119.6006904     
   2192454654.9422050     
   2209920434.3942399     
   2247274874.7667890     
   2072717340.1658478     
   2069137666.6353304     
   2084788167.1767085     
   2122295381.9546692     
   2185475733.7183309     
   2507691118.7653480     
   2357330174.2392230     
   2215136892.7610512     
   2086097924.5971053     
   1977099628.8543038     
   2408217814.7360563     
   2282937558.8583837     
   2168162489.9625912     
   2070637259.1181378     
   1999137068.3634906     
   2321465098.2173467     
   2224771466.4658623     
   2141410115.4303865     
   2079748655.8350103     
   2049961655.2160807     
   2247274874.7667890     
   2182622416.1345353     
   2134408946.8156788     
   2112300731.8246055     
   2127231008.9802926     
   2185475733.7183309     
   2156196262.9445310     
   2146511732.1513019     
   2166942097.7456942     
   2228553772.4673495     
   3375110956.7886438     
   3347926070.3729954     
   3318247335.4256873     
   3285295059.4522457     
   3248382181.0967484     
   3655502569.5501118     
   3596012932.3334265     
   3539429405.3495822     
   3485925038.5194197     
   3435699169.1560178     
   4040007895.8065643     
   3932018584.3385115     
   3832680773.3963385     
   3741916350.6968002     
   3659977723.1079550     
   4532705056.9292107     
   4359285414.6722469     
   4200040785.2706928     
   4053742704.5917578     
   3920008146.6630359     
   5137197875.7947092     
   4880077517.9646206     
   4642299539.8221283     
   4420876916.4958277     
   4214211692.0778322     
   3248382181.0967484     
   3172263405.6962404     
   3099986301.5081429     
   3031907095.4912858     
   2968434314.9817772     
   3435699169.1560178     
   3339191056.0736742     
   3247176362.9034309     
   3160025661.8912477     
   3078184452.0755315     
   3659977723.1079550     
   3542939404.7852287     
   3430902108.8602581     
   3324210985.6540308     
   3223318880.6415353     
   3920008146.6630359     
   3781813240.4134593     
   3648980888.4337525     
   3521801340.7761111     
   3400712575.4680843     
   4214211692.0778322     
   4053759309.7460732     
   3898890105.1626749     
   3749820554.3497672     
   3606960020.7489467     
   2968434314.9817772     
   2890842800.6829762     
   2819037154.9120560     
   2753445640.0205150     
   2694544617.5042105     
   3078184452.0755315     
   2984919231.3437839     
   2896726000.7164412     
   2814063978.5037637     
   2737469647.8753381     
   3223318880.6415353     
   3114252921.2092719     
   3009381464.1790547     
   2909140093.3282757     
   2814066784.3358674     
   3400712575.4680843     
   3276034932.1774764     
   3154601058.6289821     
   3036774004.0905647     
   2923034717.1163802     
   3606960020.7489467     
   3467038693.0432286     
   3329417760.5956764     
   3194352749.4513454     
   3062221510.5928926     
   2694544617.5042105     
   2616457277.6658139     
   2546056865.2641172     
   2483995766.8065548     
   2430989252.7164721     
   2737469647.8753381     
   2641598576.7169394     
   2552176711.1227870     
   2469857567.3689170     
   2395389863.7053862     
   2814066784.3358674     
   2701616109.6720719     
   2594306225.5886178     
   2492714535.1275339     
   2397530751.8883538     
   2923034717.1163802     
   2795803752.3452778     
   2672469557.9633231     
   2553477441.6905522     
   2439379899.4648104     
   3062221510.5928926     
   2922356343.4569097     
   2785325135.8297677     
   2651421716.5394564     
   2521024406.1582742     
   2430989252.7164721     
   2361569211.4958286     
   2300047104.0437312     
   2247049169.7511849     
   2203215488.5949225     
   2395389863.7053862     
   2307272859.3970842     
   2226533639.8034811     
   2153931657.3044076     
   2090296577.6656435     
   2397530751.8883538     
   2290647251.0699034     
   2190230282.8640709     
   2097086155.6737175     
   2012157316.0251729     
   2439379899.4648104     
   2314506764.4612551     
   2194915608.3179522     
   2081340058.7911398     
   1974697361.5053382     
   2521024406.1582742     
   2379642740.8918252     
   2242282272.2804646     
   2109499166.5020101     
   1982039165.3398294     
   2203215488.5949225     
   2147250380.3767090     
   2106331557.1047673     
   2081253842.2317631     
   2072717340.1658478     
   2090296577.6656435     
   2014236313.6099634     
   1950634337.4842873     
   1900597008.9012775     
   1865181036.9960434     
   2012157316.0251729     
   1914633470.7494466     
   1825983977.3421302     
   1747433415.2307825     
   1680302785.6977127     
   1974697361.5053382     
   1857336552.5722826     
   1744452125.5901721     
   1636984052.8541515     
   1536087163.7366772     
   1982039165.3398294     
   1849997399.6172822     
   1718110532.2239945     
   1586737711.4264646     
   1456396967.9770589     
   2072717340.1658478     
   2069137666.6353304     
   2084788167.1767085     
   2122295381.9546692     
   2185475733.7183309     
   1865181036.9960434     
   1854703976.8092761     
   1867184738.2232115     
   1904824808.8800845     
   1970656363.9326053     
   1680302785.6977127     
   1651944514.4269257     
   1651287431.2600436     
   1680688514.7048368     
   1742751996.7567835     
   1536087163.7366772     
   1475458842.6071064     
   1447503506.5755446     
   1456168176.0376041     
   1504733068.7516515     
   1456396967.9770589     
   1347705228.4068043     
   1273985924.7181475     
   1243338643.9896817     
   1262772006.2466621     
   2185475733.7183309     
   2156196262.9445310     
   2146511732.1513019     
   2166942097.7456942     
   2228553772.4673495     
   1970656363.9326053     
   1968861082.8838942     
   2003611768.8698375     
   2093576108.0358901     
   2257405837.5633655     
   1742751996.7567835     
   1787613356.5498354     
   1884624609.4472950     
   2060685161.2794964     
   2341013611.1605263     
   1504733068.7516515     
   1613168791.3326705     
   1788809603.5229385     
   2066392172.1307821     
   2476108281.9966674     
   1262772006.2466621     
   1446569272.9165835     
   1715602074.8706348     
   2110431434.6652834     
   2663477919.3697262     
   5137197875.7947092     
   4880077517.9646206     
   4642299539.8221283     
   4420876916.4958277     
   4214211692.0778322     
   5344811969.4149113     
   5118500790.9069862     
   4890442274.2444868     
   4660460224.2961187     
   4428434617.6380701     
   5417160770.5270567     
   5220336526.6176071     
   5029873662.2046852     
   4840368760.4606133     
   4647638172.3932924     
   5338560491.1468134     
   5168763782.8507395     
   5045178607.4935303     
   4947522547.3131752     
   4860897935.9485054     
   5168204794.2523394     
   4990109412.8615971     
   4943644618.0533733     
   4979838863.7993307     
   5061546944.7711086     
   4214211692.0778322     
   4053759309.7460732     
   3898890105.1626749     
   3749820554.3497672     
   3606960020.7489467     
   4428434617.6380701     
   4262112121.9720917     
   4098497234.4741535     
   3937815720.4133272     
   3780379190.8294325     
   4647638172.3932924     
   4477792131.1801023     
   4309719491.9745569     
   4143462774.2026267     
   3979087984.9430771     
   4860897935.9485054     
   4691191008.2249918     
   4524057459.2823153     
   4359196132.9995623     
   4196320748.8995147     
   5061546944.7711086     
   4896096666.2208633     
   4735651838.0360823     
   4579410453.6207867     
   4426627316.4822779     
   3606960020.7489467     
   3467038693.0432286     
   3329417760.5956764     
   3194352749.4513454     
   3062221510.5928926     
   3780379190.8294325     
   3630294178.3786960     
   3481127692.4799395     
   3333050718.4173741     
   3186321580.7260199     
   3979087984.9430771     
   3820283261.8393745     
   3661426075.9684510     
   3502614010.5576749     
   3343999413.8575206     
   4196320748.8995147     
   4030454915.5890079     
   3863949635.0613546     
   3696850902.8142734     
   3529235111.4989848     
   4426627316.4822779     
   4255427072.4733539     
   4083340591.3702421     
   3910385376.7801628     
   3736594866.2835369     
   3062221510.5928926     
   2922356343.4569097     
   2785325135.8297677     
   2651421716.5394564     
   2521024406.1582742     
   3186321580.7260199     
   3037578576.4999752     
   2891288672.7595921     
   2747714811.4294448     
   2607214364.7888031     
   3343999413.8575206     
   3185294838.5372396     
   3028587493.9397063     
   2874108983.1699495     
   2722195840.5143209     
   3529235111.4989848     
   3359323361.5733171     
   3190895202.0435834     
   3024152533.1616659     
   2859413180.2045755     
   3736594866.2835369     
   3554131002.4443793     
   3372594828.5535531     
   3192161236.5010257     
   3013132435.8338771     
   2521024406.1582742     
   2379642740.8918252     
   2242282272.2804646     
   2109499166.5020101     
   1982039165.3398294     
   2607214364.7888031     
   2457381630.3059859     
   2309396997.9089003     
   2163572655.6086626     
   2020333420.3187099     
   2722195840.5143209     
   2567060788.6387672     
   2412253882.6792502     
   2257884781.3502192     
   2104103650.3207071     
   2859413180.2045755     
   2702517471.6358180     
   2545103607.9893522     
   2387175033.6947327     
   2228743822.9889145     
   3013132435.8338771     
   2858078988.3094316     
   2702263944.8237686     
   2545682658.4884295     
   2388352701.8470287     
   1982039165.3398294     
   1849997399.6172822     
   1718110532.2239945     
   1586737711.4264646     
   1456396967.9770589     
   2020333420.3187099     
   1882501180.3939545     
   1745019064.4070067     
   1608010533.5410471     
   1471646237.3697081     
   2104103650.3207071     
   1963236923.6654963     
   1823309351.3323507     
   1684343608.6436880     
   1546390408.1634786     
   2228743822.9889145     
   2085895815.8474905     
   1944681406.7814002     
   1805099584.9258466     
   1667226135.6157370     
   2388352701.8470287     
   2242956522.2945924     
   2099768459.5909095     
   1958797290.1284127     
   1820217677.8978713     
   1456396967.9770589     
   1347705228.4068043     
   1273985924.7181475     
   1243338643.9896817     
   1262772006.2466621     
   1471646237.3697081     
   1327708257.5734878     
   1198244429.2959530     
   1087724035.0773673     
   1002031076.7733984     
   1546390408.1634786     
   1396779266.0804615     
   1243621218.8982415     
   1084646905.1935234     
   917826676.41601110     
   1667226135.6157370     
   1552023798.4675920     
   1427715652.0223961     
   1294663035.2767639     
   1158974750.8810019     
   1820217677.8978713     
   1779694387.6963129     
   1735644366.8122265     
   1696700144.1545625     
   1681326466.5058064     
   1262772006.2466621     
   1446569272.9165835     
   1715602074.8706348     
   2110431434.6652834     
   2663477919.3697262     
   1002031076.7733984     
   1164671530.9254620     
   1425369696.2507532     
   1808691877.8245058     
   2334705792.4935508     
   917826676.41601110     
   963156826.93403435     
   1144911817.6247952     
   1476436833.0203311     
   1957402095.0518501     
   1158974750.8810019     
   1008483797.3250413     
   985230764.66873252     
   1161466748.8402166     
   1544084656.2881021     
   1681326466.5058064     
   1383768779.8167634     
   1129475104.5317550     
   1010151500.9679425     
   1153052434.4437232     
 </DataArray>
 <DataArray  type="Float64" Name="strain" NumberOfComponents="3" format="ascii">
   7.4440069826946287E-002  -2.8954340458896333E-002  -6.0412712663972634E-002
   7.6698132876963920E-002  -2.8508783469733956E-002  -4.2988924916655957E-002
   7.8956195926981665E-002  -2.7880287796315573E-002  -2.9735220196272838E-002
   8.1214258976999409E-002  -2.7068853438640961E-002  -2.0651598502823387E-002
   8.3472322027017043E-002  -2.6074480396710897E-002  -1.5738059836307161E-002
   8.5803346171012040E-002  -2.7214412745405370E-002  -3.3460723472141352E-002
   8.4583505052729990E-002  -2.6829119149250180E-002  -2.1789145114321284E-002
   8.3363663934447996E-002  -2.6254573621994237E-002  -1.2903292066167360E-002
   8.2143822816166001E-002  -2.5490776163638318E-002  -6.8031643276788567E-003
   8.0923981697884007E-002  -2.4537726774181923E-002  -3.4887618988567182E-003
   9.0536138959269097E-002  -2.5474485031914351E-002  -6.5721542967394075E-003
   8.7222751389955000E-002  -2.5149454828766071E-002  -6.4647208157159186E-004
   8.3909363820640959E-002  -2.4628859447673124E-002   3.8778425411979400E-003
   8.0595976251326973E-002  -2.3912698888635564E-002   7.0007895715692853E-003
   7.7282588682012821E-002  -2.3000973151653115E-002   8.7223690095422635E-003
   8.8638448191717678E-002  -2.3734557318423333E-002   2.0252994862233420E-002
   8.4615871888639213E-002  -2.3469790508282309E-002   2.0439094181593231E-002
   8.0593295585560693E-002  -2.3003145273352010E-002   2.0608183625822590E-002
   7.6570719282482186E-002  -2.2334621613632644E-002   2.0760263194921427E-002
   7.2548142979403707E-002  -2.1464219529124168E-002   2.0895332888889465E-002
   8.0110273868357729E-002  -2.1994629604932370E-002   4.7014724004776687E-002
   7.6762866548782449E-002  -2.1790126187798464E-002   4.1467553675173185E-002
   7.3415459229207086E-002  -2.1377431099030897E-002   3.7287731187706841E-002
   7.0068051909631793E-002  -2.0756544338629862E-002   3.4475256542377541E-002
   6.6720644590056416E-002  -1.9927465906595332E-002   3.3030129739185066E-002
   8.3472322027017043E-002  -2.6074480396710897E-002  -1.5738059836307161E-002
   8.1016238060465651E-002  -2.5026169337739490E-002  -1.2469990174310219E-002
   7.8560154093914314E-002  -2.4052920928941679E-002  -9.5988258385114600E-003
   7.6104070127362894E-002  -2.3154735170317839E-002  -7.1245668289106612E-003
   7.3647986160811585E-002  -2.2331612061867512E-002  -5.0472131455077118E-003
   8.0923981697884007E-002  -2.4537726774181923E-002  -3.4887618988567182E-003
   7.8164003558297113E-002  -2.3529710150428401E-002  -1.2979238267749327E-003
   7.5404025418710108E-002  -2.2601010989179618E-002   6.8203122543339378E-004
   7.2644047279123158E-002  -2.1751629290436825E-002   2.4511032577687608E-003
   6.9884069139536265E-002  -2.0981565054198903E-002   4.0092922702309464E-003
   7.7282588682012821E-002  -2.3000973151653115E-002   8.7223690095422635E-003
   7.4404738675715204E-002  -2.2033250963116757E-002   9.8317206793771400E-003
   7.1526888669417463E-002  -2.1149101049417557E-002   1.0916211635663378E-002
   6.8649038663119777E-002  -2.0348523410555590E-002   1.1975841878401672E-002
   6.5771188656822105E-002  -1.9631518046530294E-002   1.3010611407591272E-002
   7.2548142979403707E-002  -2.1464219529124168E-002   2.0895332888889465E-002
   6.9738443412720008E-002  -2.0536791775805557E-002   2.0918943344145884E-002
   6.6928743846036393E-002  -1.9697191109655440E-002   2.1103715392178424E-002
   6.4119044279352722E-002  -1.8945417530674243E-002   2.1449649032987506E-002
   6.1309344712669057E-002  -1.8281471038861796E-002   2.1956744266573049E-002
   6.6720644590056416E-002  -1.9927465906595332E-002   3.3030129739185066E-002
   6.4165117769311636E-002  -1.9040332588494080E-002   3.1963744167531088E-002
   6.1609590948566870E-002  -1.8245281169893379E-002   3.1244542494978267E-002
   5.9054064127822124E-002  -1.7542311650793049E-002   3.0872524721526781E-002
   5.6498537307077323E-002  -1.6931424031193021E-002   3.0847690847176479E-002
   7.3647986160811585E-002  -2.2331612061867512E-002  -5.0472131455077118E-003
   7.0794067103870262E-002  -2.1515384584220754E-002  -4.6716500460183275E-003
   6.7940148046929050E-002  -2.0637885718006260E-002  -4.2480832813011626E-003
   6.5086228989987810E-002  -1.9699115463224830E-002  -3.7765128513581325E-003
   6.2232309933046515E-002  -1.8699073819876344E-002  -3.2569387561870444E-003
   6.9884069139536265E-002  -2.0981565054198903E-002   4.0092922702309464E-003
   6.7098288126276773E-002  -2.0219887973479955E-002   4.1179335567538833E-003
   6.4312507113017281E-002  -1.9395667741292338E-002   4.3148472654139514E-003
   6.1526726099757734E-002  -1.8508904357636587E-002   4.6000333962104567E-003
   5.8740945086498242E-002  -1.7559597822512596E-002   4.9734919491434271E-003
   6.5771188656822105E-002  -1.9631518046530294E-002   1.3010611407591272E-002
   6.3093814444153795E-002  -1.8924391362739101E-002   1.2853602644049195E-002
   6.0416440231485666E-002  -1.8153449764578430E-002   1.2825135059553405E-002
   5.7739066018817446E-002  -1.7318693252048347E-002   1.2925208654103619E-002
   5.5061691806149254E-002  -1.6420121825148792E-002   1.3153823427699912E-002
   6.1309344712669057E-002  -1.8281471038861796E-002   2.1956744266573049E-002
   5.8780646057501669E-002  -1.7628894751998331E-002   2.1535357215867211E-002
   5.6251947402334274E-002  -1.6911231787864293E-002   2.1282780101116696E-002
   5.3723248747166871E-002  -1.6128482146459996E-002   2.1199012922321681E-002
   5.1194550091999427E-002  -1.5280645827785017E-002   2.1284055679482335E-002
   5.6498537307077323E-002  -1.6931424031193021E-002   3.0847690847176479E-002
   5.4158782966320151E-002  -1.6333398141257616E-002   3.0163197272207398E-002
   5.1819028625563063E-002  -1.5669013811150323E-002   2.9687782390103556E-002
   4.9479274284805932E-002  -1.4938271040871823E-002   2.9421446200864732E-002
   4.7139519944048802E-002  -1.4141169830421296E-002   2.9364188704490923E-002
   6.2232309933046515E-002  -1.8699073819876344E-002  -3.2569387561870444E-003
   5.9218821276981082E-002  -1.7709623583663014E-002  -2.7812546433985119E-003
   5.6205332620915482E-002  -1.6802627550287691E-002  -2.1061346396616942E-003
   5.3191843964849994E-002  -1.5978085719749284E-002  -1.2315787449773408E-003
   5.0178355308784450E-002  -1.5235998092050007E-002  -1.5758695934464662E-004
   5.8740945086498242E-002  -1.7559597822512596E-002   4.9734919491434271E-003
   5.5917920068181914E-002  -1.6612724666582757E-002   5.1773833185853602E-003
   5.3094895049865476E-002  -1.5733261420509709E-002   5.5627660725779959E-003
   5.0271870031549093E-002  -1.4921208084293876E-002   6.1296402111212511E-003
   4.7448845013232765E-002  -1.4176564657934598E-002   6.8780057342142653E-003
   5.5061691806149254E-002  -1.6420121825148792E-002   1.3153823427699912E-002
   5.2411185919184644E-002  -1.5515825749502554E-002   1.3100966346776072E-002
   4.9760680032220034E-002  -1.4663895290731963E-002   1.3211656144005365E-002
   4.7110174145255368E-002  -1.3864330448837361E-002   1.3485892819387758E-002
   4.4459668258290730E-002  -1.3117131223818967E-002   1.3923676372923355E-002
   5.1194550091999427E-002  -1.5280645827785017E-002   2.1284055679482335E-002
   4.8698618829989160E-002  -1.4418926832422213E-002   2.0989494441173671E-002
   4.6202687567978955E-002  -1.3594529160954542E-002   2.0840535574620723E-002
   4.3706756305968722E-002  -1.2807452813381621E-002   2.0837179079823590E-002
   4.1210825043958475E-002  -1.2057697789703670E-002   2.0979424956782136E-002
   4.7139519944048802E-002  -1.4141169830421296E-002   2.9364188704490923E-002
   4.4780218800595573E-002  -1.3322027915342094E-002   2.8842967601778235E-002
   4.2420917657142398E-002  -1.2525163031176997E-002   2.8449404364424030E-002
   4.0061616513689183E-002  -1.1750575177925573E-002   2.8183498992428294E-002
   3.7702315370235995E-002  -1.0998264355588261E-002   2.8045251485790623E-002
   5.0178355308784450E-002  -1.5235998092050007E-002  -1.5758695934464662E-004
   4.7583230407064137E-002  -1.4506554532723204E-002  -4.9293174496867209E-005
   4.4988105505343989E-002  -1.3719944907304049E-002  -1.1854308205383468E-005
   4.2392980603623759E-002  -1.2876169215793612E-002  -4.5270360470806015E-005
   3.9797855701903528E-002  -1.1975227458191240E-002  -1.4954133129285729E-004
   4.7448845013232765E-002  -1.4176564657934598E-002   6.8780057342142653E-003
   4.4812918153687931E-002  -1.3445136377193023E-002   6.8057588627609134E-003
   4.2176991294143013E-002  -1.2672728477830242E-002   6.7227629942149258E-003
   3.9541064434598108E-002  -1.1859340959846573E-002   6.6290181285763861E-003
   3.6905137575053315E-002  -1.1004973823240727E-002   6.5245242658450442E-003
   4.4459668258290730E-002  -1.3117131223818967E-002   1.3923676372923355E-002
   4.1843045362385450E-002  -1.2383718221663287E-002   1.3654702397697699E-002
   3.9226422466480240E-002  -1.1625512048355963E-002   1.3435085346843650E-002
   3.6609799570575009E-002  -1.0842512703898861E-002   1.3264825220361778E-002
   3.3993176674669751E-002  -1.0034720188290325E-002   1.3143922018251319E-002
   4.1210825043958475E-002  -1.2057697789703670E-002   2.0979424956782136E-002
   3.8673612033157091E-002  -1.1322300066132884E-002   2.0497537430313711E-002
   3.6136399022355686E-002  -1.0578295618882141E-002   2.0125112749681470E-002
   3.3599186011554288E-002  -9.8256844479511531E-003   1.9862150914885236E-002
   3.1061973000752828E-002  -9.0644665533398672E-003   1.9708651925924817E-002
   3.7702315370235995E-002  -1.0998264355588261E-002   2.8045251485790623E-002
   3.5304618166002666E-002  -1.0260881910603148E-002   2.7334263960609007E-002
   3.2906920961769365E-002  -9.5310791894083480E-003   2.6792845202727900E-002
   3.0509223757536078E-002  -8.8088561920036182E-003   2.6420995212147025E-002
   2.8111526553302735E-002  -8.0942129183895206E-003   2.6218713988865883E-002
   3.9797855701903528E-002  -1.1975227458191240E-002  -1.4954133129285729E-004
   3.7401756241141615E-002  -1.1129316762296448E-002  -3.6667743835661071E-004
   3.5005656780379757E-002  -1.0450634255910585E-002  -5.1369483804886151E-004
   3.2609557319617871E-002  -9.9391799390313867E-003  -5.9059353037027584E-004
   3.0213457858855985E-002  -9.5949538116608668E-003  -5.9737351531952143E-004
   3.6905137575053315E-002  -1.1004973823240727E-002   6.5245242658450442E-003
   3.4563793698823175E-002  -1.0186099078148492E-002   6.1331859668304345E-003
   3.2222449822593091E-002  -9.4791887347057124E-003   5.7812401295082583E-003
   2.9881105946363007E-002  -8.8842427929103490E-003   5.4686867538784323E-003
   2.7539762070132867E-002  -8.4012612527641917E-003   5.1955258399402071E-003
   3.3993176674669751E-002  -1.0034720188290325E-002   1.3143922018251319E-002
   3.1675862137292427E-002  -9.2428813940011456E-003   1.2633645315145048E-002
   2.9358547599915033E-002  -8.5077432135008124E-003   1.2132034828052168E-002
   2.7041233062537660E-002  -7.8293056467895264E-003   1.1639090556972737E-002
   2.4723918525160371E-002  -7.2075686938671835E-003   1.1154812501906197E-002
   3.1061973000752828E-002  -9.0644665533398672E-003   1.9708651925924817E-002
   2.8737961556549285E-002  -8.2996637098531612E-003   1.9134700606586549E-002
   2.6413950112345732E-002  -7.5362976922961483E-003   1.8538689257582695E-002
   2.4089938668142179E-002  -6.7743685006683742E-003   1.7920617878913195E-002
   2.1765927223938636E-002  -6.0138761349701197E-003   1.7280486470577533E-002
   2.8111526553302735E-002  -8.0942129183895206E-003   2.6218713988865883E-002
   2.5750091956593890E-002  -7.3564460257055098E-003   2.5636351841155203E-002
   2.3388657359885073E-002  -6.5648521710913732E-003   2.5001203418099860E-002
   2.1027222763176270E-002  -5.7194313545475273E-003   2.4313268719699854E-002
   1.8665788166467412E-002  -4.8201835760733891E-003   2.3572547745954631E-002
   3.0213457858855985E-002  -9.5949538116608668E-003  -5.9737351531952143E-004
   2.9604987894852219E-002  -9.1302344460236773E-003  -3.6061760976369150E-004
   2.8996517930848453E-002  -8.2573004143463580E-003  -1.8012690168367484E-003
   2.8388047966844687E-002  -6.9761517166286036E-003  -4.9193277365393584E-003
   2.7779578002840921E-002  -5.2867883528697757E-003  -9.7147937688728536E-003
   2.7539762070132867E-002  -8.4012612527641917E-003   5.1955258399402071E-003
   2.5522545151614950E-002  -7.8687981862203271E-003   5.8683654076042702E-003
   2.3505328233097034E-002  -7.1254076652347287E-003   5.4011183788696404E-003
   2.1488111314579061E-002  -6.1710896898059531E-003   3.7937847537365676E-003
   1.9470894396061089E-002  -5.0058442599363318E-003   1.0463645322043025E-003
   2.4723918525160371E-002  -7.2075686938671835E-003   1.1154812501906197E-002
   2.1835275368359247E-002  -6.6073619264172545E-003   1.2066448520079653E-002
   1.8946632211558234E-002  -5.9935149161232659E-003   1.2375318658085777E-002
   1.6057989054757138E-002  -5.3660276629848430E-003   1.2081422915923512E-002
   1.3169345897956097E-002  -4.7249001670029989E-003   1.1184761293593859E-002
   2.1765927223938636E-002  -6.0138761349701197E-003   1.7280486470577533E-002
   1.8543178545085311E-002  -5.3459256666140431E-003   1.8233631727662236E-002
   1.5320429866232096E-002  -4.8616221670117199E-003   1.9121331820809759E-002
   1.2097681187378910E-002  -4.5609656361634068E-003   1.9943586750021197E-002
   8.8749325085256681E-003  -4.4439560740691664E-003   2.0700396515295941E-002
   1.8665788166467412E-002  -4.8201835760733891E-003   2.3572547745954631E-002
   1.5646254681793037E-002  -4.0844894068105542E-003   2.4369915030352240E-002
   1.2626721197118690E-002  -3.7297294179000906E-003   2.5639157867044182E-002
   9.6071877124442873E-003  -3.7559036093416168E-003   2.7380276256030373E-002
   6.5876542277699679E-003  -4.1630119811357780E-003   2.9593270197311172E-002
   2.7779578002840921E-002  -5.2867883528697757E-003  -9.7147937688728536E-003
   2.3353355055601988E-002  -4.2063906497735726E-003  -4.1858011219975122E-003
   1.8927132108363054E-002  -4.7521389340409725E-003   2.6063278727253003E-003
   1.4500909161124009E-002  -6.9240332056763471E-003   1.0661593215296972E-002
   1.0074686213885187E-002  -1.0722073464675574E-002   1.9979994905716225E-002
   1.9470894396061089E-002  -5.0058442599363318E-003   1.0463645322043025E-003
   1.6235585494778548E-002  -4.6910854517073775E-003   6.7412466433166562E-003
   1.3000276593495952E-002  -6.2882273412036560E-003   1.3554820498494546E-002
   9.7649676922135775E-003  -9.7972699284254311E-003   2.1487086097736419E-002
   6.5296587909307036E-003  -1.5218213213373577E-002   3.0538043441042717E-002
   1.3169345897956097E-002  -4.7249001670029989E-003   1.1184761293593859E-002
   1.0980506438846460E-002  -5.1757802536415154E-003   1.6759778158584038E-002
   8.7916669797368507E-003  -7.8243157483659231E-003   2.3309042163854848E-002
   6.6028275206272136E-003  -1.2670506651175299E-002   3.0832553309407609E-002
   4.4139880615176041E-003  -1.9714352962071136E-002   3.9330311595240808E-002
   8.8749325085256681E-003  -4.4439560740691664E-003   2.0700396515295941E-002
   7.5881178878055011E-003  -5.6604750555750427E-003   2.5869793423803036E-002
   6.3013032670854452E-003  -9.3604041555270662E-003   3.1868992868807851E-002
   5.0144886463652713E-003  -1.5543743373924775E-002   3.8697994850310502E-002
   3.7276740256452223E-003  -2.4210492710768916E-002   4.6356799368311052E-002
   6.5876542277699679E-003  -4.1630119811357780E-003   2.9593270197311172E-002
   6.0584198416558932E-003  -6.1451698575090141E-003   3.4071292438974776E-002
   5.5291854555418740E-003  -1.0896492562689153E-002   3.9234672613353117E-002
   4.9999510694277716E-003  -1.8416980096674321E-002   4.5083410720445138E-002
   4.4707166833137801E-003  -2.8706632459466697E-002   5.1617506760252230E-002
   8.0110273868357729E-002  -2.1994629604932370E-002   4.7014724004776687E-002
   7.6762866548782449E-002  -2.1790126187798464E-002   4.1467553675173185E-002
   7.3415459229207086E-002  -2.1377431099030897E-002   3.7287731187706841E-002
   7.0068051909631793E-002  -2.0756544338629862E-002   3.4475256542377541E-002
   6.6720644590056416E-002  -1.9927465906595332E-002   3.3030129739185066E-002
   6.9249070137182428E-002  -2.0272579938874324E-002   4.5695716497843542E-002
   6.7062742869565900E-002  -1.9964199521358778E-002   4.2080336957807524E-002
   6.4876415601949525E-002  -1.9516743096341466E-002   3.9419769679552435E-002
   6.2690088334333011E-002  -1.8930210663822340E-002   3.7714014663077805E-002
   6.0503761066716566E-002  -1.8204602223801547E-002   3.6963071908384021E-002
   6.0352291146185025E-002  -1.8550530272816224E-002   4.4515143823357889E-002
   5.8914508350171230E-002  -1.8138272854919119E-002   4.2762439408757597E-002
   5.7476725554157261E-002  -1.7656055093652034E-002   4.1552011675581701E-002
   5.6038942758143362E-002  -1.7103876989014902E-002   4.0883860623830356E-002
   5.4601159962129504E-002  -1.6481738541007818E-002   4.0757986253503256E-002
   5.3419936895365630E-002  -1.6828480606758178E-002   4.3473005981319715E-002
   5.2318162990597987E-002  -1.6312346188479446E-002   4.3513861028023314E-002
   5.1216389085830434E-002  -1.5795367090962603E-002   4.3684457175795111E-002
   5.0114615181062784E-002  -1.5277543314207449E-002   4.3984794424634870E-002
   4.9012841276295210E-002  -1.4758874858214088E-002   4.4414872774543042E-002
   4.8452007384724105E-002  -1.5106430940700077E-002   4.2569302971729006E-002
   4.7273706790846526E-002  -1.4486419522039773E-002   4.4334601815604724E-002
   4.6095406196968891E-002  -1.3934679088273200E-002   4.5817106180192302E-002
   4.4917105603091340E-002  -1.3451209639399948E-002   4.7016816065491712E-002
   4.3738805009213760E-002  -1.3036011175420359E-002   4.7933731471503149E-002
   6.6720644590056416E-002  -1.9927465906595332E-002   3.3030129739185066E-002
   6.4165117769311636E-002  -1.9040332588494080E-002   3.1963744167531088E-002
   6.1609590948566870E-002  -1.8245281169893379E-002   3.1244542494978267E-002
   5.9054064127822124E-002  -1.7542311650793049E-002   3.0872524721526781E-002
   5.6498537307077323E-002  -1.6931424031193021E-002   3.0847690847176479E-002
   6.0503761066716566E-002  -1.8204602223801547E-002   3.6963071908384021E-002
   5.8268701445528565E-002  -1.7438094911241986E-002   3.6109571974976024E-002
   5.6033641824340577E-002  -1.6728865861106737E-002   3.5549822541580206E-002
   5.3798582203152555E-002  -1.6076915073395790E-002   3.5283823608196652E-002
   5.1563522581964588E-002  -1.5482242548109149E-002   3.5311575174825416E-002
   5.4601159962129504E-002  -1.6481738541007818E-002   4.0757986253503256E-002
   5.2633134141409306E-002  -1.5835857233989864E-002   4.0152175595417144E-002
   5.0665108320689101E-002  -1.5212450552320095E-002   3.9786682038254584E-002
   4.8697082499968944E-002  -1.4611518495998642E-002   3.9661505582015207E-002
   4.6729056679248704E-002  -1.4033061065025360E-002   3.9776646226699047E-002
   4.9012841276295210E-002  -1.4758874858214088E-002   4.4414872774543042E-002
   4.7258415856953888E-002  -1.4233619556737784E-002   4.4091555028855159E-002
   4.5503990437612531E-002  -1.3696035243533397E-002   4.3955120985001504E-002
   4.3749565018271153E-002  -1.3146121918601438E-002   4.4005570642982397E-002
   4.1995139598929851E-002  -1.2583879581941418E-002   4.4242904002797484E-002
   4.3738805009213760E-002  -1.3036011175420359E-002   4.7933731471503149E-002
   4.2144546592162269E-002  -1.2631381879485620E-002   4.7927710275289387E-002
   4.0550288175110791E-002  -1.2179619934746783E-002   4.8055139381820988E-002
   3.8956029758059292E-002  -1.1680725341204255E-002   4.8316018791098148E-002
   3.7361771341007821E-002  -1.1134698098857643E-002   4.8710348503120393E-002
   5.6498537307077323E-002  -1.6931424031193021E-002   3.0847690847176479E-002
   5.4158782966320151E-002  -1.6333398141257616E-002   3.0163197272207398E-002
   5.1819028625563063E-002  -1.5669013811150323E-002   2.9687782390103556E-002
   4.9479274284805932E-002  -1.4938271040871823E-002   2.9421446200864732E-002
   4.7139519944048802E-002  -1.4141169830421296E-002   2.9364188704490923E-002
   5.1563522581964588E-002  -1.5482242548109149E-002   3.5311575174825416E-002
   4.9427058150733838E-002  -1.4892537054216531E-002   3.4778692958818719E-002
   4.7290593719503088E-002  -1.4255487360687588E-002   3.4443311868999765E-002
   4.5154129288272282E-002  -1.3571093467522052E-002   3.4305431905368611E-002
   4.3017664857041588E-002  -1.2839355374720085E-002   3.4365053067924867E-002
   4.6729056679248704E-002  -1.4033061065025360E-002   3.9776646226699047E-002
   4.4784304590867074E-002  -1.3451675967175641E-002   3.9376361129119478E-002
   4.2839552502485355E-002  -1.2841960910224520E-002   3.9161999591050267E-002
   4.0894800414103719E-002  -1.2203915894172336E-002   3.9133561612491430E-002
   3.8950048325722020E-002  -1.1537540919018846E-002   3.9291047193442993E-002
   4.1995139598929851E-002  -1.2583879581941418E-002   4.4242904002797484E-002
   4.0230522286719896E-002  -1.2010814880134738E-002   4.3956201783109730E-002
   3.8465904974509947E-002  -1.1428434459761480E-002   4.3843845556255069E-002
   3.6701287662299985E-002  -1.0836738320822704E-002   4.3905835322233466E-002
   3.4936670350090043E-002  -1.0235726463317621E-002   4.4142171081045026E-002
   3.7361771341007821E-002  -1.1134698098857643E-002   4.8710348503120393E-002
   3.5765711238292280E-002  -1.0569953793093667E-002   4.8518214920789338E-002
   3.4169651135576767E-002  -1.0014908009298704E-002   4.8488849764614289E-002
   3.2573591032861268E-002  -9.4695607474729847E-003   4.8622253034594762E-002
   3.0977530930145741E-002  -8.9339120076163958E-003   4.8918424730731047E-002
   4.7139519944048802E-002  -1.4141169830421296E-002   2.9364188704490923E-002
   4.4780218800595573E-002  -1.3322027915342094E-002   2.8842967601778235E-002
   4.2420917657142398E-002  -1.2525163031176997E-002   2.8449404364424030E-002
   4.0061616513689183E-002  -1.1750575177925573E-002   2.8183498992428294E-002
   3.7702315370235995E-002  -1.0998264355588261E-002   2.8045251485790623E-002
   4.3017664857041588E-002  -1.2839355374720085E-002   3.4365053067924867E-002
   4.0794701210264350E-002  -1.2090199434993565E-002   3.3889357383866919E-002
   3.8571737563487071E-002  -1.1353552001054326E-002   3.3558678827802502E-002
   3.6348773916709924E-002  -1.0629413072902400E-002   3.3373017399731475E-002
   3.4125810269932638E-002  -9.9177826505377764E-003   3.3332373099654478E-002
   3.8950048325722020E-002  -1.1537540919018846E-002   3.9291047193442993E-002
   3.6880781438255947E-002  -1.0858370954644925E-002   3.8870645453166305E-002
   3.4811514550789922E-002  -1.0181940970931773E-002   3.8612620103518354E-002
   3.2742247663323842E-002  -9.5082509678792847E-003   3.8516971144499382E-002
   3.0672980775857811E-002  -8.8373009454872364E-003   3.8583698576108827E-002
   3.4936670350090043E-002  -1.0235726463317621E-002   4.4142171081045026E-002
   3.3038459484570376E-002  -9.6265424742965067E-003   4.3786831809676310E-002
   3.1140248619050709E-002  -9.0103299408093550E-003   4.3611228191571608E-002
   2.9242037753531097E-002  -8.3870888628560306E-003   4.3615360226730841E-002
   2.7343826888011371E-002  -7.7568192404368352E-003   4.3799227915154039E-002
   3.0977530930145741E-002  -8.9339120076163958E-003   4.8918424730731047E-002
   2.9267735349207680E-002  -8.3947139939479776E-003   4.8637916453396934E-002
   2.7557939768269618E-002  -7.8387189106867705E-003   4.8554503091962076E-002
   2.5848144187331570E-002  -7.2659267578329967E-003   4.8668184646426277E-002
   2.4138348606393523E-002  -6.6763375353862120E-003   4.8978961116789899E-002
   3.7702315370235995E-002  -1.0998264355588261E-002   2.8045251485790623E-002
   3.5304618166002666E-002  -1.0260881910603148E-002   2.7334263960609007E-002
   3.2906920961769365E-002  -9.5310791894083480E-003   2.6792845202727900E-002
   3.0509223757536078E-002  -8.8088561920036182E-003   2.6420995212147025E-002
   2.8111526553302735E-002  -8.0942129183895206E-003   2.6218713988865883E-002
   3.4125810269932638E-002  -9.9177826505377764E-003   3.3332373099654478E-002
   3.1895019879297659E-002  -9.2149347711584784E-003   3.2736081075012635E-002
   2.9664229488662708E-002  -8.5171434719629457E-003   3.2304033910267482E-002
   2.7433439098027743E-002  -7.8244087529506720E-003   3.2036231605418589E-002
   2.5202648707392833E-002  -7.1367306141224551E-003   3.1932674160466579E-002
   3.0672980775857811E-002  -8.8373009454872364E-003   3.8583698576108827E-002
   2.8603773291417459E-002  -8.1689876317139198E-003   3.8104625195613750E-002
   2.6534565806977183E-002  -7.5032077545177517E-003   3.7784472767611252E-002
   2.4465358322536841E-002  -6.8399613138981664E-003   3.7623241292101629E-002
   2.2396150838096554E-002  -6.1792483098555562E-003   3.7620930769084820E-002
   2.7343826888011371E-002  -7.7568192404368352E-003   4.3799227915154039E-002
   2.5430878402362082E-002  -7.1230404922696389E-003   4.3439896322411971E-002
   2.3517929916712775E-002  -6.4892720370724535E-003   4.3234161774759000E-002
   2.1604981431063451E-002  -5.8555138748453851E-003   4.3182024272195051E-002
   1.9692032945414179E-002  -5.2217660055886850E-003   4.3283483814720428E-002
   2.4138348606393523E-002  -6.6763375353862120E-003   4.8978961116789899E-002
   2.2376335212131476E-002  -6.0770933528248028E-003   4.8741894455407775E-002
   2.0614321817869485E-002  -5.4753363196270444E-003   4.8653100931710824E-002
   1.8852308423607494E-002  -4.8710664357926314E-003   4.8712580545699796E-002
   1.7090295029345504E-002  -4.2642837013215917E-003   4.8920333297373775E-002
   2.8111526553302735E-002  -8.0942129183895206E-003   2.6218713988865883E-002
   2.5750091956593890E-002  -7.3564460257055098E-003   2.5636351841155203E-002
   2.3388657359885073E-002  -6.5648521710913732E-003   2.5001203418099860E-002
   2.1027222763176270E-002  -5.7194313545475273E-003   2.4313268719699854E-002
   1.8665788166467412E-002  -4.8201835760733891E-003   2.3572547745954631E-002
   2.5202648707392833E-002  -7.1367306141224551E-003   3.1932674160466579E-002
   2.2827487636101318E-002  -6.4453814035881352E-003   3.1524864632894223E-002
   2.0452326564809969E-002  -5.7416334694590232E-003   3.1142388431501744E-002
   1.8077165493518586E-002  -5.0254868117344323E-003   3.0785245556288560E-002
   1.5702004422227106E-002  -4.2969414304148135E-003   3.0453436007255086E-002
   2.2396150838096554E-002  -6.1792483098555562E-003   3.7620930769084820E-002
   2.0085382893746909E-002  -5.5343167814711491E-003   3.7346245623316093E-002
   1.7774614949397215E-002  -4.9184147678264512E-003   3.7175013405251534E-002
   1.5463847005047552E-002  -4.3315422689215594E-003   3.7107234114890628E-002
   1.3153079060697875E-002  -3.7736992847560713E-003   3.7142907752233806E-002
   1.9692032945414179E-002  -5.2217660055886850E-003   4.3283483814720428E-002
   1.7523777729530555E-002  -4.6232521593539688E-003   4.3100494812420696E-002
   1.5355522513646960E-002  -4.0951960661938236E-003   4.3099078339349103E-002
   1.3187267297763379E-002  -3.6375977261084089E-003   4.3279234395505996E-002
   1.1019012081879741E-002  -3.2504571390974124E-003   4.3640962980890950E-002
   1.7090295029345504E-002  -4.2642837013215917E-003   4.8920333297373775E-002
   1.5142672143452274E-002  -3.7121875372368440E-003   4.8787612200207997E-002
   1.3195049257559099E-002  -3.2719773645614736E-003   4.8914583233794717E-002
   1.1247426371665911E-002  -2.9436531832957441E-003   4.9301246398134269E-002
   9.2998034857727507E-003  -2.7272149934387535E-003   4.9947601693226096E-002
   1.8665788166467412E-002  -4.8201835760733891E-003   2.3572547745954631E-002
   1.5646254681793037E-002  -4.0844894068105542E-003   2.4369915030352240E-002
   1.2626721197118690E-002  -3.7297294179000906E-003   2.5639157867044182E-002
   9.6071877124442873E-003  -3.7559036093416168E-003   2.7380276256030373E-002
   6.5876542277699679E-003  -4.1630119811357780E-003   2.9593270197311172E-002
   1.5702004422227106E-002  -4.2969414304148135E-003   3.0453436007255086E-002
   1.3136136010688498E-002  -3.7810508376950325E-003   3.1238129954631322E-002
   1.0570267599149946E-002  -3.7028685457703436E-003   3.2458278495985010E-002
   8.0043991876113663E-003  -4.0623945546404833E-003   3.4113881631315693E-002
   5.4385307760727863E-003  -4.8596288643061314E-003   3.6204939360623412E-002
   1.3153079060697875E-002  -3.7736992847560713E-003   3.7142907752233806E-002
   1.1004454763977892E-002  -3.4776122685795385E-003   3.7858154242146530E-002
   8.8558304672578803E-003  -3.6760076736406938E-003   3.8972434367718703E-002
   6.7072061705378966E-003  -4.3688854999395683E-003   4.0485748128950859E-002
   4.5585818738178852E-003  -5.5562457474762628E-003   4.2398095525843338E-002
   1.1019012081879741E-002  -3.2504571390974124E-003   4.3640962980890950E-002
   9.2512109416611650E-003  -3.1741736994638642E-003   4.4229987892896422E-002
   7.4834098014425338E-003  -3.6491468015108844E-003   4.5181625482244997E-002
   5.7156086612239580E-003  -4.6753764452384331E-003   4.6495875748936259E-002
   3.9478075210053268E-003  -6.2528626306465052E-003   4.8172738692970687E-002
   9.2998034857727507E-003  -2.7272149934387535E-003   4.9947601693226096E-002
   7.8764045437383357E-003  -2.8707351303484674E-003   5.0353630906882385E-002
   6.4530056017039206E-003  -3.6222859293813525E-003   5.1085851839564433E-002
   5.0296066596695055E-003  -4.9818673905373673E-003   5.2144264491272352E-002
   3.6062077176351459E-003  -6.9494795138167476E-003   5.3528868862005030E-002
   6.5876542277699679E-003  -4.1630119811357780E-003   2.9593270197311172E-002
   6.0584198416558932E-003  -6.1451698575090141E-003   3.4071292438974776E-002
   5.5291854555418740E-003  -1.0896492562689153E-002   3.9234672613353117E-002
   4.9999510694277716E-003  -1.8416980096674321E-002   4.5083410720445138E-002
   4.4707166833137801E-003  -2.8706632459466697E-002   5.1617506760252230E-002
   5.4385307760727863E-003  -4.8596288643061314E-003   3.6204939360623412E-002
   5.4908284973196053E-003  -6.9937157170393283E-003   3.8345729519302263E-002
   5.5431262185664382E-003  -1.1363799355114557E-002   4.0964225959989109E-002
   5.5954239398133196E-003  -1.7969879778530318E-002   4.4060428682682617E-002
   5.6477216610601455E-003  -2.6811956987287777E-002   4.7634337687384010E-002
   4.5585818738178852E-003  -5.5562457474762628E-003   4.2398095525843338E-002
   4.9847600517186619E-003  -7.8422615765698644E-003   4.2734821645002474E-002
   5.4109382296194108E-003  -1.1831106147540044E-002   4.3341602395461726E-002
   5.8371164075200835E-003  -1.7522779460386308E-002   4.4218437777221398E-002
   6.2632945854209365E-003  -2.4917281515109080E-002   4.5365327790281573E-002
   3.9478075210053268E-003  -6.2528626306465052E-003   4.8172738692970687E-002
   4.5402145048530525E-003  -8.6908074361004006E-003   4.7238568816074827E-002
   5.1326214887008059E-003  -1.2298412939965378E-002   4.6366801919772237E-002
   5.7250284725484882E-003  -1.7075679142242301E-002   4.5557438004063325E-002
   6.3174354563963406E-003  -2.3022606042930382E-002   4.4810477068948029E-002
   3.6062077176351459E-003  -6.9494795138167476E-003   5.3528868862005030E-002
   4.1571918567228638E-003  -9.5393532956306037E-003   5.1856971032518961E-002
   4.7081759958105818E-003  -1.2765719732391212E-002   5.0039824532919552E-002
   5.2591601348982581E-003  -1.6628578824097975E-002   4.8077429363206525E-002
   5.8101442739860731E-003  -2.1127930570751463E-002   4.5969785523380491E-002
   4.8452007384724105E-002  -1.5106430940700077E-002   4.2569302971729006E-002
   4.7273706790846526E-002  -1.4486419522039773E-002   4.4334601815604724E-002
   4.6095406196968891E-002  -1.3934679088273200E-002   4.5817106180192302E-002
   4.4917105603091340E-002  -1.3451209639399948E-002   4.7016816065491712E-002
   4.3738805009213760E-002  -1.3036011175420359E-002   4.7933731471503149E-002
   4.4024896083727866E-002  -1.3145576933656145E-002   4.8638145364254926E-002
   4.2655699528185986E-002  -1.2657052200698848E-002   4.9559223470449915E-002
   4.1286502972644162E-002  -1.2206918351682666E-002   5.0381304132604693E-002
   3.9917306417102255E-002  -1.1795175386607328E-002   5.1104387350718664E-002
   3.8548109861560390E-002  -1.1421823305473006E-002   5.1728473124792396E-002
   3.8714996461844495E-002  -1.1184722926612156E-002   5.4560561020601611E-002
   3.7338700979885966E-002  -1.0827684879357924E-002   5.4667298490068628E-002
   3.5962405497927452E-002  -1.0479157615092174E-002   5.4858835550742821E-002
   3.4586110015968938E-002  -1.0139141133814703E-002   5.5135172202624115E-002
   3.3209814534010444E-002  -9.8076354355255690E-003   5.5496308445712614E-002
   3.2522308519073881E-002  -9.2238689195681955E-003   6.0336549940768862E-002
   3.1322711145946383E-002  -8.9983175580170549E-003   5.9658826874460343E-002
   3.0123113772818899E-002  -8.7513968785017174E-003   5.9249700434606700E-002
   2.8923516399691412E-002  -8.4831068810219974E-003   5.9109170621207921E-002
   2.7723919026563917E-002  -8.1934475655781464E-003   5.9237237434263963E-002
   2.5446832255416024E-002  -7.2630149125242349E-003   6.5966112124756671E-002
   2.4607730026367208E-002  -7.1689502366760471E-003   6.4533808623625344E-002
   2.3768627797318406E-002  -7.0236361419111770E-003   6.3553898784196539E-002
   2.2929525568269604E-002  -6.8270726282294233E-003   6.3026382606470255E-002
   2.2090423339220802E-002  -6.5792596956307792E-003   6.2951260090446437E-002
   4.3738805009213760E-002  -1.3036011175420359E-002   4.7933731471503149E-002
   4.2144546592162269E-002  -1.2631381879485620E-002   4.7927710275289387E-002
   4.0550288175110791E-002  -1.2179619934746783E-002   4.8055139381820988E-002
   3.8956029758059292E-002  -1.1680725341204255E-002   4.8316018791098148E-002
   3.7361771341007821E-002  -1.1134698098857643E-002   4.8710348503120393E-002
   3.8548109861560390E-002  -1.1421823305473006E-002   5.1728473124792396E-002
   3.7100584887585844E-002  -1.1050683854096660E-002   5.1628684025627952E-002
   3.5653059913611319E-002  -1.0645578778295701E-002   5.1688911509872135E-002
   3.4205534939636809E-002  -1.0206508078069958E-002   5.1909155577524686E-002
   3.2758009965662263E-002  -9.7334717534193760E-003   5.2289416228586016E-002
   3.3209814534010444E-002  -9.8076354355255690E-003   5.5496308445712614E-002
   3.1935589283775996E-002  -9.4699858287078803E-003   5.5289584419218434E-002
   3.0661364033541565E-002  -9.1115376218445093E-003   5.5269443256795905E-002
   2.9387138783307114E-002  -8.7322908149356608E-003   5.5435884958445043E-002
   2.8112913533072686E-002  -8.3322454079811370E-003   5.5788909524165833E-002
   2.7723919026563917E-002  -8.1934475655781464E-003   5.9237237434263963E-002
   2.6649559780732704E-002  -7.8892878033190103E-003   5.8910411456060838E-002
   2.5575200534901504E-002  -7.5774964653933172E-003   5.8796734622592398E-002
   2.4500841289070298E-002  -7.2580735518013358E-003   5.8896206933858823E-002
   2.3426482043239116E-002  -6.9310190625428009E-003   5.9208828389859983E-002
   2.2090423339220802E-002  -6.5792596956307792E-003   6.2951260090446437E-002
   2.1242496378455974E-002  -6.3085897779301681E-003   6.2491165136155102E-002
   2.0394569417691154E-002  -6.0434553089421944E-003   6.2270785607261625E-002
   1.9546642456926330E-002  -5.7838562886671670E-003   6.2290121503766241E-002
   1.8698715496161505E-002  -5.5297927171046313E-003   6.2549172825668797E-002
   3.7361771341007821E-002  -1.1134698098857643E-002   4.8710348503120393E-002
   3.5765711238292280E-002  -1.0569953793093667E-002   4.8518214920789338E-002
   3.4169651135576767E-002  -1.0014908009298704E-002   4.8488849764614289E-002
   3.2573591032861268E-002  -9.4695607474729847E-003   4.8622253034594762E-002
   3.0977530930145741E-002  -8.9339120076163958E-003   4.8918424730731047E-002
   3.2758009965662263E-002  -9.7334717534193760E-003   5.2289416228586016E-002
   3.1331540773451960E-002  -9.2450822354179785E-003   5.2056291193514209E-002
   2.9905071581241678E-002  -8.7599519551403021E-003   5.1999579553296926E-002
   2.8478602389031400E-002  -8.2780809125857120E-003   5.2119281307934681E-002
   2.7052133196821093E-002  -7.7994691077547529E-003   5.2415396457426933E-002
   2.8112913533072686E-002  -8.3322454079811370E-003   5.5788909524165833E-002
   2.6869680220066555E-002  -7.9202106777425674E-003   5.5521232320598926E-002
   2.5626446907060445E-002  -7.5049959009817965E-003   5.5443613480585775E-002
   2.4383213594054310E-002  -7.0866010776986076E-003   5.5556053004126152E-002
   2.3139980281048203E-002  -6.6650262078931100E-003   5.5858550891220077E-002
   2.3426482043239116E-002  -6.9310190625428009E-003   5.9208828389859983E-002
   2.2380129578136072E-002  -6.5953391200671285E-003   5.8913038302043808E-002
   2.1333777113033033E-002  -6.2500398468233430E-003   5.8820951546480260E-002
   2.0287424647930017E-002  -5.8951212428114746E-003   5.8932568123169181E-002
   1.9241072182826949E-002  -5.5305833080314670E-003   5.9247888032110604E-002
   1.8698715496161505E-002  -5.5297927171046313E-003   6.2549172825668797E-002
   1.7862888847660505E-002  -5.2704675623916064E-003   6.2231709137848867E-002
   1.7027062199159490E-002  -4.9950837926648478E-003   6.2131593750980568E-002
   1.6191235550658489E-002  -4.7036414079243312E-003   6.2248826665063775E-002
   1.5355408902157475E-002  -4.3961404081698796E-003   6.2583407880098363E-002
   3.0977530930145741E-002  -8.9339120076163958E-003   4.8918424730731047E-002
   2.9267735349207680E-002  -8.3947139939479776E-003   4.8637916453396934E-002
   2.7557939768269618E-002  -7.8387189106867705E-003   4.8554503091962076E-002
   2.5848144187331570E-002  -7.2659267578329967E-003   4.8668184646426277E-002
   2.4138348606393523E-002  -6.6763375353862120E-003   4.8978961116789899E-002
   2.7052133196821093E-002  -7.7994691077547529E-003   5.2415396457426933E-002
   2.5541028159510717E-002  -7.3157339464680615E-003   5.2164880135486924E-002
   2.4029923122200328E-002  -6.8184928345459417E-003   5.2114649984902950E-002
   2.2518818084889952E-002  -6.3077457719893926E-003   5.2264706005675232E-002
   2.1007713047579563E-002  -5.7834927587973040E-003   5.2615048197803493E-002
   2.3139980281048203E-002  -6.6650262078931100E-003   5.5858550891220077E-002
   2.1830757042822432E-002  -6.2367538989879234E-003   5.5634735405716285E-002
   2.0521533804596634E-002  -5.7982667584053349E-003   5.5614397347025613E-002
   1.9212310566370867E-002  -5.3495647861455664E-003   5.5797536715148019E-002
   1.7903087328145093E-002  -4.8906479822085069E-003   5.6184153510083323E-002
   1.9241072182826949E-002  -5.5305833080314670E-003   5.9247888032110604E-002
   1.8136921999142738E-002  -5.1577738515078964E-003   5.9047482264085391E-002
   1.7032771815458508E-002  -4.7780406822645061E-003   5.9053745178330230E-002
   1.5928621631774300E-002  -4.3913838003018513E-003   5.9266676774844942E-002
   1.4824471448090074E-002  -3.9978032056194324E-003   5.9686277053629722E-002
   1.5355408902157475E-002  -4.3961404081698796E-003   6.2583407880098363E-002
   1.4459523028471727E-002  -4.0787938040278138E-003   6.2403120710593896E-002
   1.3563637154785979E-002  -3.7578146061239132E-003   6.2432693478816553E-002
   1.2667751281100217E-002  -3.4332028144582506E-003   6.2672126184766017E-002
   1.1771865407414484E-002  -3.1049584290306909E-003   6.3121418828442577E-002
   2.4138348606393523E-002  -6.6763375353862120E-003   4.8978961116789899E-002
   2.2376335212131476E-002  -6.0770933528248028E-003   4.8741894455407775E-002
   2.0614321817869485E-002  -5.4753363196270444E-003   4.8653100931710824E-002
   1.8852308423607494E-002  -4.8710664357926314E-003   4.8712580545699796E-002
   1.7090295029345504E-002  -4.2642837013215917E-003   4.8920333297373775E-002
   2.1007713047579563E-002  -5.7834927587973040E-003   5.2615048197803493E-002
   1.9406513536210881E-002  -5.2533868305365550E-003   5.2416888486078506E-002
   1.7805314024842270E-002  -4.7250810227724427E-003   5.2392083402454853E-002
   1.6204114513473651E-002  -4.1985753355045438E-003   5.2540632946932370E-002
   1.4602915002104949E-002  -3.6738697687339616E-003   5.2862537119510944E-002
   1.7903087328145093E-002  -4.8906479822085069E-003   5.6184153510083323E-002
   1.6487783190085613E-002  -4.4296803082476965E-003   5.6020587776882486E-002
   1.5072479052026092E-002  -3.9748257259171749E-003   5.6055458162198424E-002
   1.3657174913966570E-002  -3.5260842352169003E-003   5.6288764666031513E-002
   1.2241870775907090E-002  -3.0834558361465536E-003   5.6720507288381600E-002
   1.4824471448090074E-002  -3.9978032056194324E-003   5.9686277053629722E-002
   1.3620144173755497E-002  -3.6059737859593100E-003   5.9552992327819278E-002
   1.2415816899420944E-002  -3.2245704290624067E-003   5.9643225210941522E-002
   1.1211489625086371E-002  -2.8535931349292012E-003   5.9956975702996844E-002
   1.0007162350751813E-002  -2.4930419035590901E-003   6.0494243803984882E-002
   1.1771865407414484E-002  -3.1049584290306909E-003   6.3121418828442577E-002
   1.0803596487220637E-002  -2.7822672636705348E-003   6.3014102138889139E-002
   9.8353275670268192E-003  -2.4743151322073054E-003   6.3155384548684523E-002
   8.8670586468329940E-003  -2.1811020346411136E-003   6.3545266057828426E-002
   7.8987897266391549E-003  -1.9026279709715155E-003   6.4183746666320984E-002
   1.7090295029345504E-002  -4.2642837013215917E-003   4.8920333297373775E-002
   1.5142672143452274E-002  -3.7121875372368440E-003   4.8787612200207997E-002
   1.3195049257559099E-002  -3.2719773645614736E-003   4.8914583233794717E-002
   1.1247426371665911E-002  -2.9436531832957441E-003   4.9301246398134269E-002
   9.2998034857727507E-003  -2.7272149934387535E-003   4.9947601693226096E-002
   1.4602915002104949E-002  -3.6738697687339616E-003   5.2862537119510944E-002
   1.2913421156719423E-002  -3.2060240411740937E-003   5.2742685958475977E-002
   1.1223927311333898E-002  -2.8500978715387815E-003   5.2879400747703614E-002
   9.5344334659483929E-003  -2.6060912598280805E-003   5.3272681487193815E-002
   7.8449396205628463E-003  -2.4740042060422685E-003   5.3922528176947149E-002
   1.2241870775907090E-002  -3.0834558361465536E-003   5.6720507288381600E-002
   1.0807379790539334E-002  -2.6998605451113156E-003   5.6613492496961793E-002
   9.3728888051716058E-003  -2.4282183785161171E-003   5.6759917475314864E-002
   7.9383978198038392E-003  -2.2685293363607570E-003   5.7159782223440883E-002
   6.5039068344361212E-003  -2.2207934186455613E-003   5.7813086741339614E-002
   1.0007162350751813E-002  -2.4930419035590901E-003   6.0494243803984882E-002
   8.8245480449120201E-003  -2.1936970490485513E-003   6.0400031815665028E-002
   7.6419337390722410E-003  -2.0063388854934389E-003   6.0556133416628501E-002
   6.4593194332324471E-003  -1.9309674128934855E-003   6.0962548606874861E-002
   5.2767051273926689E-003  -1.9675826312490208E-003   6.1619277386404339E-002
   7.8987897266391549E-003  -1.9026279709715155E-003   6.4183746666320984E-002
   6.9649259198374808E-003  -1.6875335529857871E-003   6.4102303914586267E-002
   6.0310621130357789E-003  -1.5844593924707329E-003   6.4268048571644198E-002
   5.0971983062340770E-003  -1.5934054894262625E-003   6.4680980637495528E-002
   4.1633344994323751E-003  -1.7143718438523692E-003   6.5341100112140116E-002
   9.2998034857727507E-003  -2.7272149934387535E-003   4.9947601693226096E-002
   7.8764045437383357E-003  -2.8707351303484674E-003   5.0353630906882385E-002
   6.4530056017039206E-003  -3.6222859293813525E-003   5.1085851839564433E-002
   5.0296066596695055E-003  -4.9818673905373673E-003   5.2144264491272352E-002
   3.6062077176351459E-003  -6.9494795138167476E-003   5.3528868862005030E-002
   7.8449396205628463E-003  -2.4740042060422685E-003   5.3922528176947149E-002
   6.7219641358646359E-003  -2.6549001590239762E-003   5.3855581649129680E-002
   5.5989886511664672E-003  -3.3498425676179444E-003   5.4063290316959750E-002
   4.4760131664683123E-003  -4.5588314318226741E-003   5.4545654180436484E-002
   3.3530376817701157E-003  -6.2818667516386650E-003   5.5302673239559841E-002
   6.5039068344361212E-003  -2.2207934186455613E-003   5.7813086741339614E-002
   5.6298182836953953E-003  -2.4390651876999569E-003   5.7367148678561020E-002
   4.7557297329546624E-003  -3.0773992058540645E-003   5.7144329288050411E-002
   3.8816411822139227E-003  -4.1357954731075300E-003   5.7144628569807884E-002
   3.0075526314732037E-003  -5.6142539894605825E-003   5.7368046523833371E-002
   5.2767051273926689E-003  -1.9675826312490208E-003   6.1619277386404339E-002
   4.5999669872306102E-003  -2.2232302163759238E-003   6.0888331995175737E-002
   3.9232288470685533E-003  -2.8049558440904759E-003   6.0328968752836616E-002
   3.2464907069065154E-003  -3.7127595143927224E-003   5.9941187659386594E-002
   2.5697525667444376E-003  -4.9466412272826110E-003   5.9724988714825816E-002
   4.1633344994323751E-003  -1.7143718438523692E-003   6.5341100112140116E-002
   3.6324102464702357E-003  -2.0073952450514465E-003   6.4419131598973722E-002
   3.1014859935080963E-003  -2.5325124823266931E-003   6.3617208711317763E-002
   2.5705617405459361E-003  -3.2897235556778384E-003   6.2935331449172710E-002
   2.0396374875837897E-003  -4.2790284651045285E-003   6.2373499812537703E-002
   3.6062077176351459E-003  -6.9494795138167476E-003   5.3528868862005030E-002
   4.1571918567228638E-003  -9.5393532956306037E-003   5.1856971032518961E-002
   4.7081759958105818E-003  -1.2765719732391212E-002   5.0039824532919552E-002
   5.2591601348982581E-003  -1.6628578824097975E-002   4.8077429363206525E-002
   5.8101442739860731E-003  -2.1127930570751463E-002   4.5969785523380491E-002
   3.3530376817701157E-003  -6.2818667516386650E-003   5.5302673239559841E-002
   3.7762237925185460E-003  -8.5497589076442559E-003   5.2949831101559097E-002
   4.1994099032670179E-003  -1.1393318280417397E-002   5.0486641576993341E-002
   4.6225960140154759E-003  -1.4812544869958380E-002   4.7913104665862433E-002
   5.0457821247639756E-003  -1.8807438676266885E-002   4.5229220368166567E-002
   3.0075526314732037E-003  -5.6142539894605825E-003   5.7368046523833371E-002
   3.3378419974308682E-003  -7.5601645196576306E-003   5.4395085515496683E-002
   3.6681313633885049E-003  -1.0020916828443888E-002   5.1346678404143392E-002
   3.9984207293461589E-003  -1.2996510915818833E-002   4.8222825189773610E-002
   4.3287100953038060E-003  -1.6486946781782308E-002   4.5023525872386783E-002
   2.5697525667444376E-003  -4.9466412272826110E-003   5.9724988714825816E-002
   2.8420464714596708E-003  -6.5705701316713661E-003   5.6192734274332495E-002
   3.1143403761749421E-003  -8.6485153764700035E-003   5.2619935014370352E-002
   3.3866342808901865E-003  -1.1180476961678818E-002   4.9006590934940322E-002
   3.6589281856054187E-003  -1.4166454887297730E-002   4.5352702036042275E-002
   2.0396374875837897E-003  -4.2790284651045285E-003   6.2373499812537703E-002
   2.2888372146050856E-003  -5.5809757436847685E-003   5.8342777378065591E-002
   2.5380369416263676E-003  -7.2761139244966466E-003   5.4306411407674060E-002
   2.7872366686476219E-003  -9.3644430075396010E-003   5.0264401901362749E-002
   3.0364363956689178E-003  -1.1845962992813153E-002   4.6216748859131407E-002
   2.5446832255416024E-002  -7.2630149125242349E-003   6.5966112124756671E-002
   2.4607730026367208E-002  -7.1689502366760471E-003   6.4533808623625344E-002
   2.3768627797318406E-002  -7.0236361419111770E-003   6.3553898784196539E-002
   2.2929525568269604E-002  -6.8270726282294233E-003   6.3026382606470255E-002
   2.2090423339220802E-002  -6.5792596956307792E-003   6.2951260090446437E-002
   1.8218752189048754E-002  -5.4472623007275067E-003   6.5187761596361915E-002
   1.7771389161326784E-002  -5.3767132863514755E-003   6.4317227524446574E-002
   1.7324026133604842E-002  -5.2677273426454119E-003   6.3777778193482598E-002
   1.6876663105882879E-002  -5.1203044696093991E-003   6.3569413603469738E-002
   1.6429300078160930E-002  -4.9344446672434095E-003   6.3692133754407992E-002
   1.1568252838149808E-002  -3.6315096889308340E-003   6.4392301651288314E-002
   1.1391320091003396E-002  -3.5844763360268067E-003   6.4070724519002364E-002
   1.1214387343856963E-002  -3.5118185433796884E-003   6.3958923206916221E-002
   1.1037454596710537E-002  -3.4135363109893783E-003   6.4056897715029953E-002
   1.0860521849564115E-002  -3.2896296388559843E-003   6.4364648043343561E-002
   5.4953342027192209E-003  -1.8157570771341336E-003   6.3579732289536284E-002
   5.4675228153970093E-003  -1.7922393857021587E-003   6.3794299607292687E-002
   5.4397114280747942E-003  -1.7559097441139163E-003   6.4097333824497629E-002
   5.4119000407525878E-003  -1.7067681523693281E-003   6.4488834941150971E-002
   5.3840886534303805E-003  -1.6448146104685313E-003   6.4968802957253075E-002
  -3.7172430342180540E-009  -4.4653374331460327E-009   6.2750053511105630E-002
  -2.6654923476754355E-009  -2.4353775385232979E-009   6.3487952789317403E-002
  -1.6137416680717109E-009  -9.4484825519103310E-010   6.4193010046226628E-002
  -5.6199098499853939E-010   6.2506250175786704E-012   6.4865225281833028E-002
   4.8975970154407911E-010   4.1791881066899350E-010   6.5504598496136490E-002
   2.2090423339220802E-002  -6.5792596956307792E-003   6.2951260090446437E-002
   2.1242496378455974E-002  -6.3085897779301681E-003   6.2491165136155102E-002
   2.0394569417691154E-002  -6.0434553089421944E-003   6.2270785607261625E-002
   1.9546642456926330E-002  -5.7838562886671670E-003   6.2290121503766241E-002
   1.8698715496161505E-002  -5.5297927171046313E-003   6.2549172825668797E-002
   1.6429300078160930E-002  -4.9344446672434095E-003   6.3692133754407992E-002
   1.5814155117076158E-002  -4.7314421998842365E-003   6.3312606882833647E-002
   1.5199010155991385E-002  -4.5325913318688127E-003   6.3158928585221333E-002
   1.4583865194906606E-002  -4.3378920631970061E-003   6.3231098861571161E-002
   1.3968720233821841E-002  -4.1473443938691568E-003   6.3529117711883215E-002
   1.0860521849564115E-002  -3.2896296388559843E-003   6.4364648043343561E-002
   1.0464292036723586E-002  -3.1542946218384299E-003   6.4067073103855093E-002
   1.0068062223883062E-002  -3.0217273547954240E-003   6.3981479886892983E-002
   9.6718324110425385E-003  -2.8919278377272876E-003   6.4107868392457232E-002
   9.2756025982020096E-003  -2.7648960706336267E-003   6.4446238620547810E-002
   5.3840886534303805E-003  -1.6448146104685313E-003   6.4968802957253075E-002
   5.1929071373982812E-003  -1.5771470437925053E-003   6.4754563799219678E-002
   5.0017256213661966E-003  -1.5108633777220944E-003   6.4738439512276674E-002
   4.8105441053341042E-003  -1.4459636122572924E-003   6.4920430096424273E-002
   4.6193625893020118E-003  -1.3824477473981245E-003   6.5300535551662389E-002
   4.8975970154407911E-010   4.1791881066899350E-010   6.5504598496136490E-002
   4.1910024409230751E-010   5.3425328050415999E-010   6.5375078968927081E-002
   3.4844078143636548E-010   5.9935134633093412E-010   6.5429807461372363E-002
   2.7778132485195561E-010   6.1321256406010605E-010   6.5668783973472422E-002
   2.0712186132865185E-010   5.7583732226973439E-010   6.6092008505227118E-002
   1.8698715496161505E-002  -5.5297927171046313E-003   6.2549172825668797E-002
   1.7862888847660505E-002  -5.2704675623916064E-003   6.2231709137848867E-002
   1.7027062199159490E-002  -4.9950837926648478E-003   6.2131593750980568E-002
   1.6191235550658489E-002  -4.7036414079243312E-003   6.2248826665063775E-002
   1.5355408902157475E-002  -4.3961404081698796E-003   6.2583407880098363E-002
   1.3968720233821841E-002  -4.1473443938691568E-003   6.3529117711883215E-002
   1.3348143971759333E-002  -3.9528505458271412E-003   6.3260485022163165E-002
   1.2727567709696817E-002  -3.7463127410134189E-003   6.3205004804368345E-002
   1.2106991447634316E-002  -3.5277309794279829E-003   6.3362677058499045E-002
   1.1486415185571808E-002  -3.2971052610710205E-003   6.3733501784555335E-002
   9.2756025982020096E-003  -2.7648960706336267E-003   6.4446238620547810E-002
   8.8660808935520294E-003  -2.6352335292626622E-003   6.4222422270685114E-002
   8.4565591889020457E-003  -2.4975416893620386E-003   6.4207562563721926E-002
   8.0470374842520724E-003  -2.3518205509319105E-003   6.4401659499658273E-002
   7.6375157796020818E-003  -2.1980701139720227E-003   6.4804713078494211E-002
   4.6193625893020118E-003  -1.3824477473981245E-003   6.5300535551662389E-002
   4.4166996130385883E-003  -1.3176165126981346E-003   6.5117520883415131E-002
   4.2140366367751656E-003  -1.2487706377107451E-003   6.5139267029041326E-002
   4.0113736605117429E-003  -1.1759101224358111E-003   6.5365773988541001E-002
   3.8087106842483193E-003  -1.0990349668730387E-003   6.5797041761914532E-002
   2.0712186132865185E-010   5.7583732226973439E-010   6.6092008505227118E-002
   1.3021902653398421E-010   5.0386622651998891E-010   6.5945780860353076E-002
   5.3316188269869613E-011   4.1394077054945910E-010   6.6000118200326696E-002
  -2.3586649994244979E-011   3.0606045475778387E-010   6.6255020525147840E-002
  -1.0048948478891262E-010   1.8022588976762677E-010   6.6710487834816645E-002
   1.5355408902157475E-002  -4.3961404081698796E-003   6.2583407880098363E-002
   1.4459523028471727E-002  -4.0787938040278138E-003   6.2403120710593896E-002
   1.3563637154785979E-002  -3.7578146061239132E-003   6.2432693478816553E-002
   1.2667751281100217E-002  -3.4332028144582506E-003   6.2672126184766017E-002
   1.1771865407414484E-002  -3.1049584290306909E-003   6.3121418828442577E-002
   1.1486415185571808E-002  -3.2971052610710205E-003   6.3733501784555335E-002
   1.0803917135168026E-002  -3.0590953366275431E-003   6.3580015335803514E-002
   1.0121419084764258E-002  -2.8183609567829088E-003   6.3643444595888554E-002
   9.4389210343604688E-003  -2.5749021215371072E-003   6.3923789564810610E-002
   8.7564229839567076E-003  -2.3287188308903639E-003   6.4421050242569777E-002
   7.6375157796020818E-003  -2.1980701139720227E-003   6.4804713078494211E-002
   7.1754613235903361E-003  -2.0393968692272446E-003   6.4677119212134079E-002
   6.7134068675785766E-003  -1.8789073074420085E-003   6.4773496825720894E-002
   6.2513524115668274E-003  -1.7166014286161286E-003   6.5093845919254711E-002
   5.7892979555550714E-003  -1.5524792327499815E-003   6.5638166492735794E-002
   3.8087106842483193E-003  -1.0990349668730387E-003   6.5797041761914532E-002
   3.5741555937386545E-003  -1.0196984018269045E-003   6.5694432339585523E-002
   3.3396005032289792E-003  -9.3945365810105610E-004   6.5822850168313504E-002
   3.1050454127193100E-003  -8.5830073569517860E-004   6.6182295248098738E-002
   2.8704903222096460E-003  -7.7623963460973777E-004   6.6772767578940961E-002
  -1.0048948478891262E-010   1.8022588976762677E-010   6.6710487834816645E-002
  -5.4387022663249240E-011   6.5573213525738083E-011   6.6631954718157971E-002
  -8.2845674764797650E-012  -8.7600621201389117E-012   6.6791504623666592E-002
   3.7817885975566234E-011  -4.2774107172904863E-011   6.7189137551342246E-002
   8.3920349835953090E-011  -3.6469383069004380E-011   6.7824853501185167E-002
   1.1771865407414484E-002  -3.1049584290306909E-003   6.3121418828442577E-002
   1.0803596487220637E-002  -2.7822672636705348E-003   6.3014102138889139E-002
   9.8353275670268192E-003  -2.4743151322073054E-003   6.3155384548684523E-002
   8.8670586468329940E-003  -2.1811020346411136E-003   6.3545266057828426E-002
   7.8987897266391549E-003  -1.9026279709715155E-003   6.4183746666320984E-002
   8.7564229839567076E-003  -2.3287188308903639E-003   6.4421050242569777E-002
   8.0351201941714842E-003  -2.0867004512383214E-003   6.4347521323488477E-002
   7.3138174043862886E-003  -1.8557363489777878E-003   6.4519325565875973E-002
   6.5925146146010825E-003  -1.6358265241083886E-003   6.4936462969731948E-002
   5.8712118248158834E-003  -1.4269709766302485E-003   6.5598933535056525E-002
   5.7892979555550714E-003  -1.5524792327499815E-003   6.5638166492735794E-002
   5.3116953582984933E-003  -1.3911336388064688E-003   6.5602110100632410E-002
   4.8340927610419152E-003  -1.2371575657482703E-003   6.5808120932117520E-002
   4.3564901637853457E-003  -1.0905510135757746E-003   6.6256198987191317E-002
   3.8788875665287589E-003  -9.5131398228898156E-004   6.6946344265853830E-002
   2.8704903222096460E-003  -7.7623963460973777E-004   6.6772767578940961E-002
   2.6333219796016681E-003  -6.9556682637421374E-004   6.6777868470320995E-002
   2.3961536369936989E-003  -6.1857878251880827E-004   6.7021770647409412E-002
   2.1589852943857328E-003  -5.4527550304321604E-004   6.7504474110206575E-002
   1.9218169517777658E-003  -4.7565698794771460E-004   6.8225978858712344E-002
   8.3920349835953090E-011  -3.6469383069004380E-011   6.7824853501185167E-002
   5.8080991405251581E-011  -1.3942347276696410E-011   6.7874796432554119E-002
   3.2241639913443976E-011   7.1084804709187210E-013   6.8160274711751734E-002
   6.4022849521894187E-012   7.4894743185005552E-012   6.8681288338777902E-002
  -1.9437070009065138E-011   6.3936633765138140E-012   6.9437837313632622E-002
   7.8987897266391549E-003  -1.9026279709715155E-003   6.4183746666320984E-002
   6.9649259198374808E-003  -1.6875335529857871E-003   6.4102303914586267E-002
   6.0310621130357789E-003  -1.5844593924707329E-003   6.4268048571644198E-002
   5.0971983062340770E-003  -1.5934054894262625E-003   6.4680980637495528E-002
   4.1633344994323751E-003  -1.7143718438523692E-003   6.5341100112140116E-002
   5.8712118248158834E-003  -1.4269709766302485E-003   6.5598933535056525E-002
   5.1811050628851607E-003  -1.2656501641779005E-003   6.5451296337870057E-002
   4.4909983009544518E-003  -1.1883445443860163E-003   6.5543985821632678E-002
   3.8008915390237395E-003  -1.1950541172537701E-003   6.5877001986343720E-002
   3.1107847770930203E-003  -1.2857788827820293E-003   6.6450344832003516E-002
   3.8788875665287589E-003  -9.5131398228898156E-004   6.6946344265853830E-002
   3.4256771216246186E-003  -8.4376677536990297E-004   6.6760517688026211E-002
   2.9724666767204852E-003  -7.9222969630064755E-004   6.6808157063303023E-002
   2.5192562318163553E-003  -7.9670274508128122E-004   6.7089262391684362E-002
   2.0660457869122115E-003  -8.5718592171180052E-004   6.7603833673169939E-002
   1.9218169517777658E-003  -4.7565698794771460E-004   6.8225978858712344E-002
   1.6986420960558276E-003  -4.2188338656184987E-004   6.8029967965053978E-002
   1.4754672403338755E-003  -3.9611484821554938E-004   6.8060562296655747E-002
   1.2522923846119381E-003  -3.9835137290867954E-004   6.8317761853517497E-002
   1.0291175288899852E-003  -4.2859296064151620E-004   6.8801566635639438E-002
  -1.9437070009065138E-011   6.3936633765138140E-012   6.9437837313632622E-002
  -1.3821215005815901E-011   2.2460922011191542E-012   6.9259647168953942E-002
  -8.2053738803544718E-012  -1.3045120539345589E-013   6.9301201521690836E-002
  -2.5895240812756626E-012  -7.3621664320455693E-013   6.9562500371843250E-002
   3.0263222483561947E-012   4.2876813211023546E-013   7.0043543719411350E-002
   4.1633344994323751E-003  -1.7143718438523692E-003   6.5341100112140116E-002
   3.6324102464702357E-003  -2.0073952450514465E-003   6.4419131598973722E-002
   3.1014859935080963E-003  -2.5325124823266931E-003   6.3617208711317763E-002
   2.5705617405459361E-003  -3.2897235556778384E-003   6.2935331449172710E-002
   2.0396374875837897E-003  -4.2790284651045285E-003   6.2373499812537703E-002
   3.1107847770930203E-003  -1.2857788827820293E-003   6.6450344832003516E-002
   2.7030775090166048E-003  -1.5055464332785484E-003   6.5336276303695262E-002
   2.2953702409402102E-003  -1.8993843610508598E-003   6.4348596119647550E-002
   1.8876629728638052E-003  -2.4672926660987415E-003   6.3487304279860574E-002
   1.4799557047874001E-003  -3.2092713484230817E-003   6.2752400784335305E-002
   2.0660457869122115E-003  -8.5718592171180052E-004   6.7603833673169939E-002
   1.7878982224720022E-003  -1.0036976215052062E-003   6.6355688588519229E-002
   1.5097506580318068E-003  -1.2662562397745686E-003   6.5240274566880072E-002
   1.2316030935915993E-003  -1.6448617765199743E-003   6.4257591608252340E-002
   9.5345552915138826E-004  -2.1395142317415794E-003   6.3407639712635883E-002
   1.0291175288899852E-003  -4.2859296064151620E-004   6.8801566635639438E-002
   8.8687238683643997E-004  -5.0184880973186408E-004   6.7477368453446165E-002
   7.4462724478289478E-004  -6.3312811849878387E-004   6.6292244053015273E-002
   6.0238210272934222E-004  -8.2243088694115320E-004   6.5246193434346109E-002
   4.6013696067579053E-004  -1.0697571150596608E-003   6.4339216597438825E-002
   3.0263222483561947E-012   4.2876813211023546E-013   7.0043543719411350E-002
   2.1098886526793592E-012   2.0410895196221190E-012   6.8701315898476167E-002
   1.1934481181086198E-012   2.7775837185828323E-012   6.7504504578053404E-002
   2.7701452243178437E-013   2.6376748007983508E-012   6.6453109758142809E-002
  -6.3942601213895500E-013   1.6214807274650411E-012   6.5547131438744910E-002
   2.0396374875837897E-003  -4.2790284651045285E-003   6.2373499812537703E-002
   2.2888372146050856E-003  -5.5809757436847685E-003   5.8342777378065591E-002
   2.5380369416263676E-003  -7.2761139244966466E-003   5.4306411407674060E-002
   2.7872366686476219E-003  -9.3644430075396010E-003   5.0264401901362749E-002
   3.0364363956689178E-003  -1.1845962992813153E-002   4.6216748859131407E-002
   1.4799557047874001E-003  -3.2092713484230817E-003   6.2752400784335305E-002
   1.7093477969340048E-003  -4.1857318076246597E-003   5.8396653818714006E-002
   1.9387398890806304E-003  -5.4570854433048654E-003   5.4006935119263022E-002
   2.1681319812272247E-003  -7.0233322554640737E-003   4.9583244685982297E-002
   2.3975240733738468E-003  -8.8844722441012713E-003   4.5125582518872331E-002
   9.5345552915138826E-004  -2.1395142317415794E-003   6.3407639712635883E-002
   1.1347117885134837E-003  -2.7904878715641623E-003   5.8825165941617297E-002
   1.3159680478755896E-003  -3.6380569621130981E-003   5.4180392238859246E-002
   1.4972243072376885E-003  -4.6822215033883278E-003   4.9473318604361584E-002
   1.6784805665997909E-003  -5.9229814953898341E-003   4.4703945038125137E-002
   4.6013696067579053E-004  -1.0697571150596608E-003   6.4339216597438825E-002
   5.6492918934353698E-004  -1.3952439355035262E-003   5.9628313746775810E-002
   6.6972141801126869E-004  -1.8190284809214349E-003   5.4826782766463661E-002
   7.7451364667901080E-004  -2.3411107513124692E-003   4.9934623656501829E-002
   8.7930587534674684E-004  -2.9614907466782858E-003   4.4951836416890684E-002
  -6.3942601213895500E-013   1.6214807274650411E-012   6.5547131438744910E-002
  -5.7588656066087651E-013   5.5688786915197852E-013   6.0806097234189282E-002
  -5.1234363973584607E-013   2.7042257322307250E-013   5.5946106702074727E-002
  -4.4880418825776758E-013   7.6271627902357864E-013   5.0967159842401327E-002
  -3.8526126733273713E-013   2.0334844919034367E-012   4.5869256655168389E-002
  -3.7172430342180540E-009  -4.4653374331460327E-009   6.2750053511105630E-002
  -2.6654923476754355E-009  -2.4353775385232979E-009   6.3487952789317403E-002
  -1.6137416680717109E-009  -9.4484825519103310E-010   6.4193010046226628E-002
  -5.6199098499853939E-010   6.2506250175786704E-012   6.4865225281833028E-002
   4.8975970154407911E-010   4.1791881066899350E-010   6.5504598496136490E-002
  -5.4953402965127879E-003   1.8157517244414279E-003   6.3579731915684279E-002
  -5.4675271547213224E-003   1.7922365297822762E-003   6.3794300687350453E-002
  -5.4397140129298534E-003   1.7559087069421025E-003   6.4097335660400989E-002
  -5.4119008711383844E-003   1.7067682559207091E-003   6.4488836834836000E-002
  -5.3840877293469119E-003   1.6448151767181618E-003   6.4968804210655096E-002
  -1.1568254909865934E-002   3.6315079142202611E-003   6.4392299140019205E-002
  -1.1391321455346552E-002   3.5844754949421742E-003   6.4070725316389146E-002
  -1.1214388000827189E-002   3.5118183587323493E-003   6.3958925916830681E-002
  -1.1037454546307821E-002   3.4135365055908209E-003   6.4056900941343406E-002
  -1.0860521091788457E-002   3.2896299355175129E-003   6.4364650389927808E-002
  -1.8218747557302406E-002   5.4472641039990943E-003   6.5187755184110394E-002
  -1.7771385567368039E-002   5.3767144601019889E-003   6.4317226676433609E-002
  -1.7324023577433675E-002   5.2677280105226237E-003   6.3777780815515273E-002
  -1.6876661587499297E-002   5.1203047552608912E-003   6.3569417601355538E-002
  -1.6429299597564940E-002   4.9344446943169196E-003   6.3692137033954280E-002
  -2.5446818238822264E-002   7.2630202937779553E-003   6.5966100047957887E-002
  -2.4607719490785773E-002   7.1689534252618592E-003   6.4533804767483660E-002
  -2.3768620742749297E-002   7.0236376623128982E-003   6.3553900356455140E-002
  -2.2929521994712841E-002   6.8270730049309752E-003   6.3026386814872187E-002
  -2.2090423246676358E-002   6.5792594531162152E-003   6.2951264142734886E-002
   4.8975970154407911E-010   4.1791881066899350E-010   6.5504598496136490E-002
   4.1910024409230751E-010   5.3425328050415999E-010   6.5375078968927081E-002
   3.4844078143636548E-010   5.9935134633093412E-010   6.5429807461372363E-002
   2.7778132485195561E-010   6.1321256406010605E-010   6.5668783973472422E-002
   2.0712186132865185E-010   5.7583732226973439E-010   6.6092008505227118E-002
  -5.3840877293469119E-003   1.6448151767181618E-003   6.4968804210655096E-002
  -5.1929063814267762E-003   1.5771477132726641E-003   6.4754564843264917E-002
  -5.0017250335066283E-003   1.5108641095225306E-003   6.4738440293379315E-002
  -4.8105436855864856E-003   1.4459643654675183E-003   6.4920430560998027E-002
  -4.6193623376663447E-003   1.3824484811079119E-003   6.5300535646121316E-002
  -1.0860521091788457E-002   3.2896299355175129E-003   6.4364650389927808E-002
  -1.0464291527438961E-002   3.1542948922920061E-003   6.4067075093288753E-002
  -1.0068061963089465E-002   3.0217276196936593E-003   6.3981481412003979E-002
  -9.6718323987399681E-003   2.8919281177225836E-003   6.4107869346073376E-002
  -9.2756028343904725E-003   2.7648963863786402E-003   6.4446238895497110E-002
  -1.6429299597564940E-002   4.9344446943169196E-003   6.3692137033954280E-002
  -1.5814155018936349E-002   4.7314420713113134E-003   6.3312609718998353E-002
  -1.5199010440307749E-002   4.5325911298647881E-003   6.3158930817246536E-002
  -1.4583865861679151E-002   4.3378918699776212E-003   6.3231100328698553E-002
  -1.3968721283050567E-002   4.1473442916494102E-003   6.3529118253354749E-002
  -2.2090423246676358E-002   6.5792594531162152E-003   6.2951264142734886E-002
  -2.1242496855918919E-002   6.3085892503307317E-003   6.2491168720394036E-002
  -2.0394570465161462E-002   6.0434546400359446E-003   6.2270788509106861E-002
  -1.9546644074404013E-002   5.7838556222326518E-003   6.2290123508873557E-002
  -1.8698717683646567E-002   5.5297921969200137E-003   6.2549173719693762E-002
   2.0712186132865185E-010   5.7583732226973439E-010   6.6092008505227118E-002
   1.3021902653398421E-010   5.0386622651998891E-010   6.5945780860353076E-002
   5.3316188269869613E-011   4.1394077054945910E-010   6.6000118200326696E-002
  -2.3586649994244979E-011   3.0606045475778387E-010   6.6255020525147840E-002
  -1.0048948478891262E-010   1.8022588976762677E-010   6.6710487834816645E-002
  -4.6193623376663447E-003   1.3824484811079119E-003   6.5300535646121316E-002
  -4.4166994592685777E-003   1.3176171869620501E-003   6.5117520671153062E-002
  -4.2140365808708106E-003   1.2487712135483275E-003   6.5139266621938585E-002
  -4.0113737024730575E-003   1.1759105608667025E-003   6.5365773498477525E-002
  -3.8087108240752836E-003   1.0990352289170779E-003   6.5797041300770076E-002
  -9.2756028343904725E-003   2.7648963863786402E-003   6.4446238895497110E-002
  -8.8660810597861253E-003   2.6352338700578459E-003   6.4222421929121531E-002
  -8.4565592851817695E-003   2.4975420131558290E-003   6.4207561829405430E-002
  -8.0470375105774206E-003   2.3518208156727283E-003   6.4401658596349054E-002
  -7.6375157359730664E-003   2.1980702776085714E-003   6.4804712229952086E-002
  -1.3968721283050567E-002   4.1473442916494102E-003   6.3529118253354749E-002
  -1.3348144671333608E-002   3.9528505531534891E-003   6.3260484634258304E-002
  -1.2727568059616664E-002   3.7463128127634138E-003   6.3205003822727659E-002
  -1.2106991447899729E-002   3.5277310704787540E-003   6.3362675818762523E-002
  -1.1486414836182778E-002   3.2971053263000233E-003   6.3733500622363035E-002
  -1.8698717683646567E-002   5.5297921969200137E-003   6.2549173719693762E-002
  -1.7862890293911034E-002   5.2704672362494653E-003   6.2231708786563478E-002
  -1.7027062904175518E-002   4.9950836123708597E-003   6.2131592601904956E-002
  -1.6191235514440003E-002   4.7036413252849393E-003   6.2248825165717836E-002
  -1.5355408124704470E-002   4.3961403749913086E-003   6.2583406478002368E-002
  -1.0048948478891262E-010   1.8022588976762677E-010   6.6710487834816645E-002
  -5.4387022663249240E-011   6.5573213525738083E-011   6.6631954718157971E-002
  -8.2845674764797650E-012  -8.7600621201389117E-012   6.6791504623666592E-002
   3.7817885975566234E-011  -4.2774107172904863E-011   6.7189137551342246E-002
   8.3920349835953090E-011  -3.6469383069004380E-011   6.7824853501185167E-002
  -3.8087108240752836E-003   1.0990352289170779E-003   6.5797041300770076E-002
  -3.5741556575266207E-003   1.0196984968009748E-003   6.5694432053705260E-002
  -3.3396004909779491E-003   9.3945364361894268E-004   6.5822850025365670E-002
  -3.1050453244292871E-003   8.5830066937126609E-004   6.6182295215751336E-002
  -2.8704901578806077E-003   7.7623957405770216E-004   6.6772767624862228E-002
  -7.6375157359730664E-003   2.1980702776085714E-003   6.4804712229952086E-002
  -7.1754612524200807E-003   2.0393969280285140E-003   6.4677118691096352E-002
  -6.7134067688670879E-003   1.8789072959979544E-003   6.4773496567523764E-002
  -6.2513522853140987E-003   1.7166013815166966E-003   6.5093845859234722E-002
  -5.7892978017611233E-003   1.5524791845849539E-003   6.5638166566228923E-002
  -1.1486414836182778E-002   3.2971053263000233E-003   6.3733500622363035E-002
  -1.0803916839067375E-002   3.0590953592561643E-003   6.3580014630331139E-002
  -1.0121418841951954E-002   2.8183609483770737E-003   6.3643444250140804E-002
  -9.4389208448365583E-003   2.5749020936622650E-003   6.3923789481791962E-002
  -8.7564228477211310E-003   2.3287187951122335E-003   6.4421050325284585E-002
  -1.5355408124704470E-002   4.3961403749913086E-003   6.2583406478002368E-002
  -1.4459522417468527E-002   4.0787937904837590E-003   6.2403119871409785E-002
  -1.3563636710232585E-002   3.7578146007560126E-003   6.2432693073216833E-002
  -1.2667751002996643E-002   3.4332028058075663E-003   6.2672126083423443E-002
  -1.1771865295760700E-002   3.1049584056392909E-003   6.3121418902029602E-002
   8.3920349835953090E-011  -3.6469383069004380E-011   6.7824853501185167E-002
   5.8080991405251581E-011  -1.3942347276696410E-011   6.7874796432554119E-002
   3.2241639913443976E-011   7.1084804709187210E-013   6.8160274711751734E-002
   6.4022849521894187E-012   7.4894743185005552E-012   6.8681288338777902E-002
  -1.9437070009065138E-011   6.3936633765138140E-012   6.9437837313632622E-002
  -2.8704901578806077E-003   7.7623957405770216E-004   6.6772767624862228E-002
  -2.6333218657671950E-003   6.9556679575660807E-004   6.6777868497883863E-002
  -2.3961535736537788E-003   6.1857877254584137E-004   6.7021770658982543E-002
  -2.1589852815403696E-003   5.4527550442533268E-004   6.7504474108157950E-002
  -1.9218169894269499E-003   4.7565699139529016E-004   6.8225978845410429E-002
  -5.7892978017611233E-003   1.5524791845849539E-003   6.5638166566228923E-002
  -5.3116952514465883E-003   1.3911336054553136E-003   6.5602110143867798E-002
  -4.8340927011320742E-003   1.2371575443809596E-003   6.5808120949832058E-002
  -4.3564901508175496E-003   1.0905510013613055E-003   6.6256198984121495E-002
  -3.8788876005030250E-003   9.5131397639686144E-004   6.6946344246736261E-002
  -8.7564228477211310E-003   2.3287187951122335E-003   6.4421050325284585E-002
  -8.0351200989571703E-003   2.0867004151542551E-003   6.4347521370505381E-002
  -7.3138173501932323E-003   1.8557363162159043E-003   6.4519325584299986E-002
  -6.5925146014292838E-003   1.6358264982972767E-003   6.4936462966668218E-002
  -5.8712118526653336E-003   1.4269709613985160E-003   6.5598933517609884E-002
  -1.1771865295760700E-002   3.1049584056392909E-003   6.3121418902029602E-002
  -1.0803596408298977E-002   2.7822672248528635E-003   6.3014102177797238E-002
  -9.8353275208372670E-003   2.4743150880510989E-003   6.3155384562386785E-002
  -8.8670586333755505E-003   2.1811019952331992E-003   6.3545266055798133E-002
  -7.8987897459138340E-003   1.9026279464000595E-003   6.4183746658031615E-002
  -1.9437070009065138E-011   6.3936633765138140E-012   6.9437837313632622E-002
  -1.3821215005815901E-011   2.2460922011191542E-012   6.9259647168953942E-002
  -8.2053738803544718E-012  -1.3045120539345589E-013   6.9301201521690836E-002
  -2.5895240812756626E-012  -7.3621664320455693E-013   6.9562500371843250E-002
   3.0263222483561947E-012   4.2876813211023546E-013   7.0043543719411350E-002
  -1.9218169894269499E-003   4.7565699139529016E-004   6.8225978845410429E-002
  -1.6986421226637752E-003   4.2188338796828040E-004   6.8029967956320492E-002
  -1.4754672559006161E-003   3.9611484865678670E-004   6.8060562292109772E-002
  -1.2522923891374448E-003   3.9835137346200949E-004   6.8317761852778075E-002
  -1.0291175223742823E-003   4.2859296238217937E-004   6.8801566638325318E-002
  -3.8788876005030250E-003   9.5131397639686144E-004   6.6946344246736261E-002
  -3.4256771451291147E-003   8.4376677369030206E-004   6.6760517675580222E-002
  -2.9724666897551775E-003   7.9222969744457972E-004   6.6808157056766654E-002
  -2.5192562343812615E-003   7.9670274765990257E-004   6.7089262390295626E-002
  -2.0660457790073299E-003   8.5718592433581264E-004   6.7603833676166875E-002
  -5.8712118526653336E-003   1.4269709613985160E-003   6.5598933517609884E-002
  -5.1811050812171928E-003   1.2656501594122960E-003   6.5451296326732716E-002
  -4.4909983097690884E-003   1.1883445462321507E-003   6.5543985815661496E-002
  -3.8008915383209736E-003   1.1950541218577956E-003   6.5877001984396361E-002
  -3.1107847668728440E-003   1.2857788862891684E-003   6.6450344832936881E-002
  -7.8987897459138340E-003   1.9026279464000595E-003   6.4183746658031615E-002
  -6.9649259309280814E-003   1.6875335451345674E-003   6.4102303909778224E-002
  -6.0310621159423185E-003   1.5844593950195274E-003   6.4268048568794367E-002
  -5.0971983009565520E-003   1.5934054960560010E-003   6.4680980635079849E-002
  -4.1633344859708030E-003   1.7143718482428572E-003   6.5341100108634476E-002
   3.0263222483561947E-012   4.2876813211023546E-013   7.0043543719411350E-002
   2.1098886526793592E-012   2.0410895196221190E-012   6.8701315898476167E-002
   1.1934481181086198E-012   2.7775837185828323E-012   6.7504504578053404E-002
   2.7701452243178437E-013   2.6376748007983508E-012   6.6453109758142809E-002
  -6.3942601213895500E-013   1.6214807274650411E-012   6.5547131438744910E-002
  -1.0291175223742823E-003   4.2859296238217937E-004   6.8801566638325318E-002
  -8.8687238233603471E-004   5.0184881282322458E-004   6.7477368455624243E-002
  -7.4462724229780453E-004   6.3312812218876968E-004   6.6292244054320243E-002
  -6.0238210225956046E-004   8.2243089047890489E-004   6.5246193434413333E-002
  -4.6013696222132680E-004   1.0697571176939702E-003   6.4339216595903137E-002
  -2.0660457790073299E-003   8.5718592433581264E-004   6.7603833676166875E-002
  -1.7878982171297460E-003   1.0036976236048878E-003   6.6355688591501150E-002
  -1.5097506552521631E-003   1.2662562415999418E-003   6.5240274569116921E-002
  -1.2316030933745663E-003   1.6448617783201315E-003   6.4257591609014453E-002
  -9.5345553149698246E-004   2.1395142337664041E-003   6.3407639711193536E-002
  -3.1107847668728440E-003   1.2857788862891684E-003   6.6450344832936881E-002
  -2.7030775022712397E-003   1.5055464343865649E-003   6.5336276306106916E-002
  -2.2953702376696354E-003   1.8993843610109543E-003   6.4348596122443202E-002
  -1.8876629730680211E-003   2.4672926661615819E-003   6.3487304281946044E-002
  -1.4799557084664273E-003   3.2092713498389769E-003   6.2752400784614998E-002
  -4.1633344859708030E-003   1.7143718482428572E-003   6.5341100108634476E-002
  -3.6324102377604944E-003   2.0073952451685750E-003   6.4419131599441459E-002
  -3.1014859895502032E-003   2.5325124804223831E-003   6.3617208714299378E-002
  -2.5705617413398947E-003   3.2897235540027756E-003   6.2935331453208482E-002
  -2.0396374931296035E-003   4.2790284659112165E-003   6.2373499816168354E-002
  -6.3942601213895500E-013   1.6214807274650411E-012   6.5547131438744910E-002
  -5.7588656066087651E-013   5.5688786915197852E-013   6.0806097234189282E-002
  -5.1234363973584607E-013   2.7042257322307250E-013   5.5946106702074727E-002
  -4.4880418825776758E-013   7.6271627902357864E-013   5.0967159842401327E-002
  -3.8526126733273713E-013   2.0334844919034367E-012   4.5869256655168389E-002
  -4.6013696222132680E-004   1.0697571176939702E-003   6.4339216595903137E-002
  -5.6492919064884961E-004   1.3952439372045822E-003   5.9628313745944295E-002
  -6.6972141907636722E-004   1.8190284823807745E-003   5.4826782766562776E-002
  -7.7451364750389263E-004   2.3411107532229844E-003   4.9934623657757721E-002
  -8.7930587593137988E-004   2.9614907497308440E-003   4.4951836419530045E-002
  -9.5345553149698246E-004   2.1395142337664041E-003   6.3407639711193536E-002
  -1.1347117902794496E-003   2.7904878738520544E-003   5.8825165940718294E-002
  -1.3159680490619245E-003   3.6380569644909183E-003   5.4180392238956557E-002
  -1.4972243078443968E-003   4.6822215056830895E-003   4.9473318605908097E-002
  -1.6784805666268388E-003   5.9229814974282036E-003   4.4703945041571935E-002
  -1.4799557084664273E-003   3.2092713498389769E-003   6.2752400784614998E-002
  -1.7093477994676951E-003   4.1857318104995267E-003   5.8396653818511314E-002
  -1.9387398904689909E-003   5.4570854466010552E-003   5.4006935119256860E-002
  -2.1681319814702803E-003   7.0233322581429430E-003   4.9583244686851671E-002
  -2.3975240724715408E-003   8.8844722451255631E-003   4.5125582521295587E-002
  -2.0396374931296035E-003   4.2790284659112165E-003   6.2373499816168354E-002
  -2.2888372182136157E-003   5.5809757471473320E-003   5.8342777379323141E-002
  -2.5380369432975933E-003   7.2761139287111642E-003   5.4306411407463229E-002
  -2.7872366683815864E-003   9.3644430106032336E-003   5.0264401900588646E-002
  -3.0364363934655830E-003   1.1845962992822923E-002   4.6216748858699752E-002
  -2.5446818238822264E-002   7.2630202937779553E-003   6.5966100047957887E-002
  -2.4607719490785773E-002   7.1689534252618592E-003   6.4533804767483660E-002
  -2.3768620742749297E-002   7.0236376623128982E-003   6.3553900356455140E-002
  -2.2929521994712841E-002   6.8270730049309752E-003   6.3026386814872187E-002
  -2.2090423246676358E-002   6.5792594531162152E-003   6.2951264142734886E-002
  -3.2522286397566179E-002   9.2238752765573806E-003   6.0336542502759272E-002
  -3.1322694599307810E-002   8.9983206185870190E-003   5.9658823876145406E-002
  -3.0123102801049493E-002   8.7513976419471423E-003   5.9249700480529494E-002
  -2.8923511002791141E-002   8.4831063466379274E-003   5.9109172315911784E-002
  -2.7723919204532783E-002   8.1934467326591209E-003   5.9237239382292084E-002
  -3.8714971476674756E-002   1.1184730259336861E-002   5.4560556880224709E-002
  -3.7338682266642165E-002   1.0827687811912151E-002   5.4667295483234471E-002
  -3.5962393056609553E-002   1.0479157621581442E-002   5.4858833678794849E-002
  -3.4586103846576927E-002   1.0139139688344768E-002   5.5135171466905608E-002
  -3.3209814636544335E-002   9.8076340122021377E-003   5.5496308847566900E-002
  -4.4024873476148176E-002   1.3145585242116314E-002   4.8638143180353866E-002
  -4.2655682492788824E-002   1.2657055005237269E-002   4.9559219588750994E-002
  -4.1286491509429563E-002   1.2206917601215797E-002   5.0381299951250992E-002
  -3.9917300526070225E-002   1.1795173030051637E-002   5.1104384267853950E-002
  -3.8548109542710915E-002   1.1421821291745099E-002   5.1728472538559618E-002
  -4.8451992395986215E-002   1.5106440224895767E-002   4.2569301403147242E-002
  -4.7273695277747801E-002   1.4486422198562499E-002   4.4334596192694975E-002
  -4.6095398159509415E-002   1.3934677580850000E-002   4.5817099297898040E-002
  -4.4917101041271015E-002   1.3451206371758593E-002   4.7016810718756422E-002
  -4.3738803923032629E-002   1.3036008571288005E-002   4.7933730455269996E-002
  -2.2090423246676358E-002   6.5792594531162152E-003   6.2951264142734886E-002
  -2.1242496855918919E-002   6.3085892503307317E-003   6.2491168720394036E-002
  -2.0394570465161462E-002   6.0434546400359446E-003   6.2270788509106861E-002
  -1.9546644074404013E-002   5.7838556222326518E-003   6.2290123508873557E-002
  -1.8698717683646567E-002   5.5297921969200137E-003   6.2549173719693762E-002
  -2.7723919204532783E-002   8.1934467326591209E-003   5.9237239382292084E-002
  -2.6649560722735055E-002   7.8892871477963256E-003   5.8910413350478641E-002
  -2.5575202240937324E-002   7.5774959398344013E-003   5.8796736289692092E-002
  -2.4500843759139582E-002   7.2580731087734194E-003   5.8896208199932409E-002
  -2.3426485277341862E-002   6.9310186546135411E-003   5.9208829081199510E-002
  -3.3209814636544335E-002   9.8076340122021377E-003   5.5496308847566900E-002
  -3.1935590303733219E-002   9.4699850452620304E-003   5.5289584990690983E-002
  -3.0661365970922064E-002   9.1115372396326916E-003   5.5269443864814971E-002
  -2.9387141638110945E-002   8.7322905953144091E-003   5.5435885469938904E-002
  -2.8112917305299800E-002   8.3322451123070407E-003   5.5788909806062853E-002
  -3.8548109542710915E-002   1.1421821291745099E-002   5.1728472538559618E-002
  -3.7100585598913306E-002   1.1050682942727652E-002   5.1628683641031049E-002
  -3.5653061655115656E-002   1.0645578539431037E-002   5.1688911234475513E-002
  -3.4205537711318013E-002   1.0206508081855399E-002   5.1909155318893008E-002
  -3.2758013767520411E-002   9.7334715700004987E-003   5.2289415894283660E-002
  -4.3738803923032629E-002   1.3036008571288005E-002   4.7933730455269996E-002
  -4.2144546608275393E-002   1.2631380840193301E-002   4.7927709301498644E-002
  -4.0550289293518123E-002   1.2179619839229425E-002   4.8055138398673591E-002
  -3.8956031978760880E-002   1.1680725568396163E-002   4.8316017746794601E-002
  -3.7361774664003616E-002   1.1134698027694012E-002   4.8710347345861882E-002
  -1.8698717683646567E-002   5.5297921969200137E-003   6.2549173719693762E-002
  -1.7862890293911034E-002   5.2704672362494653E-003   6.2231708786563478E-002
  -1.7027062904175518E-002   4.9950836123708597E-003   6.2131592601904956E-002
  -1.6191235514440003E-002   4.7036413252849393E-003   6.2248825165717836E-002
  -1.5355408124704470E-002   4.3961403749913086E-003   6.2583406478002368E-002
  -2.3426485277341862E-002   6.9310186546135411E-003   5.9208829081199510E-002
  -2.2380131710518190E-002   6.5953387315574041E-003   5.8913038153472735E-002
  -2.1333778143694498E-002   6.2500394938078963E-003   5.8820950831450641E-002
  -2.0287424576870838E-002   5.8951209413649688E-003   5.8932567115133422E-002
  -1.9241071010047135E-002   5.5305830742284900E-003   5.9247887004520883E-002
  -2.8112917305299800E-002   8.3322451123070407E-003   5.5788909806062853E-002
  -2.6869682704154810E-002   7.9202102268655095E-003   5.5521232232253678E-002
  -2.5626448103009812E-002   7.5049953752447801E-003   5.5443613121382407E-002
  -2.4383213501864807E-002   7.0866005574448908E-003   5.5556052473449101E-002
  -2.3139978900719824E-002   6.6650257734657548E-003   5.5858550288453476E-002
  -3.2758013767520411E-002   9.7334715700004987E-003   5.2289415894283660E-002
  -3.1331543274820926E-002   9.2450817221736425E-003   5.2056291022906272E-002
  -2.9905072782121445E-002   8.7599512566815738E-003   5.1999579471699975E-002
  -2.8478602289421995E-002   8.2780801735248665E-003   5.2119281240664873E-002
  -2.7052131796722508E-002   7.7994684727030333E-003   5.2415396329800509E-002
  -3.7361774664003616E-002   1.1134698027694012E-002   4.8710347345861882E-002
  -3.5765713422516526E-002   1.0569953217481609E-002   4.8518214525430592E-002
  -3.4169652181029422E-002   1.0014907138118645E-002   4.8488849882403595E-002
  -3.2573590939542318E-002   9.4695597896047728E-003   4.8622253416780836E-002
  -3.0977529698055215E-002   8.9339111719401454E-003   4.8918425128562204E-002
  -1.5355408124704470E-002   4.3961403749913086E-003   6.2583406478002368E-002
  -1.4459522417468527E-002   4.0787937904837590E-003   6.2403119871409785E-002
  -1.3563636710232585E-002   3.7578146007560126E-003   6.2432693073216833E-002
  -1.2667751002996643E-002   3.4332028058075663E-003   6.2672126083423443E-002
  -1.1771865295760700E-002   3.1049584056392909E-003   6.3121418902029602E-002
  -1.9241071010047135E-002   5.5305830742284900E-003   5.9247887004520883E-002
  -1.8136921094927639E-002   5.1577736873629210E-003   5.9047481627089449E-002
  -1.7032771179808164E-002   4.7780405757324729E-003   5.9053744857025747E-002
  -1.5928621264688671E-002   4.3913837393367225E-003   5.9266676694329487E-002
  -1.4824471349569220E-002   3.9978031781761070E-003   5.9686277139000654E-002
  -2.3139978900719824E-002   6.6650257734657548E-003   5.5858550288453476E-002
  -2.1830755978748867E-002   6.2367535842422217E-003   5.5634735020638787E-002
  -2.0521533056777921E-002   5.7982665507089401E-003   5.5614397159159508E-002
  -1.9212310134806947E-002   5.3495646728657694E-003   5.5797536704015452E-002
  -1.7903087212835993E-002   4.8906479507128120E-003   5.6184153655207208E-002
  -2.7052131796722508E-002   7.7994684727030333E-003   5.2415396329800509E-002
  -2.5541027068932180E-002   7.3157334811213420E-003   5.2164880052057765E-002
  -2.4029922341141857E-002   6.8184925256854594E-003   5.2114649979618115E-002
  -2.2518817613351515E-002   6.3077456063947044E-003   5.2264706112481941E-002
  -2.1007712885561206E-002   5.7834927232496836E-003   5.2615048450649050E-002
  -3.0977529698055215E-002   8.9339111719401454E-003   4.8918425128562204E-002
  -2.9267734365477555E-002   8.3947133780006289E-003   4.8637916721346319E-002
  -2.7557939032899929E-002   7.8387185006618537E-003   4.8554503318401693E-002
  -2.5848143700322294E-002   7.2659265399239691E-003   4.8668184919728366E-002
  -2.4138348367744644E-002   6.6763374957863331E-003   4.8978961525326326E-002
  -1.1771865295760700E-002   3.1049584056392909E-003   6.3121418902029602E-002
  -1.0803596408298977E-002   2.7822672248528635E-003   6.3014102177797238E-002
  -9.8353275208372670E-003   2.4743150880510989E-003   6.3155384562386785E-002
  -8.8670586333755505E-003   2.1811019952331992E-003   6.3545266055798133E-002
  -7.8987897459138340E-003   1.9026279464000595E-003   6.4183746658031615E-002
  -1.4824471349569220E-002   3.9978031781761070E-003   5.9686277139000654E-002
  -1.3620144104349509E-002   3.6059737814091997E-003   5.9552992403014593E-002
  -1.2415816859129857E-002   3.2245704381952123E-003   5.9643225273722456E-002
  -1.1211489613910153E-002   2.8535931485339436E-003   5.9956975751124186E-002
  -1.0007162368690495E-002   2.4930419124251646E-003   6.0494243835220118E-002
  -1.7903087212835993E-002   4.8906479507128120E-003   5.6184153655207208E-002
  -1.6487783111986329E-002   4.4296803379657024E-003   5.6020587917035541E-002
  -1.5072479011136636E-002   3.9748257883394228E-003   5.6055458283430101E-002
  -1.3657174910286932E-002   3.5260843018344624E-003   5.6288764754390742E-002
  -1.2241870809437252E-002   3.0834558784504917E-003   5.6720507329917069E-002
  -2.1007712885561206E-002   5.7834927232496836E-003   5.2615048450649050E-002
  -1.9406513431209398E-002   5.2533868945221218E-003   5.2416888719860381E-002
  -1.7805313976857657E-002   4.7250811384837513E-003   5.2392083591510027E-002
  -1.6204114522505867E-002   4.1985754551350941E-003   5.2540633065597593E-002
  -1.4602915068154108E-002   3.6738698444755968E-003   5.2862537142123391E-002
  -2.4138348367744644E-002   6.6763374957863331E-003   4.8978961525326326E-002
  -2.2376335062018748E-002   6.0770934510785413E-003   4.8741894811489050E-002
  -2.0614321756292867E-002   5.4753364886278577E-003   4.8653101197961901E-002
  -1.8852308450567005E-002   4.8710666084355314E-003   4.8712580684744905E-002
  -1.7090295144841089E-002   4.2642838105009240E-003   4.8920333271838312E-002
  -7.8987897459138340E-003   1.9026279464000595E-003   6.4183746658031615E-002
  -6.9649259309280814E-003   1.6875335451345674E-003   6.4102303909778224E-002
  -6.0310621159423185E-003   1.5844593950195274E-003   6.4268048568794367E-002
  -5.0971983009565520E-003   1.5934054960560010E-003   6.4680980635079849E-002
  -4.1633344859708030E-003   1.7143718482428572E-003   6.5341100108634476E-002
  -1.0007162368690495E-002   2.4930419124251646E-003   6.0494243835220118E-002
  -8.8245480540760438E-003   2.1936970502061115E-003   6.0400031834044465E-002
  -7.6419337394615545E-003   2.0063388822126327E-003   6.0556133424856801E-002
  -6.4593194248471087E-003   1.9309674084452694E-003   6.0962548607657138E-002
  -5.2767051102326143E-003   1.9675826289041742E-003   6.1619277382445659E-002
  -1.2241870809437252E-002   3.0834558784504917E-003   5.6720507329917069E-002
  -1.0807379810475391E-002   2.6998605552775168E-003   5.6613492518894526E-002
  -9.3728888115135172E-003   2.4282183694057241E-003   5.6759917484578357E-002
  -7.9383978125516577E-003   2.2685293208350894E-003   5.7159782226968985E-002
  -6.5039068135897826E-003   2.2207934095656023E-003   5.7813086746066417E-002
  -1.4602915068154108E-002   3.6738698444755968E-003   5.2862537142123391E-002
  -1.2913421200126146E-002   3.2060240603490470E-003   5.2742685964328490E-002
  -1.1223927332098173E-002   2.8500978565987115E-003   5.2879400747958910E-002
  -9.5344334640702130E-003   2.6060912332248557E-003   5.3272681493014888E-002
  -7.8449395960422386E-003   2.4740041902270860E-003   5.3922528199495966E-002
  -1.7090295144841089E-002   4.2642838105009240E-003   4.8920333271838312E-002
  -1.5142672223028314E-002   3.7121875654204106E-003   4.8787612170346328E-002
  -1.3195049301215567E-002   3.2719773437918653E-003   4.8914583214998530E-002
  -1.1247426379402792E-002   2.9436531456144416E-003   4.9301246405795141E-002
  -9.2998034575900446E-003   2.7272149708884585E-003   4.9947601742735603E-002
  -4.1633344859708030E-003   1.7143718482428572E-003   6.5341100108634476E-002
  -3.6324102377604944E-003   2.0073952451685750E-003   6.4419131599441459E-002
  -3.1014859895502032E-003   2.5325124804223831E-003   6.3617208714299378E-002
  -2.5705617413398947E-003   3.2897235540027756E-003   6.2935331453208482E-002
  -2.0396374931296035E-003   4.2790284659112165E-003   6.2373499816168354E-002
  -5.2767051102326143E-003   1.9675826289041742E-003   6.1619277382445659E-002
  -4.5999669762809350E-003   2.2232302172305873E-003   6.0888331995766376E-002
  -3.9232288423291899E-003   2.8049558470667479E-003   6.0328968756518775E-002
  -3.2464907083774482E-003   3.7127595184121842E-003   5.9941187664702855E-002
  -2.5697525744257342E-003   4.9466412312676455E-003   5.9724988720318950E-002
  -6.5039068135897826E-003   2.2207934095656023E-003   5.7813086746066417E-002
  -5.6298182705158233E-003   2.4390651892923221E-003   5.7367148685082664E-002
  -4.7557297274418812E-003   3.0773992137111267E-003   5.7144329294911630E-002
  -3.8816411843679505E-003   4.1357954828217074E-003   5.7144628575553143E-002
  -3.0075526412939816E-003   5.6142539966241300E-003   5.7368046527007416E-002
  -7.8449395960422386E-003   2.4740041902270860E-003   5.3922528199495966E-002
  -6.7219641204652823E-003   2.6549001613541401E-003   5.3855581667390517E-002
  -5.5989886448883008E-003   3.3498425803556095E-003   5.4063290329478250E-002
  -4.4760131693113176E-003   4.5588314472311733E-003   5.4545654185759691E-002
  -3.3530376937343635E-003   6.2818667619803648E-003   5.5302673236234438E-002
  -9.2998034575900446E-003   2.7272149708884585E-003   4.9947601742735603E-002
  -7.8764045261291993E-003   2.8707351334160691E-003   5.0353630942690186E-002
  -6.4530055946684234E-003   3.6222859470001478E-003   5.1085851860218856E-002
  -5.0296066632075920E-003   4.9818674116405420E-003   5.2144264495321946E-002
  -3.6062077317468022E-003   6.9494795273369325E-003   5.3528868847999012E-002
  -2.0396374931296035E-003   4.2790284659112165E-003   6.2373499816168354E-002
  -2.2888372182136157E-003   5.5809757471473320E-003   5.8342777379323141E-002
  -2.5380369432975933E-003   7.2761139287111642E-003   5.4306411407463229E-002
  -2.7872366683815864E-003   9.3644430106032336E-003   5.0264401900588646E-002
  -3.0364363934655830E-003   1.1845962992822923E-002   4.6216748858699752E-002
  -2.5697525744257342E-003   4.9466412312676455E-003   5.9724988720318950E-002
  -2.8420464763200502E-003   6.5705701350638468E-003   5.6192734276455825E-002
  -3.1143403782143680E-003   8.6485153792321412E-003   5.2619935013986763E-002
  -3.3866342801086189E-003   1.1180476963772661E-002   4.9006590932912375E-002
  -3.6589281820029740E-003   1.4166454888685065E-002   4.5352702033230718E-002
  -3.0075526412939816E-003   5.6142539966241300E-003   5.7368046527007416E-002
  -3.3378420035899657E-003   7.5601645229804171E-003   5.4395085516170838E-002
  -3.6681313658859490E-003   1.0020916829753021E-002   5.1346678403136961E-002
  -3.9984207281819339E-003   1.2996510916941980E-002   4.8222825187905723E-002
  -4.3287100904779198E-003   1.6486946784546985E-002   4.5023525870476866E-002
  -3.3530376937343635E-003   6.2818667619803648E-003   5.5302673236234438E-002
  -3.7762238000233262E-003   8.5497589108968486E-003   5.2949831098467966E-002
  -4.1994099063123172E-003   1.1393318280274060E-002   5.0486641574913144E-002
  -4.6225960126012452E-003   1.4812544870111464E-002   4.7913104665569931E-002
  -5.0457821188902722E-003   1.8807438680409017E-002   4.5229220370437473E-002
  -3.6062077317468022E-003   6.9494795273369325E-003   5.3528868847999012E-002
  -4.1571918656201634E-003   9.5393532988136132E-003   5.1856971023347631E-002
  -4.7081759994934969E-003   1.2765719730795072E-002   5.0039824529316046E-002
  -5.2591601333668650E-003   1.6628578823280997E-002   4.8077429365904950E-002
  -5.8101442672401915E-003   2.1127930576271048E-002   4.5969785533113150E-002
  -4.8451992395986215E-002   1.5106440224895767E-002   4.2569301403147242E-002
  -4.7273695277747801E-002   1.4486422198562499E-002   4.4334596192694975E-002
  -4.6095398159509415E-002   1.3934677580850000E-002   4.5817099297898040E-002
  -4.4917101041271015E-002   1.3451206371758593E-002   4.7016810718756422E-002
  -4.3738803923032629E-002   1.3036008571288005E-002   4.7933730455269996E-002
  -5.3419930693233128E-002   1.6828486534096077E-002   4.3472994032859813E-002
  -5.2318157887465730E-002   1.6312347745130629E-002   4.3513849540645716E-002
  -5.1216385081698297E-002   1.5795365909179002E-002   4.3684448107834423E-002
  -5.0114612275930892E-002   1.5277541026241622E-002   4.3984789734425864E-002
  -4.9012839470163480E-002   1.4758873096318292E-002   4.4414874420420053E-002
  -6.0352290824933069E-002   1.8550532843296386E-002   4.4515124127743430E-002
  -5.8914507587889242E-002   1.8138273291698592E-002   4.2762423898160859E-002
  -5.7476724350845276E-002   1.7656054237508052E-002   4.1552001471728363E-002
  -5.6038941113801449E-002   1.7103875680724703E-002   4.0883856848446004E-002
  -5.4601157876757553E-002   1.6481737621348608E-002   4.0757990028313998E-002
  -6.9249072791085942E-002   2.0272579152496709E-002   4.5695691687798273E-002
  -6.7062744379018158E-002   1.9964198838266667E-002   4.2080319265240126E-002
  -6.4876415966950374E-002   1.9516742565837037E-002   3.9419759389579638E-002
  -6.2690087554882576E-002   1.8930210335207788E-002   3.7714012060816850E-002
  -6.0503759142814799E-002   1.8204602146378965E-002   3.6963077278951678E-002
  -8.0110276591691842E-002   2.1994625461697004E-002   4.7014696713024273E-002
  -7.6762868260852685E-002   2.1790124384834797E-002   4.1467535641883935E-002
  -7.3415459930013582E-002   2.1377430894166050E-002   3.7287721861388567E-002
  -7.0068051599174397E-002   2.0756544989690859E-002   3.4475255371538394E-002
  -6.6720643268335267E-002   1.9927466671409211E-002   3.3030136172333135E-002
  -4.3738803923032629E-002   1.3036008571288005E-002   4.7933730455269996E-002
  -4.2144546608275393E-002   1.2631380840193301E-002   4.7927709301498644E-002
  -4.0550289293518123E-002   1.2179619839229425E-002   4.8055138398673591E-002
  -3.8956031978760880E-002   1.1680725568396163E-002   4.8316017746794601E-002
  -3.7361774664003616E-002   1.1134698027694012E-002   4.8710347345861882E-002
  -4.9012839470163480E-002   1.4758873096318292E-002   4.4414874420420053E-002
  -4.7258415151219271E-002   1.4233618928738395E-002   4.4091555811328204E-002
  -4.5503990832275042E-002   1.3696035332831355E-002   4.3955120959664043E-002
  -4.3749566513330826E-002   1.3146122308597016E-002   4.4005569865427689E-002
  -4.1995142194386624E-002   1.2583879856035374E-002   4.4242902528619066E-002
  -5.4601157876757553E-002   1.6481737621348608E-002   4.0757990028313998E-002
  -5.2633133047144787E-002   1.5835857017283503E-002   4.0152177805443459E-002
  -5.0665108217532027E-002   1.5212450826433181E-002   3.9786682846482270E-002
  -4.8697083387919234E-002   1.4611519048797648E-002   3.9661505151430437E-002
  -4.6729058558306495E-002   1.4033061684376874E-002   3.9776644720287913E-002
  -6.0503759142814799E-002   1.8204602146378965E-002   3.6963077278951678E-002
  -5.8268700296051884E-002   1.7438095105828548E-002   3.6109575283844481E-002
  -5.6033641449288969E-002   1.6728866320035087E-002   3.5549824059128307E-002
  -5.3798582602526034E-002   1.6076915788998336E-002   3.5283823604802998E-002
  -5.1563523755763160E-002   1.5482243512718416E-002   3.5311573920868637E-002
  -6.6720643268335267E-002   1.9927466671409211E-002   3.3030136172333135E-002
  -6.4165116897940661E-002   1.9040333194373676E-002   3.1963748246531337E-002
  -6.1609590527545985E-002   1.8245281813636938E-002   3.1244544597601981E-002
  -5.9054064157151386E-002   1.7542312529198995E-002   3.0872525225545386E-002
  -5.6498537786756703E-002   1.6931425341059791E-002   3.0847690130361038E-002
  -3.7361774664003616E-002   1.1134698027694012E-002   4.8710347345861882E-002
  -3.5765713422516526E-002   1.0569953217481609E-002   4.8518214525430592E-002
  -3.4169652181029422E-002   1.0014907138118645E-002   4.8488849882403595E-002
  -3.2573590939542318E-002   9.4695597896047728E-003   4.8622253416780836E-002
  -3.0977529698055215E-002   8.9339111719401454E-003   4.8918425128562204E-002
  -4.1995142194386624E-002   1.2583879856035374E-002   4.4242902528619066E-002
  -4.0230523993489829E-002   1.2010814870183462E-002   4.3956201202954098E-002
  -3.8465905792592986E-002   1.1428434246077437E-002   4.3843845618704358E-002
  -3.6701287591696170E-002   1.0836737983717457E-002   4.3905835775869873E-002
  -3.4936669390799396E-002   1.0235726083103691E-002   4.4142171674450559E-002
  -4.6729058558306495E-002   1.4033061684376874E-002   3.9776644720287913E-002
  -4.4784305833988916E-002   1.3451676522885009E-002   3.9376360520286216E-002
  -4.2839553109671427E-002   1.2841961354036063E-002   3.9161999625710542E-002
  -4.0894800385353876E-002   1.2203916177830197E-002   3.9133562036561209E-002
  -3.8950047661036352E-002   1.1537540994267154E-002   3.9291047752838024E-002
  -5.1563523755763160E-002   1.5482243512718416E-002   3.5311573920868637E-002
  -4.9427058944013932E-002   1.4892538175586736E-002   3.4778692477426904E-002
  -4.7290594132264739E-002   1.4255488461994911E-002   3.4443311903422306E-002
  -4.5154129320515539E-002   1.3571094371942743E-002   3.4305432198854985E-002
  -4.3017664508766325E-002   1.2839355905430713E-002   3.4365053363724807E-002
  -5.6498537786756703E-002   1.6931425341059791E-002   3.0847690130361038E-002
  -5.4158783323564802E-002   1.6333399828288381E-002   3.0163197074376202E-002
  -5.1819028860372915E-002   1.5669015569953454E-002   2.9687782451839562E-002
  -4.9479274397181007E-002   1.4938272566055642E-002   2.9421446262751130E-002
  -4.7139519933989127E-002   1.4141170816594106E-002   2.9364188507110922E-002
  -3.0977529698055215E-002   8.9339111719401454E-003   4.8918425128562204E-002
  -2.9267734365477555E-002   8.3947133780006289E-003   4.8637916721346319E-002
  -2.7557939032899929E-002   7.8387185006618537E-003   4.8554503318401693E-002
  -2.5848143700322294E-002   7.2659265399239691E-003   4.8668184919728366E-002
  -2.4138348367744644E-002   6.6763374957863331E-003   4.8978961525326326E-002
  -3.4936669390799396E-002   1.0235726083103691E-002   4.4142171674450559E-002
  -3.3038458687245816E-002   9.6265421092801284E-003   4.3786832260664127E-002
  -3.1140247983692186E-002   9.0103296272910777E-003   4.3611228584558182E-002
  -2.9242037280138623E-002   8.3870886371365493E-003   4.3615360646132945E-002
  -2.7343826576585031E-002   7.7568191388163177E-003   4.3799228445388194E-002
  -3.8950047661036352E-002   1.1537540994267154E-002   3.9291047752838024E-002
  -3.6880780853097525E-002   1.0858370840559711E-002   3.8870645907714593E-002
  -3.4811514045158615E-002   1.0181940753920531E-002   3.8612620533681301E-002
  -3.2742247237219767E-002   9.5082507343494643E-003   3.8516971630737820E-002
  -3.0672980429280870E-002   8.8373007818463023E-003   3.8583699198884380E-002
  -4.3017664508766325E-002   1.2839355905430713E-002   3.4365053363724807E-002
  -4.0794700863032815E-002   1.2090199571839363E-002   3.3889357662498232E-002
  -3.8571737217299222E-002   1.1353551880549814E-002   3.3558679165771009E-002
  -3.6348773571565671E-002   1.0629412831562213E-002   3.3373017873543187E-002
  -3.4125809925832175E-002   9.9177824248761204E-003   3.3332373785814468E-002
  -4.7139519933989127E-002   1.4141170816594106E-002   2.9364188507110922E-002
  -4.4780218717051568E-002   1.3322028303118683E-002   2.8842967525014862E-002
  -4.2420917500114036E-002   1.2525163007179305E-002   2.8449404480827362E-002
  -4.0061616283176490E-002   1.1750574928775123E-002   2.8183499374548629E-002
  -3.7702315066238890E-002   1.0998264067906161E-002   2.8045252206178484E-002
  -2.4138348367744644E-002   6.6763374957863331E-003   4.8978961525326326E-002
  -2.2376335062018748E-002   6.0770934510785413E-003   4.8741894811489050E-002
  -2.0614321756292867E-002   5.4753364886278577E-003   4.8653101197961901E-002
  -1.8852308450567005E-002   4.8710666084355314E-003   4.8712580684744905E-002
  -1.7090295144841089E-002   4.2642838105009240E-003   4.8920333271838312E-002
  -2.7343826576585031E-002   7.7568191388163177E-003   4.3799228445388194E-002
  -2.5430878208409967E-002   7.1230405084266590E-003   4.3439896712976878E-002
  -2.3517929840234882E-002   6.4892721220639327E-003   4.3234162005153454E-002
  -2.1604981472059834E-002   5.8555139797274100E-003   4.3182024321918339E-002
  -1.9692033103884732E-002   5.2217660814177780E-003   4.3283483663271560E-002
  -3.0672980429280870E-002   8.8373007818463023E-003   3.8583699198884380E-002
  -2.8603773074378655E-002   8.1689875657751099E-003   3.8104625609667542E-002
  -2.6534565719476360E-002   7.5032077554993415E-003   3.7784472969316821E-002
  -2.4465358364574107E-002   6.8399613510192886E-003   3.7623241277832356E-002
  -2.2396151009671905E-002   6.1792483523346320E-003   3.7620930535214092E-002
  -3.4125809925832175E-002   9.9177824248761204E-003   3.3332373785814468E-002
  -3.1895019659924688E-002   9.2149346231235052E-003   3.2736081501561078E-002
  -2.9664229394017208E-002   8.5171433889351944E-003   3.2304034090451933E-002
  -2.7433439128109773E-002   7.8244087223112782E-003   3.2036231552486895E-002
  -2.5202648862202248E-002   7.1367306232515415E-003   3.1932673887666158E-002
  -3.7702315066238890E-002   1.0998264067906161E-002   2.8045252206178484E-002
  -3.5304617965048246E-002   1.0260881680471790E-002   2.7334264388657492E-002
  -3.2906920863857519E-002   9.5310790223707698E-003   2.6792845368558749E-002
  -3.0509223762666834E-002   8.8088560936030319E-003   2.6420995145882253E-002
  -2.8111526661476122E-002   8.0942128941684510E-003   2.6218713720627895E-002
  -1.7090295144841089E-002   4.2642838105009240E-003   4.8920333271838312E-002
  -1.5142672223028314E-002   3.7121875654204106E-003   4.8787612170346328E-002
  -1.3195049301215567E-002   3.2719773437918653E-003   4.8914583214998530E-002
  -1.1247426379402792E-002   2.9436531456144416E-003   4.9301246405795141E-002
  -9.2998034575900446E-003   2.7272149708884585E-003   4.9947601742735603E-002
  -1.9692033103884732E-002   5.2217660814177780E-003   4.3283483663271560E-002
  -1.7523777840993397E-002   4.6232521899254309E-003   4.3100494706500181E-002
  -1.5355522578102007E-002   4.0951960680405408E-003   4.3099078285742137E-002
  -1.3187267315210680E-002   3.6375977157638573E-003   4.3279234400997083E-002
  -1.1019012052319282E-002   3.2504571330947973E-003   4.3640963052265502E-002
  -2.2396151009671905E-002   6.1792483523346320E-003   3.7620930535214092E-002
  -2.0085383015832889E-002   5.5343168144299237E-003   3.7346245469320083E-002
  -1.7774615021993900E-002   4.9184147922894661E-003   3.7175013329308171E-002
  -1.5463847028154891E-002   4.3315422859132799E-003   3.7107234115178175E-002
  -1.3153079034315944E-002   3.7736992953013027E-003   3.7142907826930582E-002
  -2.5202648862202248E-002   7.1367306232515415E-003   3.1932673887666158E-002
  -2.2827487747546761E-002   6.4453814389345693E-003   3.1524864458805840E-002
  -2.0452326632891253E-002   5.7416335165381555E-003   3.1142388345696478E-002
  -1.8077165518235808E-002   5.0254868560628101E-003   3.0785245548338214E-002
  -1.5702004403580258E-002   4.2969414575078357E-003   3.0453436066730968E-002
  -2.8111526661476122E-002   8.0942128941684510E-003   2.6218713720627895E-002
  -2.5750092036135069E-002   7.3564460634393813E-003   2.5636351674957703E-002
  -2.3388657410794086E-002   6.5648522407869836E-003   2.5001203334907296E-002
  -2.1027222785453041E-002   5.7194314262122084E-003   2.4313268700476870E-002
  -1.8665788160112051E-002   4.8201836197142578E-003   2.3572547771666619E-002
  -9.2998034575900446E-003   2.7272149708884585E-003   4.9947601742735603E-002
  -7.8764045261291993E-003   2.8707351334160691E-003   5.0353630942690186E-002
  -6.4530055946684234E-003   3.6222859470001478E-003   5.1085851860218856E-002
  -5.0296066632075920E-003   4.9818674116405420E-003   5.2144264495321946E-002
  -3.6062077317468022E-003   6.9494795273369325E-003   5.3528868847999012E-002
  -1.1019012052319282E-002   3.2504571330947973E-003   4.3640963052265502E-002
  -9.2512109231742273E-003   3.1741737037817019E-003   4.4229987939142124E-002
  -7.4834097940291652E-003   3.6491468115713022E-003   4.5181625503813272E-002
  -5.7156086648840754E-003   4.6753764564646944E-003   4.6495875746278698E-002
  -3.9478075357390480E-003   6.2528626384612540E-003   4.8172738666538484E-002
  -1.3153079034315944E-002   3.7736992953013027E-003   3.7142907826930582E-002
  -1.1004454747266655E-002   3.4776122741468907E-003   3.7858154286776635E-002
  -8.8558304602173003E-003   3.6760076761425398E-003   3.8972434384637072E-002
  -6.7072061731680323E-003   4.3688855012890618E-003   4.0485748120511700E-002
  -4.5585818861187122E-003   5.5562457495856310E-003   4.2398095494400795E-002
  -1.5702004403580258E-002   4.2969414575078357E-003   3.0453436066730968E-002
  -1.3136135998406606E-002   3.7810508445121349E-003   3.1238129985593471E-002
  -1.0570267593233009E-002   3.7028685407139578E-003   3.2458278502690535E-002
  -8.0043991880593846E-003   4.0623945461132106E-003   3.4113881618021605E-002
  -5.4385307828857601E-003   4.8596288607099802E-003   3.6204939331587228E-002
  -1.8665788160112051E-002   4.8201836197142578E-003   2.3572547771666619E-002
  -1.5646254676594085E-002   4.0844894148777122E-003   2.4369915035592715E-002
  -1.2626721193076146E-002   3.7297294052851537E-003   2.5639157857973216E-002
  -9.6071877095581931E-003   3.7559035909378036E-003   2.7380276238808038E-002
  -6.5876542260402404E-003   4.1630119718344405E-003   2.9593270178097542E-002
  -3.6062077317468022E-003   6.9494795273369325E-003   5.3528868847999012E-002
  -4.1571918656201634E-003   9.5393532988136132E-003   5.1856971023347631E-002
  -4.7081759994934969E-003   1.2765719730795072E-002   5.0039824529316046E-002
  -5.2591601333668650E-003   1.6628578823280997E-002   4.8077429365904950E-002
  -5.8101442672401915E-003   2.1127930576271048E-002   4.5969785533113150E-002
  -3.9478075357390480E-003   6.2528626384612540E-003   4.8172738666538484E-002
  -4.5402145142454664E-003   8.6908074393691748E-003   4.7238568800858138E-002
  -5.1326214927519334E-003   1.2298412940996234E-002   4.6366801915291800E-002
  -5.7250284712583518E-003   1.7075679143342411E-002   4.5557438009838996E-002
  -6.3174354497648189E-003   2.3022606046407823E-002   4.4810477084500588E-002
  -4.5585818861187122E-003   5.5562457495856310E-003   4.2398095494400795E-002
  -4.9847600597645106E-003   7.8422615799245698E-003   4.2734821627906844E-002
  -5.4109382334103021E-003   1.1831106151197410E-002   4.3341602391020320E-002
  -5.8371164070561022E-003   1.7522779463404217E-002   4.4218437783741120E-002
  -6.2632945807018919E-003   2.4917281516544598E-002   4.5365327806070166E-002
  -5.4385307828857601E-003   4.8596288607099802E-003   3.6204939331587228E-002
  -5.4908285021770271E-003   6.9937157204800482E-003   3.8345729504493976E-002
  -5.5431262214682636E-003   1.1363799361398357E-002   4.0964225956501871E-002
  -5.5954239407595315E-003   1.7969879783465717E-002   4.4060428687611855E-002
  -5.6477216600507134E-003   2.6811956986681373E-002   4.7634337697822410E-002
  -6.5876542260402404E-003   4.1630119718344405E-003   2.9593270178097542E-002
  -6.0584198414831980E-003   6.1451698610357486E-003   3.4071292430619460E-002
  -5.5291854569261556E-003   1.0896492571599775E-002   3.9234672611736576E-002
  -4.9999510723691826E-003   1.8416980103527776E-002   4.5083410721449141E-002
  -4.4707166878120708E-003   2.8706632456818149E-002   5.1617506759757070E-002
  -8.0110276591691842E-002   2.1994625461697004E-002   4.7014696713024273E-002
  -7.6762868260852685E-002   2.1790124384834797E-002   4.1467535641883935E-002
  -7.3415459930013582E-002   2.1377430894166050E-002   3.7287721861388567E-002
  -7.0068051599174397E-002   2.0756544989690859E-002   3.4475255371538394E-002
  -6.6720643268335267E-002   1.9927466671409211E-002   3.3030136172333135E-002
  -8.8638450259007295E-002   2.3734554553927867E-002   2.0252972522034673E-002
  -8.4615873310740719E-002   2.3469789493334309E-002   2.0439079164410845E-002
  -8.0593296362474226E-002   2.3003145417947693E-002   2.0608175750996771E-002
  -7.6570719414207608E-002   2.2334622327768259E-002   2.0760262281792327E-002
  -7.2548142465941073E-002   2.1464220222795705E-002   2.0895338756797610E-002
  -9.0536141825288657E-002   2.5474483646158785E-002  -6.5721723521932063E-003
  -8.7222753606030018E-002   2.5149454601833737E-002  -6.4648459728683383E-004
  -8.3909365386771559E-002   2.4628859941729392E-002   3.8778357553937576E-003
  -8.0595977167512933E-002   2.3912699665845548E-002   7.0007887058486512E-003
  -7.7282588948254405E-002   2.3000973774182365E-002   8.7223742540780413E-003
  -8.5803351290536040E-002   2.7214412738389593E-002  -3.3460737909659075E-002
  -8.4583509146720817E-002   2.6829119710333263E-002  -2.1789155643209161E-002
  -8.3363667002905692E-002   2.6254574465511007E-002  -1.2903298125420355E-002
  -8.2143824859090456E-002   2.5490777003922920E-002  -6.8031653562922265E-003
  -8.0923982715275317E-002   2.4537727325569109E-002  -3.4887573358256055E-003
  -7.4440078654749442E-002   2.8954341830620511E-002  -6.0412724150363140E-002
  -7.6698139932813048E-002   2.8508784818832900E-002  -4.2988933973356069E-002
  -7.8956201210876542E-002   2.7880288989292928E-002  -2.9735225891445283E-002
  -8.1214262488940092E-002   2.7068854342000202E-002  -2.0651599904631113E-002
  -8.3472323767003642E-002   2.6074480876955519E-002  -1.5738056012913226E-002
  -6.6720643268335267E-002   1.9927466671409211E-002   3.3030136172333135E-002
  -6.4165116897940661E-002   1.9040333194373676E-002   3.1963748246531337E-002
  -6.1609590527545985E-002   1.8245281813636938E-002   3.1244544597601981E-002
  -5.9054064157151386E-002   1.7542312529198995E-002   3.0872525225545386E-002
  -5.6498537786756703E-002   1.6931425341059791E-002   3.0847690130361038E-002
  -7.2548142465941073E-002   2.1464220222795705E-002   2.0895338756797610E-002
  -6.9738442972011733E-002   2.0536792244702951E-002   2.0918947075375893E-002
  -6.6928743478082350E-002   1.9697191535162056E-002   2.1103717364151106E-002
  -6.4119043984152968E-002   1.8945418094173112E-002   2.1449649623123200E-002
  -6.1309344490223627E-002   1.8281471921736181E-002   2.1956743852292404E-002
  -7.7282588948254405E-002   2.3000973774182365E-002   8.7223742540780413E-003
  -7.4404738637465911E-002   2.2033251295031961E-002   9.8317239892895536E-003
  -7.1526888326677335E-002   2.1149101256687119E-002   1.0916213388022650E-002
  -6.8649038015888814E-002   2.0348523659147119E-002   1.1975842450277045E-002
  -6.5771187705100348E-002   1.9631518502412709E-002   1.3010611176052622E-002
  -8.0923982715275317E-002   2.4537727325569109E-002  -3.4887573358256055E-003
  -7.8164003894303183E-002   2.3529710345361381E-002  -1.2979210117271926E-003
  -7.5404025073331077E-002   2.2601010978212072E-002   6.8203266921652676E-004
  -7.2644046252358929E-002   2.1751629224121459E-002   2.4511037070063663E-003
  -6.9884067431386809E-002   2.0981565083088974E-002   4.0092921016418349E-003
  -8.3472323767003642E-002   2.6074480876955519E-002  -1.5738056012913226E-002
  -8.1016238742523561E-002   2.5026169395690412E-002  -1.2469987927675230E-002
  -7.8560153718043424E-002   2.4052920699737246E-002  -9.5988247922668413E-003
  -7.6104068693563287E-002   2.3154734789095174E-002  -7.1245666066887051E-003
  -7.3647983669083206E-002   2.2331611663765627E-002  -5.0472133709400513E-003
  -5.6498537786756703E-002   1.6931425341059791E-002   3.0847690130361038E-002
  -5.4158783323564802E-002   1.6333399828288381E-002   3.0163197074376202E-002
  -5.1819028860372915E-002   1.5669015569953454E-002   2.9687782451839562E-002
  -4.9479274397181007E-002   1.4938272566055642E-002   2.9421446262751130E-002
  -4.7139519933989127E-002   1.4141170816594106E-002   2.9364188507110922E-002
  -6.1309344490223627E-002   1.8281471921736181E-002   2.1956743852292404E-002
  -5.8780645964520373E-002   1.7628895934850008E-002   2.1535357092453883E-002
  -5.6251947438817174E-002   1.6911233050512842E-002   2.1282780024189749E-002
  -5.3723248913113919E-002   1.6128483268725000E-002   2.1199012647500161E-002
  -5.1194550387410734E-002   1.5280646589486580E-002   2.1284054962384946E-002
  -6.5771187705100348E-002   1.9631518502412709E-002   1.3010611176052622E-002
  -6.3093813858759507E-002   1.8924392041411539E-002   1.2853602560472827E-002
  -6.0416440012418679E-002   1.8153450531072299E-002   1.2825134894594067E-002
  -5.7739066166077893E-002   1.7318693971394638E-002   1.2925208178415755E-002
  -5.5061692319737079E-002   1.6420122362379191E-002   1.3153822411938312E-002
  -6.9884067431386809E-002   2.0981565083088974E-002   4.0092921016418349E-003
  -6.7098287006282120E-002   2.0219888147973285E-002   4.1179334784335331E-003
  -6.4312506581177403E-002   1.9395668011631444E-002   4.3148470630523482E-003
  -6.1526726156072686E-002   1.8508904674064526E-002   4.6000328554979472E-003
  -5.8740945730967983E-002   1.7559598135271678E-002   4.9734908557709755E-003
  -7.3647983669083206E-002   2.2331611663765627E-002  -5.0472133709400513E-003
  -7.0794065407088325E-002   2.1515384254534864E-002  -4.6716501536644972E-003
  -6.7940147145093444E-002   2.0637885492191088E-002  -4.2480834704352322E-003
  -6.5086228883098618E-002   1.9699115376733786E-002  -3.7765133212530541E-003
  -6.2232310621103681E-002   1.8699073908164165E-002  -3.2569397061176231E-003
  -4.7139519933989127E-002   1.4141170816594106E-002   2.9364188507110922E-002
  -4.4780218717051568E-002   1.3322028303118683E-002   2.8842967525014862E-002
  -4.2420917500114036E-002   1.2525163007179305E-002   2.8449404480827362E-002
  -4.0061616283176490E-002   1.1750574928775123E-002   2.8183499374548629E-002
  -3.7702315066238890E-002   1.0998264067906161E-002   2.8045252206178484E-002
  -5.1194550387410734E-002   1.5280646589486580E-002   2.1284054962384946E-002
  -4.8698619000162646E-002   1.4418927182618252E-002   2.0989494063649389E-002
  -4.6202687612914482E-002   1.3594529217940618E-002   2.0840535567626023E-002
  -4.3706756225666318E-002   1.2807452695453785E-002   2.0837179474315251E-002
  -4.1210824838418231E-002   1.2057697615157903E-002   2.0979425783716976E-002
  -5.5061692319737079E-002   1.6420122362379191E-002   1.3153822411938312E-002
  -5.2411186297374526E-002   1.5515826062117377E-002   1.3100965821218183E-002
  -4.9760680275012008E-002   1.4663895428702216E-002   1.3211656098014328E-002
  -4.7110174252649545E-002   1.3864330462132505E-002   1.3485893242326966E-002
  -4.4459668230286992E-002   1.3117131162409590E-002   1.3923677254155747E-002
  -5.8740945730967983E-002   1.7559598135271678E-002   4.9734908557709755E-003
  -5.5917920608687388E-002   1.6612724941616613E-002   5.1773827977216746E-003
  -5.3094895486406717E-002   1.5733261639463338E-002   5.5627660719930628E-003
  -5.0271870364126038E-002   1.4921208228811531E-002   6.1296406785838293E-003
  -4.7448845241845443E-002   1.4176564709660749E-002   6.8780066174948667E-003
  -6.2232310621103681E-002   1.8699073908164165E-002  -3.2569397061176231E-003
  -5.9218821934101107E-002   1.7709623821115850E-002  -2.7812550068401776E-003
  -5.6205333247098532E-002   1.6802627850224822E-002  -2.1061345104394780E-003
  -5.3191844560095985E-002   1.5978085995490311E-002  -1.2315782169145736E-003
  -5.0178355873093383E-002   1.5235998256912797E-002  -1.5758612626548540E-004
  -3.7702315066238890E-002   1.0998264067906161E-002   2.8045252206178484E-002
  -3.5304617965048246E-002   1.0260881680471790E-002   2.7334264388657492E-002
  -3.2906920863857519E-002   9.5310790223707698E-003   2.6792845368558749E-002
  -3.0509223762666834E-002   8.8088560936030319E-003   2.6420995145882253E-002
  -2.8111526661476122E-002   8.0942128941684510E-003   2.6218713720627895E-002
  -4.1210824838418231E-002   1.2057697615157903E-002   2.0979425783716976E-002
  -3.8673611887814777E-002   1.1322299902089772E-002   2.0497537909296315E-002
  -3.6136398937211295E-002   1.0578295481288372E-002   2.0125112936279083E-002
  -3.3599185986607827E-002   9.8256843527520961E-003   1.9862150864664918E-002
  -3.1061973036004359E-002   9.0644665164820726E-003   1.9708651694454182E-002
  -4.4459668230286992E-002   1.3117131162409590E-002   1.3923677254155747E-002
  -4.1843045326289748E-002   1.2383718123708254E-002   1.3654702885768213E-002
  -3.9226422422292614E-002   1.1625511940205752E-002   1.3435085522764803E-002
  -3.6609799518295440E-002   1.0842512611901382E-002   1.3264825165145849E-002
  -3.3993176614298244E-002   1.0034720138795417E-002   1.3143921812910991E-002
  -4.7448845241845443E-002   1.4176564709660749E-002   6.8780066174948667E-003
  -4.4812918280473499E-002   1.3445136345326431E-002   6.8057593180725941E-003
  -4.2176991319101534E-002   1.2672728399123465E-002   6.7227631280161043E-003
  -3.9541064357729611E-002   1.1859340871050558E-002   6.6290180473244677E-003
  -3.6905137396357618E-002   1.1004973761108566E-002   6.5245240759982392E-003
  -5.0178355873093383E-002   1.5235998256912797E-002  -1.5758612626548540E-004
  -4.7583230750365635E-002   1.4506554566944829E-002  -4.9292793789568190E-005
  -4.4988105627637998E-002   1.3719944858040678E-002  -1.1854247967291176E-005
  -4.2392980504910249E-002   1.2876169130199719E-002  -4.5270488798612729E-005
  -3.9797855382182612E-002   1.1975227383422382E-002  -1.4954151628399082E-004
  -2.8111526661476122E-002   8.0942128941684510E-003   2.6218713720627895E-002
  -2.5750092036135069E-002   7.3564460634393813E-003   2.5636351674957703E-002
  -2.3388657410794086E-002   6.5648522407869836E-003   2.5001203334907296E-002
  -2.1027222785453041E-002   5.7194314262122084E-003   2.4313268700476870E-002
  -1.8665788160112051E-002   4.8201836197142578E-003   2.3572547771666619E-002
  -3.1061973036004359E-002   9.0644665164820726E-003   1.9708651694454182E-002
  -2.8737961585051625E-002   8.2996637271172680E-003   1.9134700469821353E-002
  -2.6413950134098946E-002   7.5362977392985919E-003   1.8538689190791852E-002
  -2.4089938683146274E-002   6.7743685530245595E-003   1.7920617857365900E-002
  -2.1765927232193533E-002   6.0138761682967390E-003   1.7280486469543221E-002
  -3.3993176614298244E-002   1.0034720138795417E-002   1.3143921812910991E-002
  -3.1675862097750439E-002   9.2428813907955154E-003   1.2633645202784094E-002
  -2.9358547581202616E-002   8.5077432378096313E-003   1.2132034778243900E-002
  -2.7041233064654772E-002   7.8293056798373513E-003   1.1639090539290443E-002
  -2.4723918548106988E-002   7.2075687168793867E-003   1.1154812485924176E-002
  -3.6905137396357618E-002   1.1004973761108566E-002   6.5245240759982392E-003
  -3.4563793574231241E-002   1.0186099054473360E-002   6.1331858738453773E-003
  -3.2222449752104927E-002   9.4791887363207331E-003   5.7812400972629997E-003
  -2.9881105929978564E-002   8.8842428066502558E-003   5.4686867462507855E-003
  -2.7539762107852233E-002   8.4012612654616181E-003   5.1955258208088925E-003
  -3.9797855382182612E-002   1.1975227383422382E-002  -1.4954151628399082E-004
  -3.7401756014494247E-002   1.1129316718151649E-002  -3.6667751699370754E-004
  -3.5005656646805994E-002   1.0450634234832445E-002  -5.1369485215041477E-004
  -3.2609557279117712E-002   9.9391799334626468E-003  -5.9059352175326596E-004
  -3.0213457911429376E-002   9.5949538140445156E-003  -5.9737352580258030E-004
  -1.8665788160112051E-002   4.8201836197142578E-003   2.3572547771666619E-002
  -1.5646254676594085E-002   4.0844894148777122E-003   2.4369915035592715E-002
  -1.2626721193076146E-002   3.7297294052851537E-003   2.5639157857973216E-002
  -9.6071877095581931E-003   3.7559035909378036E-003   2.7380276238808038E-002
  -6.5876542260402404E-003   4.1630119718344405E-003   2.9593270178097542E-002
  -2.1765927232193533E-002   6.0138761682967390E-003   1.7280486469543221E-002
  -1.8543178548818456E-002   5.3459256739832872E-003   1.8233631718304388E-002
  -1.5320429865443422E-002   4.8616221589525832E-003   1.9121331808325148E-002
  -1.2097681182068387E-002   4.5609656232054041E-003   1.9943586739605973E-002
  -8.8749324986933109E-003   4.4439560667409728E-003   2.0700396512146835E-002
  -2.4723918548106988E-002   7.2075687168793867E-003   1.1154812485924176E-002
  -2.1835275382069183E-002   6.6073619330886402E-003   1.2066448503558425E-002
  -1.8946632216031420E-002   5.9935149126197906E-003   1.2375318645257982E-002
  -1.6057989049993632E-002   5.3660276554728936E-003   1.2081422911023043E-002
  -1.3169345883955852E-002   4.7249001616474495E-003   1.1184761300853746E-002
  -2.7539762107852233E-002   8.4012612654616181E-003   5.1955258208088925E-003
  -2.5522545176346206E-002   7.8687981921949368E-003   5.8683653913547545E-003
  -2.3505328244840210E-002   7.1254076662871091E-003   5.4011183687719122E-003
  -2.1488111313334210E-002   6.1710896877407717E-003   3.7937847530598139E-003
  -1.9470894381828186E-002   5.0058442565532879E-003   1.0463645442190042E-003
  -3.0213457911429376E-002   9.5949538140445156E-003  -5.9737352580258030E-004
  -2.9604987931649562E-002   9.1302344512996791E-003  -3.6061761830613603E-004
  -2.8996517951869749E-002   8.2573004199544831E-003  -1.8012690211335336E-003
  -2.8388047972089936E-002   6.9761517200079420E-003  -4.9193277342839958E-003
  -2.7779577992310123E-002   5.2867883514602365E-003  -9.7147937577579668E-003
  -6.5876542260402404E-003   4.1630119718344405E-003   2.9593270178097542E-002
  -6.0584198414831980E-003   6.1451698610357486E-003   3.4071292430619460E-002
  -5.5291854569261556E-003   1.0896492571599775E-002   3.9234672611736576E-002
  -4.9999510723691826E-003   1.8416980103527776E-002   4.5083410721449141E-002
  -4.4707166878120708E-003   2.8706632456818149E-002   5.1617506759757070E-002
  -8.8749324986933109E-003   4.4439560667409728E-003   2.0700396512146835E-002
  -7.5881178826563700E-003   5.6604750568457485E-003   2.5869793422552467E-002
  -6.3013032666196234E-003   9.3604041608036648E-003   3.1868992867322365E-002
  -5.0144886505826755E-003   1.5543743378616283E-002   3.8697994846456862E-002
  -3.7276740345458248E-003   2.4210492710283305E-002   4.6356799359955847E-002
  -1.3169345883955852E-002   4.7249001616474495E-003   1.1184761300853746E-002
  -1.0980506430670084E-002   5.1757802526549712E-003   1.6759778161634126E-002
  -8.7916669773842049E-003   7.8243157500075405E-003   2.3309042162547741E-002
  -6.6028275240984403E-003   1.2670506653705341E-002   3.0832553303594946E-002
  -4.4139880708126689E-003   1.9714352963748460E-002   3.9330311584776068E-002
  -1.9470894381828186E-002   5.0058442565532879E-003   1.0463645442190042E-003
  -1.6235585485524263E-002   4.6910854484643605E-003   6.7412466478644767E-003
  -1.3000276589220318E-002   6.2882273392113122E-003   1.3554820497413026E-002
  -9.7649676929165222E-003   9.7972699287947902E-003   2.1487086092863802E-002
  -6.5296587966124503E-003   1.5218213217213838E-002   3.0538043434217704E-002
  -2.7779577992310123E-002   5.2867883514602365E-003  -9.7147937577579668E-003
  -2.3353355047218916E-002   4.2063906442741938E-003  -4.1858011187560495E-003
  -1.8927132102127764E-002   4.7521389284152504E-003   2.6063278719176963E-003
  -1.4500909157036584E-002   6.9240332038833369E-003   1.0661593214263541E-002
  -1.0074686211945405E-002   1.0722073470678772E-002   1.9979994908280840E-002
 </DataArray>
 </PointData>
 </Piece>
 </UnstructuredGrid>
 </VTKFile>
