 <VTKFile type="UnstructuredGrid"  version="0.1"   >
 <UnstructuredGrid>
 <Piece  NumberOfPoints="          1600 "  NumberOfCells="         1024 ">
 <Points>
 <DataArray  type="Float64" NumberOfComponents="3"  format="ascii" >
   0.0000000000000000        0.0000000000000000        0.0000000000000000     
   3.1250000000000000E-002   0.0000000000000000        0.0000000000000000     
   6.2500000000000000E-002   0.0000000000000000        0.0000000000000000     
   9.3750000000000000E-002   0.0000000000000000        0.0000000000000000     
  0.12500000000000000        0.0000000000000000        0.0000000000000000     
   0.0000000000000000        3.1250000000000000E-002   0.0000000000000000     
   3.1250000000000000E-002   3.1250000000000000E-002   0.0000000000000000     
   6.2500000000000000E-002   3.1250000000000000E-002   0.0000000000000000     
   9.3750000000000000E-002   3.1250000000000000E-002   0.0000000000000000     
  0.12500000000000000        3.1250000000000000E-002   0.0000000000000000     
   0.0000000000000000        6.2500000000000000E-002   0.0000000000000000     
   3.1250000000000000E-002   6.2500000000000000E-002   0.0000000000000000     
   6.2500000000000000E-002   6.2500000000000000E-002   0.0000000000000000     
   9.3750000000000000E-002   6.2500000000000000E-002   0.0000000000000000     
  0.12500000000000000        6.2500000000000000E-002   0.0000000000000000     
   0.0000000000000000        9.3750000000000000E-002   0.0000000000000000     
   3.1250000000000000E-002   9.3750000000000000E-002   0.0000000000000000     
   6.2500000000000000E-002   9.3750000000000000E-002   0.0000000000000000     
   9.3750000000000000E-002   9.3750000000000000E-002   0.0000000000000000     
  0.12500000000000000        9.3750000000000000E-002   0.0000000000000000     
   0.0000000000000000       0.12500000000000000        0.0000000000000000     
   3.1250000000000000E-002  0.12500000000000000        0.0000000000000000     
   6.2500000000000000E-002  0.12500000000000000        0.0000000000000000     
   9.3750000000000000E-002  0.12500000000000000        0.0000000000000000     
  0.12500000000000000       0.12500000000000000        0.0000000000000000     
  0.12500000000000000        0.0000000000000000        0.0000000000000000     
  0.15625000000000000        0.0000000000000000        0.0000000000000000     
  0.18750000000000000        0.0000000000000000        0.0000000000000000     
  0.21875000000000000        0.0000000000000000        0.0000000000000000     
  0.25000000000000000        0.0000000000000000        0.0000000000000000     
  0.12500000000000000        3.1250000000000000E-002   0.0000000000000000     
  0.15625000000000000        3.1250000000000000E-002   0.0000000000000000     
  0.18750000000000000        3.1250000000000000E-002   0.0000000000000000     
  0.21875000000000000        3.1250000000000000E-002   0.0000000000000000     
  0.25000000000000000        3.1250000000000000E-002   0.0000000000000000     
  0.12500000000000000        6.2500000000000000E-002   0.0000000000000000     
  0.15625000000000000        6.2500000000000000E-002   0.0000000000000000     
  0.18750000000000000        6.2500000000000000E-002   0.0000000000000000     
  0.21875000000000000        6.2500000000000000E-002   0.0000000000000000     
  0.25000000000000000        6.2500000000000000E-002   0.0000000000000000     
  0.12500000000000000        9.3750000000000000E-002   0.0000000000000000     
  0.15625000000000000        9.3750000000000000E-002   0.0000000000000000     
  0.18750000000000000        9.3750000000000000E-002   0.0000000000000000     
  0.21875000000000000        9.3750000000000000E-002   0.0000000000000000     
  0.25000000000000000        9.3750000000000000E-002   0.0000000000000000     
  0.12500000000000000       0.12500000000000000        0.0000000000000000     
  0.15625000000000000       0.12500000000000000        0.0000000000000000     
  0.18750000000000000       0.12500000000000000        0.0000000000000000     
  0.21875000000000000       0.12500000000000000        0.0000000000000000     
  0.25000000000000000       0.12500000000000000        0.0000000000000000     
  0.25000000000000000        0.0000000000000000        0.0000000000000000     
  0.28125000000000000        0.0000000000000000        0.0000000000000000     
  0.31250000000000000        0.0000000000000000        0.0000000000000000     
  0.34375000000000000        0.0000000000000000        0.0000000000000000     
  0.37500000000000000        0.0000000000000000        0.0000000000000000     
  0.25000000000000000        3.1250000000000000E-002   0.0000000000000000     
  0.28125000000000000        3.1250000000000000E-002   0.0000000000000000     
  0.31250000000000000        3.1250000000000000E-002   0.0000000000000000     
  0.34375000000000000        3.1250000000000000E-002   0.0000000000000000     
  0.37500000000000000        3.1250000000000000E-002   0.0000000000000000     
  0.25000000000000000        6.2500000000000000E-002   0.0000000000000000     
  0.28125000000000000        6.2500000000000000E-002   0.0000000000000000     
  0.31250000000000000        6.2500000000000000E-002   0.0000000000000000     
  0.34375000000000000        6.2500000000000000E-002   0.0000000000000000     
  0.37500000000000000        6.2500000000000000E-002   0.0000000000000000     
  0.25000000000000000        9.3750000000000000E-002   0.0000000000000000     
  0.28125000000000000        9.3750000000000000E-002   0.0000000000000000     
  0.31250000000000000        9.3750000000000000E-002   0.0000000000000000     
  0.34375000000000000        9.3750000000000000E-002   0.0000000000000000     
  0.37500000000000000        9.3750000000000000E-002   0.0000000000000000     
  0.25000000000000000       0.12500000000000000        0.0000000000000000     
  0.28125000000000000       0.12500000000000000        0.0000000000000000     
  0.31250000000000000       0.12500000000000000        0.0000000000000000     
  0.34375000000000000       0.12500000000000000        0.0000000000000000     
  0.37500000000000000       0.12500000000000000        0.0000000000000000     
  0.37500000000000000        0.0000000000000000        0.0000000000000000     
  0.40625000000000000        0.0000000000000000        0.0000000000000000     
  0.43750000000000000        0.0000000000000000        0.0000000000000000     
  0.46875000000000000        0.0000000000000000        0.0000000000000000     
  0.50000000000000000        0.0000000000000000        0.0000000000000000     
  0.37500000000000000        3.1250000000000000E-002   0.0000000000000000     
  0.40625000000000000        3.1250000000000000E-002   0.0000000000000000     
  0.43750000000000000        3.1250000000000000E-002   0.0000000000000000     
  0.46875000000000000        3.1250000000000000E-002   0.0000000000000000     
  0.50000000000000000        3.1250000000000000E-002   0.0000000000000000     
  0.37500000000000000        6.2500000000000000E-002   0.0000000000000000     
  0.40625000000000000        6.2500000000000000E-002   0.0000000000000000     
  0.43750000000000000        6.2500000000000000E-002   0.0000000000000000     
  0.46875000000000000        6.2500000000000000E-002   0.0000000000000000     
  0.50000000000000000        6.2500000000000000E-002   0.0000000000000000     
  0.37500000000000000        9.3750000000000000E-002   0.0000000000000000     
  0.40625000000000000        9.3750000000000000E-002   0.0000000000000000     
  0.43750000000000000        9.3750000000000000E-002   0.0000000000000000     
  0.46875000000000000        9.3750000000000000E-002   0.0000000000000000     
  0.50000000000000000        9.3750000000000000E-002   0.0000000000000000     
  0.37500000000000000       0.12500000000000000        0.0000000000000000     
  0.40625000000000000       0.12500000000000000        0.0000000000000000     
  0.43750000000000000       0.12500000000000000        0.0000000000000000     
  0.46875000000000000       0.12500000000000000        0.0000000000000000     
  0.50000000000000000       0.12500000000000000        0.0000000000000000     
  0.50000000000000000        0.0000000000000000        0.0000000000000000     
  0.53125000000000000        0.0000000000000000        0.0000000000000000     
  0.56250000000000000        0.0000000000000000        0.0000000000000000     
  0.59375000000000000        0.0000000000000000        0.0000000000000000     
  0.62500000000000000        0.0000000000000000        0.0000000000000000     
  0.50000000000000000        3.1250000000000000E-002   0.0000000000000000     
  0.53125000000000000        3.1250000000000000E-002   0.0000000000000000     
  0.56250000000000000        3.1250000000000000E-002   0.0000000000000000     
  0.59375000000000000        3.1250000000000000E-002   0.0000000000000000     
  0.62500000000000000        3.1250000000000000E-002   0.0000000000000000     
  0.50000000000000000        6.2500000000000000E-002   0.0000000000000000     
  0.53125000000000000        6.2500000000000000E-002   0.0000000000000000     
  0.56250000000000000        6.2500000000000000E-002   0.0000000000000000     
  0.59375000000000000        6.2500000000000000E-002   0.0000000000000000     
  0.62500000000000000        6.2500000000000000E-002   0.0000000000000000     
  0.50000000000000000        9.3750000000000000E-002   0.0000000000000000     
  0.53125000000000000        9.3750000000000000E-002   0.0000000000000000     
  0.56250000000000000        9.3750000000000000E-002   0.0000000000000000     
  0.59375000000000000        9.3750000000000000E-002   0.0000000000000000     
  0.62500000000000000        9.3750000000000000E-002   0.0000000000000000     
  0.50000000000000000       0.12500000000000000        0.0000000000000000     
  0.53125000000000000       0.12500000000000000        0.0000000000000000     
  0.56250000000000000       0.12500000000000000        0.0000000000000000     
  0.59375000000000000       0.12500000000000000        0.0000000000000000     
  0.62500000000000000       0.12500000000000000        0.0000000000000000     
  0.62500000000000000        0.0000000000000000        0.0000000000000000     
  0.65625000000000000        0.0000000000000000        0.0000000000000000     
  0.68750000000000000        0.0000000000000000        0.0000000000000000     
  0.71875000000000000        0.0000000000000000        0.0000000000000000     
  0.75000000000000000        0.0000000000000000        0.0000000000000000     
  0.62500000000000000        3.1250000000000000E-002   0.0000000000000000     
  0.65625000000000000        3.1250000000000000E-002   0.0000000000000000     
  0.68750000000000000        3.1250000000000000E-002   0.0000000000000000     
  0.71875000000000000        3.1250000000000000E-002   0.0000000000000000     
  0.75000000000000000        3.1250000000000000E-002   0.0000000000000000     
  0.62500000000000000        6.2500000000000000E-002   0.0000000000000000     
  0.65625000000000000        6.2500000000000000E-002   0.0000000000000000     
  0.68750000000000000        6.2500000000000000E-002   0.0000000000000000     
  0.71875000000000000        6.2500000000000000E-002   0.0000000000000000     
  0.75000000000000000        6.2500000000000000E-002   0.0000000000000000     
  0.62500000000000000        9.3750000000000000E-002   0.0000000000000000     
  0.65625000000000000        9.3750000000000000E-002   0.0000000000000000     
  0.68750000000000000        9.3750000000000000E-002   0.0000000000000000     
  0.71875000000000000        9.3750000000000000E-002   0.0000000000000000     
  0.75000000000000000        9.3750000000000000E-002   0.0000000000000000     
  0.62500000000000000       0.12500000000000000        0.0000000000000000     
  0.65625000000000000       0.12500000000000000        0.0000000000000000     
  0.68750000000000000       0.12500000000000000        0.0000000000000000     
  0.71875000000000000       0.12500000000000000        0.0000000000000000     
  0.75000000000000000       0.12500000000000000        0.0000000000000000     
  0.75000000000000000        0.0000000000000000        0.0000000000000000     
  0.78125000000000000        0.0000000000000000        0.0000000000000000     
  0.81250000000000000        0.0000000000000000        0.0000000000000000     
  0.84375000000000000        0.0000000000000000        0.0000000000000000     
  0.87500000000000000        0.0000000000000000        0.0000000000000000     
  0.75000000000000000        3.1250000000000000E-002   0.0000000000000000     
  0.78125000000000000        3.1250000000000000E-002   0.0000000000000000     
  0.81250000000000000        3.1250000000000000E-002   0.0000000000000000     
  0.84375000000000000        3.1250000000000000E-002   0.0000000000000000     
  0.87500000000000000        3.1250000000000000E-002   0.0000000000000000     
  0.75000000000000000        6.2500000000000000E-002   0.0000000000000000     
  0.78125000000000000        6.2500000000000000E-002   0.0000000000000000     
  0.81250000000000000        6.2500000000000000E-002   0.0000000000000000     
  0.84375000000000000        6.2500000000000000E-002   0.0000000000000000     
  0.87500000000000000        6.2500000000000000E-002   0.0000000000000000     
  0.75000000000000000        9.3750000000000000E-002   0.0000000000000000     
  0.78125000000000000        9.3750000000000000E-002   0.0000000000000000     
  0.81250000000000000        9.3750000000000000E-002   0.0000000000000000     
  0.84375000000000000        9.3750000000000000E-002   0.0000000000000000     
  0.87500000000000000        9.3750000000000000E-002   0.0000000000000000     
  0.75000000000000000       0.12500000000000000        0.0000000000000000     
  0.78125000000000000       0.12500000000000000        0.0000000000000000     
  0.81250000000000000       0.12500000000000000        0.0000000000000000     
  0.84375000000000000       0.12500000000000000        0.0000000000000000     
  0.87500000000000000       0.12500000000000000        0.0000000000000000     
  0.87500000000000000        0.0000000000000000        0.0000000000000000     
  0.90625000000000000        0.0000000000000000        0.0000000000000000     
  0.93750000000000000        0.0000000000000000        0.0000000000000000     
  0.96875000000000000        0.0000000000000000        0.0000000000000000     
   1.0000000000000000        0.0000000000000000        0.0000000000000000     
  0.87500000000000000        3.1250000000000000E-002   0.0000000000000000     
  0.90625000000000000        3.1250000000000000E-002   0.0000000000000000     
  0.93750000000000000        3.1250000000000000E-002   0.0000000000000000     
  0.96875000000000000        3.1250000000000000E-002   0.0000000000000000     
   1.0000000000000000        3.1250000000000000E-002   0.0000000000000000     
  0.87500000000000000        6.2500000000000000E-002   0.0000000000000000     
  0.90625000000000000        6.2500000000000000E-002   0.0000000000000000     
  0.93750000000000000        6.2500000000000000E-002   0.0000000000000000     
  0.96875000000000000        6.2500000000000000E-002   0.0000000000000000     
   1.0000000000000000        6.2500000000000000E-002   0.0000000000000000     
  0.87500000000000000        9.3750000000000000E-002   0.0000000000000000     
  0.90625000000000000        9.3750000000000000E-002   0.0000000000000000     
  0.93750000000000000        9.3750000000000000E-002   0.0000000000000000     
  0.96875000000000000        9.3750000000000000E-002   0.0000000000000000     
   1.0000000000000000        9.3750000000000000E-002   0.0000000000000000     
  0.87500000000000000       0.12500000000000000        0.0000000000000000     
  0.90625000000000000       0.12500000000000000        0.0000000000000000     
  0.93750000000000000       0.12500000000000000        0.0000000000000000     
  0.96875000000000000       0.12500000000000000        0.0000000000000000     
   1.0000000000000000       0.12500000000000000        0.0000000000000000     
   0.0000000000000000       0.12500000000000000        0.0000000000000000     
   3.1250000000000000E-002  0.12500000000000000        0.0000000000000000     
   6.2500000000000000E-002  0.12500000000000000        0.0000000000000000     
   9.3750000000000000E-002  0.12500000000000000        0.0000000000000000     
  0.12500000000000000       0.12500000000000000        0.0000000000000000     
   0.0000000000000000       0.15625000000000000        0.0000000000000000     
   3.1250000000000000E-002  0.15625000000000000        0.0000000000000000     
   6.2500000000000000E-002  0.15625000000000000        0.0000000000000000     
   9.3750000000000000E-002  0.15625000000000000        0.0000000000000000     
  0.12500000000000000       0.15625000000000000        0.0000000000000000     
   0.0000000000000000       0.18750000000000000        0.0000000000000000     
   3.1250000000000000E-002  0.18750000000000000        0.0000000000000000     
   6.2500000000000000E-002  0.18750000000000000        0.0000000000000000     
   9.3750000000000000E-002  0.18750000000000000        0.0000000000000000     
  0.12500000000000000       0.18750000000000000        0.0000000000000000     
   0.0000000000000000       0.21875000000000000        0.0000000000000000     
   3.1250000000000000E-002  0.21875000000000000        0.0000000000000000     
   6.2500000000000000E-002  0.21875000000000000        0.0000000000000000     
   9.3750000000000000E-002  0.21875000000000000        0.0000000000000000     
  0.12500000000000000       0.21875000000000000        0.0000000000000000     
   0.0000000000000000       0.25000000000000000        0.0000000000000000     
   3.1250000000000000E-002  0.25000000000000000        0.0000000000000000     
   6.2500000000000000E-002  0.25000000000000000        0.0000000000000000     
   9.3750000000000000E-002  0.25000000000000000        0.0000000000000000     
  0.12500000000000000       0.25000000000000000        0.0000000000000000     
  0.12500000000000000       0.12500000000000000        0.0000000000000000     
  0.15625000000000000       0.12500000000000000        0.0000000000000000     
  0.18750000000000000       0.12500000000000000        0.0000000000000000     
  0.21875000000000000       0.12500000000000000        0.0000000000000000     
  0.25000000000000000       0.12500000000000000        0.0000000000000000     
  0.12500000000000000       0.15625000000000000        0.0000000000000000     
  0.15625000000000000       0.15625000000000000        0.0000000000000000     
  0.18750000000000000       0.15625000000000000        0.0000000000000000     
  0.21875000000000000       0.15625000000000000        0.0000000000000000     
  0.25000000000000000       0.15625000000000000        0.0000000000000000     
  0.12500000000000000       0.18750000000000000        0.0000000000000000     
  0.15625000000000000       0.18750000000000000        0.0000000000000000     
  0.18750000000000000       0.18750000000000000        0.0000000000000000     
  0.21875000000000000       0.18750000000000000        0.0000000000000000     
  0.25000000000000000       0.18750000000000000        0.0000000000000000     
  0.12500000000000000       0.21875000000000000        0.0000000000000000     
  0.15625000000000000       0.21875000000000000        0.0000000000000000     
  0.18750000000000000       0.21875000000000000        0.0000000000000000     
  0.21875000000000000       0.21875000000000000        0.0000000000000000     
  0.25000000000000000       0.21875000000000000        0.0000000000000000     
  0.12500000000000000       0.25000000000000000        0.0000000000000000     
  0.15625000000000000       0.25000000000000000        0.0000000000000000     
  0.18750000000000000       0.25000000000000000        0.0000000000000000     
  0.21875000000000000       0.25000000000000000        0.0000000000000000     
  0.25000000000000000       0.25000000000000000        0.0000000000000000     
  0.25000000000000000       0.12500000000000000        0.0000000000000000     
  0.28125000000000000       0.12500000000000000        0.0000000000000000     
  0.31250000000000000       0.12500000000000000        0.0000000000000000     
  0.34375000000000000       0.12500000000000000        0.0000000000000000     
  0.37500000000000000       0.12500000000000000        0.0000000000000000     
  0.25000000000000000       0.15625000000000000        0.0000000000000000     
  0.28125000000000000       0.15625000000000000        0.0000000000000000     
  0.31250000000000000       0.15625000000000000        0.0000000000000000     
  0.34375000000000000       0.15625000000000000        0.0000000000000000     
  0.37500000000000000       0.15625000000000000        0.0000000000000000     
  0.25000000000000000       0.18750000000000000        0.0000000000000000     
  0.28125000000000000       0.18750000000000000        0.0000000000000000     
  0.31250000000000000       0.18750000000000000        0.0000000000000000     
  0.34375000000000000       0.18750000000000000        0.0000000000000000     
  0.37500000000000000       0.18750000000000000        0.0000000000000000     
  0.25000000000000000       0.21875000000000000        0.0000000000000000     
  0.28125000000000000       0.21875000000000000        0.0000000000000000     
  0.31250000000000000       0.21875000000000000        0.0000000000000000     
  0.34375000000000000       0.21875000000000000        0.0000000000000000     
  0.37500000000000000       0.21875000000000000        0.0000000000000000     
  0.25000000000000000       0.25000000000000000        0.0000000000000000     
  0.28125000000000000       0.25000000000000000        0.0000000000000000     
  0.31250000000000000       0.25000000000000000        0.0000000000000000     
  0.34375000000000000       0.25000000000000000        0.0000000000000000     
  0.37500000000000000       0.25000000000000000        0.0000000000000000     
  0.37500000000000000       0.12500000000000000        0.0000000000000000     
  0.40625000000000000       0.12500000000000000        0.0000000000000000     
  0.43750000000000000       0.12500000000000000        0.0000000000000000     
  0.46875000000000000       0.12500000000000000        0.0000000000000000     
  0.50000000000000000       0.12500000000000000        0.0000000000000000     
  0.37500000000000000       0.15625000000000000        0.0000000000000000     
  0.40625000000000000       0.15625000000000000        0.0000000000000000     
  0.43750000000000000       0.15625000000000000        0.0000000000000000     
  0.46875000000000000       0.15625000000000000        0.0000000000000000     
  0.50000000000000000       0.15625000000000000        0.0000000000000000     
  0.37500000000000000       0.18750000000000000        0.0000000000000000     
  0.40625000000000000       0.18750000000000000        0.0000000000000000     
  0.43750000000000000       0.18750000000000000        0.0000000000000000     
  0.46875000000000000       0.18750000000000000        0.0000000000000000     
  0.50000000000000000       0.18750000000000000        0.0000000000000000     
  0.37500000000000000       0.21875000000000000        0.0000000000000000     
  0.40625000000000000       0.21875000000000000        0.0000000000000000     
  0.43750000000000000       0.21875000000000000        0.0000000000000000     
  0.46875000000000000       0.21875000000000000        0.0000000000000000     
  0.50000000000000000       0.21875000000000000        0.0000000000000000     
  0.37500000000000000       0.25000000000000000        0.0000000000000000     
  0.40625000000000000       0.25000000000000000        0.0000000000000000     
  0.43750000000000000       0.25000000000000000        0.0000000000000000     
  0.46875000000000000       0.25000000000000000        0.0000000000000000     
  0.50000000000000000       0.25000000000000000        0.0000000000000000     
  0.50000000000000000       0.12500000000000000        0.0000000000000000     
  0.53125000000000000       0.12500000000000000        0.0000000000000000     
  0.56250000000000000       0.12500000000000000        0.0000000000000000     
  0.59375000000000000       0.12500000000000000        0.0000000000000000     
  0.62500000000000000       0.12500000000000000        0.0000000000000000     
  0.50000000000000000       0.15625000000000000        0.0000000000000000     
  0.53125000000000000       0.15625000000000000        0.0000000000000000     
  0.56250000000000000       0.15625000000000000        0.0000000000000000     
  0.59375000000000000       0.15625000000000000        0.0000000000000000     
  0.62500000000000000       0.15625000000000000        0.0000000000000000     
  0.50000000000000000       0.18750000000000000        0.0000000000000000     
  0.53125000000000000       0.18750000000000000        0.0000000000000000     
  0.56250000000000000       0.18750000000000000        0.0000000000000000     
  0.59375000000000000       0.18750000000000000        0.0000000000000000     
  0.62500000000000000       0.18750000000000000        0.0000000000000000     
  0.50000000000000000       0.21875000000000000        0.0000000000000000     
  0.53125000000000000       0.21875000000000000        0.0000000000000000     
  0.56250000000000000       0.21875000000000000        0.0000000000000000     
  0.59375000000000000       0.21875000000000000        0.0000000000000000     
  0.62500000000000000       0.21875000000000000        0.0000000000000000     
  0.50000000000000000       0.25000000000000000        0.0000000000000000     
  0.53125000000000000       0.25000000000000000        0.0000000000000000     
  0.56250000000000000       0.25000000000000000        0.0000000000000000     
  0.59375000000000000       0.25000000000000000        0.0000000000000000     
  0.62500000000000000       0.25000000000000000        0.0000000000000000     
  0.62500000000000000       0.12500000000000000        0.0000000000000000     
  0.65625000000000000       0.12500000000000000        0.0000000000000000     
  0.68750000000000000       0.12500000000000000        0.0000000000000000     
  0.71875000000000000       0.12500000000000000        0.0000000000000000     
  0.75000000000000000       0.12500000000000000        0.0000000000000000     
  0.62500000000000000       0.15625000000000000        0.0000000000000000     
  0.65625000000000000       0.15625000000000000        0.0000000000000000     
  0.68750000000000000       0.15625000000000000        0.0000000000000000     
  0.71875000000000000       0.15625000000000000        0.0000000000000000     
  0.75000000000000000       0.15625000000000000        0.0000000000000000     
  0.62500000000000000       0.18750000000000000        0.0000000000000000     
  0.65625000000000000       0.18750000000000000        0.0000000000000000     
  0.68750000000000000       0.18750000000000000        0.0000000000000000     
  0.71875000000000000       0.18750000000000000        0.0000000000000000     
  0.75000000000000000       0.18750000000000000        0.0000000000000000     
  0.62500000000000000       0.21875000000000000        0.0000000000000000     
  0.65625000000000000       0.21875000000000000        0.0000000000000000     
  0.68750000000000000       0.21875000000000000        0.0000000000000000     
  0.71875000000000000       0.21875000000000000        0.0000000000000000     
  0.75000000000000000       0.21875000000000000        0.0000000000000000     
  0.62500000000000000       0.25000000000000000        0.0000000000000000     
  0.65625000000000000       0.25000000000000000        0.0000000000000000     
  0.68750000000000000       0.25000000000000000        0.0000000000000000     
  0.71875000000000000       0.25000000000000000        0.0000000000000000     
  0.75000000000000000       0.25000000000000000        0.0000000000000000     
  0.75000000000000000       0.12500000000000000        0.0000000000000000     
  0.78125000000000000       0.12500000000000000        0.0000000000000000     
  0.81250000000000000       0.12500000000000000        0.0000000000000000     
  0.84375000000000000       0.12500000000000000        0.0000000000000000     
  0.87500000000000000       0.12500000000000000        0.0000000000000000     
  0.75000000000000000       0.15625000000000000        0.0000000000000000     
  0.78125000000000000       0.15625000000000000        0.0000000000000000     
  0.81250000000000000       0.15625000000000000        0.0000000000000000     
  0.84375000000000000       0.15625000000000000        0.0000000000000000     
  0.87500000000000000       0.15625000000000000        0.0000000000000000     
  0.75000000000000000       0.18750000000000000        0.0000000000000000     
  0.78125000000000000       0.18750000000000000        0.0000000000000000     
  0.81250000000000000       0.18750000000000000        0.0000000000000000     
  0.84375000000000000       0.18750000000000000        0.0000000000000000     
  0.87500000000000000       0.18750000000000000        0.0000000000000000     
  0.75000000000000000       0.21875000000000000        0.0000000000000000     
  0.78125000000000000       0.21875000000000000        0.0000000000000000     
  0.81250000000000000       0.21875000000000000        0.0000000000000000     
  0.84375000000000000       0.21875000000000000        0.0000000000000000     
  0.87500000000000000       0.21875000000000000        0.0000000000000000     
  0.75000000000000000       0.25000000000000000        0.0000000000000000     
  0.78125000000000000       0.25000000000000000        0.0000000000000000     
  0.81250000000000000       0.25000000000000000        0.0000000000000000     
  0.84375000000000000       0.25000000000000000        0.0000000000000000     
  0.87500000000000000       0.25000000000000000        0.0000000000000000     
  0.87500000000000000       0.12500000000000000        0.0000000000000000     
  0.90625000000000000       0.12500000000000000        0.0000000000000000     
  0.93750000000000000       0.12500000000000000        0.0000000000000000     
  0.96875000000000000       0.12500000000000000        0.0000000000000000     
   1.0000000000000000       0.12500000000000000        0.0000000000000000     
  0.87500000000000000       0.15625000000000000        0.0000000000000000     
  0.90625000000000000       0.15625000000000000        0.0000000000000000     
  0.93750000000000000       0.15625000000000000        0.0000000000000000     
  0.96875000000000000       0.15625000000000000        0.0000000000000000     
   1.0000000000000000       0.15625000000000000        0.0000000000000000     
  0.87500000000000000       0.18750000000000000        0.0000000000000000     
  0.90625000000000000       0.18750000000000000        0.0000000000000000     
  0.93750000000000000       0.18750000000000000        0.0000000000000000     
  0.96875000000000000       0.18750000000000000        0.0000000000000000     
   1.0000000000000000       0.18750000000000000        0.0000000000000000     
  0.87500000000000000       0.21875000000000000        0.0000000000000000     
  0.90625000000000000       0.21875000000000000        0.0000000000000000     
  0.93750000000000000       0.21875000000000000        0.0000000000000000     
  0.96875000000000000       0.21875000000000000        0.0000000000000000     
   1.0000000000000000       0.21875000000000000        0.0000000000000000     
  0.87500000000000000       0.25000000000000000        0.0000000000000000     
  0.90625000000000000       0.25000000000000000        0.0000000000000000     
  0.93750000000000000       0.25000000000000000        0.0000000000000000     
  0.96875000000000000       0.25000000000000000        0.0000000000000000     
   1.0000000000000000       0.25000000000000000        0.0000000000000000     
   0.0000000000000000       0.25000000000000000        0.0000000000000000     
   3.1250000000000000E-002  0.25000000000000000        0.0000000000000000     
   6.2500000000000000E-002  0.25000000000000000        0.0000000000000000     
   9.3750000000000000E-002  0.25000000000000000        0.0000000000000000     
  0.12500000000000000       0.25000000000000000        0.0000000000000000     
   0.0000000000000000       0.28125000000000000        0.0000000000000000     
   3.1250000000000000E-002  0.28125000000000000        0.0000000000000000     
   6.2500000000000000E-002  0.28125000000000000        0.0000000000000000     
   9.3750000000000000E-002  0.28125000000000000        0.0000000000000000     
  0.12500000000000000       0.28125000000000000        0.0000000000000000     
   0.0000000000000000       0.31250000000000000        0.0000000000000000     
   3.1250000000000000E-002  0.31250000000000000        0.0000000000000000     
   6.2500000000000000E-002  0.31250000000000000        0.0000000000000000     
   9.3750000000000000E-002  0.31250000000000000        0.0000000000000000     
  0.12500000000000000       0.31250000000000000        0.0000000000000000     
   0.0000000000000000       0.34375000000000000        0.0000000000000000     
   3.1250000000000000E-002  0.34375000000000000        0.0000000000000000     
   6.2500000000000000E-002  0.34375000000000000        0.0000000000000000     
   9.3750000000000000E-002  0.34375000000000000        0.0000000000000000     
  0.12500000000000000       0.34375000000000000        0.0000000000000000     
   0.0000000000000000       0.37500000000000000        0.0000000000000000     
   3.1250000000000000E-002  0.37500000000000000        0.0000000000000000     
   6.2500000000000000E-002  0.37500000000000000        0.0000000000000000     
   9.3750000000000000E-002  0.37500000000000000        0.0000000000000000     
  0.12500000000000000       0.37500000000000000        0.0000000000000000     
  0.12500000000000000       0.25000000000000000        0.0000000000000000     
  0.15625000000000000       0.25000000000000000        0.0000000000000000     
  0.18750000000000000       0.25000000000000000        0.0000000000000000     
  0.21875000000000000       0.25000000000000000        0.0000000000000000     
  0.25000000000000000       0.25000000000000000        0.0000000000000000     
  0.12500000000000000       0.28125000000000000        0.0000000000000000     
  0.15625000000000000       0.28125000000000000        0.0000000000000000     
  0.18750000000000000       0.28125000000000000        0.0000000000000000     
  0.21875000000000000       0.28125000000000000        0.0000000000000000     
  0.25000000000000000       0.28125000000000000        0.0000000000000000     
  0.12500000000000000       0.31250000000000000        0.0000000000000000     
  0.15625000000000000       0.31250000000000000        0.0000000000000000     
  0.18750000000000000       0.31250000000000000        0.0000000000000000     
  0.21875000000000000       0.31250000000000000        0.0000000000000000     
  0.25000000000000000       0.31250000000000000        0.0000000000000000     
  0.12500000000000000       0.34375000000000000        0.0000000000000000     
  0.15625000000000000       0.34375000000000000        0.0000000000000000     
  0.18750000000000000       0.34375000000000000        0.0000000000000000     
  0.21875000000000000       0.34375000000000000        0.0000000000000000     
  0.25000000000000000       0.34375000000000000        0.0000000000000000     
  0.12500000000000000       0.37500000000000000        0.0000000000000000     
  0.15625000000000000       0.37500000000000000        0.0000000000000000     
  0.18750000000000000       0.37500000000000000        0.0000000000000000     
  0.21875000000000000       0.37500000000000000        0.0000000000000000     
  0.25000000000000000       0.37500000000000000        0.0000000000000000     
  0.25000000000000000       0.25000000000000000        0.0000000000000000     
  0.28125000000000000       0.25000000000000000        0.0000000000000000     
  0.31250000000000000       0.25000000000000000        0.0000000000000000     
  0.34375000000000000       0.25000000000000000        0.0000000000000000     
  0.37500000000000000       0.25000000000000000        0.0000000000000000     
  0.25000000000000000       0.28125000000000000        0.0000000000000000     
  0.28125000000000000       0.28125000000000000        0.0000000000000000     
  0.31250000000000000       0.28125000000000000        0.0000000000000000     
  0.34375000000000000       0.28125000000000000        0.0000000000000000     
  0.37500000000000000       0.28125000000000000        0.0000000000000000     
  0.25000000000000000       0.31250000000000000        0.0000000000000000     
  0.28125000000000000       0.31250000000000000        0.0000000000000000     
  0.31250000000000000       0.31250000000000000        0.0000000000000000     
  0.34375000000000000       0.31250000000000000        0.0000000000000000     
  0.37500000000000000       0.31250000000000000        0.0000000000000000     
  0.25000000000000000       0.34375000000000000        0.0000000000000000     
  0.28125000000000000       0.34375000000000000        0.0000000000000000     
  0.31250000000000000       0.34375000000000000        0.0000000000000000     
  0.34375000000000000       0.34375000000000000        0.0000000000000000     
  0.37500000000000000       0.34375000000000000        0.0000000000000000     
  0.25000000000000000       0.37500000000000000        0.0000000000000000     
  0.28125000000000000       0.37500000000000000        0.0000000000000000     
  0.31250000000000000       0.37500000000000000        0.0000000000000000     
  0.34375000000000000       0.37500000000000000        0.0000000000000000     
  0.37500000000000000       0.37500000000000000        0.0000000000000000     
  0.37500000000000000       0.25000000000000000        0.0000000000000000     
  0.40625000000000000       0.25000000000000000        0.0000000000000000     
  0.43750000000000000       0.25000000000000000        0.0000000000000000     
  0.46875000000000000       0.25000000000000000        0.0000000000000000     
  0.50000000000000000       0.25000000000000000        0.0000000000000000     
  0.37500000000000000       0.28125000000000000        0.0000000000000000     
  0.40625000000000000       0.28125000000000000        0.0000000000000000     
  0.43750000000000000       0.28125000000000000        0.0000000000000000     
  0.46875000000000000       0.28125000000000000        0.0000000000000000     
  0.50000000000000000       0.28125000000000000        0.0000000000000000     
  0.37500000000000000       0.31250000000000000        0.0000000000000000     
  0.40625000000000000       0.31250000000000000        0.0000000000000000     
  0.43750000000000000       0.31250000000000000        0.0000000000000000     
  0.46875000000000000       0.31250000000000000        0.0000000000000000     
  0.50000000000000000       0.31250000000000000        0.0000000000000000     
  0.37500000000000000       0.34375000000000000        0.0000000000000000     
  0.40625000000000000       0.34375000000000000        0.0000000000000000     
  0.43750000000000000       0.34375000000000000        0.0000000000000000     
  0.46875000000000000       0.34375000000000000        0.0000000000000000     
  0.50000000000000000       0.34375000000000000        0.0000000000000000     
  0.37500000000000000       0.37500000000000000        0.0000000000000000     
  0.40625000000000000       0.37500000000000000        0.0000000000000000     
  0.43750000000000000       0.37500000000000000        0.0000000000000000     
  0.46875000000000000       0.37500000000000000        0.0000000000000000     
  0.50000000000000000       0.37500000000000000        0.0000000000000000     
  0.50000000000000000       0.25000000000000000        0.0000000000000000     
  0.53125000000000000       0.25000000000000000        0.0000000000000000     
  0.56250000000000000       0.25000000000000000        0.0000000000000000     
  0.59375000000000000       0.25000000000000000        0.0000000000000000     
  0.62500000000000000       0.25000000000000000        0.0000000000000000     
  0.50000000000000000       0.28125000000000000        0.0000000000000000     
  0.53125000000000000       0.28125000000000000        0.0000000000000000     
  0.56250000000000000       0.28125000000000000        0.0000000000000000     
  0.59375000000000000       0.28125000000000000        0.0000000000000000     
  0.62500000000000000       0.28125000000000000        0.0000000000000000     
  0.50000000000000000       0.31250000000000000        0.0000000000000000     
  0.53125000000000000       0.31250000000000000        0.0000000000000000     
  0.56250000000000000       0.31250000000000000        0.0000000000000000     
  0.59375000000000000       0.31250000000000000        0.0000000000000000     
  0.62500000000000000       0.31250000000000000        0.0000000000000000     
  0.50000000000000000       0.34375000000000000        0.0000000000000000     
  0.53125000000000000       0.34375000000000000        0.0000000000000000     
  0.56250000000000000       0.34375000000000000        0.0000000000000000     
  0.59375000000000000       0.34375000000000000        0.0000000000000000     
  0.62500000000000000       0.34375000000000000        0.0000000000000000     
  0.50000000000000000       0.37500000000000000        0.0000000000000000     
  0.53125000000000000       0.37500000000000000        0.0000000000000000     
  0.56250000000000000       0.37500000000000000        0.0000000000000000     
  0.59375000000000000       0.37500000000000000        0.0000000000000000     
  0.62500000000000000       0.37500000000000000        0.0000000000000000     
  0.62500000000000000       0.25000000000000000        0.0000000000000000     
  0.65625000000000000       0.25000000000000000        0.0000000000000000     
  0.68750000000000000       0.25000000000000000        0.0000000000000000     
  0.71875000000000000       0.25000000000000000        0.0000000000000000     
  0.75000000000000000       0.25000000000000000        0.0000000000000000     
  0.62500000000000000       0.28125000000000000        0.0000000000000000     
  0.65625000000000000       0.28125000000000000        0.0000000000000000     
  0.68750000000000000       0.28125000000000000        0.0000000000000000     
  0.71875000000000000       0.28125000000000000        0.0000000000000000     
  0.75000000000000000       0.28125000000000000        0.0000000000000000     
  0.62500000000000000       0.31250000000000000        0.0000000000000000     
  0.65625000000000000       0.31250000000000000        0.0000000000000000     
  0.68750000000000000       0.31250000000000000        0.0000000000000000     
  0.71875000000000000       0.31250000000000000        0.0000000000000000     
  0.75000000000000000       0.31250000000000000        0.0000000000000000     
  0.62500000000000000       0.34375000000000000        0.0000000000000000     
  0.65625000000000000       0.34375000000000000        0.0000000000000000     
  0.68750000000000000       0.34375000000000000        0.0000000000000000     
  0.71875000000000000       0.34375000000000000        0.0000000000000000     
  0.75000000000000000       0.34375000000000000        0.0000000000000000     
  0.62500000000000000       0.37500000000000000        0.0000000000000000     
  0.65625000000000000       0.37500000000000000        0.0000000000000000     
  0.68750000000000000       0.37500000000000000        0.0000000000000000     
  0.71875000000000000       0.37500000000000000        0.0000000000000000     
  0.75000000000000000       0.37500000000000000        0.0000000000000000     
  0.75000000000000000       0.25000000000000000        0.0000000000000000     
  0.78125000000000000       0.25000000000000000        0.0000000000000000     
  0.81250000000000000       0.25000000000000000        0.0000000000000000     
  0.84375000000000000       0.25000000000000000        0.0000000000000000     
  0.87500000000000000       0.25000000000000000        0.0000000000000000     
  0.75000000000000000       0.28125000000000000        0.0000000000000000     
  0.78125000000000000       0.28125000000000000        0.0000000000000000     
  0.81250000000000000       0.28125000000000000        0.0000000000000000     
  0.84375000000000000       0.28125000000000000        0.0000000000000000     
  0.87500000000000000       0.28125000000000000        0.0000000000000000     
  0.75000000000000000       0.31250000000000000        0.0000000000000000     
  0.78125000000000000       0.31250000000000000        0.0000000000000000     
  0.81250000000000000       0.31250000000000000        0.0000000000000000     
  0.84375000000000000       0.31250000000000000        0.0000000000000000     
  0.87500000000000000       0.31250000000000000        0.0000000000000000     
  0.75000000000000000       0.34375000000000000        0.0000000000000000     
  0.78125000000000000       0.34375000000000000        0.0000000000000000     
  0.81250000000000000       0.34375000000000000        0.0000000000000000     
  0.84375000000000000       0.34375000000000000        0.0000000000000000     
  0.87500000000000000       0.34375000000000000        0.0000000000000000     
  0.75000000000000000       0.37500000000000000        0.0000000000000000     
  0.78125000000000000       0.37500000000000000        0.0000000000000000     
  0.81250000000000000       0.37500000000000000        0.0000000000000000     
  0.84375000000000000       0.37500000000000000        0.0000000000000000     
  0.87500000000000000       0.37500000000000000        0.0000000000000000     
  0.87500000000000000       0.25000000000000000        0.0000000000000000     
  0.90625000000000000       0.25000000000000000        0.0000000000000000     
  0.93750000000000000       0.25000000000000000        0.0000000000000000     
  0.96875000000000000       0.25000000000000000        0.0000000000000000     
   1.0000000000000000       0.25000000000000000        0.0000000000000000     
  0.87500000000000000       0.28125000000000000        0.0000000000000000     
  0.90625000000000000       0.28125000000000000        0.0000000000000000     
  0.93750000000000000       0.28125000000000000        0.0000000000000000     
  0.96875000000000000       0.28125000000000000        0.0000000000000000     
   1.0000000000000000       0.28125000000000000        0.0000000000000000     
  0.87500000000000000       0.31250000000000000        0.0000000000000000     
  0.90625000000000000       0.31250000000000000        0.0000000000000000     
  0.93750000000000000       0.31250000000000000        0.0000000000000000     
  0.96875000000000000       0.31250000000000000        0.0000000000000000     
   1.0000000000000000       0.31250000000000000        0.0000000000000000     
  0.87500000000000000       0.34375000000000000        0.0000000000000000     
  0.90625000000000000       0.34375000000000000        0.0000000000000000     
  0.93750000000000000       0.34375000000000000        0.0000000000000000     
  0.96875000000000000       0.34375000000000000        0.0000000000000000     
   1.0000000000000000       0.34375000000000000        0.0000000000000000     
  0.87500000000000000       0.37500000000000000        0.0000000000000000     
  0.90625000000000000       0.37500000000000000        0.0000000000000000     
  0.93750000000000000       0.37500000000000000        0.0000000000000000     
  0.96875000000000000       0.37500000000000000        0.0000000000000000     
   1.0000000000000000       0.37500000000000000        0.0000000000000000     
   0.0000000000000000       0.37500000000000000        0.0000000000000000     
   3.1250000000000000E-002  0.37500000000000000        0.0000000000000000     
   6.2500000000000000E-002  0.37500000000000000        0.0000000000000000     
   9.3750000000000000E-002  0.37500000000000000        0.0000000000000000     
  0.12500000000000000       0.37500000000000000        0.0000000000000000     
   0.0000000000000000       0.40625000000000000        0.0000000000000000     
   3.1250000000000000E-002  0.40625000000000000        0.0000000000000000     
   6.2500000000000000E-002  0.40625000000000000        0.0000000000000000     
   9.3750000000000000E-002  0.40625000000000000        0.0000000000000000     
  0.12500000000000000       0.40625000000000000        0.0000000000000000     
   0.0000000000000000       0.43750000000000000        0.0000000000000000     
   3.1250000000000000E-002  0.43750000000000000        0.0000000000000000     
   6.2500000000000000E-002  0.43750000000000000        0.0000000000000000     
   9.3750000000000000E-002  0.43750000000000000        0.0000000000000000     
  0.12500000000000000       0.43750000000000000        0.0000000000000000     
   0.0000000000000000       0.46875000000000000        0.0000000000000000     
   3.1250000000000000E-002  0.46875000000000000        0.0000000000000000     
   6.2500000000000000E-002  0.46875000000000000        0.0000000000000000     
   9.3750000000000000E-002  0.46875000000000000        0.0000000000000000     
  0.12500000000000000       0.46875000000000000        0.0000000000000000     
   0.0000000000000000       0.50000000000000000        0.0000000000000000     
   3.1250000000000000E-002  0.50000000000000000        0.0000000000000000     
   6.2500000000000000E-002  0.50000000000000000        0.0000000000000000     
   9.3750000000000000E-002  0.50000000000000000        0.0000000000000000     
  0.12500000000000000       0.50000000000000000        0.0000000000000000     
  0.12500000000000000       0.37500000000000000        0.0000000000000000     
  0.15625000000000000       0.37500000000000000        0.0000000000000000     
  0.18750000000000000       0.37500000000000000        0.0000000000000000     
  0.21875000000000000       0.37500000000000000        0.0000000000000000     
  0.25000000000000000       0.37500000000000000        0.0000000000000000     
  0.12500000000000000       0.40625000000000000        0.0000000000000000     
  0.15625000000000000       0.40625000000000000        0.0000000000000000     
  0.18750000000000000       0.40625000000000000        0.0000000000000000     
  0.21875000000000000       0.40625000000000000        0.0000000000000000     
  0.25000000000000000       0.40625000000000000        0.0000000000000000     
  0.12500000000000000       0.43750000000000000        0.0000000000000000     
  0.15625000000000000       0.43750000000000000        0.0000000000000000     
  0.18750000000000000       0.43750000000000000        0.0000000000000000     
  0.21875000000000000       0.43750000000000000        0.0000000000000000     
  0.25000000000000000       0.43750000000000000        0.0000000000000000     
  0.12500000000000000       0.46875000000000000        0.0000000000000000     
  0.15625000000000000       0.46875000000000000        0.0000000000000000     
  0.18750000000000000       0.46875000000000000        0.0000000000000000     
  0.21875000000000000       0.46875000000000000        0.0000000000000000     
  0.25000000000000000       0.46875000000000000        0.0000000000000000     
  0.12500000000000000       0.50000000000000000        0.0000000000000000     
  0.15625000000000000       0.50000000000000000        0.0000000000000000     
  0.18750000000000000       0.50000000000000000        0.0000000000000000     
  0.21875000000000000       0.50000000000000000        0.0000000000000000     
  0.25000000000000000       0.50000000000000000        0.0000000000000000     
  0.25000000000000000       0.37500000000000000        0.0000000000000000     
  0.28125000000000000       0.37500000000000000        0.0000000000000000     
  0.31250000000000000       0.37500000000000000        0.0000000000000000     
  0.34375000000000000       0.37500000000000000        0.0000000000000000     
  0.37500000000000000       0.37500000000000000        0.0000000000000000     
  0.25000000000000000       0.40625000000000000        0.0000000000000000     
  0.28125000000000000       0.40625000000000000        0.0000000000000000     
  0.31250000000000000       0.40625000000000000        0.0000000000000000     
  0.34375000000000000       0.40625000000000000        0.0000000000000000     
  0.37500000000000000       0.40625000000000000        0.0000000000000000     
  0.25000000000000000       0.43750000000000000        0.0000000000000000     
  0.28125000000000000       0.43750000000000000        0.0000000000000000     
  0.31250000000000000       0.43750000000000000        0.0000000000000000     
  0.34375000000000000       0.43750000000000000        0.0000000000000000     
  0.37500000000000000       0.43750000000000000        0.0000000000000000     
  0.25000000000000000       0.46875000000000000        0.0000000000000000     
  0.28125000000000000       0.46875000000000000        0.0000000000000000     
  0.31250000000000000       0.46875000000000000        0.0000000000000000     
  0.34375000000000000       0.46875000000000000        0.0000000000000000     
  0.37500000000000000       0.46875000000000000        0.0000000000000000     
  0.25000000000000000       0.50000000000000000        0.0000000000000000     
  0.28125000000000000       0.50000000000000000        0.0000000000000000     
  0.31250000000000000       0.50000000000000000        0.0000000000000000     
  0.34375000000000000       0.50000000000000000        0.0000000000000000     
  0.37500000000000000       0.50000000000000000        0.0000000000000000     
  0.37500000000000000       0.37500000000000000        0.0000000000000000     
  0.40625000000000000       0.37500000000000000        0.0000000000000000     
  0.43750000000000000       0.37500000000000000        0.0000000000000000     
  0.46875000000000000       0.37500000000000000        0.0000000000000000     
  0.50000000000000000       0.37500000000000000        0.0000000000000000     
  0.37500000000000000       0.40625000000000000        0.0000000000000000     
  0.40625000000000000       0.40625000000000000        0.0000000000000000     
  0.43750000000000000       0.40625000000000000        0.0000000000000000     
  0.46875000000000000       0.40625000000000000        0.0000000000000000     
  0.50000000000000000       0.40625000000000000        0.0000000000000000     
  0.37500000000000000       0.43750000000000000        0.0000000000000000     
  0.40625000000000000       0.43750000000000000        0.0000000000000000     
  0.43750000000000000       0.43750000000000000        0.0000000000000000     
  0.46875000000000000       0.43750000000000000        0.0000000000000000     
  0.50000000000000000       0.43750000000000000        0.0000000000000000     
  0.37500000000000000       0.46875000000000000        0.0000000000000000     
  0.40625000000000000       0.46875000000000000        0.0000000000000000     
  0.43750000000000000       0.46875000000000000        0.0000000000000000     
  0.46875000000000000       0.46875000000000000        0.0000000000000000     
  0.50000000000000000       0.46875000000000000        0.0000000000000000     
  0.37500000000000000       0.50000000000000000        0.0000000000000000     
  0.40625000000000000       0.50000000000000000        0.0000000000000000     
  0.43750000000000000       0.50000000000000000        0.0000000000000000     
  0.46875000000000000       0.50000000000000000        0.0000000000000000     
  0.50000000000000000       0.50000000000000000        0.0000000000000000     
  0.50000000000000000       0.37500000000000000        0.0000000000000000     
  0.53125000000000000       0.37500000000000000        0.0000000000000000     
  0.56250000000000000       0.37500000000000000        0.0000000000000000     
  0.59375000000000000       0.37500000000000000        0.0000000000000000     
  0.62500000000000000       0.37500000000000000        0.0000000000000000     
  0.50000000000000000       0.40625000000000000        0.0000000000000000     
  0.53125000000000000       0.40625000000000000        0.0000000000000000     
  0.56250000000000000       0.40625000000000000        0.0000000000000000     
  0.59375000000000000       0.40625000000000000        0.0000000000000000     
  0.62500000000000000       0.40625000000000000        0.0000000000000000     
  0.50000000000000000       0.43750000000000000        0.0000000000000000     
  0.53125000000000000       0.43750000000000000        0.0000000000000000     
  0.56250000000000000       0.43750000000000000        0.0000000000000000     
  0.59375000000000000       0.43750000000000000        0.0000000000000000     
  0.62500000000000000       0.43750000000000000        0.0000000000000000     
  0.50000000000000000       0.46875000000000000        0.0000000000000000     
  0.53125000000000000       0.46875000000000000        0.0000000000000000     
  0.56250000000000000       0.46875000000000000        0.0000000000000000     
  0.59375000000000000       0.46875000000000000        0.0000000000000000     
  0.62500000000000000       0.46875000000000000        0.0000000000000000     
  0.50000000000000000       0.50000000000000000        0.0000000000000000     
  0.53125000000000000       0.50000000000000000        0.0000000000000000     
  0.56250000000000000       0.50000000000000000        0.0000000000000000     
  0.59375000000000000       0.50000000000000000        0.0000000000000000     
  0.62500000000000000       0.50000000000000000        0.0000000000000000     
  0.62500000000000000       0.37500000000000000        0.0000000000000000     
  0.65625000000000000       0.37500000000000000        0.0000000000000000     
  0.68750000000000000       0.37500000000000000        0.0000000000000000     
  0.71875000000000000       0.37500000000000000        0.0000000000000000     
  0.75000000000000000       0.37500000000000000        0.0000000000000000     
  0.62500000000000000       0.40625000000000000        0.0000000000000000     
  0.65625000000000000       0.40625000000000000        0.0000000000000000     
  0.68750000000000000       0.40625000000000000        0.0000000000000000     
  0.71875000000000000       0.40625000000000000        0.0000000000000000     
  0.75000000000000000       0.40625000000000000        0.0000000000000000     
  0.62500000000000000       0.43750000000000000        0.0000000000000000     
  0.65625000000000000       0.43750000000000000        0.0000000000000000     
  0.68750000000000000       0.43750000000000000        0.0000000000000000     
  0.71875000000000000       0.43750000000000000        0.0000000000000000     
  0.75000000000000000       0.43750000000000000        0.0000000000000000     
  0.62500000000000000       0.46875000000000000        0.0000000000000000     
  0.65625000000000000       0.46875000000000000        0.0000000000000000     
  0.68750000000000000       0.46875000000000000        0.0000000000000000     
  0.71875000000000000       0.46875000000000000        0.0000000000000000     
  0.75000000000000000       0.46875000000000000        0.0000000000000000     
  0.62500000000000000       0.50000000000000000        0.0000000000000000     
  0.65625000000000000       0.50000000000000000        0.0000000000000000     
  0.68750000000000000       0.50000000000000000        0.0000000000000000     
  0.71875000000000000       0.50000000000000000        0.0000000000000000     
  0.75000000000000000       0.50000000000000000        0.0000000000000000     
  0.75000000000000000       0.37500000000000000        0.0000000000000000     
  0.78125000000000000       0.37500000000000000        0.0000000000000000     
  0.81250000000000000       0.37500000000000000        0.0000000000000000     
  0.84375000000000000       0.37500000000000000        0.0000000000000000     
  0.87500000000000000       0.37500000000000000        0.0000000000000000     
  0.75000000000000000       0.40625000000000000        0.0000000000000000     
  0.78125000000000000       0.40625000000000000        0.0000000000000000     
  0.81250000000000000       0.40625000000000000        0.0000000000000000     
  0.84375000000000000       0.40625000000000000        0.0000000000000000     
  0.87500000000000000       0.40625000000000000        0.0000000000000000     
  0.75000000000000000       0.43750000000000000        0.0000000000000000     
  0.78125000000000000       0.43750000000000000        0.0000000000000000     
  0.81250000000000000       0.43750000000000000        0.0000000000000000     
  0.84375000000000000       0.43750000000000000        0.0000000000000000     
  0.87500000000000000       0.43750000000000000        0.0000000000000000     
  0.75000000000000000       0.46875000000000000        0.0000000000000000     
  0.78125000000000000       0.46875000000000000        0.0000000000000000     
  0.81250000000000000       0.46875000000000000        0.0000000000000000     
  0.84375000000000000       0.46875000000000000        0.0000000000000000     
  0.87500000000000000       0.46875000000000000        0.0000000000000000     
  0.75000000000000000       0.50000000000000000        0.0000000000000000     
  0.78125000000000000       0.50000000000000000        0.0000000000000000     
  0.81250000000000000       0.50000000000000000        0.0000000000000000     
  0.84375000000000000       0.50000000000000000        0.0000000000000000     
  0.87500000000000000       0.50000000000000000        0.0000000000000000     
  0.87500000000000000       0.37500000000000000        0.0000000000000000     
  0.90625000000000000       0.37500000000000000        0.0000000000000000     
  0.93750000000000000       0.37500000000000000        0.0000000000000000     
  0.96875000000000000       0.37500000000000000        0.0000000000000000     
   1.0000000000000000       0.37500000000000000        0.0000000000000000     
  0.87500000000000000       0.40625000000000000        0.0000000000000000     
  0.90625000000000000       0.40625000000000000        0.0000000000000000     
  0.93750000000000000       0.40625000000000000        0.0000000000000000     
  0.96875000000000000       0.40625000000000000        0.0000000000000000     
   1.0000000000000000       0.40625000000000000        0.0000000000000000     
  0.87500000000000000       0.43750000000000000        0.0000000000000000     
  0.90625000000000000       0.43750000000000000        0.0000000000000000     
  0.93750000000000000       0.43750000000000000        0.0000000000000000     
  0.96875000000000000       0.43750000000000000        0.0000000000000000     
   1.0000000000000000       0.43750000000000000        0.0000000000000000     
  0.87500000000000000       0.46875000000000000        0.0000000000000000     
  0.90625000000000000       0.46875000000000000        0.0000000000000000     
  0.93750000000000000       0.46875000000000000        0.0000000000000000     
  0.96875000000000000       0.46875000000000000        0.0000000000000000     
   1.0000000000000000       0.46875000000000000        0.0000000000000000     
  0.87500000000000000       0.50000000000000000        0.0000000000000000     
  0.90625000000000000       0.50000000000000000        0.0000000000000000     
  0.93750000000000000       0.50000000000000000        0.0000000000000000     
  0.96875000000000000       0.50000000000000000        0.0000000000000000     
   1.0000000000000000       0.50000000000000000        0.0000000000000000     
   0.0000000000000000       0.50000000000000000        0.0000000000000000     
   3.1250000000000000E-002  0.50000000000000000        0.0000000000000000     
   6.2500000000000000E-002  0.50000000000000000        0.0000000000000000     
   9.3750000000000000E-002  0.50000000000000000        0.0000000000000000     
  0.12500000000000000       0.50000000000000000        0.0000000000000000     
   0.0000000000000000       0.53125000000000000        0.0000000000000000     
   3.1250000000000000E-002  0.53125000000000000        0.0000000000000000     
   6.2500000000000000E-002  0.53125000000000000        0.0000000000000000     
   9.3750000000000000E-002  0.53125000000000000        0.0000000000000000     
  0.12500000000000000       0.53125000000000000        0.0000000000000000     
   0.0000000000000000       0.56250000000000000        0.0000000000000000     
   3.1250000000000000E-002  0.56250000000000000        0.0000000000000000     
   6.2500000000000000E-002  0.56250000000000000        0.0000000000000000     
   9.3750000000000000E-002  0.56250000000000000        0.0000000000000000     
  0.12500000000000000       0.56250000000000000        0.0000000000000000     
   0.0000000000000000       0.59375000000000000        0.0000000000000000     
   3.1250000000000000E-002  0.59375000000000000        0.0000000000000000     
   6.2500000000000000E-002  0.59375000000000000        0.0000000000000000     
   9.3750000000000000E-002  0.59375000000000000        0.0000000000000000     
  0.12500000000000000       0.59375000000000000        0.0000000000000000     
   0.0000000000000000       0.62500000000000000        0.0000000000000000     
   3.1250000000000000E-002  0.62500000000000000        0.0000000000000000     
   6.2500000000000000E-002  0.62500000000000000        0.0000000000000000     
   9.3750000000000000E-002  0.62500000000000000        0.0000000000000000     
  0.12500000000000000       0.62500000000000000        0.0000000000000000     
  0.12500000000000000       0.50000000000000000        0.0000000000000000     
  0.15625000000000000       0.50000000000000000        0.0000000000000000     
  0.18750000000000000       0.50000000000000000        0.0000000000000000     
  0.21875000000000000       0.50000000000000000        0.0000000000000000     
  0.25000000000000000       0.50000000000000000        0.0000000000000000     
  0.12500000000000000       0.53125000000000000        0.0000000000000000     
  0.15625000000000000       0.53125000000000000        0.0000000000000000     
  0.18750000000000000       0.53125000000000000        0.0000000000000000     
  0.21875000000000000       0.53125000000000000        0.0000000000000000     
  0.25000000000000000       0.53125000000000000        0.0000000000000000     
  0.12500000000000000       0.56250000000000000        0.0000000000000000     
  0.15625000000000000       0.56250000000000000        0.0000000000000000     
  0.18750000000000000       0.56250000000000000        0.0000000000000000     
  0.21875000000000000       0.56250000000000000        0.0000000000000000     
  0.25000000000000000       0.56250000000000000        0.0000000000000000     
  0.12500000000000000       0.59375000000000000        0.0000000000000000     
  0.15625000000000000       0.59375000000000000        0.0000000000000000     
  0.18750000000000000       0.59375000000000000        0.0000000000000000     
  0.21875000000000000       0.59375000000000000        0.0000000000000000     
  0.25000000000000000       0.59375000000000000        0.0000000000000000     
  0.12500000000000000       0.62500000000000000        0.0000000000000000     
  0.15625000000000000       0.62500000000000000        0.0000000000000000     
  0.18750000000000000       0.62500000000000000        0.0000000000000000     
  0.21875000000000000       0.62500000000000000        0.0000000000000000     
  0.25000000000000000       0.62500000000000000        0.0000000000000000     
  0.25000000000000000       0.50000000000000000        0.0000000000000000     
  0.28125000000000000       0.50000000000000000        0.0000000000000000     
  0.31250000000000000       0.50000000000000000        0.0000000000000000     
  0.34375000000000000       0.50000000000000000        0.0000000000000000     
  0.37500000000000000       0.50000000000000000        0.0000000000000000     
  0.25000000000000000       0.53125000000000000        0.0000000000000000     
  0.28125000000000000       0.53125000000000000        0.0000000000000000     
  0.31250000000000000       0.53125000000000000        0.0000000000000000     
  0.34375000000000000       0.53125000000000000        0.0000000000000000     
  0.37500000000000000       0.53125000000000000        0.0000000000000000     
  0.25000000000000000       0.56250000000000000        0.0000000000000000     
  0.28125000000000000       0.56250000000000000        0.0000000000000000     
  0.31250000000000000       0.56250000000000000        0.0000000000000000     
  0.34375000000000000       0.56250000000000000        0.0000000000000000     
  0.37500000000000000       0.56250000000000000        0.0000000000000000     
  0.25000000000000000       0.59375000000000000        0.0000000000000000     
  0.28125000000000000       0.59375000000000000        0.0000000000000000     
  0.31250000000000000       0.59375000000000000        0.0000000000000000     
  0.34375000000000000       0.59375000000000000        0.0000000000000000     
  0.37500000000000000       0.59375000000000000        0.0000000000000000     
  0.25000000000000000       0.62500000000000000        0.0000000000000000     
  0.28125000000000000       0.62500000000000000        0.0000000000000000     
  0.31250000000000000       0.62500000000000000        0.0000000000000000     
  0.34375000000000000       0.62500000000000000        0.0000000000000000     
  0.37500000000000000       0.62500000000000000        0.0000000000000000     
  0.37500000000000000       0.50000000000000000        0.0000000000000000     
  0.40625000000000000       0.50000000000000000        0.0000000000000000     
  0.43750000000000000       0.50000000000000000        0.0000000000000000     
  0.46875000000000000       0.50000000000000000        0.0000000000000000     
  0.50000000000000000       0.50000000000000000        0.0000000000000000     
  0.37500000000000000       0.53125000000000000        0.0000000000000000     
  0.40625000000000000       0.53125000000000000        0.0000000000000000     
  0.43750000000000000       0.53125000000000000        0.0000000000000000     
  0.46875000000000000       0.53125000000000000        0.0000000000000000     
  0.50000000000000000       0.53125000000000000        0.0000000000000000     
  0.37500000000000000       0.56250000000000000        0.0000000000000000     
  0.40625000000000000       0.56250000000000000        0.0000000000000000     
  0.43750000000000000       0.56250000000000000        0.0000000000000000     
  0.46875000000000000       0.56250000000000000        0.0000000000000000     
  0.50000000000000000       0.56250000000000000        0.0000000000000000     
  0.37500000000000000       0.59375000000000000        0.0000000000000000     
  0.40625000000000000       0.59375000000000000        0.0000000000000000     
  0.43750000000000000       0.59375000000000000        0.0000000000000000     
  0.46875000000000000       0.59375000000000000        0.0000000000000000     
  0.50000000000000000       0.59375000000000000        0.0000000000000000     
  0.37500000000000000       0.62500000000000000        0.0000000000000000     
  0.40625000000000000       0.62500000000000000        0.0000000000000000     
  0.43750000000000000       0.62500000000000000        0.0000000000000000     
  0.46875000000000000       0.62500000000000000        0.0000000000000000     
  0.50000000000000000       0.62500000000000000        0.0000000000000000     
  0.50000000000000000       0.50000000000000000        0.0000000000000000     
  0.53125000000000000       0.50000000000000000        0.0000000000000000     
  0.56250000000000000       0.50000000000000000        0.0000000000000000     
  0.59375000000000000       0.50000000000000000        0.0000000000000000     
  0.62500000000000000       0.50000000000000000        0.0000000000000000     
  0.50000000000000000       0.53125000000000000        0.0000000000000000     
  0.53125000000000000       0.53125000000000000        0.0000000000000000     
  0.56250000000000000       0.53125000000000000        0.0000000000000000     
  0.59375000000000000       0.53125000000000000        0.0000000000000000     
  0.62500000000000000       0.53125000000000000        0.0000000000000000     
  0.50000000000000000       0.56250000000000000        0.0000000000000000     
  0.53125000000000000       0.56250000000000000        0.0000000000000000     
  0.56250000000000000       0.56250000000000000        0.0000000000000000     
  0.59375000000000000       0.56250000000000000        0.0000000000000000     
  0.62500000000000000       0.56250000000000000        0.0000000000000000     
  0.50000000000000000       0.59375000000000000        0.0000000000000000     
  0.53125000000000000       0.59375000000000000        0.0000000000000000     
  0.56250000000000000       0.59375000000000000        0.0000000000000000     
  0.59375000000000000       0.59375000000000000        0.0000000000000000     
  0.62500000000000000       0.59375000000000000        0.0000000000000000     
  0.50000000000000000       0.62500000000000000        0.0000000000000000     
  0.53125000000000000       0.62500000000000000        0.0000000000000000     
  0.56250000000000000       0.62500000000000000        0.0000000000000000     
  0.59375000000000000       0.62500000000000000        0.0000000000000000     
  0.62500000000000000       0.62500000000000000        0.0000000000000000     
  0.62500000000000000       0.50000000000000000        0.0000000000000000     
  0.65625000000000000       0.50000000000000000        0.0000000000000000     
  0.68750000000000000       0.50000000000000000        0.0000000000000000     
  0.71875000000000000       0.50000000000000000        0.0000000000000000     
  0.75000000000000000       0.50000000000000000        0.0000000000000000     
  0.62500000000000000       0.53125000000000000        0.0000000000000000     
  0.65625000000000000       0.53125000000000000        0.0000000000000000     
  0.68750000000000000       0.53125000000000000        0.0000000000000000     
  0.71875000000000000       0.53125000000000000        0.0000000000000000     
  0.75000000000000000       0.53125000000000000        0.0000000000000000     
  0.62500000000000000       0.56250000000000000        0.0000000000000000     
  0.65625000000000000       0.56250000000000000        0.0000000000000000     
  0.68750000000000000       0.56250000000000000        0.0000000000000000     
  0.71875000000000000       0.56250000000000000        0.0000000000000000     
  0.75000000000000000       0.56250000000000000        0.0000000000000000     
  0.62500000000000000       0.59375000000000000        0.0000000000000000     
  0.65625000000000000       0.59375000000000000        0.0000000000000000     
  0.68750000000000000       0.59375000000000000        0.0000000000000000     
  0.71875000000000000       0.59375000000000000        0.0000000000000000     
  0.75000000000000000       0.59375000000000000        0.0000000000000000     
  0.62500000000000000       0.62500000000000000        0.0000000000000000     
  0.65625000000000000       0.62500000000000000        0.0000000000000000     
  0.68750000000000000       0.62500000000000000        0.0000000000000000     
  0.71875000000000000       0.62500000000000000        0.0000000000000000     
  0.75000000000000000       0.62500000000000000        0.0000000000000000     
  0.75000000000000000       0.50000000000000000        0.0000000000000000     
  0.78125000000000000       0.50000000000000000        0.0000000000000000     
  0.81250000000000000       0.50000000000000000        0.0000000000000000     
  0.84375000000000000       0.50000000000000000        0.0000000000000000     
  0.87500000000000000       0.50000000000000000        0.0000000000000000     
  0.75000000000000000       0.53125000000000000        0.0000000000000000     
  0.78125000000000000       0.53125000000000000        0.0000000000000000     
  0.81250000000000000       0.53125000000000000        0.0000000000000000     
  0.84375000000000000       0.53125000000000000        0.0000000000000000     
  0.87500000000000000       0.53125000000000000        0.0000000000000000     
  0.75000000000000000       0.56250000000000000        0.0000000000000000     
  0.78125000000000000       0.56250000000000000        0.0000000000000000     
  0.81250000000000000       0.56250000000000000        0.0000000000000000     
  0.84375000000000000       0.56250000000000000        0.0000000000000000     
  0.87500000000000000       0.56250000000000000        0.0000000000000000     
  0.75000000000000000       0.59375000000000000        0.0000000000000000     
  0.78125000000000000       0.59375000000000000        0.0000000000000000     
  0.81250000000000000       0.59375000000000000        0.0000000000000000     
  0.84375000000000000       0.59375000000000000        0.0000000000000000     
  0.87500000000000000       0.59375000000000000        0.0000000000000000     
  0.75000000000000000       0.62500000000000000        0.0000000000000000     
  0.78125000000000000       0.62500000000000000        0.0000000000000000     
  0.81250000000000000       0.62500000000000000        0.0000000000000000     
  0.84375000000000000       0.62500000000000000        0.0000000000000000     
  0.87500000000000000       0.62500000000000000        0.0000000000000000     
  0.87500000000000000       0.50000000000000000        0.0000000000000000     
  0.90625000000000000       0.50000000000000000        0.0000000000000000     
  0.93750000000000000       0.50000000000000000        0.0000000000000000     
  0.96875000000000000       0.50000000000000000        0.0000000000000000     
   1.0000000000000000       0.50000000000000000        0.0000000000000000     
  0.87500000000000000       0.53125000000000000        0.0000000000000000     
  0.90625000000000000       0.53125000000000000        0.0000000000000000     
  0.93750000000000000       0.53125000000000000        0.0000000000000000     
  0.96875000000000000       0.53125000000000000        0.0000000000000000     
   1.0000000000000000       0.53125000000000000        0.0000000000000000     
  0.87500000000000000       0.56250000000000000        0.0000000000000000     
  0.90625000000000000       0.56250000000000000        0.0000000000000000     
  0.93750000000000000       0.56250000000000000        0.0000000000000000     
  0.96875000000000000       0.56250000000000000        0.0000000000000000     
   1.0000000000000000       0.56250000000000000        0.0000000000000000     
  0.87500000000000000       0.59375000000000000        0.0000000000000000     
  0.90625000000000000       0.59375000000000000        0.0000000000000000     
  0.93750000000000000       0.59375000000000000        0.0000000000000000     
  0.96875000000000000       0.59375000000000000        0.0000000000000000     
   1.0000000000000000       0.59375000000000000        0.0000000000000000     
  0.87500000000000000       0.62500000000000000        0.0000000000000000     
  0.90625000000000000       0.62500000000000000        0.0000000000000000     
  0.93750000000000000       0.62500000000000000        0.0000000000000000     
  0.96875000000000000       0.62500000000000000        0.0000000000000000     
   1.0000000000000000       0.62500000000000000        0.0000000000000000     
   0.0000000000000000       0.62500000000000000        0.0000000000000000     
   3.1250000000000000E-002  0.62500000000000000        0.0000000000000000     
   6.2500000000000000E-002  0.62500000000000000        0.0000000000000000     
   9.3750000000000000E-002  0.62500000000000000        0.0000000000000000     
  0.12500000000000000       0.62500000000000000        0.0000000000000000     
   0.0000000000000000       0.65625000000000000        0.0000000000000000     
   3.1250000000000000E-002  0.65625000000000000        0.0000000000000000     
   6.2500000000000000E-002  0.65625000000000000        0.0000000000000000     
   9.3750000000000000E-002  0.65625000000000000        0.0000000000000000     
  0.12500000000000000       0.65625000000000000        0.0000000000000000     
   0.0000000000000000       0.68750000000000000        0.0000000000000000     
   3.1250000000000000E-002  0.68750000000000000        0.0000000000000000     
   6.2500000000000000E-002  0.68750000000000000        0.0000000000000000     
   9.3750000000000000E-002  0.68750000000000000        0.0000000000000000     
  0.12500000000000000       0.68750000000000000        0.0000000000000000     
   0.0000000000000000       0.71875000000000000        0.0000000000000000     
   3.1250000000000000E-002  0.71875000000000000        0.0000000000000000     
   6.2500000000000000E-002  0.71875000000000000        0.0000000000000000     
   9.3750000000000000E-002  0.71875000000000000        0.0000000000000000     
  0.12500000000000000       0.71875000000000000        0.0000000000000000     
   0.0000000000000000       0.75000000000000000        0.0000000000000000     
   3.1250000000000000E-002  0.75000000000000000        0.0000000000000000     
   6.2500000000000000E-002  0.75000000000000000        0.0000000000000000     
   9.3750000000000000E-002  0.75000000000000000        0.0000000000000000     
  0.12500000000000000       0.75000000000000000        0.0000000000000000     
  0.12500000000000000       0.62500000000000000        0.0000000000000000     
  0.15625000000000000       0.62500000000000000        0.0000000000000000     
  0.18750000000000000       0.62500000000000000        0.0000000000000000     
  0.21875000000000000       0.62500000000000000        0.0000000000000000     
  0.25000000000000000       0.62500000000000000        0.0000000000000000     
  0.12500000000000000       0.65625000000000000        0.0000000000000000     
  0.15625000000000000       0.65625000000000000        0.0000000000000000     
  0.18750000000000000       0.65625000000000000        0.0000000000000000     
  0.21875000000000000       0.65625000000000000        0.0000000000000000     
  0.25000000000000000       0.65625000000000000        0.0000000000000000     
  0.12500000000000000       0.68750000000000000        0.0000000000000000     
  0.15625000000000000       0.68750000000000000        0.0000000000000000     
  0.18750000000000000       0.68750000000000000        0.0000000000000000     
  0.21875000000000000       0.68750000000000000        0.0000000000000000     
  0.25000000000000000       0.68750000000000000        0.0000000000000000     
  0.12500000000000000       0.71875000000000000        0.0000000000000000     
  0.15625000000000000       0.71875000000000000        0.0000000000000000     
  0.18750000000000000       0.71875000000000000        0.0000000000000000     
  0.21875000000000000       0.71875000000000000        0.0000000000000000     
  0.25000000000000000       0.71875000000000000        0.0000000000000000     
  0.12500000000000000       0.75000000000000000        0.0000000000000000     
  0.15625000000000000       0.75000000000000000        0.0000000000000000     
  0.18750000000000000       0.75000000000000000        0.0000000000000000     
  0.21875000000000000       0.75000000000000000        0.0000000000000000     
  0.25000000000000000       0.75000000000000000        0.0000000000000000     
  0.25000000000000000       0.62500000000000000        0.0000000000000000     
  0.28125000000000000       0.62500000000000000        0.0000000000000000     
  0.31250000000000000       0.62500000000000000        0.0000000000000000     
  0.34375000000000000       0.62500000000000000        0.0000000000000000     
  0.37500000000000000       0.62500000000000000        0.0000000000000000     
  0.25000000000000000       0.65625000000000000        0.0000000000000000     
  0.28125000000000000       0.65625000000000000        0.0000000000000000     
  0.31250000000000000       0.65625000000000000        0.0000000000000000     
  0.34375000000000000       0.65625000000000000        0.0000000000000000     
  0.37500000000000000       0.65625000000000000        0.0000000000000000     
  0.25000000000000000       0.68750000000000000        0.0000000000000000     
  0.28125000000000000       0.68750000000000000        0.0000000000000000     
  0.31250000000000000       0.68750000000000000        0.0000000000000000     
  0.34375000000000000       0.68750000000000000        0.0000000000000000     
  0.37500000000000000       0.68750000000000000        0.0000000000000000     
  0.25000000000000000       0.71875000000000000        0.0000000000000000     
  0.28125000000000000       0.71875000000000000        0.0000000000000000     
  0.31250000000000000       0.71875000000000000        0.0000000000000000     
  0.34375000000000000       0.71875000000000000        0.0000000000000000     
  0.37500000000000000       0.71875000000000000        0.0000000000000000     
  0.25000000000000000       0.75000000000000000        0.0000000000000000     
  0.28125000000000000       0.75000000000000000        0.0000000000000000     
  0.31250000000000000       0.75000000000000000        0.0000000000000000     
  0.34375000000000000       0.75000000000000000        0.0000000000000000     
  0.37500000000000000       0.75000000000000000        0.0000000000000000     
  0.37500000000000000       0.62500000000000000        0.0000000000000000     
  0.40625000000000000       0.62500000000000000        0.0000000000000000     
  0.43750000000000000       0.62500000000000000        0.0000000000000000     
  0.46875000000000000       0.62500000000000000        0.0000000000000000     
  0.50000000000000000       0.62500000000000000        0.0000000000000000     
  0.37500000000000000       0.65625000000000000        0.0000000000000000     
  0.40625000000000000       0.65625000000000000        0.0000000000000000     
  0.43750000000000000       0.65625000000000000        0.0000000000000000     
  0.46875000000000000       0.65625000000000000        0.0000000000000000     
  0.50000000000000000       0.65625000000000000        0.0000000000000000     
  0.37500000000000000       0.68750000000000000        0.0000000000000000     
  0.40625000000000000       0.68750000000000000        0.0000000000000000     
  0.43750000000000000       0.68750000000000000        0.0000000000000000     
  0.46875000000000000       0.68750000000000000        0.0000000000000000     
  0.50000000000000000       0.68750000000000000        0.0000000000000000     
  0.37500000000000000       0.71875000000000000        0.0000000000000000     
  0.40625000000000000       0.71875000000000000        0.0000000000000000     
  0.43750000000000000       0.71875000000000000        0.0000000000000000     
  0.46875000000000000       0.71875000000000000        0.0000000000000000     
  0.50000000000000000       0.71875000000000000        0.0000000000000000     
  0.37500000000000000       0.75000000000000000        0.0000000000000000     
  0.40625000000000000       0.75000000000000000        0.0000000000000000     
  0.43750000000000000       0.75000000000000000        0.0000000000000000     
  0.46875000000000000       0.75000000000000000        0.0000000000000000     
  0.50000000000000000       0.75000000000000000        0.0000000000000000     
  0.50000000000000000       0.62500000000000000        0.0000000000000000     
  0.53125000000000000       0.62500000000000000        0.0000000000000000     
  0.56250000000000000       0.62500000000000000        0.0000000000000000     
  0.59375000000000000       0.62500000000000000        0.0000000000000000     
  0.62500000000000000       0.62500000000000000        0.0000000000000000     
  0.50000000000000000       0.65625000000000000        0.0000000000000000     
  0.53125000000000000       0.65625000000000000        0.0000000000000000     
  0.56250000000000000       0.65625000000000000        0.0000000000000000     
  0.59375000000000000       0.65625000000000000        0.0000000000000000     
  0.62500000000000000       0.65625000000000000        0.0000000000000000     
  0.50000000000000000       0.68750000000000000        0.0000000000000000     
  0.53125000000000000       0.68750000000000000        0.0000000000000000     
  0.56250000000000000       0.68750000000000000        0.0000000000000000     
  0.59375000000000000       0.68750000000000000        0.0000000000000000     
  0.62500000000000000       0.68750000000000000        0.0000000000000000     
  0.50000000000000000       0.71875000000000000        0.0000000000000000     
  0.53125000000000000       0.71875000000000000        0.0000000000000000     
  0.56250000000000000       0.71875000000000000        0.0000000000000000     
  0.59375000000000000       0.71875000000000000        0.0000000000000000     
  0.62500000000000000       0.71875000000000000        0.0000000000000000     
  0.50000000000000000       0.75000000000000000        0.0000000000000000     
  0.53125000000000000       0.75000000000000000        0.0000000000000000     
  0.56250000000000000       0.75000000000000000        0.0000000000000000     
  0.59375000000000000       0.75000000000000000        0.0000000000000000     
  0.62500000000000000       0.75000000000000000        0.0000000000000000     
  0.62500000000000000       0.62500000000000000        0.0000000000000000     
  0.65625000000000000       0.62500000000000000        0.0000000000000000     
  0.68750000000000000       0.62500000000000000        0.0000000000000000     
  0.71875000000000000       0.62500000000000000        0.0000000000000000     
  0.75000000000000000       0.62500000000000000        0.0000000000000000     
  0.62500000000000000       0.65625000000000000        0.0000000000000000     
  0.65625000000000000       0.65625000000000000        0.0000000000000000     
  0.68750000000000000       0.65625000000000000        0.0000000000000000     
  0.71875000000000000       0.65625000000000000        0.0000000000000000     
  0.75000000000000000       0.65625000000000000        0.0000000000000000     
  0.62500000000000000       0.68750000000000000        0.0000000000000000     
  0.65625000000000000       0.68750000000000000        0.0000000000000000     
  0.68750000000000000       0.68750000000000000        0.0000000000000000     
  0.71875000000000000       0.68750000000000000        0.0000000000000000     
  0.75000000000000000       0.68750000000000000        0.0000000000000000     
  0.62500000000000000       0.71875000000000000        0.0000000000000000     
  0.65625000000000000       0.71875000000000000        0.0000000000000000     
  0.68750000000000000       0.71875000000000000        0.0000000000000000     
  0.71875000000000000       0.71875000000000000        0.0000000000000000     
  0.75000000000000000       0.71875000000000000        0.0000000000000000     
  0.62500000000000000       0.75000000000000000        0.0000000000000000     
  0.65625000000000000       0.75000000000000000        0.0000000000000000     
  0.68750000000000000       0.75000000000000000        0.0000000000000000     
  0.71875000000000000       0.75000000000000000        0.0000000000000000     
  0.75000000000000000       0.75000000000000000        0.0000000000000000     
  0.75000000000000000       0.62500000000000000        0.0000000000000000     
  0.78125000000000000       0.62500000000000000        0.0000000000000000     
  0.81250000000000000       0.62500000000000000        0.0000000000000000     
  0.84375000000000000       0.62500000000000000        0.0000000000000000     
  0.87500000000000000       0.62500000000000000        0.0000000000000000     
  0.75000000000000000       0.65625000000000000        0.0000000000000000     
  0.78125000000000000       0.65625000000000000        0.0000000000000000     
  0.81250000000000000       0.65625000000000000        0.0000000000000000     
  0.84375000000000000       0.65625000000000000        0.0000000000000000     
  0.87500000000000000       0.65625000000000000        0.0000000000000000     
  0.75000000000000000       0.68750000000000000        0.0000000000000000     
  0.78125000000000000       0.68750000000000000        0.0000000000000000     
  0.81250000000000000       0.68750000000000000        0.0000000000000000     
  0.84375000000000000       0.68750000000000000        0.0000000000000000     
  0.87500000000000000       0.68750000000000000        0.0000000000000000     
  0.75000000000000000       0.71875000000000000        0.0000000000000000     
  0.78125000000000000       0.71875000000000000        0.0000000000000000     
  0.81250000000000000       0.71875000000000000        0.0000000000000000     
  0.84375000000000000       0.71875000000000000        0.0000000000000000     
  0.87500000000000000       0.71875000000000000        0.0000000000000000     
  0.75000000000000000       0.75000000000000000        0.0000000000000000     
  0.78125000000000000       0.75000000000000000        0.0000000000000000     
  0.81250000000000000       0.75000000000000000        0.0000000000000000     
  0.84375000000000000       0.75000000000000000        0.0000000000000000     
  0.87500000000000000       0.75000000000000000        0.0000000000000000     
  0.87500000000000000       0.62500000000000000        0.0000000000000000     
  0.90625000000000000       0.62500000000000000        0.0000000000000000     
  0.93750000000000000       0.62500000000000000        0.0000000000000000     
  0.96875000000000000       0.62500000000000000        0.0000000000000000     
   1.0000000000000000       0.62500000000000000        0.0000000000000000     
  0.87500000000000000       0.65625000000000000        0.0000000000000000     
  0.90625000000000000       0.65625000000000000        0.0000000000000000     
  0.93750000000000000       0.65625000000000000        0.0000000000000000     
  0.96875000000000000       0.65625000000000000        0.0000000000000000     
   1.0000000000000000       0.65625000000000000        0.0000000000000000     
  0.87500000000000000       0.68750000000000000        0.0000000000000000     
  0.90625000000000000       0.68750000000000000        0.0000000000000000     
  0.93750000000000000       0.68750000000000000        0.0000000000000000     
  0.96875000000000000       0.68750000000000000        0.0000000000000000     
   1.0000000000000000       0.68750000000000000        0.0000000000000000     
  0.87500000000000000       0.71875000000000000        0.0000000000000000     
  0.90625000000000000       0.71875000000000000        0.0000000000000000     
  0.93750000000000000       0.71875000000000000        0.0000000000000000     
  0.96875000000000000       0.71875000000000000        0.0000000000000000     
   1.0000000000000000       0.71875000000000000        0.0000000000000000     
  0.87500000000000000       0.75000000000000000        0.0000000000000000     
  0.90625000000000000       0.75000000000000000        0.0000000000000000     
  0.93750000000000000       0.75000000000000000        0.0000000000000000     
  0.96875000000000000       0.75000000000000000        0.0000000000000000     
   1.0000000000000000       0.75000000000000000        0.0000000000000000     
   0.0000000000000000       0.75000000000000000        0.0000000000000000     
   3.1250000000000000E-002  0.75000000000000000        0.0000000000000000     
   6.2500000000000000E-002  0.75000000000000000        0.0000000000000000     
   9.3750000000000000E-002  0.75000000000000000        0.0000000000000000     
  0.12500000000000000       0.75000000000000000        0.0000000000000000     
   0.0000000000000000       0.78125000000000000        0.0000000000000000     
   3.1250000000000000E-002  0.78125000000000000        0.0000000000000000     
   6.2500000000000000E-002  0.78125000000000000        0.0000000000000000     
   9.3750000000000000E-002  0.78125000000000000        0.0000000000000000     
  0.12500000000000000       0.78125000000000000        0.0000000000000000     
   0.0000000000000000       0.81250000000000000        0.0000000000000000     
   3.1250000000000000E-002  0.81250000000000000        0.0000000000000000     
   6.2500000000000000E-002  0.81250000000000000        0.0000000000000000     
   9.3750000000000000E-002  0.81250000000000000        0.0000000000000000     
  0.12500000000000000       0.81250000000000000        0.0000000000000000     
   0.0000000000000000       0.84375000000000000        0.0000000000000000     
   3.1250000000000000E-002  0.84375000000000000        0.0000000000000000     
   6.2500000000000000E-002  0.84375000000000000        0.0000000000000000     
   9.3750000000000000E-002  0.84375000000000000        0.0000000000000000     
  0.12500000000000000       0.84375000000000000        0.0000000000000000     
   0.0000000000000000       0.87500000000000000        0.0000000000000000     
   3.1250000000000000E-002  0.87500000000000000        0.0000000000000000     
   6.2500000000000000E-002  0.87500000000000000        0.0000000000000000     
   9.3750000000000000E-002  0.87500000000000000        0.0000000000000000     
  0.12500000000000000       0.87500000000000000        0.0000000000000000     
  0.12500000000000000       0.75000000000000000        0.0000000000000000     
  0.15625000000000000       0.75000000000000000        0.0000000000000000     
  0.18750000000000000       0.75000000000000000        0.0000000000000000     
  0.21875000000000000       0.75000000000000000        0.0000000000000000     
  0.25000000000000000       0.75000000000000000        0.0000000000000000     
  0.12500000000000000       0.78125000000000000        0.0000000000000000     
  0.15625000000000000       0.78125000000000000        0.0000000000000000     
  0.18750000000000000       0.78125000000000000        0.0000000000000000     
  0.21875000000000000       0.78125000000000000        0.0000000000000000     
  0.25000000000000000       0.78125000000000000        0.0000000000000000     
  0.12500000000000000       0.81250000000000000        0.0000000000000000     
  0.15625000000000000       0.81250000000000000        0.0000000000000000     
  0.18750000000000000       0.81250000000000000        0.0000000000000000     
  0.21875000000000000       0.81250000000000000        0.0000000000000000     
  0.25000000000000000       0.81250000000000000        0.0000000000000000     
  0.12500000000000000       0.84375000000000000        0.0000000000000000     
  0.15625000000000000       0.84375000000000000        0.0000000000000000     
  0.18750000000000000       0.84375000000000000        0.0000000000000000     
  0.21875000000000000       0.84375000000000000        0.0000000000000000     
  0.25000000000000000       0.84375000000000000        0.0000000000000000     
  0.12500000000000000       0.87500000000000000        0.0000000000000000     
  0.15625000000000000       0.87500000000000000        0.0000000000000000     
  0.18750000000000000       0.87500000000000000        0.0000000000000000     
  0.21875000000000000       0.87500000000000000        0.0000000000000000     
  0.25000000000000000       0.87500000000000000        0.0000000000000000     
  0.25000000000000000       0.75000000000000000        0.0000000000000000     
  0.28125000000000000       0.75000000000000000        0.0000000000000000     
  0.31250000000000000       0.75000000000000000        0.0000000000000000     
  0.34375000000000000       0.75000000000000000        0.0000000000000000     
  0.37500000000000000       0.75000000000000000        0.0000000000000000     
  0.25000000000000000       0.78125000000000000        0.0000000000000000     
  0.28125000000000000       0.78125000000000000        0.0000000000000000     
  0.31250000000000000       0.78125000000000000        0.0000000000000000     
  0.34375000000000000       0.78125000000000000        0.0000000000000000     
  0.37500000000000000       0.78125000000000000        0.0000000000000000     
  0.25000000000000000       0.81250000000000000        0.0000000000000000     
  0.28125000000000000       0.81250000000000000        0.0000000000000000     
  0.31250000000000000       0.81250000000000000        0.0000000000000000     
  0.34375000000000000       0.81250000000000000        0.0000000000000000     
  0.37500000000000000       0.81250000000000000        0.0000000000000000     
  0.25000000000000000       0.84375000000000000        0.0000000000000000     
  0.28125000000000000       0.84375000000000000        0.0000000000000000     
  0.31250000000000000       0.84375000000000000        0.0000000000000000     
  0.34375000000000000       0.84375000000000000        0.0000000000000000     
  0.37500000000000000       0.84375000000000000        0.0000000000000000     
  0.25000000000000000       0.87500000000000000        0.0000000000000000     
  0.28125000000000000       0.87500000000000000        0.0000000000000000     
  0.31250000000000000       0.87500000000000000        0.0000000000000000     
  0.34375000000000000       0.87500000000000000        0.0000000000000000     
  0.37500000000000000       0.87500000000000000        0.0000000000000000     
  0.37500000000000000       0.75000000000000000        0.0000000000000000     
  0.40625000000000000       0.75000000000000000        0.0000000000000000     
  0.43750000000000000       0.75000000000000000        0.0000000000000000     
  0.46875000000000000       0.75000000000000000        0.0000000000000000     
  0.50000000000000000       0.75000000000000000        0.0000000000000000     
  0.37500000000000000       0.78125000000000000        0.0000000000000000     
  0.40625000000000000       0.78125000000000000        0.0000000000000000     
  0.43750000000000000       0.78125000000000000        0.0000000000000000     
  0.46875000000000000       0.78125000000000000        0.0000000000000000     
  0.50000000000000000       0.78125000000000000        0.0000000000000000     
  0.37500000000000000       0.81250000000000000        0.0000000000000000     
  0.40625000000000000       0.81250000000000000        0.0000000000000000     
  0.43750000000000000       0.81250000000000000        0.0000000000000000     
  0.46875000000000000       0.81250000000000000        0.0000000000000000     
  0.50000000000000000       0.81250000000000000        0.0000000000000000     
  0.37500000000000000       0.84375000000000000        0.0000000000000000     
  0.40625000000000000       0.84375000000000000        0.0000000000000000     
  0.43750000000000000       0.84375000000000000        0.0000000000000000     
  0.46875000000000000       0.84375000000000000        0.0000000000000000     
  0.50000000000000000       0.84375000000000000        0.0000000000000000     
  0.37500000000000000       0.87500000000000000        0.0000000000000000     
  0.40625000000000000       0.87500000000000000        0.0000000000000000     
  0.43750000000000000       0.87500000000000000        0.0000000000000000     
  0.46875000000000000       0.87500000000000000        0.0000000000000000     
  0.50000000000000000       0.87500000000000000        0.0000000000000000     
  0.50000000000000000       0.75000000000000000        0.0000000000000000     
  0.53125000000000000       0.75000000000000000        0.0000000000000000     
  0.56250000000000000       0.75000000000000000        0.0000000000000000     
  0.59375000000000000       0.75000000000000000        0.0000000000000000     
  0.62500000000000000       0.75000000000000000        0.0000000000000000     
  0.50000000000000000       0.78125000000000000        0.0000000000000000     
  0.53125000000000000       0.78125000000000000        0.0000000000000000     
  0.56250000000000000       0.78125000000000000        0.0000000000000000     
  0.59375000000000000       0.78125000000000000        0.0000000000000000     
  0.62500000000000000       0.78125000000000000        0.0000000000000000     
  0.50000000000000000       0.81250000000000000        0.0000000000000000     
  0.53125000000000000       0.81250000000000000        0.0000000000000000     
  0.56250000000000000       0.81250000000000000        0.0000000000000000     
  0.59375000000000000       0.81250000000000000        0.0000000000000000     
  0.62500000000000000       0.81250000000000000        0.0000000000000000     
  0.50000000000000000       0.84375000000000000        0.0000000000000000     
  0.53125000000000000       0.84375000000000000        0.0000000000000000     
  0.56250000000000000       0.84375000000000000        0.0000000000000000     
  0.59375000000000000       0.84375000000000000        0.0000000000000000     
  0.62500000000000000       0.84375000000000000        0.0000000000000000     
  0.50000000000000000       0.87500000000000000        0.0000000000000000     
  0.53125000000000000       0.87500000000000000        0.0000000000000000     
  0.56250000000000000       0.87500000000000000        0.0000000000000000     
  0.59375000000000000       0.87500000000000000        0.0000000000000000     
  0.62500000000000000       0.87500000000000000        0.0000000000000000     
  0.62500000000000000       0.75000000000000000        0.0000000000000000     
  0.65625000000000000       0.75000000000000000        0.0000000000000000     
  0.68750000000000000       0.75000000000000000        0.0000000000000000     
  0.71875000000000000       0.75000000000000000        0.0000000000000000     
  0.75000000000000000       0.75000000000000000        0.0000000000000000     
  0.62500000000000000       0.78125000000000000        0.0000000000000000     
  0.65625000000000000       0.78125000000000000        0.0000000000000000     
  0.68750000000000000       0.78125000000000000        0.0000000000000000     
  0.71875000000000000       0.78125000000000000        0.0000000000000000     
  0.75000000000000000       0.78125000000000000        0.0000000000000000     
  0.62500000000000000       0.81250000000000000        0.0000000000000000     
  0.65625000000000000       0.81250000000000000        0.0000000000000000     
  0.68750000000000000       0.81250000000000000        0.0000000000000000     
  0.71875000000000000       0.81250000000000000        0.0000000000000000     
  0.75000000000000000       0.81250000000000000        0.0000000000000000     
  0.62500000000000000       0.84375000000000000        0.0000000000000000     
  0.65625000000000000       0.84375000000000000        0.0000000000000000     
  0.68750000000000000       0.84375000000000000        0.0000000000000000     
  0.71875000000000000       0.84375000000000000        0.0000000000000000     
  0.75000000000000000       0.84375000000000000        0.0000000000000000     
  0.62500000000000000       0.87500000000000000        0.0000000000000000     
  0.65625000000000000       0.87500000000000000        0.0000000000000000     
  0.68750000000000000       0.87500000000000000        0.0000000000000000     
  0.71875000000000000       0.87500000000000000        0.0000000000000000     
  0.75000000000000000       0.87500000000000000        0.0000000000000000     
  0.75000000000000000       0.75000000000000000        0.0000000000000000     
  0.78125000000000000       0.75000000000000000        0.0000000000000000     
  0.81250000000000000       0.75000000000000000        0.0000000000000000     
  0.84375000000000000       0.75000000000000000        0.0000000000000000     
  0.87500000000000000       0.75000000000000000        0.0000000000000000     
  0.75000000000000000       0.78125000000000000        0.0000000000000000     
  0.78125000000000000       0.78125000000000000        0.0000000000000000     
  0.81250000000000000       0.78125000000000000        0.0000000000000000     
  0.84375000000000000       0.78125000000000000        0.0000000000000000     
  0.87500000000000000       0.78125000000000000        0.0000000000000000     
  0.75000000000000000       0.81250000000000000        0.0000000000000000     
  0.78125000000000000       0.81250000000000000        0.0000000000000000     
  0.81250000000000000       0.81250000000000000        0.0000000000000000     
  0.84375000000000000       0.81250000000000000        0.0000000000000000     
  0.87500000000000000       0.81250000000000000        0.0000000000000000     
  0.75000000000000000       0.84375000000000000        0.0000000000000000     
  0.78125000000000000       0.84375000000000000        0.0000000000000000     
  0.81250000000000000       0.84375000000000000        0.0000000000000000     
  0.84375000000000000       0.84375000000000000        0.0000000000000000     
  0.87500000000000000       0.84375000000000000        0.0000000000000000     
  0.75000000000000000       0.87500000000000000        0.0000000000000000     
  0.78125000000000000       0.87500000000000000        0.0000000000000000     
  0.81250000000000000       0.87500000000000000        0.0000000000000000     
  0.84375000000000000       0.87500000000000000        0.0000000000000000     
  0.87500000000000000       0.87500000000000000        0.0000000000000000     
  0.87500000000000000       0.75000000000000000        0.0000000000000000     
  0.90625000000000000       0.75000000000000000        0.0000000000000000     
  0.93750000000000000       0.75000000000000000        0.0000000000000000     
  0.96875000000000000       0.75000000000000000        0.0000000000000000     
   1.0000000000000000       0.75000000000000000        0.0000000000000000     
  0.87500000000000000       0.78125000000000000        0.0000000000000000     
  0.90625000000000000       0.78125000000000000        0.0000000000000000     
  0.93750000000000000       0.78125000000000000        0.0000000000000000     
  0.96875000000000000       0.78125000000000000        0.0000000000000000     
   1.0000000000000000       0.78125000000000000        0.0000000000000000     
  0.87500000000000000       0.81250000000000000        0.0000000000000000     
  0.90625000000000000       0.81250000000000000        0.0000000000000000     
  0.93750000000000000       0.81250000000000000        0.0000000000000000     
  0.96875000000000000       0.81250000000000000        0.0000000000000000     
   1.0000000000000000       0.81250000000000000        0.0000000000000000     
  0.87500000000000000       0.84375000000000000        0.0000000000000000     
  0.90625000000000000       0.84375000000000000        0.0000000000000000     
  0.93750000000000000       0.84375000000000000        0.0000000000000000     
  0.96875000000000000       0.84375000000000000        0.0000000000000000     
   1.0000000000000000       0.84375000000000000        0.0000000000000000     
  0.87500000000000000       0.87500000000000000        0.0000000000000000     
  0.90625000000000000       0.87500000000000000        0.0000000000000000     
  0.93750000000000000       0.87500000000000000        0.0000000000000000     
  0.96875000000000000       0.87500000000000000        0.0000000000000000     
   1.0000000000000000       0.87500000000000000        0.0000000000000000     
   0.0000000000000000       0.87500000000000000        0.0000000000000000     
   3.1250000000000000E-002  0.87500000000000000        0.0000000000000000     
   6.2500000000000000E-002  0.87500000000000000        0.0000000000000000     
   9.3750000000000000E-002  0.87500000000000000        0.0000000000000000     
  0.12500000000000000       0.87500000000000000        0.0000000000000000     
   0.0000000000000000       0.90625000000000000        0.0000000000000000     
   3.1250000000000000E-002  0.90625000000000000        0.0000000000000000     
   6.2500000000000000E-002  0.90625000000000000        0.0000000000000000     
   9.3750000000000000E-002  0.90625000000000000        0.0000000000000000     
  0.12500000000000000       0.90625000000000000        0.0000000000000000     
   0.0000000000000000       0.93750000000000000        0.0000000000000000     
   3.1250000000000000E-002  0.93750000000000000        0.0000000000000000     
   6.2500000000000000E-002  0.93750000000000000        0.0000000000000000     
   9.3750000000000000E-002  0.93750000000000000        0.0000000000000000     
  0.12500000000000000       0.93750000000000000        0.0000000000000000     
   0.0000000000000000       0.96875000000000000        0.0000000000000000     
   3.1250000000000000E-002  0.96875000000000000        0.0000000000000000     
   6.2500000000000000E-002  0.96875000000000000        0.0000000000000000     
   9.3750000000000000E-002  0.96875000000000000        0.0000000000000000     
  0.12500000000000000       0.96875000000000000        0.0000000000000000     
   0.0000000000000000        1.0000000000000000        0.0000000000000000     
   3.1250000000000000E-002   1.0000000000000000        0.0000000000000000     
   6.2500000000000000E-002   1.0000000000000000        0.0000000000000000     
   9.3750000000000000E-002   1.0000000000000000        0.0000000000000000     
  0.12500000000000000        1.0000000000000000        0.0000000000000000     
  0.12500000000000000       0.87500000000000000        0.0000000000000000     
  0.15625000000000000       0.87500000000000000        0.0000000000000000     
  0.18750000000000000       0.87500000000000000        0.0000000000000000     
  0.21875000000000000       0.87500000000000000        0.0000000000000000     
  0.25000000000000000       0.87500000000000000        0.0000000000000000     
  0.12500000000000000       0.90625000000000000        0.0000000000000000     
  0.15625000000000000       0.90625000000000000        0.0000000000000000     
  0.18750000000000000       0.90625000000000000        0.0000000000000000     
  0.21875000000000000       0.90625000000000000        0.0000000000000000     
  0.25000000000000000       0.90625000000000000        0.0000000000000000     
  0.12500000000000000       0.93750000000000000        0.0000000000000000     
  0.15625000000000000       0.93750000000000000        0.0000000000000000     
  0.18750000000000000       0.93750000000000000        0.0000000000000000     
  0.21875000000000000       0.93750000000000000        0.0000000000000000     
  0.25000000000000000       0.93750000000000000        0.0000000000000000     
  0.12500000000000000       0.96875000000000000        0.0000000000000000     
  0.15625000000000000       0.96875000000000000        0.0000000000000000     
  0.18750000000000000       0.96875000000000000        0.0000000000000000     
  0.21875000000000000       0.96875000000000000        0.0000000000000000     
  0.25000000000000000       0.96875000000000000        0.0000000000000000     
  0.12500000000000000        1.0000000000000000        0.0000000000000000     
  0.15625000000000000        1.0000000000000000        0.0000000000000000     
  0.18750000000000000        1.0000000000000000        0.0000000000000000     
  0.21875000000000000        1.0000000000000000        0.0000000000000000     
  0.25000000000000000        1.0000000000000000        0.0000000000000000     
  0.25000000000000000       0.87500000000000000        0.0000000000000000     
  0.28125000000000000       0.87500000000000000        0.0000000000000000     
  0.31250000000000000       0.87500000000000000        0.0000000000000000     
  0.34375000000000000       0.87500000000000000        0.0000000000000000     
  0.37500000000000000       0.87500000000000000        0.0000000000000000     
  0.25000000000000000       0.90625000000000000        0.0000000000000000     
  0.28125000000000000       0.90625000000000000        0.0000000000000000     
  0.31250000000000000       0.90625000000000000        0.0000000000000000     
  0.34375000000000000       0.90625000000000000        0.0000000000000000     
  0.37500000000000000       0.90625000000000000        0.0000000000000000     
  0.25000000000000000       0.93750000000000000        0.0000000000000000     
  0.28125000000000000       0.93750000000000000        0.0000000000000000     
  0.31250000000000000       0.93750000000000000        0.0000000000000000     
  0.34375000000000000       0.93750000000000000        0.0000000000000000     
  0.37500000000000000       0.93750000000000000        0.0000000000000000     
  0.25000000000000000       0.96875000000000000        0.0000000000000000     
  0.28125000000000000       0.96875000000000000        0.0000000000000000     
  0.31250000000000000       0.96875000000000000        0.0000000000000000     
  0.34375000000000000       0.96875000000000000        0.0000000000000000     
  0.37500000000000000       0.96875000000000000        0.0000000000000000     
  0.25000000000000000        1.0000000000000000        0.0000000000000000     
  0.28125000000000000        1.0000000000000000        0.0000000000000000     
  0.31250000000000000        1.0000000000000000        0.0000000000000000     
  0.34375000000000000        1.0000000000000000        0.0000000000000000     
  0.37500000000000000        1.0000000000000000        0.0000000000000000     
  0.37500000000000000       0.87500000000000000        0.0000000000000000     
  0.40625000000000000       0.87500000000000000        0.0000000000000000     
  0.43750000000000000       0.87500000000000000        0.0000000000000000     
  0.46875000000000000       0.87500000000000000        0.0000000000000000     
  0.50000000000000000       0.87500000000000000        0.0000000000000000     
  0.37500000000000000       0.90625000000000000        0.0000000000000000     
  0.40625000000000000       0.90625000000000000        0.0000000000000000     
  0.43750000000000000       0.90625000000000000        0.0000000000000000     
  0.46875000000000000       0.90625000000000000        0.0000000000000000     
  0.50000000000000000       0.90625000000000000        0.0000000000000000     
  0.37500000000000000       0.93750000000000000        0.0000000000000000     
  0.40625000000000000       0.93750000000000000        0.0000000000000000     
  0.43750000000000000       0.93750000000000000        0.0000000000000000     
  0.46875000000000000       0.93750000000000000        0.0000000000000000     
  0.50000000000000000       0.93750000000000000        0.0000000000000000     
  0.37500000000000000       0.96875000000000000        0.0000000000000000     
  0.40625000000000000       0.96875000000000000        0.0000000000000000     
  0.43750000000000000       0.96875000000000000        0.0000000000000000     
  0.46875000000000000       0.96875000000000000        0.0000000000000000     
  0.50000000000000000       0.96875000000000000        0.0000000000000000     
  0.37500000000000000        1.0000000000000000        0.0000000000000000     
  0.40625000000000000        1.0000000000000000        0.0000000000000000     
  0.43750000000000000        1.0000000000000000        0.0000000000000000     
  0.46875000000000000        1.0000000000000000        0.0000000000000000     
  0.50000000000000000        1.0000000000000000        0.0000000000000000     
  0.50000000000000000       0.87500000000000000        0.0000000000000000     
  0.53125000000000000       0.87500000000000000        0.0000000000000000     
  0.56250000000000000       0.87500000000000000        0.0000000000000000     
  0.59375000000000000       0.87500000000000000        0.0000000000000000     
  0.62500000000000000       0.87500000000000000        0.0000000000000000     
  0.50000000000000000       0.90625000000000000        0.0000000000000000     
  0.53125000000000000       0.90625000000000000        0.0000000000000000     
  0.56250000000000000       0.90625000000000000        0.0000000000000000     
  0.59375000000000000       0.90625000000000000        0.0000000000000000     
  0.62500000000000000       0.90625000000000000        0.0000000000000000     
  0.50000000000000000       0.93750000000000000        0.0000000000000000     
  0.53125000000000000       0.93750000000000000        0.0000000000000000     
  0.56250000000000000       0.93750000000000000        0.0000000000000000     
  0.59375000000000000       0.93750000000000000        0.0000000000000000     
  0.62500000000000000       0.93750000000000000        0.0000000000000000     
  0.50000000000000000       0.96875000000000000        0.0000000000000000     
  0.53125000000000000       0.96875000000000000        0.0000000000000000     
  0.56250000000000000       0.96875000000000000        0.0000000000000000     
  0.59375000000000000       0.96875000000000000        0.0000000000000000     
  0.62500000000000000       0.96875000000000000        0.0000000000000000     
  0.50000000000000000        1.0000000000000000        0.0000000000000000     
  0.53125000000000000        1.0000000000000000        0.0000000000000000     
  0.56250000000000000        1.0000000000000000        0.0000000000000000     
  0.59375000000000000        1.0000000000000000        0.0000000000000000     
  0.62500000000000000        1.0000000000000000        0.0000000000000000     
  0.62500000000000000       0.87500000000000000        0.0000000000000000     
  0.65625000000000000       0.87500000000000000        0.0000000000000000     
  0.68750000000000000       0.87500000000000000        0.0000000000000000     
  0.71875000000000000       0.87500000000000000        0.0000000000000000     
  0.75000000000000000       0.87500000000000000        0.0000000000000000     
  0.62500000000000000       0.90625000000000000        0.0000000000000000     
  0.65625000000000000       0.90625000000000000        0.0000000000000000     
  0.68750000000000000       0.90625000000000000        0.0000000000000000     
  0.71875000000000000       0.90625000000000000        0.0000000000000000     
  0.75000000000000000       0.90625000000000000        0.0000000000000000     
  0.62500000000000000       0.93750000000000000        0.0000000000000000     
  0.65625000000000000       0.93750000000000000        0.0000000000000000     
  0.68750000000000000       0.93750000000000000        0.0000000000000000     
  0.71875000000000000       0.93750000000000000        0.0000000000000000     
  0.75000000000000000       0.93750000000000000        0.0000000000000000     
  0.62500000000000000       0.96875000000000000        0.0000000000000000     
  0.65625000000000000       0.96875000000000000        0.0000000000000000     
  0.68750000000000000       0.96875000000000000        0.0000000000000000     
  0.71875000000000000       0.96875000000000000        0.0000000000000000     
  0.75000000000000000       0.96875000000000000        0.0000000000000000     
  0.62500000000000000        1.0000000000000000        0.0000000000000000     
  0.65625000000000000        1.0000000000000000        0.0000000000000000     
  0.68750000000000000        1.0000000000000000        0.0000000000000000     
  0.71875000000000000        1.0000000000000000        0.0000000000000000     
  0.75000000000000000        1.0000000000000000        0.0000000000000000     
  0.75000000000000000       0.87500000000000000        0.0000000000000000     
  0.78125000000000000       0.87500000000000000        0.0000000000000000     
  0.81250000000000000       0.87500000000000000        0.0000000000000000     
  0.84375000000000000       0.87500000000000000        0.0000000000000000     
  0.87500000000000000       0.87500000000000000        0.0000000000000000     
  0.75000000000000000       0.90625000000000000        0.0000000000000000     
  0.78125000000000000       0.90625000000000000        0.0000000000000000     
  0.81250000000000000       0.90625000000000000        0.0000000000000000     
  0.84375000000000000       0.90625000000000000        0.0000000000000000     
  0.87500000000000000       0.90625000000000000        0.0000000000000000     
  0.75000000000000000       0.93750000000000000        0.0000000000000000     
  0.78125000000000000       0.93750000000000000        0.0000000000000000     
  0.81250000000000000       0.93750000000000000        0.0000000000000000     
  0.84375000000000000       0.93750000000000000        0.0000000000000000     
  0.87500000000000000       0.93750000000000000        0.0000000000000000     
  0.75000000000000000       0.96875000000000000        0.0000000000000000     
  0.78125000000000000       0.96875000000000000        0.0000000000000000     
  0.81250000000000000       0.96875000000000000        0.0000000000000000     
  0.84375000000000000       0.96875000000000000        0.0000000000000000     
  0.87500000000000000       0.96875000000000000        0.0000000000000000     
  0.75000000000000000        1.0000000000000000        0.0000000000000000     
  0.78125000000000000        1.0000000000000000        0.0000000000000000     
  0.81250000000000000        1.0000000000000000        0.0000000000000000     
  0.84375000000000000        1.0000000000000000        0.0000000000000000     
  0.87500000000000000        1.0000000000000000        0.0000000000000000     
  0.87500000000000000       0.87500000000000000        0.0000000000000000     
  0.90625000000000000       0.87500000000000000        0.0000000000000000     
  0.93750000000000000       0.87500000000000000        0.0000000000000000     
  0.96875000000000000       0.87500000000000000        0.0000000000000000     
   1.0000000000000000       0.87500000000000000        0.0000000000000000     
  0.87500000000000000       0.90625000000000000        0.0000000000000000     
  0.90625000000000000       0.90625000000000000        0.0000000000000000     
  0.93750000000000000       0.90625000000000000        0.0000000000000000     
  0.96875000000000000       0.90625000000000000        0.0000000000000000     
   1.0000000000000000       0.90625000000000000        0.0000000000000000     
  0.87500000000000000       0.93750000000000000        0.0000000000000000     
  0.90625000000000000       0.93750000000000000        0.0000000000000000     
  0.93750000000000000       0.93750000000000000        0.0000000000000000     
  0.96875000000000000       0.93750000000000000        0.0000000000000000     
   1.0000000000000000       0.93750000000000000        0.0000000000000000     
  0.87500000000000000       0.96875000000000000        0.0000000000000000     
  0.90625000000000000       0.96875000000000000        0.0000000000000000     
  0.93750000000000000       0.96875000000000000        0.0000000000000000     
  0.96875000000000000       0.96875000000000000        0.0000000000000000     
   1.0000000000000000       0.96875000000000000        0.0000000000000000     
  0.87500000000000000        1.0000000000000000        0.0000000000000000     
  0.90625000000000000        1.0000000000000000        0.0000000000000000     
  0.93750000000000000        1.0000000000000000        0.0000000000000000     
  0.96875000000000000        1.0000000000000000        0.0000000000000000     
   1.0000000000000000        1.0000000000000000        0.0000000000000000     
 </DataArray>
 </Points>
 <Cells>
 <DataArray  type="Int32"  Name="connectivity"  format="ascii">
           0           1           6           5
           1           2           7           6
           2           3           8           7
           3           4           9           8
           5           6          11          10
           6           7          12          11
           7           8          13          12
           8           9          14          13
          10          11          16          15
          11          12          17          16
          12          13          18          17
          13          14          19          18
          15          16          21          20
          16          17          22          21
          17          18          23          22
          18          19          24          23
          25          26          31          30
          26          27          32          31
          27          28          33          32
          28          29          34          33
          30          31          36          35
          31          32          37          36
          32          33          38          37
          33          34          39          38
          35          36          41          40
          36          37          42          41
          37          38          43          42
          38          39          44          43
          40          41          46          45
          41          42          47          46
          42          43          48          47
          43          44          49          48
          50          51          56          55
          51          52          57          56
          52          53          58          57
          53          54          59          58
          55          56          61          60
          56          57          62          61
          57          58          63          62
          58          59          64          63
          60          61          66          65
          61          62          67          66
          62          63          68          67
          63          64          69          68
          65          66          71          70
          66          67          72          71
          67          68          73          72
          68          69          74          73
          75          76          81          80
          76          77          82          81
          77          78          83          82
          78          79          84          83
          80          81          86          85
          81          82          87          86
          82          83          88          87
          83          84          89          88
          85          86          91          90
          86          87          92          91
          87          88          93          92
          88          89          94          93
          90          91          96          95
          91          92          97          96
          92          93          98          97
          93          94          99          98
         100         101         106         105
         101         102         107         106
         102         103         108         107
         103         104         109         108
         105         106         111         110
         106         107         112         111
         107         108         113         112
         108         109         114         113
         110         111         116         115
         111         112         117         116
         112         113         118         117
         113         114         119         118
         115         116         121         120
         116         117         122         121
         117         118         123         122
         118         119         124         123
         125         126         131         130
         126         127         132         131
         127         128         133         132
         128         129         134         133
         130         131         136         135
         131         132         137         136
         132         133         138         137
         133         134         139         138
         135         136         141         140
         136         137         142         141
         137         138         143         142
         138         139         144         143
         140         141         146         145
         141         142         147         146
         142         143         148         147
         143         144         149         148
         150         151         156         155
         151         152         157         156
         152         153         158         157
         153         154         159         158
         155         156         161         160
         156         157         162         161
         157         158         163         162
         158         159         164         163
         160         161         166         165
         161         162         167         166
         162         163         168         167
         163         164         169         168
         165         166         171         170
         166         167         172         171
         167         168         173         172
         168         169         174         173
         175         176         181         180
         176         177         182         181
         177         178         183         182
         178         179         184         183
         180         181         186         185
         181         182         187         186
         182         183         188         187
         183         184         189         188
         185         186         191         190
         186         187         192         191
         187         188         193         192
         188         189         194         193
         190         191         196         195
         191         192         197         196
         192         193         198         197
         193         194         199         198
         200         201         206         205
         201         202         207         206
         202         203         208         207
         203         204         209         208
         205         206         211         210
         206         207         212         211
         207         208         213         212
         208         209         214         213
         210         211         216         215
         211         212         217         216
         212         213         218         217
         213         214         219         218
         215         216         221         220
         216         217         222         221
         217         218         223         222
         218         219         224         223
         225         226         231         230
         226         227         232         231
         227         228         233         232
         228         229         234         233
         230         231         236         235
         231         232         237         236
         232         233         238         237
         233         234         239         238
         235         236         241         240
         236         237         242         241
         237         238         243         242
         238         239         244         243
         240         241         246         245
         241         242         247         246
         242         243         248         247
         243         244         249         248
         250         251         256         255
         251         252         257         256
         252         253         258         257
         253         254         259         258
         255         256         261         260
         256         257         262         261
         257         258         263         262
         258         259         264         263
         260         261         266         265
         261         262         267         266
         262         263         268         267
         263         264         269         268
         265         266         271         270
         266         267         272         271
         267         268         273         272
         268         269         274         273
         275         276         281         280
         276         277         282         281
         277         278         283         282
         278         279         284         283
         280         281         286         285
         281         282         287         286
         282         283         288         287
         283         284         289         288
         285         286         291         290
         286         287         292         291
         287         288         293         292
         288         289         294         293
         290         291         296         295
         291         292         297         296
         292         293         298         297
         293         294         299         298
         300         301         306         305
         301         302         307         306
         302         303         308         307
         303         304         309         308
         305         306         311         310
         306         307         312         311
         307         308         313         312
         308         309         314         313
         310         311         316         315
         311         312         317         316
         312         313         318         317
         313         314         319         318
         315         316         321         320
         316         317         322         321
         317         318         323         322
         318         319         324         323
         325         326         331         330
         326         327         332         331
         327         328         333         332
         328         329         334         333
         330         331         336         335
         331         332         337         336
         332         333         338         337
         333         334         339         338
         335         336         341         340
         336         337         342         341
         337         338         343         342
         338         339         344         343
         340         341         346         345
         341         342         347         346
         342         343         348         347
         343         344         349         348
         350         351         356         355
         351         352         357         356
         352         353         358         357
         353         354         359         358
         355         356         361         360
         356         357         362         361
         357         358         363         362
         358         359         364         363
         360         361         366         365
         361         362         367         366
         362         363         368         367
         363         364         369         368
         365         366         371         370
         366         367         372         371
         367         368         373         372
         368         369         374         373
         375         376         381         380
         376         377         382         381
         377         378         383         382
         378         379         384         383
         380         381         386         385
         381         382         387         386
         382         383         388         387
         383         384         389         388
         385         386         391         390
         386         387         392         391
         387         388         393         392
         388         389         394         393
         390         391         396         395
         391         392         397         396
         392         393         398         397
         393         394         399         398
         400         401         406         405
         401         402         407         406
         402         403         408         407
         403         404         409         408
         405         406         411         410
         406         407         412         411
         407         408         413         412
         408         409         414         413
         410         411         416         415
         411         412         417         416
         412         413         418         417
         413         414         419         418
         415         416         421         420
         416         417         422         421
         417         418         423         422
         418         419         424         423
         425         426         431         430
         426         427         432         431
         427         428         433         432
         428         429         434         433
         430         431         436         435
         431         432         437         436
         432         433         438         437
         433         434         439         438
         435         436         441         440
         436         437         442         441
         437         438         443         442
         438         439         444         443
         440         441         446         445
         441         442         447         446
         442         443         448         447
         443         444         449         448
         450         451         456         455
         451         452         457         456
         452         453         458         457
         453         454         459         458
         455         456         461         460
         456         457         462         461
         457         458         463         462
         458         459         464         463
         460         461         466         465
         461         462         467         466
         462         463         468         467
         463         464         469         468
         465         466         471         470
         466         467         472         471
         467         468         473         472
         468         469         474         473
         475         476         481         480
         476         477         482         481
         477         478         483         482
         478         479         484         483
         480         481         486         485
         481         482         487         486
         482         483         488         487
         483         484         489         488
         485         486         491         490
         486         487         492         491
         487         488         493         492
         488         489         494         493
         490         491         496         495
         491         492         497         496
         492         493         498         497
         493         494         499         498
         500         501         506         505
         501         502         507         506
         502         503         508         507
         503         504         509         508
         505         506         511         510
         506         507         512         511
         507         508         513         512
         508         509         514         513
         510         511         516         515
         511         512         517         516
         512         513         518         517
         513         514         519         518
         515         516         521         520
         516         517         522         521
         517         518         523         522
         518         519         524         523
         525         526         531         530
         526         527         532         531
         527         528         533         532
         528         529         534         533
         530         531         536         535
         531         532         537         536
         532         533         538         537
         533         534         539         538
         535         536         541         540
         536         537         542         541
         537         538         543         542
         538         539         544         543
         540         541         546         545
         541         542         547         546
         542         543         548         547
         543         544         549         548
         550         551         556         555
         551         552         557         556
         552         553         558         557
         553         554         559         558
         555         556         561         560
         556         557         562         561
         557         558         563         562
         558         559         564         563
         560         561         566         565
         561         562         567         566
         562         563         568         567
         563         564         569         568
         565         566         571         570
         566         567         572         571
         567         568         573         572
         568         569         574         573
         575         576         581         580
         576         577         582         581
         577         578         583         582
         578         579         584         583
         580         581         586         585
         581         582         587         586
         582         583         588         587
         583         584         589         588
         585         586         591         590
         586         587         592         591
         587         588         593         592
         588         589         594         593
         590         591         596         595
         591         592         597         596
         592         593         598         597
         593         594         599         598
         600         601         606         605
         601         602         607         606
         602         603         608         607
         603         604         609         608
         605         606         611         610
         606         607         612         611
         607         608         613         612
         608         609         614         613
         610         611         616         615
         611         612         617         616
         612         613         618         617
         613         614         619         618
         615         616         621         620
         616         617         622         621
         617         618         623         622
         618         619         624         623
         625         626         631         630
         626         627         632         631
         627         628         633         632
         628         629         634         633
         630         631         636         635
         631         632         637         636
         632         633         638         637
         633         634         639         638
         635         636         641         640
         636         637         642         641
         637         638         643         642
         638         639         644         643
         640         641         646         645
         641         642         647         646
         642         643         648         647
         643         644         649         648
         650         651         656         655
         651         652         657         656
         652         653         658         657
         653         654         659         658
         655         656         661         660
         656         657         662         661
         657         658         663         662
         658         659         664         663
         660         661         666         665
         661         662         667         666
         662         663         668         667
         663         664         669         668
         665         666         671         670
         666         667         672         671
         667         668         673         672
         668         669         674         673
         675         676         681         680
         676         677         682         681
         677         678         683         682
         678         679         684         683
         680         681         686         685
         681         682         687         686
         682         683         688         687
         683         684         689         688
         685         686         691         690
         686         687         692         691
         687         688         693         692
         688         689         694         693
         690         691         696         695
         691         692         697         696
         692         693         698         697
         693         694         699         698
         700         701         706         705
         701         702         707         706
         702         703         708         707
         703         704         709         708
         705         706         711         710
         706         707         712         711
         707         708         713         712
         708         709         714         713
         710         711         716         715
         711         712         717         716
         712         713         718         717
         713         714         719         718
         715         716         721         720
         716         717         722         721
         717         718         723         722
         718         719         724         723
         725         726         731         730
         726         727         732         731
         727         728         733         732
         728         729         734         733
         730         731         736         735
         731         732         737         736
         732         733         738         737
         733         734         739         738
         735         736         741         740
         736         737         742         741
         737         738         743         742
         738         739         744         743
         740         741         746         745
         741         742         747         746
         742         743         748         747
         743         744         749         748
         750         751         756         755
         751         752         757         756
         752         753         758         757
         753         754         759         758
         755         756         761         760
         756         757         762         761
         757         758         763         762
         758         759         764         763
         760         761         766         765
         761         762         767         766
         762         763         768         767
         763         764         769         768
         765         766         771         770
         766         767         772         771
         767         768         773         772
         768         769         774         773
         775         776         781         780
         776         777         782         781
         777         778         783         782
         778         779         784         783
         780         781         786         785
         781         782         787         786
         782         783         788         787
         783         784         789         788
         785         786         791         790
         786         787         792         791
         787         788         793         792
         788         789         794         793
         790         791         796         795
         791         792         797         796
         792         793         798         797
         793         794         799         798
         800         801         806         805
         801         802         807         806
         802         803         808         807
         803         804         809         808
         805         806         811         810
         806         807         812         811
         807         808         813         812
         808         809         814         813
         810         811         816         815
         811         812         817         816
         812         813         818         817
         813         814         819         818
         815         816         821         820
         816         817         822         821
         817         818         823         822
         818         819         824         823
         825         826         831         830
         826         827         832         831
         827         828         833         832
         828         829         834         833
         830         831         836         835
         831         832         837         836
         832         833         838         837
         833         834         839         838
         835         836         841         840
         836         837         842         841
         837         838         843         842
         838         839         844         843
         840         841         846         845
         841         842         847         846
         842         843         848         847
         843         844         849         848
         850         851         856         855
         851         852         857         856
         852         853         858         857
         853         854         859         858
         855         856         861         860
         856         857         862         861
         857         858         863         862
         858         859         864         863
         860         861         866         865
         861         862         867         866
         862         863         868         867
         863         864         869         868
         865         866         871         870
         866         867         872         871
         867         868         873         872
         868         869         874         873
         875         876         881         880
         876         877         882         881
         877         878         883         882
         878         879         884         883
         880         881         886         885
         881         882         887         886
         882         883         888         887
         883         884         889         888
         885         886         891         890
         886         887         892         891
         887         888         893         892
         888         889         894         893
         890         891         896         895
         891         892         897         896
         892         893         898         897
         893         894         899         898
         900         901         906         905
         901         902         907         906
         902         903         908         907
         903         904         909         908
         905         906         911         910
         906         907         912         911
         907         908         913         912
         908         909         914         913
         910         911         916         915
         911         912         917         916
         912         913         918         917
         913         914         919         918
         915         916         921         920
         916         917         922         921
         917         918         923         922
         918         919         924         923
         925         926         931         930
         926         927         932         931
         927         928         933         932
         928         929         934         933
         930         931         936         935
         931         932         937         936
         932         933         938         937
         933         934         939         938
         935         936         941         940
         936         937         942         941
         937         938         943         942
         938         939         944         943
         940         941         946         945
         941         942         947         946
         942         943         948         947
         943         944         949         948
         950         951         956         955
         951         952         957         956
         952         953         958         957
         953         954         959         958
         955         956         961         960
         956         957         962         961
         957         958         963         962
         958         959         964         963
         960         961         966         965
         961         962         967         966
         962         963         968         967
         963         964         969         968
         965         966         971         970
         966         967         972         971
         967         968         973         972
         968         969         974         973
         975         976         981         980
         976         977         982         981
         977         978         983         982
         978         979         984         983
         980         981         986         985
         981         982         987         986
         982         983         988         987
         983         984         989         988
         985         986         991         990
         986         987         992         991
         987         988         993         992
         988         989         994         993
         990         991         996         995
         991         992         997         996
         992         993         998         997
         993         994         999         998
        1000        1001        1006        1005
        1001        1002        1007        1006
        1002        1003        1008        1007
        1003        1004        1009        1008
        1005        1006        1011        1010
        1006        1007        1012        1011
        1007        1008        1013        1012
        1008        1009        1014        1013
        1010        1011        1016        1015
        1011        1012        1017        1016
        1012        1013        1018        1017
        1013        1014        1019        1018
        1015        1016        1021        1020
        1016        1017        1022        1021
        1017        1018        1023        1022
        1018        1019        1024        1023
        1025        1026        1031        1030
        1026        1027        1032        1031
        1027        1028        1033        1032
        1028        1029        1034        1033
        1030        1031        1036        1035
        1031        1032        1037        1036
        1032        1033        1038        1037
        1033        1034        1039        1038
        1035        1036        1041        1040
        1036        1037        1042        1041
        1037        1038        1043        1042
        1038        1039        1044        1043
        1040        1041        1046        1045
        1041        1042        1047        1046
        1042        1043        1048        1047
        1043        1044        1049        1048
        1050        1051        1056        1055
        1051        1052        1057        1056
        1052        1053        1058        1057
        1053        1054        1059        1058
        1055        1056        1061        1060
        1056        1057        1062        1061
        1057        1058        1063        1062
        1058        1059        1064        1063
        1060        1061        1066        1065
        1061        1062        1067        1066
        1062        1063        1068        1067
        1063        1064        1069        1068
        1065        1066        1071        1070
        1066        1067        1072        1071
        1067        1068        1073        1072
        1068        1069        1074        1073
        1075        1076        1081        1080
        1076        1077        1082        1081
        1077        1078        1083        1082
        1078        1079        1084        1083
        1080        1081        1086        1085
        1081        1082        1087        1086
        1082        1083        1088        1087
        1083        1084        1089        1088
        1085        1086        1091        1090
        1086        1087        1092        1091
        1087        1088        1093        1092
        1088        1089        1094        1093
        1090        1091        1096        1095
        1091        1092        1097        1096
        1092        1093        1098        1097
        1093        1094        1099        1098
        1100        1101        1106        1105
        1101        1102        1107        1106
        1102        1103        1108        1107
        1103        1104        1109        1108
        1105        1106        1111        1110
        1106        1107        1112        1111
        1107        1108        1113        1112
        1108        1109        1114        1113
        1110        1111        1116        1115
        1111        1112        1117        1116
        1112        1113        1118        1117
        1113        1114        1119        1118
        1115        1116        1121        1120
        1116        1117        1122        1121
        1117        1118        1123        1122
        1118        1119        1124        1123
        1125        1126        1131        1130
        1126        1127        1132        1131
        1127        1128        1133        1132
        1128        1129        1134        1133
        1130        1131        1136        1135
        1131        1132        1137        1136
        1132        1133        1138        1137
        1133        1134        1139        1138
        1135        1136        1141        1140
        1136        1137        1142        1141
        1137        1138        1143        1142
        1138        1139        1144        1143
        1140        1141        1146        1145
        1141        1142        1147        1146
        1142        1143        1148        1147
        1143        1144        1149        1148
        1150        1151        1156        1155
        1151        1152        1157        1156
        1152        1153        1158        1157
        1153        1154        1159        1158
        1155        1156        1161        1160
        1156        1157        1162        1161
        1157        1158        1163        1162
        1158        1159        1164        1163
        1160        1161        1166        1165
        1161        1162        1167        1166
        1162        1163        1168        1167
        1163        1164        1169        1168
        1165        1166        1171        1170
        1166        1167        1172        1171
        1167        1168        1173        1172
        1168        1169        1174        1173
        1175        1176        1181        1180
        1176        1177        1182        1181
        1177        1178        1183        1182
        1178        1179        1184        1183
        1180        1181        1186        1185
        1181        1182        1187        1186
        1182        1183        1188        1187
        1183        1184        1189        1188
        1185        1186        1191        1190
        1186        1187        1192        1191
        1187        1188        1193        1192
        1188        1189        1194        1193
        1190        1191        1196        1195
        1191        1192        1197        1196
        1192        1193        1198        1197
        1193        1194        1199        1198
        1200        1201        1206        1205
        1201        1202        1207        1206
        1202        1203        1208        1207
        1203        1204        1209        1208
        1205        1206        1211        1210
        1206        1207        1212        1211
        1207        1208        1213        1212
        1208        1209        1214        1213
        1210        1211        1216        1215
        1211        1212        1217        1216
        1212        1213        1218        1217
        1213        1214        1219        1218
        1215        1216        1221        1220
        1216        1217        1222        1221
        1217        1218        1223        1222
        1218        1219        1224        1223
        1225        1226        1231        1230
        1226        1227        1232        1231
        1227        1228        1233        1232
        1228        1229        1234        1233
        1230        1231        1236        1235
        1231        1232        1237        1236
        1232        1233        1238        1237
        1233        1234        1239        1238
        1235        1236        1241        1240
        1236        1237        1242        1241
        1237        1238        1243        1242
        1238        1239        1244        1243
        1240        1241        1246        1245
        1241        1242        1247        1246
        1242        1243        1248        1247
        1243        1244        1249        1248
        1250        1251        1256        1255
        1251        1252        1257        1256
        1252        1253        1258        1257
        1253        1254        1259        1258
        1255        1256        1261        1260
        1256        1257        1262        1261
        1257        1258        1263        1262
        1258        1259        1264        1263
        1260        1261        1266        1265
        1261        1262        1267        1266
        1262        1263        1268        1267
        1263        1264        1269        1268
        1265        1266        1271        1270
        1266        1267        1272        1271
        1267        1268        1273        1272
        1268        1269        1274        1273
        1275        1276        1281        1280
        1276        1277        1282        1281
        1277        1278        1283        1282
        1278        1279        1284        1283
        1280        1281        1286        1285
        1281        1282        1287        1286
        1282        1283        1288        1287
        1283        1284        1289        1288
        1285        1286        1291        1290
        1286        1287        1292        1291
        1287        1288        1293        1292
        1288        1289        1294        1293
        1290        1291        1296        1295
        1291        1292        1297        1296
        1292        1293        1298        1297
        1293        1294        1299        1298
        1300        1301        1306        1305
        1301        1302        1307        1306
        1302        1303        1308        1307
        1303        1304        1309        1308
        1305        1306        1311        1310
        1306        1307        1312        1311
        1307        1308        1313        1312
        1308        1309        1314        1313
        1310        1311        1316        1315
        1311        1312        1317        1316
        1312        1313        1318        1317
        1313        1314        1319        1318
        1315        1316        1321        1320
        1316        1317        1322        1321
        1317        1318        1323        1322
        1318        1319        1324        1323
        1325        1326        1331        1330
        1326        1327        1332        1331
        1327        1328        1333        1332
        1328        1329        1334        1333
        1330        1331        1336        1335
        1331        1332        1337        1336
        1332        1333        1338        1337
        1333        1334        1339        1338
        1335        1336        1341        1340
        1336        1337        1342        1341
        1337        1338        1343        1342
        1338        1339        1344        1343
        1340        1341        1346        1345
        1341        1342        1347        1346
        1342        1343        1348        1347
        1343        1344        1349        1348
        1350        1351        1356        1355
        1351        1352        1357        1356
        1352        1353        1358        1357
        1353        1354        1359        1358
        1355        1356        1361        1360
        1356        1357        1362        1361
        1357        1358        1363        1362
        1358        1359        1364        1363
        1360        1361        1366        1365
        1361        1362        1367        1366
        1362        1363        1368        1367
        1363        1364        1369        1368
        1365        1366        1371        1370
        1366        1367        1372        1371
        1367        1368        1373        1372
        1368        1369        1374        1373
        1375        1376        1381        1380
        1376        1377        1382        1381
        1377        1378        1383        1382
        1378        1379        1384        1383
        1380        1381        1386        1385
        1381        1382        1387        1386
        1382        1383        1388        1387
        1383        1384        1389        1388
        1385        1386        1391        1390
        1386        1387        1392        1391
        1387        1388        1393        1392
        1388        1389        1394        1393
        1390        1391        1396        1395
        1391        1392        1397        1396
        1392        1393        1398        1397
        1393        1394        1399        1398
        1400        1401        1406        1405
        1401        1402        1407        1406
        1402        1403        1408        1407
        1403        1404        1409        1408
        1405        1406        1411        1410
        1406        1407        1412        1411
        1407        1408        1413        1412
        1408        1409        1414        1413
        1410        1411        1416        1415
        1411        1412        1417        1416
        1412        1413        1418        1417
        1413        1414        1419        1418
        1415        1416        1421        1420
        1416        1417        1422        1421
        1417        1418        1423        1422
        1418        1419        1424        1423
        1425        1426        1431        1430
        1426        1427        1432        1431
        1427        1428        1433        1432
        1428        1429        1434        1433
        1430        1431        1436        1435
        1431        1432        1437        1436
        1432        1433        1438        1437
        1433        1434        1439        1438
        1435        1436        1441        1440
        1436        1437        1442        1441
        1437        1438        1443        1442
        1438        1439        1444        1443
        1440        1441        1446        1445
        1441        1442        1447        1446
        1442        1443        1448        1447
        1443        1444        1449        1448
        1450        1451        1456        1455
        1451        1452        1457        1456
        1452        1453        1458        1457
        1453        1454        1459        1458
        1455        1456        1461        1460
        1456        1457        1462        1461
        1457        1458        1463        1462
        1458        1459        1464        1463
        1460        1461        1466        1465
        1461        1462        1467        1466
        1462        1463        1468        1467
        1463        1464        1469        1468
        1465        1466        1471        1470
        1466        1467        1472        1471
        1467        1468        1473        1472
        1468        1469        1474        1473
        1475        1476        1481        1480
        1476        1477        1482        1481
        1477        1478        1483        1482
        1478        1479        1484        1483
        1480        1481        1486        1485
        1481        1482        1487        1486
        1482        1483        1488        1487
        1483        1484        1489        1488
        1485        1486        1491        1490
        1486        1487        1492        1491
        1487        1488        1493        1492
        1488        1489        1494        1493
        1490        1491        1496        1495
        1491        1492        1497        1496
        1492        1493        1498        1497
        1493        1494        1499        1498
        1500        1501        1506        1505
        1501        1502        1507        1506
        1502        1503        1508        1507
        1503        1504        1509        1508
        1505        1506        1511        1510
        1506        1507        1512        1511
        1507        1508        1513        1512
        1508        1509        1514        1513
        1510        1511        1516        1515
        1511        1512        1517        1516
        1512        1513        1518        1517
        1513        1514        1519        1518
        1515        1516        1521        1520
        1516        1517        1522        1521
        1517        1518        1523        1522
        1518        1519        1524        1523
        1525        1526        1531        1530
        1526        1527        1532        1531
        1527        1528        1533        1532
        1528        1529        1534        1533
        1530        1531        1536        1535
        1531        1532        1537        1536
        1532        1533        1538        1537
        1533        1534        1539        1538
        1535        1536        1541        1540
        1536        1537        1542        1541
        1537        1538        1543        1542
        1538        1539        1544        1543
        1540        1541        1546        1545
        1541        1542        1547        1546
        1542        1543        1548        1547
        1543        1544        1549        1548
        1550        1551        1556        1555
        1551        1552        1557        1556
        1552        1553        1558        1557
        1553        1554        1559        1558
        1555        1556        1561        1560
        1556        1557        1562        1561
        1557        1558        1563        1562
        1558        1559        1564        1563
        1560        1561        1566        1565
        1561        1562        1567        1566
        1562        1563        1568        1567
        1563        1564        1569        1568
        1565        1566        1571        1570
        1566        1567        1572        1571
        1567        1568        1573        1572
        1568        1569        1574        1573
        1575        1576        1581        1580
        1576        1577        1582        1581
        1577        1578        1583        1582
        1578        1579        1584        1583
        1580        1581        1586        1585
        1581        1582        1587        1586
        1582        1583        1588        1587
        1583        1584        1589        1588
        1585        1586        1591        1590
        1586        1587        1592        1591
        1587        1588        1593        1592
        1588        1589        1594        1593
        1590        1591        1596        1595
        1591        1592        1597        1596
        1592        1593        1598        1597
        1593        1594        1599        1598
 </DataArray>
 <DataArray  type="Int32"  Name="offsets"  format="ascii"> 
           4
           8
          12
          16
          20
          24
          28
          32
          36
          40
          44
          48
          52
          56
          60
          64
          68
          72
          76
          80
          84
          88
          92
          96
         100
         104
         108
         112
         116
         120
         124
         128
         132
         136
         140
         144
         148
         152
         156
         160
         164
         168
         172
         176
         180
         184
         188
         192
         196
         200
         204
         208
         212
         216
         220
         224
         228
         232
         236
         240
         244
         248
         252
         256
         260
         264
         268
         272
         276
         280
         284
         288
         292
         296
         300
         304
         308
         312
         316
         320
         324
         328
         332
         336
         340
         344
         348
         352
         356
         360
         364
         368
         372
         376
         380
         384
         388
         392
         396
         400
         404
         408
         412
         416
         420
         424
         428
         432
         436
         440
         444
         448
         452
         456
         460
         464
         468
         472
         476
         480
         484
         488
         492
         496
         500
         504
         508
         512
         516
         520
         524
         528
         532
         536
         540
         544
         548
         552
         556
         560
         564
         568
         572
         576
         580
         584
         588
         592
         596
         600
         604
         608
         612
         616
         620
         624
         628
         632
         636
         640
         644
         648
         652
         656
         660
         664
         668
         672
         676
         680
         684
         688
         692
         696
         700
         704
         708
         712
         716
         720
         724
         728
         732
         736
         740
         744
         748
         752
         756
         760
         764
         768
         772
         776
         780
         784
         788
         792
         796
         800
         804
         808
         812
         816
         820
         824
         828
         832
         836
         840
         844
         848
         852
         856
         860
         864
         868
         872
         876
         880
         884
         888
         892
         896
         900
         904
         908
         912
         916
         920
         924
         928
         932
         936
         940
         944
         948
         952
         956
         960
         964
         968
         972
         976
         980
         984
         988
         992
         996
        1000
        1004
        1008
        1012
        1016
        1020
        1024
        1028
        1032
        1036
        1040
        1044
        1048
        1052
        1056
        1060
        1064
        1068
        1072
        1076
        1080
        1084
        1088
        1092
        1096
        1100
        1104
        1108
        1112
        1116
        1120
        1124
        1128
        1132
        1136
        1140
        1144
        1148
        1152
        1156
        1160
        1164
        1168
        1172
        1176
        1180
        1184
        1188
        1192
        1196
        1200
        1204
        1208
        1212
        1216
        1220
        1224
        1228
        1232
        1236
        1240
        1244
        1248
        1252
        1256
        1260
        1264
        1268
        1272
        1276
        1280
        1284
        1288
        1292
        1296
        1300
        1304
        1308
        1312
        1316
        1320
        1324
        1328
        1332
        1336
        1340
        1344
        1348
        1352
        1356
        1360
        1364
        1368
        1372
        1376
        1380
        1384
        1388
        1392
        1396
        1400
        1404
        1408
        1412
        1416
        1420
        1424
        1428
        1432
        1436
        1440
        1444
        1448
        1452
        1456
        1460
        1464
        1468
        1472
        1476
        1480
        1484
        1488
        1492
        1496
        1500
        1504
        1508
        1512
        1516
        1520
        1524
        1528
        1532
        1536
        1540
        1544
        1548
        1552
        1556
        1560
        1564
        1568
        1572
        1576
        1580
        1584
        1588
        1592
        1596
        1600
        1604
        1608
        1612
        1616
        1620
        1624
        1628
        1632
        1636
        1640
        1644
        1648
        1652
        1656
        1660
        1664
        1668
        1672
        1676
        1680
        1684
        1688
        1692
        1696
        1700
        1704
        1708
        1712
        1716
        1720
        1724
        1728
        1732
        1736
        1740
        1744
        1748
        1752
        1756
        1760
        1764
        1768
        1772
        1776
        1780
        1784
        1788
        1792
        1796
        1800
        1804
        1808
        1812
        1816
        1820
        1824
        1828
        1832
        1836
        1840
        1844
        1848
        1852
        1856
        1860
        1864
        1868
        1872
        1876
        1880
        1884
        1888
        1892
        1896
        1900
        1904
        1908
        1912
        1916
        1920
        1924
        1928
        1932
        1936
        1940
        1944
        1948
        1952
        1956
        1960
        1964
        1968
        1972
        1976
        1980
        1984
        1988
        1992
        1996
        2000
        2004
        2008
        2012
        2016
        2020
        2024
        2028
        2032
        2036
        2040
        2044
        2048
        2052
        2056
        2060
        2064
        2068
        2072
        2076
        2080
        2084
        2088
        2092
        2096
        2100
        2104
        2108
        2112
        2116
        2120
        2124
        2128
        2132
        2136
        2140
        2144
        2148
        2152
        2156
        2160
        2164
        2168
        2172
        2176
        2180
        2184
        2188
        2192
        2196
        2200
        2204
        2208
        2212
        2216
        2220
        2224
        2228
        2232
        2236
        2240
        2244
        2248
        2252
        2256
        2260
        2264
        2268
        2272
        2276
        2280
        2284
        2288
        2292
        2296
        2300
        2304
        2308
        2312
        2316
        2320
        2324
        2328
        2332
        2336
        2340
        2344
        2348
        2352
        2356
        2360
        2364
        2368
        2372
        2376
        2380
        2384
        2388
        2392
        2396
        2400
        2404
        2408
        2412
        2416
        2420
        2424
        2428
        2432
        2436
        2440
        2444
        2448
        2452
        2456
        2460
        2464
        2468
        2472
        2476
        2480
        2484
        2488
        2492
        2496
        2500
        2504
        2508
        2512
        2516
        2520
        2524
        2528
        2532
        2536
        2540
        2544
        2548
        2552
        2556
        2560
        2564
        2568
        2572
        2576
        2580
        2584
        2588
        2592
        2596
        2600
        2604
        2608
        2612
        2616
        2620
        2624
        2628
        2632
        2636
        2640
        2644
        2648
        2652
        2656
        2660
        2664
        2668
        2672
        2676
        2680
        2684
        2688
        2692
        2696
        2700
        2704
        2708
        2712
        2716
        2720
        2724
        2728
        2732
        2736
        2740
        2744
        2748
        2752
        2756
        2760
        2764
        2768
        2772
        2776
        2780
        2784
        2788
        2792
        2796
        2800
        2804
        2808
        2812
        2816
        2820
        2824
        2828
        2832
        2836
        2840
        2844
        2848
        2852
        2856
        2860
        2864
        2868
        2872
        2876
        2880
        2884
        2888
        2892
        2896
        2900
        2904
        2908
        2912
        2916
        2920
        2924
        2928
        2932
        2936
        2940
        2944
        2948
        2952
        2956
        2960
        2964
        2968
        2972
        2976
        2980
        2984
        2988
        2992
        2996
        3000
        3004
        3008
        3012
        3016
        3020
        3024
        3028
        3032
        3036
        3040
        3044
        3048
        3052
        3056
        3060
        3064
        3068
        3072
        3076
        3080
        3084
        3088
        3092
        3096
        3100
        3104
        3108
        3112
        3116
        3120
        3124
        3128
        3132
        3136
        3140
        3144
        3148
        3152
        3156
        3160
        3164
        3168
        3172
        3176
        3180
        3184
        3188
        3192
        3196
        3200
        3204
        3208
        3212
        3216
        3220
        3224
        3228
        3232
        3236
        3240
        3244
        3248
        3252
        3256
        3260
        3264
        3268
        3272
        3276
        3280
        3284
        3288
        3292
        3296
        3300
        3304
        3308
        3312
        3316
        3320
        3324
        3328
        3332
        3336
        3340
        3344
        3348
        3352
        3356
        3360
        3364
        3368
        3372
        3376
        3380
        3384
        3388
        3392
        3396
        3400
        3404
        3408
        3412
        3416
        3420
        3424
        3428
        3432
        3436
        3440
        3444
        3448
        3452
        3456
        3460
        3464
        3468
        3472
        3476
        3480
        3484
        3488
        3492
        3496
        3500
        3504
        3508
        3512
        3516
        3520
        3524
        3528
        3532
        3536
        3540
        3544
        3548
        3552
        3556
        3560
        3564
        3568
        3572
        3576
        3580
        3584
        3588
        3592
        3596
        3600
        3604
        3608
        3612
        3616
        3620
        3624
        3628
        3632
        3636
        3640
        3644
        3648
        3652
        3656
        3660
        3664
        3668
        3672
        3676
        3680
        3684
        3688
        3692
        3696
        3700
        3704
        3708
        3712
        3716
        3720
        3724
        3728
        3732
        3736
        3740
        3744
        3748
        3752
        3756
        3760
        3764
        3768
        3772
        3776
        3780
        3784
        3788
        3792
        3796
        3800
        3804
        3808
        3812
        3816
        3820
        3824
        3828
        3832
        3836
        3840
        3844
        3848
        3852
        3856
        3860
        3864
        3868
        3872
        3876
        3880
        3884
        3888
        3892
        3896
        3900
        3904
        3908
        3912
        3916
        3920
        3924
        3928
        3932
        3936
        3940
        3944
        3948
        3952
        3956
        3960
        3964
        3968
        3972
        3976
        3980
        3984
        3988
        3992
        3996
        4000
        4004
        4008
        4012
        4016
        4020
        4024
        4028
        4032
        4036
        4040
        4044
        4048
        4052
        4056
        4060
        4064
        4068
        4072
        4076
        4080
        4084
        4088
        4092
        4096
 </DataArray>
 <DataArray  type="UInt8"  Name="types"  format="ascii">
 9
 9
 9
 9
 9
 9
 9
 9
 9
 9
 9
 9
 9
 9
 9
 9
 9
 9
 9
 9
 9
 9
 9
 9
 9
 9
 9
 9
 9
 9
 9
 9
 9
 9
 9
 9
 9
 9
 9
 9
 9
 9
 9
 9
 9
 9
 9
 9
 9
 9
 9
 9
 9
 9
 9
 9
 9
 9
 9
 9
 9
 9
 9
 9
 9
 9
 9
 9
 9
 9
 9
 9
 9
 9
 9
 9
 9
 9
 9
 9
 9
 9
 9
 9
 9
 9
 9
 9
 9
 9
 9
 9
 9
 9
 9
 9
 9
 9
 9
 9
 9
 9
 9
 9
 9
 9
 9
 9
 9
 9
 9
 9
 9
 9
 9
 9
 9
 9
 9
 9
 9
 9
 9
 9
 9
 9
 9
 9
 9
 9
 9
 9
 9
 9
 9
 9
 9
 9
 9
 9
 9
 9
 9
 9
 9
 9
 9
 9
 9
 9
 9
 9
 9
 9
 9
 9
 9
 9
 9
 9
 9
 9
 9
 9
 9
 9
 9
 9
 9
 9
 9
 9
 9
 9
 9
 9
 9
 9
 9
 9
 9
 9
 9
 9
 9
 9
 9
 9
 9
 9
 9
 9
 9
 9
 9
 9
 9
 9
 9
 9
 9
 9
 9
 9
 9
 9
 9
 9
 9
 9
 9
 9
 9
 9
 9
 9
 9
 9
 9
 9
 9
 9
 9
 9
 9
 9
 9
 9
 9
 9
 9
 9
 9
 9
 9
 9
 9
 9
 9
 9
 9
 9
 9
 9
 9
 9
 9
 9
 9
 9
 9
 9
 9
 9
 9
 9
 9
 9
 9
 9
 9
 9
 9
 9
 9
 9
 9
 9
 9
 9
 9
 9
 9
 9
 9
 9
 9
 9
 9
 9
 9
 9
 9
 9
 9
 9
 9
 9
 9
 9
 9
 9
 9
 9
 9
 9
 9
 9
 9
 9
 9
 9
 9
 9
 9
 9
 9
 9
 9
 9
 9
 9
 9
 9
 9
 9
 9
 9
 9
 9
 9
 9
 9
 9
 9
 9
 9
 9
 9
 9
 9
 9
 9
 9
 9
 9
 9
 9
 9
 9
 9
 9
 9
 9
 9
 9
 9
 9
 9
 9
 9
 9
 9
 9
 9
 9
 9
 9
 9
 9
 9
 9
 9
 9
 9
 9
 9
 9
 9
 9
 9
 9
 9
 9
 9
 9
 9
 9
 9
 9
 9
 9
 9
 9
 9
 9
 9
 9
 9
 9
 9
 9
 9
 9
 9
 9
 9
 9
 9
 9
 9
 9
 9
 9
 9
 9
 9
 9
 9
 9
 9
 9
 9
 9
 9
 9
 9
 9
 9
 9
 9
 9
 9
 9
 9
 9
 9
 9
 9
 9
 9
 9
 9
 9
 9
 9
 9
 9
 9
 9
 9
 9
 9
 9
 9
 9
 9
 9
 9
 9
 9
 9
 9
 9
 9
 9
 9
 9
 9
 9
 9
 9
 9
 9
 9
 9
 9
 9
 9
 9
 9
 9
 9
 9
 9
 9
 9
 9
 9
 9
 9
 9
 9
 9
 9
 9
 9
 9
 9
 9
 9
 9
 9
 9
 9
 9
 9
 9
 9
 9
 9
 9
 9
 9
 9
 9
 9
 9
 9
 9
 9
 9
 9
 9
 9
 9
 9
 9
 9
 9
 9
 9
 9
 9
 9
 9
 9
 9
 9
 9
 9
 9
 9
 9
 9
 9
 9
 9
 9
 9
 9
 9
 9
 9
 9
 9
 9
 9
 9
 9
 9
 9
 9
 9
 9
 9
 9
 9
 9
 9
 9
 9
 9
 9
 9
 9
 9
 9
 9
 9
 9
 9
 9
 9
 9
 9
 9
 9
 9
 9
 9
 9
 9
 9
 9
 9
 9
 9
 9
 9
 9
 9
 9
 9
 9
 9
 9
 9
 9
 9
 9
 9
 9
 9
 9
 9
 9
 9
 9
 9
 9
 9
 9
 9
 9
 9
 9
 9
 9
 9
 9
 9
 9
 9
 9
 9
 9
 9
 9
 9
 9
 9
 9
 9
 9
 9
 9
 9
 9
 9
 9
 9
 9
 9
 9
 9
 9
 9
 9
 9
 9
 9
 9
 9
 9
 9
 9
 9
 9
 9
 9
 9
 9
 9
 9
 9
 9
 9
 9
 9
 9
 9
 9
 9
 9
 9
 9
 9
 9
 9
 9
 9
 9
 9
 9
 9
 9
 9
 9
 9
 9
 9
 9
 9
 9
 9
 9
 9
 9
 9
 9
 9
 9
 9
 9
 9
 9
 9
 9
 9
 9
 9
 9
 9
 9
 9
 9
 9
 9
 9
 9
 9
 9
 9
 9
 9
 9
 9
 9
 9
 9
 9
 9
 9
 9
 9
 9
 9
 9
 9
 9
 9
 9
 9
 9
 9
 9
 9
 9
 9
 9
 9
 9
 9
 9
 9
 9
 9
 9
 9
 9
 9
 9
 9
 9
 9
 9
 9
 9
 9
 9
 9
 9
 9
 9
 9
 9
 9
 9
 9
 9
 9
 9
 9
 9
 9
 9
 9
 9
 9
 9
 9
 9
 9
 9
 9
 9
 9
 9
 9
 9
 9
 9
 9
 9
 9
 9
 9
 9
 9
 9
 9
 9
 9
 9
 9
 9
 9
 9
 9
 9
 9
 9
 9
 9
 9
 9
 9
 9
 9
 9
 9
 9
 9
 9
 9
 9
 9
 9
 9
 9
 9
 9
 9
 9
 9
 9
 9
 9
 9
 9
 9
 9
 9
 9
 9
 9
 9
 9
 9
 9
 9
 9
 9
 9
 9
 9
 9
 9
 9
 9
 9
 9
 9
 9
 9
 9
 9
 9
 9
 9
 9
 9
 9
 9
 9
 9
 9
 9
 9
 9
 9
 9
 9
 9
 9
 9
 9
 9
 9
 9
 9
 9
 9
 9
 9
 9
 9
 9
 9
 9
 9
 9
 9
 9
 9
 9
 9
 9
 9
 9
 9
 9
 9
 9
 9
 9
 9
 9
 9
 9
 9
 9
 9
 9
 9
 9
 9
 9
 9
 9
 9
 9
 9
 9
 9
 9
 9
 9
 9
 9
 9
 9
 9
 9
 9
 9
 9
 9
 9
 9
 9
 9
 9
 9
 9
 9
 9
 9
 9
 9
 9
 9
 9
 9
 9
 9
 9
 9
 9
 9
 9
 9
 9
 9
 9
 9
 9
 9
 9
 9
 9
 9
 9
 9
 9
 9
 9
 9
 9
 9
 9
 9
 9
 9
 9
 9
 9
 9
 9
 9
 9
 9
 9
 9
 9
 9
 9
 9
 9
 9
 9
 9
 9
 </DataArray>
 </Cells> 
 <PointData>
 <DataArray  type="Float64" Name="disp" NumberOfComponents="3" format="ascii">
   0.0000000000000000        0.0000000000000000        0.0000000000000000     
   6.0960689714779047E-003   3.7903809631708871E-003   0.0000000000000000     
   1.1666239911609082E-002   7.3237776827703473E-003   0.0000000000000000     
   1.6710512820393528E-002   1.0600190158798381E-002   0.0000000000000000     
   2.1228887697831246E-002   1.3619618391254988E-002   0.0000000000000000     
   0.0000000000000000        0.0000000000000000        0.0000000000000000     
   4.8912508305583259E-003   3.0220902729683943E-003   0.0000000000000000     
   9.5738622966096611E-003   6.0604465160425461E-003   0.0000000000000000     
   1.4047834398154005E-002   9.1150687292224555E-003   0.0000000000000000     
   1.8313167135191356E-002   1.2185956912508122E-002   0.0000000000000000     
   0.0000000000000000        0.0000000000000000        0.0000000000000000     
   3.9536635286857641E-003   2.4250539946717503E-003   0.0000000000000000     
   7.9108424439078649E-003   5.0627815277199603E-003   0.0000000000000000     
   1.1871536745666300E-002   7.9131825991446275E-003   0.0000000000000000     
   1.5835746433961073E-002   1.0976257208945756E-002   0.0000000000000000     
   0.0000000000000000        0.0000000000000000        0.0000000000000000     
   3.2833070658602184E-003   1.9992721282809556E-003   0.0000000000000000     
   6.6771803535036912E-003   4.3307827178025874E-003   0.0000000000000000     
   1.0181619862930417E-002   6.9945317685648984E-003   0.0000000000000000     
   1.3796625594140396E-002   9.9905192805678847E-003   0.0000000000000000     
   0.0000000000000000        0.0000000000000000        0.0000000000000000     
   2.8801814420816893E-003   1.7447446737960093E-003   0.0000000000000000     
   5.8728760253971410E-003   3.8644500862904307E-003   0.0000000000000000     
   8.9780837499463546E-003   6.3591162374832637E-003   0.0000000000000000     
   1.2195804615729330E-002   9.2287431273745096E-003   0.0000000000000000     
   2.1228887697831246E-002   1.3619618391254988E-002   0.0000000000000000     
   2.5434201849336181E-002   1.6612626996853209E-002   0.0000000000000000     
   2.9539292580322254E-002   1.9809780592306096E-002   0.0000000000000000     
   3.3544159890789481E-002   2.3211079177613631E-002   0.0000000000000000     
   3.7448803780737852E-002   2.6816522752775837E-002   0.0000000000000000     
   1.8313167135191356E-002   1.2185956912508122E-002   0.0000000000000000     
   2.2408038418138161E-002   1.5341449364256018E-002   0.0000000000000000     
   2.6370626157410860E-002   1.8649884382822602E-002   0.0000000000000000     
   3.0200930353009456E-002   2.2111261968207882E-002   0.0000000000000000     
   3.3898951004933946E-002   2.5725582120411858E-002   0.0000000000000000     
   1.5835746433961073E-002   1.0976257208945756E-002   0.0000000000000000     
   1.9731669340722544E-002   1.4210832022953528E-002   0.0000000000000000     
   2.3487503297881084E-002   1.7575733706998133E-002   0.0000000000000000     
   2.7103248305436690E-002   2.1070962261079573E-002   0.0000000000000000     
   3.0578904363389357E-002   2.4696517685197854E-002   0.0000000000000000     
   1.3796625594140396E-002   9.9905192805678847E-003   0.0000000000000000     
   1.7405094617089334E-002   1.3220774972945749E-002   0.0000000000000000     
   2.0889924001732934E-002   1.6587328564832693E-002   0.0000000000000000     
   2.4251113748071183E-002   2.0090180056228712E-002   0.0000000000000000     
   2.7488663856104101E-002   2.3729329447133816E-002   0.0000000000000000     
   1.2195804615729330E-002   9.2287431273745096E-003   0.0000000000000000     
   1.5428314247238527E-002   1.2371278214232674E-002   0.0000000000000000     
   1.8577888268966395E-002   1.5684668956326270E-002   0.0000000000000000     
   2.1644526680912941E-002   1.9168915353655298E-002   0.0000000000000000     
   2.4628229483078162E-002   2.2824017406219747E-002   0.0000000000000000     
   3.7448803780737852E-002   2.6816522752775837E-002   0.0000000000000000     
   4.1257611136024941E-002   3.0621590209750367E-002   0.0000000000000000     
   4.4974968842508303E-002   3.4621760440494913E-002   0.0000000000000000     
   4.8600876900187946E-002   3.8817033445009468E-002   0.0000000000000000     
   5.2135335309063877E-002   4.3207409223294038E-002   0.0000000000000000     
   3.3898951004933946E-002   2.5725582120411858E-002   0.0000000000000000     
   3.7487858138920145E-002   2.9521750911981580E-002   0.0000000000000000     
   4.0990821780703887E-002   3.3528674415464095E-002   0.0000000000000000     
   4.4407841930285165E-002   3.7746352630859410E-002   0.0000000000000000     
   4.7738918587663978E-002   4.2174785558167525E-002   0.0000000000000000     
   3.0578904363389357E-002   2.4696517685197854E-002   0.0000000000000000     
   3.3943867226065627E-002   2.8496989085568782E-002   0.0000000000000000     
   3.7227532647792015E-002   3.2516965568408183E-002   0.0000000000000000     
   4.0429900628568542E-002   3.6756447133716064E-002   0.0000000000000000     
   4.3550971168395188E-002   4.1215433781492415E-002   0.0000000000000000     
   2.7488663856104101E-002   2.3729329447133816E-002   0.0000000000000000     
   3.0625638397461370E-002   2.7547304730511975E-002   0.0000000000000000     
   3.3685101443772687E-002   3.1586633899327178E-002   0.0000000000000000     
   3.6667052995038057E-002   3.5847316953579421E-002   0.0000000000000000     
   3.9571493051257484E-002   4.0329353893268707E-002   0.0000000000000000     
   2.4628229483078162E-002   2.2824017406219747E-002   0.0000000000000000     
   2.7533171653107379E-002   2.6672697846811165E-002   0.0000000000000000     
   3.0363528168645897E-002   3.0737679408221079E-002   0.0000000000000000     
   3.3119299029693731E-002   3.5018962090449496E-002   0.0000000000000000     
   3.5800484236250880E-002   3.9516545893496395E-002   0.0000000000000000     
   5.2135335309063877E-002   4.3207409223294038E-002   0.0000000000000000     
   5.5575558719533708E-002   4.7797119183390586E-002   0.0000000000000000     
   5.8918761781995101E-002   5.2590394733341109E-002   0.0000000000000000     
   6.2164944496448042E-002   5.7587235873145598E-002   0.0000000000000000     
   6.5314106862892546E-002   6.2787642602804061E-002   0.0000000000000000     
   4.7738918587663978E-002   4.2174785558167525E-002   0.0000000000000000     
   5.0979915839988559E-002   4.6807285528355731E-002   0.0000000000000000     
   5.4126697774407151E-002   5.1637164872391325E-002   0.0000000000000000     
   5.7179264390919742E-002   5.6664423590274307E-002   0.0000000000000000     
   6.0137615689526323E-002   6.1889061682004677E-002   0.0000000000000000     
   4.3550971168395188E-002   4.1215433781492415E-002   0.0000000000000000     
   4.6586589279562829E-002   4.5881320238936499E-002   0.0000000000000000     
   4.9532599974362358E-002   5.0741501233247582E-002   0.0000000000000000     
   5.2389003252793762E-002   5.5795976764425666E-002   0.0000000000000000     
   5.5155799114857046E-002   6.1044746832470742E-002   0.0000000000000000     
   3.9571493051257484E-002   4.0329353893268707E-002   0.0000000000000000     
   4.2395579038256526E-002   4.5019223315132903E-002   0.0000000000000000     
   4.5136468381860737E-002   4.9903403815909887E-002   0.0000000000000000     
   4.7794161082070116E-002   5.4981895395599667E-002   0.0000000000000000     
   5.0368657138884686E-002   6.0254698054202256E-002   0.0000000000000000     
   3.5800484236250880E-002   3.9516545893496395E-002   0.0000000000000000     
   3.8406885116069628E-002   4.4220994756944937E-002   0.0000000000000000     
   4.0938302996902272E-002   4.9122872620378247E-002   0.0000000000000000     
   4.3394737878748812E-002   5.4222179483796339E-002   0.0000000000000000     
   4.5776189761609250E-002   5.9518915347199206E-002   0.0000000000000000     
   6.5314106862892546E-002   6.2787642602804061E-002   0.0000000000000000     
   6.8369394490501972E-002   6.8178355615605424E-002   0.0000000000000000     
   7.1333952988449675E-002   7.3746115604838652E-002   0.0000000000000000     
   7.4207782356735710E-002   7.9490922570503733E-002   0.0000000000000000     
   7.6990882595360036E-002   8.5412776512600680E-002   0.0000000000000000     
   6.0137615689526323E-002   6.1889061682004677E-002   0.0000000000000000     
   6.3006133337249665E-002   6.7302288211093034E-002   0.0000000000000000     
   6.5789199001112492E-002   7.2895312241050017E-002   0.0000000000000000     
   6.8486812681114784E-002   7.8668133771875579E-002   0.0000000000000000     
   7.1098974377256569E-002   8.4620752803569760E-002   0.0000000000000000     
   5.5155799114857046E-002   6.1044746832470742E-002   0.0000000000000000     
   5.7837580455266623E-002   6.6481339566922121E-002   0.0000000000000000     
   6.0438940168736945E-002   7.2099283097319111E-002   0.0000000000000000     
   6.2959878255267984E-002   7.7898577423661741E-002   0.0000000000000000     
   6.5400394714859741E-002   8.3879222545949983E-002   0.0000000000000000     
   5.0368657138884686E-002   6.0254698054202256E-002   0.0000000000000000     
   5.2863735844552846E-002   6.5715509683092657E-002   0.0000000000000000     
   5.5283176491323048E-002   7.1358028173645990E-002   0.0000000000000000     
   5.7626979079195277E-002   7.7182253525862221E-002   0.0000000000000000     
   5.9895143608169547E-002   8.3188185739741349E-002   0.0000000000000000     
   4.5776189761609250E-002   5.9518915347199206E-002   0.0000000000000000     
   4.8084599505108336E-002   6.5004798559604685E-002   0.0000000000000000     
   5.0321907968870816E-002   7.0671547470030627E-002   0.0000000000000000     
   5.2488115152896697E-002   7.6519162078477004E-002   0.0000000000000000     
   5.4583221057185979E-002   8.2547642384943873E-002   0.0000000000000000     
   7.6990882595360036E-002   8.5412776512600680E-002   0.0000000000000000     
   7.9677303511150557E-002   9.1503952730984731E-002   0.0000000000000000     
   8.2261094910935181E-002   9.7756726525511178E-002   0.0000000000000000     
   8.4742256794713908E-002  0.10417109789618002        0.0000000000000000     
   8.7120789162486723E-002  0.11074706684299127        0.0000000000000000     
   7.1098974377256569E-002   8.4620752803569760E-002   0.0000000000000000     
   7.3619425012369899E-002   9.0742859762448960E-002   0.0000000000000000     
   7.6041905509286772E-002   9.7024145074829635E-002   0.0000000000000000     
   7.8366415868007258E-002  0.10346460874071174        0.0000000000000000     
   8.0592956088531315E-002  0.11006425076009535        0.0000000000000000     
   6.5400394714859741E-002   8.3879222545949983E-002   0.0000000000000000     
   6.7754382847108274E-002   9.0029383907184291E-002   0.0000000000000000     
   7.0015735951609578E-002   9.6337226950365118E-002   0.0000000000000000     
   7.2184454028363709E-002  0.10280275167549242        0.0000000000000000     
   7.4260537077370598E-002  0.10942595808256628        0.0000000000000000     
   5.9895143608169547E-002   8.3188185739741349E-002   0.0000000000000000     
   6.2082177015365704E-002   8.9363525165190708E-002   0.0000000000000000     
   6.4182586237903599E-002   9.5695972152117600E-002   0.0000000000000000     
   6.6196371275783233E-002  0.10218552670052206        0.0000000000000000     
   6.8123532129004613E-002  0.10883218881040406        0.0000000000000000     
   5.4583221057185979E-002   8.2547642384943873E-002   0.0000000000000000     
   5.6602807517142181E-002   8.8745283536468225E-002   0.0000000000000000     
   5.8542456368168801E-002   9.5100380680087165E-002   0.0000000000000000     
   6.0402167610265858E-002  0.10161293381580064        0.0000000000000000     
   6.2181941243433334E-002  0.10828294294360868        0.0000000000000000     
   8.7120789162486723E-002  0.11074706684299127        0.0000000000000000     
   8.9403401061744756E-002  0.11746698579205322        0.0000000000000000     
   9.1596801539979039E-002  0.12431320716947418        0.0000000000000000     
   9.3700990597189629E-002  0.13128573097525417        0.0000000000000000     
   9.5715968233376483E-002  0.13838455720939319        0.0000000000000000     
   8.0592956088531315E-002  0.11006425076009535        0.0000000000000000     
   8.2730904880170902E-002  0.11680880857824846        0.0000000000000000     
   8.4789640952238024E-002  0.12368401964043921        0.0000000000000000     
   8.6769164304732652E-002  0.13068988394666756        0.0000000000000000     
   8.8669474937654771E-002  0.13782640149693351        0.0000000000000000     
   7.4260537077370598E-002  0.10942595808256628        0.0000000000000000     
   7.6254650073787691E-002  0.11619471096332477        0.0000000000000000     
   7.8177457992772328E-002  0.12309687510950602        0.0000000000000000     
   8.0028960834324550E-002  0.13013245052111008        0.0000000000000000     
   8.1809158598444329E-002  0.13730143719813692        0.0000000000000000     
   6.8123532129004613E-002  0.10883218881040406        0.0000000000000000     
   6.9974636642595067E-002  0.11562469294728209        0.0000000000000000     
   7.1760252661581994E-002  0.12255177357667468        0.0000000000000000     
   7.3480380185965324E-002  0.12961343069858178        0.0000000000000000     
   7.5135019215745127E-002  0.13680966431300345        0.0000000000000000     
   6.2181941243433334E-002  0.10828294294360868        0.0000000000000000     
   6.3890864586593099E-002  0.11509875453012045        0.0000000000000000     
   6.5538024958666979E-002  0.12204871504194510        0.0000000000000000     
   6.7123422359655016E-002  0.12913282447908270        0.0000000000000000     
   6.8647056789557168E-002  0.13635108284153311        0.0000000000000000     
   9.5715968233376483E-002  0.13838455720939319        0.0000000000000000     
   9.7642251872997105E-002  0.14561145107429543        0.0000000000000000     
   9.9480358940508981E-002  0.15296817777236504        0.0000000000000000     
  0.10123028943591210       0.16045473730360207        0.0000000000000000     
  0.10289204335920647       0.16807112966800652        0.0000000000000000     
   8.8669474937654771E-002  0.13782640149693351        0.0000000000000000     
   9.0480590430137092E-002  0.14508534625229427        0.0000000000000000     
   9.2192528361312198E-002  0.15245849217380711        0.0000000000000000     
   9.3805288731180145E-002  0.15994583926147202        0.0000000000000000     
   9.5318871539740890E-002  0.16754738751528894        0.0000000000000000     
   8.1809158598444329E-002  0.13730143719813692        0.0000000000000000     
   8.3502190261301040E-002  0.14458975974047861        0.0000000000000000     
   8.5092194799064061E-002  0.15198334274802719        0.0000000000000000     
   8.6579172211733391E-002  0.15948218622078270        0.0000000000000000     
   8.7963122499308988E-002  0.16708629015874510        0.0000000000000000     
   7.5135019215745127E-002  0.13680966431300345        0.0000000000000000     
   7.6707051366488990E-002  0.14412469153884838        0.0000000000000000     
   7.8179358253764542E-002  0.15154272949502529        0.0000000000000000     
   7.9551939877571795E-002  0.15906377818153411        0.0000000000000000     
   8.0824796237910765E-002  0.16668783759837497        0.0000000000000000     
   6.8647056789557168E-002  0.13635108284153311        0.0000000000000000     
   7.0095173745700901E-002  0.14369014164740362        0.0000000000000000     
   7.1454018725413654E-002  0.15113665241480134        0.0000000000000000     
   7.2723591728695441E-002  0.15869061514372632        0.0000000000000000     
   7.3903892755546235E-002  0.16635202983417854        0.0000000000000000     
   0.0000000000000000        0.0000000000000000        0.0000000000000000     
   2.8801814420816893E-003   1.7447446737960093E-003   0.0000000000000000     
   5.8728760253971410E-003   3.8644500862904307E-003   0.0000000000000000     
   8.9780837499463546E-003   6.3591162374832637E-003   0.0000000000000000     
   1.2195804615729330E-002   9.2287431273745096E-003   0.0000000000000000     
   0.0000000000000000        0.0000000000000000        0.0000000000000000     
   2.6104342549166581E-003   1.5888124045955138E-003   0.0000000000000000     
   5.2899393354750805E-003   3.5564718381676038E-003   0.0000000000000000     
   8.0385152416752696E-003   5.9029783007162693E-003   0.0000000000000000     
   1.0856161973517221E-002   8.6283317922415115E-003   0.0000000000000000     
   0.0000000000000000        0.0000000000000000        0.0000000000000000     
   2.3402131019316054E-003   1.4588160940580716E-003   0.0000000000000000     
   4.7203801596243759E-003   3.2995361784182234E-003   0.0000000000000000     
   7.1405011730783143E-003   5.5221602530804549E-003   0.0000000000000000     
   9.6005761422934179E-003   8.1266883180447693E-003   0.0000000000000000     
   0.0000000000000000        0.0000000000000000        0.0000000000000000     
   2.0695179831265319E-003   1.3547557421836822E-003   0.0000000000000000     
   4.1641984978450291E-003   3.0936431070422905E-003   0.0000000000000000     
   6.2840415441554930E-003   5.2166620945758250E-003   0.0000000000000000     
   8.4290471220579196E-003   7.7238127047842857E-003   0.0000000000000000     
   0.0000000000000000        0.0000000000000000        0.0000000000000000     
   1.7983488985014377E-003   1.2766313489723459E-003   0.0000000000000000     
   3.6213943501370383E-003   2.9387926240398042E-003   0.0000000000000000     
   5.4691363549068030E-003   4.9864838252023751E-003   0.0000000000000000     
   7.3415749128107307E-003   7.4197049524600562E-003   0.0000000000000000     
   1.2195804615729330E-002   9.2287431273745096E-003   0.0000000000000000     
   1.5428314247238527E-002   1.2371278214232674E-002   0.0000000000000000     
   1.8577888268966395E-002   1.5684668956326270E-002   0.0000000000000000     
   2.1644526680912941E-002   1.9168915353655298E-002   0.0000000000000000     
   2.4628229483078162E-002   2.2824017406219747E-002   0.0000000000000000     
   1.0856161973517221E-002   8.6283317922415115E-003   0.0000000000000000     
   1.3689572362549264E-002   1.1650286253194720E-002   0.0000000000000000     
   1.6485439240319723E-002   1.4886595624027284E-002   0.0000000000000000     
   1.9243762606828606E-002   1.8337259904739205E-002   0.0000000000000000     
   2.1964542462075909E-002   2.2002279095330486E-002   0.0000000000000000     
   9.6005761422934179E-003   8.1266883180447693E-003   0.0000000000000000     
   1.2077113094400699E-002   1.1045743596212290E-002   0.0000000000000000     
   1.4546620056531170E-002   1.4211949310484142E-002   0.0000000000000000     
   1.7009097028684833E-002   1.7625305460860337E-002   0.0000000000000000     
   1.9464544010861683E-002   2.1285812047340862E-002   0.0000000000000000     
   8.4290471220579196E-003   7.7238127047842857E-003   0.0000000000000000     
   1.0590936442792825E-002   1.0557650243285388E-002   0.0000000000000000     
   1.2761430717600726E-002   1.3660730015696855E-002   0.0000000000000000     
   1.4940529946481618E-002   1.7033052022018685E-002   0.0000000000000000     
   1.7128234129435507E-002   2.0674616262250870E-002   0.0000000000000000     
   7.3415749128107307E-003   7.4197049524600562E-003   0.0000000000000000     
   9.2310424077256519E-003   1.0186006194414015E-002   0.0000000000000000     
   1.1129871223528395E-002   1.3232937739665409E-002   0.0000000000000000     
   1.3038061360218966E-002   1.6560499588214244E-002   0.0000000000000000     
   1.4955612817797356E-002   2.0168691740060512E-002   0.0000000000000000     
   2.4628229483078162E-002   2.2824017406219747E-002   0.0000000000000000     
   2.7533171653107379E-002   2.6672697846811165E-002   0.0000000000000000     
   3.0363528168645897E-002   3.0737679408221079E-002   0.0000000000000000     
   3.3119299029693731E-002   3.5018962090449496E-002   0.0000000000000000     
   3.5800484236250880E-002   3.9516545893496395E-002   0.0000000000000000     
   2.1964542462075909E-002   2.2002279095330486E-002   0.0000000000000000     
   2.4631237774347222E-002   2.5879668407559436E-002   0.0000000000000000     
   2.7227307511928148E-002   2.9967443053184356E-002   0.0000000000000000     
   2.9752751674818695E-002   3.4265603032205244E-002   0.0000000000000000     
   3.2207570263018841E-002   3.8774148344622110E-002   0.0000000000000000     
   1.9464544010861683E-002   2.1285812047340862E-002   0.0000000000000000     
   2.1884607542524470E-002   2.5174716385849855E-002   0.0000000000000000     
   2.4240934163135920E-002   2.9273265792311456E-002   0.0000000000000000     
   2.6533523872696044E-002   3.3581460266725656E-002   0.0000000000000000     
   2.8762376671204831E-002   3.8099299809092456E-002   0.0000000000000000     
   1.7128234129435507E-002   2.0674616262250870E-002   0.0000000000000000     
   1.9293280957639124E-002   2.4557841781682434E-002   0.0000000000000000     
   2.1404408122269219E-002   2.8655147625602385E-002   0.0000000000000000     
   2.3461615623325799E-002   3.2966533794010731E-002   0.0000000000000000     
   2.5464903460808853E-002   3.7492000286907468E-002   0.0000000000000000     
   1.4955612817797356E-002   2.0168691740060512E-002   0.0000000000000000     
   1.6857258019691179E-002   2.4029044595057166E-002   0.0000000000000000     
   1.8717729389328044E-002   2.8113088553057150E-002   0.0000000000000000     
   2.0537026926707950E-002   3.2420823614060464E-002   0.0000000000000000     
   2.2315150631830899E-002   3.6952249778067110E-002   0.0000000000000000     
   3.5800484236250880E-002   3.9516545893496395E-002   0.0000000000000000     
   3.8406885116069628E-002   4.4220994756944937E-002   0.0000000000000000     
   4.0938302996902272E-002   4.9122872620378247E-002   0.0000000000000000     
   4.3394737878748812E-002   5.4222179483796339E-002   0.0000000000000000     
   4.5776189761609250E-002   5.9518915347199206E-002   0.0000000000000000     
   3.2207570263018841E-002   3.8774148344622110E-002   0.0000000000000000     
   3.4593871337161471E-002   4.3488615720064371E-002   0.0000000000000000     
   3.6913762957879431E-002   4.8404541888161436E-002   0.0000000000000000     
   3.9167245125172737E-002   5.3521926848913312E-002   0.0000000000000000     
   4.1354317839041380E-002   5.8840770602319986E-002   0.0000000000000000     
   2.8762376671204831E-002   3.8099299809092456E-002   0.0000000000000000     
   3.0929901525691351E-002   4.2824067360182960E-002   0.0000000000000000     
   3.3038507403184668E-002   4.7753045860768208E-002   0.0000000000000000     
   3.5088194303684775E-002   5.2886235310848212E-002   0.0000000000000000     
   3.7078962227191682E-002   5.8223635710422980E-002   0.0000000000000000     
   2.5464903460808853E-002   3.7492000286907468E-002   0.0000000000000000     
   2.7414975681659282E-002   4.2227349677300713E-002   0.0000000000000000     
   2.9312536332817975E-002   4.7168384538198570E-002   0.0000000000000000     
   3.1157585414284941E-002   5.2315104869601059E-002   0.0000000000000000     
   3.2950122926060178E-002   5.7667510671508174E-002   0.0000000000000000     
   2.2315150631830899E-002   3.6952249778067110E-002   0.0000000000000000     
   2.4049093805065251E-002   4.1698462671417628E-002   0.0000000000000000     
   2.5735849746779359E-002   4.6650557920452543E-002   0.0000000000000000     
   2.7375418456973232E-002   5.1808535525171846E-002   0.0000000000000000     
   2.8967799935646858E-002   5.7172395485575581E-002   0.0000000000000000     
   4.5776189761609250E-002   5.9518915347199206E-002   0.0000000000000000     
   4.8084599505108336E-002   6.5004798559604685E-002   0.0000000000000000     
   5.0321907968870816E-002   7.0671547470030627E-002   0.0000000000000000     
   5.2488115152896697E-002   7.6519162078477004E-002   0.0000000000000000     
   5.4583221057185979E-002   8.2547642384943873E-002   0.0000000000000000     
   4.1354317839041380E-002   5.8840770602319986E-002   0.0000000000000000     
   4.3475014761143925E-002   6.4350266614125087E-002   0.0000000000000000     
   4.5529369553138972E-002   7.0039608350072224E-002   0.0000000000000000     
   4.7517382215026507E-002   7.5908795810161411E-002   0.0000000000000000     
   4.9439052746806544E-002   8.1957828994392634E-002   0.0000000000000000     
   3.7078962227191682E-002   5.8223635710422980E-002   0.0000000000000000     
   3.9009824936870476E-002   6.3752974264320819E-002   0.0000000000000000     
   4.0879796195886241E-002   6.9461978177370071E-002   0.0000000000000000     
   4.2688876004238999E-002   7.5350647449570735E-002   0.0000000000000000     
   4.4437064361928715E-002   8.1418982080922769E-002   0.0000000000000000     
   3.2950122926060178E-002   5.7667510671508174E-002   0.0000000000000000     
   3.4689030032287967E-002   6.3212921510191866E-002   0.0000000000000000     
   3.6373187897112635E-002   6.8938656951924138E-002   0.0000000000000000     
   3.8002596520534129E-002   7.4844716996704932E-002   0.0000000000000000     
   3.9577255902552511E-002   8.0931101644534278E-002   0.0000000000000000     
   2.8967799935646858E-002   5.7172395485575581E-002   0.0000000000000000     
   3.0512630047396426E-002   6.2730108351738242E-002   0.0000000000000000     
   3.2009544656818129E-002   6.8469644673734398E-002   0.0000000000000000     
   3.3458543763911955E-002   7.4391004451564047E-002   0.0000000000000000     
   3.4859627368677912E-002   8.0494187685227175E-002   0.0000000000000000     
   5.4583221057185979E-002   8.2547642384943873E-002   0.0000000000000000     
   5.6602807517142181E-002   8.8745283536468225E-002   0.0000000000000000     
   5.8542456368168801E-002   9.5100380680087165E-002   0.0000000000000000     
   6.0402167610265858E-002  0.10161293381580064        0.0000000000000000     
   6.2181941243433334E-002  0.10828294294360868        0.0000000000000000     
   4.9439052746806544E-002   8.1957828994392634E-002   0.0000000000000000     
   5.1291013100976633E-002   8.8175835355789683E-002   0.0000000000000000     
   5.3069895230034345E-002   9.4551942347376308E-002   0.0000000000000000     
   5.4775699133979665E-002  0.10108614996915254        0.0000000000000000     
   5.6408424812812608E-002  0.10777845822111833        0.0000000000000000     
   4.4437064361928715E-002   8.1418982080922769E-002   0.0000000000000000     
   4.6121532515407973E-002   8.7656356957927867E-002   0.0000000000000000     
   4.7739451711129317E-002   9.4052146967087621E-002   0.0000000000000000     
   4.9290821949092747E-002  0.10060635210840208        0.0000000000000000     
   5.0775643229298256E-002  0.10731897238187112        0.0000000000000000     
   3.9577255902552511E-002   8.0931101644534278E-002   0.0000000000000000     
   4.1094365760436215E-002   8.7186848342882817E-002   0.0000000000000000     
   4.2551125811453733E-002   9.3600994539221119E-002   0.0000000000000000     
   4.3947536055605099E-002  0.10017354023354921        0.0000000000000000     
   4.5283596492890273E-002  0.10690448542586707        0.0000000000000000     
   3.4859627368677912E-002   8.0494187685227175E-002   0.0000000000000000     
   3.6209512836061344E-002   8.6767309510654519E-002   0.0000000000000000     
   3.7504917531007625E-002   9.3198485063776801E-002   0.0000000000000000     
   3.8745841453516727E-002   9.9787714344594020E-002   0.0000000000000000     
   3.9932284603588664E-002  0.10653499735310618        0.0000000000000000     
   6.2181941243433334E-002  0.10828294294360868        0.0000000000000000     
   6.3890864586593099E-002  0.11509875453012045        0.0000000000000000     
   6.5538024958666979E-002  0.12204871504194510        0.0000000000000000     
   6.7123422359655016E-002  0.12913282447908270        0.0000000000000000     
   6.8647056789557168E-002  0.13635108284153311        0.0000000000000000     
   5.6408424812812608E-002  0.10777845822111833        0.0000000000000000     
   5.7975275409160830E-002  0.11461641872016945        0.0000000000000000     
   5.9483454065651996E-002  0.12158758308320156        0.0000000000000000     
   6.0932960782286077E-002  0.12869195131021466        0.0000000000000000     
   6.2323795559063110E-002  0.13592952340120881        0.0000000000000000     
   5.0775643229298256E-002  0.10731897238187112        0.0000000000000000     
   5.2199810613677379E-002  0.11417720852575858        0.0000000000000000     
   5.3569219164161651E-002  0.12116826127832811        0.0000000000000000     
   5.4883868880751072E-002  0.12829213063957973        0.0000000000000000     
   5.6143759763445628E-002  0.13554881660951346        0.0000000000000000     
   4.5283596492890273E-002  0.10690448542586707        0.0000000000000000     
   4.6564470200142739E-002  0.11378112394688789        0.0000000000000000     
   4.7795320254195965E-002  0.12079074962732483        0.0000000000000000     
   4.8976146655049957E-002  0.12793336246717787        0.0000000000000000     
   5.0106949402704701E-002  0.13520896246644706        0.0000000000000000     
   3.9932284603588664E-002  0.10653499735310618        0.0000000000000000     
   4.1069254168556904E-002  0.11342816498355736        0.0000000000000000     
   4.2161757335754939E-002  0.12045504813019167        0.0000000000000000     
   4.3209794105182754E-002  0.12761564679300907        0.0000000000000000     
   4.4213364476840350E-002  0.13490996097200963        0.0000000000000000     
   6.8647056789557168E-002  0.13635108284153311        0.0000000000000000     
   7.0095173745700901E-002  0.14369014164740362        0.0000000000000000     
   7.1454018725413654E-002  0.15113665241480134        0.0000000000000000     
   7.2723591728695441E-002  0.15869061514372632        0.0000000000000000     
   7.3903892755546235E-002  0.16635202983417854        0.0000000000000000     
   6.2323795559063110E-002  0.13592952340120881        0.0000000000000000     
   6.3646796031066974E-002  0.14329046713963506        0.0000000000000000     
   6.4892799833381531E-002  0.15076495030894460        0.0000000000000000     
   6.6061806966006817E-002  0.15835297290913741        0.0000000000000000     
   6.7153817428942802E-002  0.16605453494021344        0.0000000000000000     
   5.6143759763445628E-002  0.13554881660951346        0.0000000000000000     
   5.7342156854717358E-002  0.14293002508903352        0.0000000000000000     
   5.8472325197038315E-002  0.15042746197904416        0.0000000000000000     
   5.9534264790408478E-002  0.15804112727954539        0.0000000000000000     
   6.0527975634827848E-002  0.16577102099053725        0.0000000000000000     
   5.0106949402704701E-002  0.13520896246644706        0.0000000000000000     
   5.1181256216652093E-002  0.14260881549559895        0.0000000000000000     
   5.2192594816384004E-002  0.15012418742510003        0.0000000000000000     
   5.3140965201900432E-002  0.15775507825495036        0.0000000000000000     
   5.4026367373201385E-002  0.16550148798514994        0.0000000000000000     
   4.4213364476840350E-002  0.13490996097200963        0.0000000000000000     
   4.5164094116871153E-002  0.14232683835933133        0.0000000000000000     
   4.6053608691418599E-002  0.14985512664711220        0.0000000000000000     
   4.6881908200482672E-002  0.15749482583535226        0.0000000000000000     
   4.7648992644063415E-002  0.16524593592405154        0.0000000000000000     
   0.0000000000000000        0.0000000000000000        0.0000000000000000     
   1.7983488985014377E-003   1.2766313489723459E-003   0.0000000000000000     
   3.6213943501370383E-003   2.9387926240398042E-003   0.0000000000000000     
   5.4691363549068030E-003   4.9864838252023751E-003   0.0000000000000000     
   7.3415749128107307E-003   7.4197049524600562E-003   0.0000000000000000     
   0.0000000000000000        0.0000000000000000        0.0000000000000000     
   1.5349954464962637E-003   1.2173395307747974E-003   0.0000000000000000     
   3.0993397166587081E-003   2.8204863316690838E-003   0.0000000000000000     
   4.6930328104873333E-003   4.8094404026828600E-003   0.0000000000000000     
   6.3160747279821395E-003   7.1842017438161244E-003   0.0000000000000000     
   0.0000000000000000        0.0000000000000000        0.0000000000000000     
   1.2877472255509519E-003   1.1697769039417715E-003   0.0000000000000000     
   2.6054065975683431E-003   2.7242258321884499E-003   0.0000000000000000     
   3.9529781160521716E-003   4.6633467847400356E-003   0.0000000000000000     
   5.3304617810024379E-003   6.9871397615965279E-003   0.0000000000000000     
   0.0000000000000000        0.0000000000000000        0.0000000000000000     
   1.0566042356655028E-003   1.1339434684732685E-003   0.0000000000000000     
   2.1395949928659421E-003   2.6500111255979022E-003   0.0000000000000000     
   3.2489722716013175E-003   4.5482029713739009E-003   0.0000000000000000     
   4.3847360718716295E-003   6.8285190058012648E-003   0.0000000000000000     
   0.0000000000000000        0.0000000000000000        0.0000000000000000     
   8.4156647683991562E-004   1.1098392243692880E-003   0.0000000000000000     
   1.7019049025515064E-003   2.5978422118974401E-003   0.0000000000000000     
   2.5810152771347716E-003   4.4640089625844568E-003   0.0000000000000000     
   3.4788976005897124E-003   6.7083394764303377E-003   0.0000000000000000     
   7.3415749128107307E-003   7.4197049524600562E-003   0.0000000000000000     
   9.2310424077256519E-003   1.0186006194414015E-002   0.0000000000000000     
   1.1129871223528395E-002   1.3232937739665409E-002   0.0000000000000000     
   1.3038061360218966E-002   1.6560499588214244E-002   0.0000000000000000     
   1.4955612817797356E-002   2.0168691740060512E-002   0.0000000000000000     
   6.3160747279821395E-003   7.1842017438161244E-003   0.0000000000000000     
   7.9557440328290509E-003   9.8951603293076333E-003   0.0000000000000000     
   9.5993192887139922E-003   1.2892706133396140E-002   0.0000000000000000     
   1.1246800495636968E-002   1.6176839156081646E-002   0.0000000000000000     
   1.2898187653597973E-002   1.9747559397364150E-002   0.0000000000000000     
   5.3304617810024379E-003   6.9871397615965279E-003   0.0000000000000000     
   6.7233543617329075E-003   9.6494615276757102E-003   0.0000000000000000     
   8.1171526275573384E-003   1.2604168847895376E-002   0.0000000000000000     
   9.5118565784757299E-003   1.5851261722255518E-002   0.0000000000000000     
   1.0907466214488088E-002   1.9390740150756126E-002   0.0000000000000000     
   4.3847360718716295E-003   6.8285190058012648E-003   0.0000000000000000     
   5.5338733944372198E-003   9.4489097895182495E-003   0.0000000000000000     
   6.6833712400584276E-003   1.2367325883163109E-002   0.0000000000000000     
   7.8332296087352520E-003   1.5583767286735847E-002   0.0000000000000000     
   8.9834485004676948E-003   1.9098234000236459E-002   0.0000000000000000     
   3.4788976005897124E-003   6.7083394764303377E-003   0.0000000000000000     
   4.3873011309419887E-003   9.2935051148352460E-003   0.0000000000000000     
   5.2979751262172622E-003   1.2182177239199348E-002   0.0000000000000000     
   6.2109195864155347E-003   1.5374355849522646E-002   0.0000000000000000     
   7.1261345115368026E-003   1.8870040945805133E-002   0.0000000000000000     
   1.4955612817797356E-002   2.0168691740060512E-002   0.0000000000000000     
   1.6857258019691179E-002   2.4029044595057166E-002   0.0000000000000000     
   1.8717729389328044E-002   2.8113088553057150E-002   0.0000000000000000     
   2.0537026926707950E-002   3.2420823614060464E-002   0.0000000000000000     
   2.2315150631830899E-002   3.6952249778067110E-002   0.0000000000000000     
   1.2898187653597973E-002   1.9747559397364150E-002   0.0000000000000000     
   1.4537219312851686E-002   2.3578865733589659E-002   0.0000000000000000     
   1.6147634023652786E-002   2.7644757041104185E-002   0.0000000000000000     
   1.7729431786001278E-002   3.1945233319907743E-002   0.0000000000000000     
   1.9282612599897150E-002   3.6480294570000307E-002   0.0000000000000000     
   1.0907466214488088E-002   1.9390740150756126E-002   0.0000000000000000     
   1.2293845421291695E-002   2.3197846104895510E-002   0.0000000000000000     
   1.3660858084583845E-002   2.7247821556171944E-002   0.0000000000000000     
   1.5008504204364543E-002   3.1540666504585424E-002   0.0000000000000000     
   1.6336783780633784E-002   3.6076380950135954E-002   0.0000000000000000     
   8.9834485004676948E-003   1.9098234000236459E-002   0.0000000000000000     
   1.0127136345011204E-002   2.2885985708974720E-002   0.0000000000000000     
   1.1257401572121222E-002   2.6922282098260409E-002   0.0000000000000000     
   1.2374244181797748E-002   3.1207123168093522E-002   0.0000000000000000     
   1.3477664174040787E-002   3.5740508918474058E-002   0.0000000000000000     
   7.1261345115368026E-003   1.8870040945805133E-002   0.0000000000000000     
   8.0370920840102146E-003   2.2643284545827293E-002   0.0000000000000000     
   8.9372644862649141E-003   2.6668138667369591E-002   0.0000000000000000     
   9.8266517183008984E-003   3.0944603310432032E-002   0.0000000000000000     
   1.0705253780118173E-002   3.5472678475014618E-002   0.0000000000000000     
   2.2315150631830899E-002   3.6952249778067110E-002   0.0000000000000000     
   2.4049093805065251E-002   4.1698462671417628E-002   0.0000000000000000     
   2.5735849746779359E-002   4.6650557920452543E-002   0.0000000000000000     
   2.7375418456973232E-002   5.1808535525171846E-002   0.0000000000000000     
   2.8967799935646858E-002   5.7172395485575581E-002   0.0000000000000000     
   1.9282612599897150E-002   3.6480294570000307E-002   0.0000000000000000     
   2.0800476308217613E-002   4.1235611860142414E-002   0.0000000000000000     
   2.2276322753839849E-002   4.6196856259094601E-002   0.0000000000000000     
   2.3710151936763856E-002   5.1364027766856855E-002   0.0000000000000000     
   2.5101963856989651E-002   5.6737126383429183E-002   0.0000000000000000     
   1.6336783780633784E-002   3.6076380950135954E-002   0.0000000000000000     
   1.7637343603424713E-002   4.0837002761083811E-002   0.0000000000000000     
   1.8901830462770469E-002   4.5804569805689262E-002   0.0000000000000000     
   2.0130244358671060E-002   5.0979082083952326E-002   0.0000000000000000     
   2.1322585291126486E-002   5.6360539595872984E-002   0.0000000000000000     
   1.3477664174040787E-002   3.5740508918474058E-002   0.0000000000000000     
   1.4559695690686545E-002   4.0502635374241799E-002   0.0000000000000000     
   1.5612372873571227E-002   4.5473698560236538E-002   0.0000000000000000     
   1.6635695722694837E-002   5.0653698476458266E-002   0.0000000000000000     
   1.7629664238057369E-002   5.6042635122906977E-002   0.0000000000000000     
   1.0705253780118173E-002   3.5472678475014618E-002   0.0000000000000000     
   1.1567532570003118E-002   4.0232509699616399E-002   0.0000000000000000     
   1.2407949986242119E-002   4.5204242522736415E-002   0.0000000000000000     
   1.3226506028835180E-002   5.0387876944374681E-002   0.0000000000000000     
   1.4023200697782293E-002   5.5783412964531161E-002   0.0000000000000000     
   2.8967799935646858E-002   5.7172395485575581E-002   0.0000000000000000     
   3.0512630047396426E-002   6.2730108351738242E-002   0.0000000000000000     
   3.2009544656818129E-002   6.8469644673734398E-002   0.0000000000000000     
   3.3458543763911955E-002   7.4391004451564047E-002   0.0000000000000000     
   3.4859627368677912E-002   8.0494187685227175E-002   0.0000000000000000     
   2.5101963856989651E-002   5.6737126383429183E-002   0.0000000000000000     
   2.6452258354268701E-002   6.2304911383819862E-002   0.0000000000000000     
   2.7761535268352493E-002   6.8056142043037143E-002   0.0000000000000000     
   2.9029794599241019E-002   7.3990818361081068E-002   0.0000000000000000     
   3.0257036346934288E-002   8.0108940337951573E-002   0.0000000000000000     
   2.1322585291126486E-002   5.6360539595872984E-002   0.0000000000000000     
   2.2479548324977658E-002   6.1937707201296627E-002   0.0000000000000000     
   2.3601828525065455E-002   6.7699349760068611E-002   0.0000000000000000     
   2.4689425891389911E-002   7.3645467272188944E-002   0.0000000000000000     
   2.5742340423950998E-002   7.9776059737657667E-002   0.0000000000000000     
   1.7629664238057369E-002   5.6042635122906977E-002   0.0000000000000000     
   1.8594499959523284E-002   6.1628495804168536E-002   0.0000000000000000     
   1.9530424426957040E-002   6.7399267824828801E-002   0.0000000000000000     
   2.0437437640358623E-002   7.3354951184887773E-002   0.0000000000000000     
   2.1315539599728046E-002   7.9495545884345431E-002   0.0000000000000000     
   1.4023200697782293E-002   5.5783412964531161E-002   0.0000000000000000     
   1.4797113257905597E-002   6.1377277192435617E-002   0.0000000000000000     
   1.5547322974027217E-002   6.7155896237317714E-002   0.0000000000000000     
   1.6273829846147163E-002   7.3119270099177472E-002   0.0000000000000000     
   1.6976633874265422E-002   7.9267398778014878E-002   0.0000000000000000     
   3.4859627368677912E-002   8.0494187685227175E-002   0.0000000000000000     
   3.6209512836061344E-002   8.6767309510654519E-002   0.0000000000000000     
   3.7504917531007625E-002   9.3198485063776801E-002   0.0000000000000000     
   3.8745841453516727E-002   9.9787714344594020E-002   0.0000000000000000     
   3.9932284603588664E-002  0.10653499735310618        0.0000000000000000     
   3.0257036346934288E-002   8.0108940337951573E-002   0.0000000000000000     
   3.1439502755218861E-002   8.6397634153692032E-002   0.0000000000000000     
   3.2573436067881309E-002   9.2844025988345777E-002   0.0000000000000000     
   3.3658836284921619E-002   9.9448115841912793E-002   0.0000000000000000     
   3.4695703406339810E-002  0.10620990371439309        0.0000000000000000     
   2.5742340423950998E-002   7.9776059737657667E-002   0.0000000000000000     
   2.6756864530844252E-002   8.6077715964444496E-002   0.0000000000000000     
   2.7729290620165187E-002   9.2537024760519226E-002   0.0000000000000000     
   2.8659618691913802E-002   9.9153986125881888E-002   0.0000000000000000     
   2.9547848746090101E-002  0.10592860006053245        0.0000000000000000     
   2.1315539599728046E-002   7.9495545884345431E-002   0.0000000000000000     
   2.2161598162937515E-002   8.5807554942911854E-002   0.0000000000000000     
   2.2972481187859252E-002   9.2277481380297149E-002   0.0000000000000000     
   2.3748188674493260E-002   9.8905325196501276E-002   0.0000000000000000     
   2.4488720622839532E-002  0.10569108639152427        0.0000000000000000     
   1.6976633874265422E-002   7.9267398778014878E-002   0.0000000000000000     
   1.7653703651498653E-002   8.5587151089094163E-002   0.0000000000000000     
   1.8303007770963508E-002   9.2065395847679532E-002   0.0000000000000000     
   1.8924546232659992E-002   9.8702133053770985E-002   0.0000000000000000     
   1.9518319036588100E-002  0.10549736270736856        0.0000000000000000     
   3.9932284603588664E-002  0.10653499735310618        0.0000000000000000     
   4.1069254168556904E-002  0.11342816498355736        0.0000000000000000     
   4.2161757335754939E-002  0.12045504813019167        0.0000000000000000     
   4.3209794105182754E-002  0.12761564679300907        0.0000000000000000     
   4.4213364476840350E-002  0.13490996097200963        0.0000000000000000     
   3.4695703406339810E-002  0.10620990371439309        0.0000000000000000     
   3.5689044033160866E-002  0.11311791164686409        0.0000000000000000     
   3.6643864766409774E-002  0.12016066168040331        0.0000000000000000     
   3.7560165606086549E-002  0.12733815381501068        0.0000000000000000     
   3.8437946552191182E-002  0.13465038805068624        0.0000000000000000     
   2.9547848746090101E-002  0.10592860006053245        0.0000000000000000     
   3.0398721308195559E-002  0.11284994394790518        0.0000000000000000     
   3.1216976903731673E-002  0.11990709517143433        0.0000000000000000     
   3.2002615532698439E-002  0.12710005373111991        0.0000000000000000     
   3.2755637195095846E-002  0.13442881962696190        0.0000000000000000     
   2.4488720622839532E-002  0.10569108639152427        0.0000000000000000     
   2.5198285993661002E-002  0.11262426188668062        0.0000000000000000     
   2.5881093747720633E-002  0.11969434860328479        0.0000000000000000     
   2.6537143885018408E-002  0.12690134654133681        0.0000000000000000     
   2.7166436405554335E-002  0.13424525570083665        0.0000000000000000     
   1.9518319036588100E-002  0.10549736270736856        0.0000000000000000     
   2.0087738089557199E-002  0.11244086546319038        0.0000000000000000     
   2.0636215298376660E-002  0.11952242197595467        0.0000000000000000     
   2.1163750663046474E-002  0.12674203224566138        0.0000000000000000     
   2.1670344183566649E-002  0.13409969627231053        0.0000000000000000     
   4.4213364476840350E-002  0.13490996097200963        0.0000000000000000     
   4.5164094116871153E-002  0.14232683835933133        0.0000000000000000     
   4.6053608691418599E-002  0.14985512664711220        0.0000000000000000     
   4.6881908200482672E-002  0.15749482583535226        0.0000000000000000     
   4.7648992644063415E-002  0.16524593592405154        0.0000000000000000     
   3.8437946552191182E-002  0.13465038805068624        0.0000000000000000     
   3.9266726561168676E-002  0.14208350409270248        0.0000000000000000     
   4.0036024589463995E-002  0.14962364164633188        0.0000000000000000     
   4.0745840637077167E-002  0.15727080071157448        0.0000000000000000     
   4.1396174704008179E-002  0.16502498128843018        0.0000000000000000     
   3.2755637195095846E-002  0.13442881962696190        0.0000000000000000     
   3.3465209555338785E-002  0.14187822310818410        0.0000000000000000     
   3.4120500277842095E-002  0.14943309442401018        0.0000000000000000     
   3.4721509362605804E-002  0.15709343357444019        0.0000000000000000     
   3.5268236809629906E-002  0.16485924055947412        0.0000000000000000     
   2.7166436405554335E-002  0.13424525570083665        0.0000000000000000     
   2.7759543099381480E-002  0.14171099540577617        0.0000000000000000     
   2.8307035756552901E-002  0.14928348498014710        0.0000000000000000     
   2.8808914377068617E-002  0.15696272442394946        0.0000000000000000     
   2.9265178960928614E-002  0.16474871373718322        0.0000000000000000     
   2.1670344183566649E-002  0.13409969627231053        0.0000000000000000     
   2.2149727193296768E-002  0.14158182098547875        0.0000000000000000     
   2.2595631025596415E-002  0.14917481331474269        0.0000000000000000     
   2.3008055680465590E-002  0.15687867326010230        0.0000000000000000     
   2.3387001157904295E-002  0.16469340082155759        0.0000000000000000     
   0.0000000000000000        0.0000000000000000        0.0000000000000000     
   8.4156647683991562E-004   1.1098392243692880E-003   0.0000000000000000     
   1.7019049025515064E-003   2.5978422118974401E-003   0.0000000000000000     
   2.5810152771347716E-003   4.4640089625844568E-003   0.0000000000000000     
   3.4788976005897124E-003   6.7083394764303377E-003   0.0000000000000000     
   0.0000000000000000        0.0000000000000000        0.0000000000000000     
   6.3372060683409745E-004   1.0938816668150881E-003   0.0000000000000000     
   1.2777922700483789E-003   2.5618484255738303E-003   0.0000000000000000     
   1.9322149896428445E-003   4.4039002762762264E-003   0.0000000000000000     
   2.5969887656174940E-003   6.6200372189222766E-003   0.0000000000000000     
   0.0000000000000000        0.0000000000000000        0.0000000000000000     
   4.2415328340795501E-004   1.0824882909959259E-003   0.0000000000000000     
   8.5271303877990415E-004   2.5361591011138374E-003   0.0000000000000000     
   1.2856792661158477E-003   4.3610124303537353E-003   0.0000000000000000     
   1.7230519654157853E-003   6.5570482787156176E-003   0.0000000000000000     
   0.0000000000000000        0.0000000000000000        0.0000000000000000     
   2.1286450656148815E-004   1.0756590969118018E-003   0.0000000000000000     
   4.2666720874608177E-004   2.5207742385174627E-003   0.0000000000000000     
   6.4140810655378077E-004   4.3353454248169811E-003   0.0000000000000000     
   8.5708719998458518E-004   6.5193726558103590E-003   0.0000000000000000     
   0.0000000000000000        0.0000000000000000        0.0000000000000000     
  -1.4572370530304812E-007   1.0733940845627161E-003   0.0000000000000000     
  -3.4522005308828402E-007   2.5156938377847047E-003   0.0000000000000000     
  -5.9848904335581612E-007   4.3268992596659670E-003   0.0000000000000000     
  -9.0553067610559023E-007   6.5070103502065007E-003   0.0000000000000000     
   3.4788976005897124E-003   6.7083394764303377E-003   0.0000000000000000     
   4.3873011309419887E-003   9.2935051148352460E-003   0.0000000000000000     
   5.2979751262172622E-003   1.2182177239199348E-002   0.0000000000000000     
   6.2109195864155347E-003   1.5374355849522646E-002   0.0000000000000000     
   7.1261345115368026E-003   1.8870040945805133E-002   0.0000000000000000     
   2.5969887656174940E-003   6.6200372189222766E-003   0.0000000000000000     
   3.2691776783795889E-003   9.1773281310292068E-003   0.0000000000000000     
   3.9458458083363899E-003   1.2042841890114243E-002   0.0000000000000000     
   4.6269931554878988E-003   1.5216578496177385E-002   0.0000000000000000     
   5.3126197198341127E-003   1.8698537949218635E-002   0.0000000000000000     
   1.7230519654157853E-003   6.5570482787156176E-003   0.0000000000000000     
   2.1650431438823953E-003   9.0944594655026374E-003   0.0000000000000000     
   2.6118648087183568E-003   1.1943438810017949E-002   0.0000000000000000     
   3.0635169599236697E-003   1.5103986312261546E-002   0.0000000000000000     
   3.5199995974983331E-003   1.8576101972233437E-002   0.0000000000000000     
   8.5708719998458518E-004   6.5193726558103590E-003   0.0000000000000000     
   1.0748975274504082E-003   9.0448991182555359E-003   0.0000000000000000     
   1.2960321273631627E-003   1.1883967998910460E-002   0.0000000000000000     
   1.5204909997228479E-003   1.5036579297775129E-002   0.0000000000000000     
   1.7482741445294650E-003   1.8502733014849539E-002   0.0000000000000000     
  -9.0553067610559023E-007   6.5070103502065007E-003   0.0000000000000000     
  -1.2591709163730237E-006   9.0286470892879077E-003   0.0000000000000000     
  -1.6522357291930053E-006   1.1864429456791784E-002   0.0000000000000000     
  -2.0847251145665007E-006   1.5014357452718131E-002   0.0000000000000000     
  -2.5566390724925375E-006   1.8478431077066947E-002   0.0000000000000000     
   7.1261345115368026E-003   1.8870040945805133E-002   0.0000000000000000     
   8.0370920840102146E-003   2.2643284545827293E-002   0.0000000000000000     
   8.9372644862649141E-003   2.6668138667369591E-002   0.0000000000000000     
   9.8266517183008984E-003   3.0944603310432032E-002   0.0000000000000000     
   1.0705253780118173E-002   3.5472678475014618E-002   0.0000000000000000     
   5.3126197198341127E-003   1.8698537949218635E-002   0.0000000000000000     
   5.9957910259543536E-003   2.2461203795169738E-002   0.0000000000000000     
   6.6695725984279378E-003   2.6477059579962461E-002   0.0000000000000000     
   7.3339644372548652E-003   3.0746105303596789E-002   0.0000000000000000     
   7.9889665424351386E-003   3.5268340966072738E-002   0.0000000000000000     
   3.5199995974983331E-003   1.8576101972233437E-002   0.0000000000000000     
   3.9753115585092480E-003   2.2331204636718591E-002   0.0000000000000000     
   4.4234516800233138E-003   2.6340713152501985E-002   0.0000000000000000     
   4.8644199620405297E-003   3.0604627519583625E-002   0.0000000000000000     
   5.2982164045608958E-003   3.5122947737963504E-002   0.0000000000000000     
   1.7482741445294650E-003   1.8502733014849539E-002   0.0000000000000000     
   1.9756536816749005E-003   2.2253287070473839E-002   0.0000000000000000     
   2.1989017310510418E-003   2.6259099384988174E-002   0.0000000000000000     
   2.4180182926578893E-003   3.0520169958392532E-002   0.0000000000000000     
   2.6330033664954426E-003   3.5036498790686925E-002   0.0000000000000000     
  -2.5566390724925375E-006   1.8478431077066947E-002   0.0000000000000000     
  -3.1826045486898743E-006   2.2227451096435490E-002   0.0000000000000000     
  -4.0772484888765650E-006   2.6232218277421011E-002   0.0000000000000000     
  -5.2405708930536532E-006   3.0492732620023513E-002   0.0000000000000000     
  -6.6725717612202851E-006   3.5008994124242999E-002   0.0000000000000000     
   1.0705253780118173E-002   3.5472678475014618E-002   0.0000000000000000     
   1.1567532570003118E-002   4.0232509699616399E-002   0.0000000000000000     
   1.2407949986242119E-002   4.5204242522736415E-002   0.0000000000000000     
   1.3226506028835180E-002   5.0387876944374681E-002   0.0000000000000000     
   1.4023200697782293E-002   5.5783412964531161E-002   0.0000000000000000     
   7.9889665424351386E-003   3.5268340966072738E-002   0.0000000000000000     
   8.6319656353756775E-003   4.0024557851667003E-002   0.0000000000000000     
   9.2603484374834052E-003   4.4995547244656320E-002   0.0000000000000000     
   9.8741149487583217E-003   5.0181309145040674E-002   0.0000000000000000     
   1.0473265169200423E-002   5.5581843552820073E-002   0.0000000000000000     
   5.2982164045608958E-003   3.5122947737963504E-002   0.0000000000000000     
   5.7241062808054783E-003   3.9876711944853052E-002   0.0000000000000000     
   6.1413548639953439E-003   4.4846958277463676E-002   0.0000000000000000     
   6.5499621541304925E-003   5.0033686735795405E-002   0.0000000000000000     
   6.9499281512109233E-003   5.5436897319848209E-002   0.0000000000000000     
   2.6330033664954426E-003   3.5036498790686925E-002   0.0000000000000000     
   2.8439545062925189E-003   3.9788971979174526E-002   0.0000000000000000     
   3.0509692657779358E-003   4.4758475621158506E-002   0.0000000000000000     
   3.2540476449516931E-003   4.9945009716638865E-002   0.0000000000000000     
   3.4531896438137906E-003   5.5348574265615597E-002   0.0000000000000000     
  -6.6725717612202851E-006   3.5008994124242999E-002   0.0000000000000000     
  -8.4896881632013158E-006   3.9761337954631430E-002   0.0000000000000000     
  -1.0808357168819865E-005   4.4730099275740787E-002   0.0000000000000000     
  -1.3628578778076585E-005   4.9915278087571041E-002   0.0000000000000000     
  -1.6950352990971907E-005   5.5316874390122221E-002   0.0000000000000000     
   1.4023200697782293E-002   5.5783412964531161E-002   0.0000000000000000     
   1.4797113257905597E-002   6.1377277192435617E-002   0.0000000000000000     
   1.5547322974027217E-002   6.7155896237317714E-002   0.0000000000000000     
   1.6273829846147163E-002   7.3119270099177472E-002   0.0000000000000000     
   1.6976633874265422E-002   7.9267398778014878E-002   0.0000000000000000     
   1.0473265169200423E-002   5.5581843552820073E-002   0.0000000000000000     
   1.1055858173400077E-002   6.1181994447376029E-002   0.0000000000000000     
   1.1619953035947648E-002   6.6966605808090038E-002   0.0000000000000000     
   1.2165549756843133E-002   7.2935677634962143E-002   0.0000000000000000     
   1.2692648336086529E-002   7.9089209927992316E-002   0.0000000000000000     
   6.9499281512109233E-003   5.5436897319848209E-002   0.0000000000000000     
   7.3392046592822167E-003   6.1040590650267963E-002   0.0000000000000000     
   7.7157434823899567E-003   6.6828767347700546E-002   0.0000000000000000     
   8.0795446205341407E-003   7.2801427412145903E-002   0.0000000000000000     
   8.4306080737147678E-003   7.8958570843604095E-002   0.0000000000000000     
   3.4531896438137906E-003   5.5348574265615597E-002   0.0000000000000000     
   3.6471527155520138E-003   6.0953065801111449E-002   0.0000000000000000     
   3.8346943133541461E-003   6.6742380856149169E-002   0.0000000000000000     
   4.0158144372201884E-003   7.2716519430728752E-002   0.0000000000000000     
   4.1905130871501394E-003   7.8875481524850202E-002   0.0000000000000000     
  -1.6950352990971907E-005   5.5316874390122221E-002   0.0000000000000000     
  -2.0297657790532288E-005   6.0919419899906471E-002   0.0000000000000000     
  -2.3194471159783370E-005   6.6707446333435963E-002   0.0000000000000000     
  -2.5640793098725764E-005   7.2680953690710662E-002   0.0000000000000000     
  -2.7636623607360132E-005   7.8839941971730609E-002   0.0000000000000000     
   1.6976633874265422E-002   7.9267398778014878E-002   0.0000000000000000     
   1.7653703651498653E-002   8.5587151089094163E-002   0.0000000000000000     
   1.8303007770963508E-002   9.2065395847679532E-002   0.0000000000000000     
   1.8924546232659992E-002   9.8702133053770985E-002   0.0000000000000000     
   1.9518319036588100E-002  0.10549736270736856        0.0000000000000000     
   1.2692648336086529E-002   7.9089209927992316E-002   0.0000000000000000     
   1.3200343986723054E-002   8.5414529655718538E-002   0.0000000000000000     
   1.3687731921797917E-002   9.1898963786678764E-002   0.0000000000000000     
   1.4154812141311118E-002   9.8542512320873035E-002   0.0000000000000000     
   1.4601584645262660E-002  0.10534517525830131        0.0000000000000000     
   8.4306080737147678E-003   7.8958570843604095E-002   0.0000000000000000     
   8.7686821588061122E-003   8.5287715895512192E-002   0.0000000000000000     
   9.0935151926824411E-003   9.1776380821307291E-002   0.0000000000000000     
   9.4051071753437545E-003   9.8424565620989432E-002   0.0000000000000000     
   9.7034581067900524E-003  0.10523227029455859        0.0000000000000000     
   4.1905130871501394E-003   7.8875481524850202E-002   0.0000000000000000     
   4.3587181677478271E-003   8.5206709808475112E-002   0.0000000000000000     
   4.5203575836170800E-003   9.1697646951565112E-002   0.0000000000000000     
   4.6754313347578983E-003   9.8348292954120176E-002   0.0000000000000000     
   4.8239394211702820E-003  0.10515864781614034        0.0000000000000000     
  -2.7636623607360132E-005   7.8839941971730609E-002   0.0000000000000000     
  -2.9547986451800880E-005   8.5171511394607269E-002   0.0000000000000000     
  -3.1740905398163551E-005   9.1662762177452159E-002   0.0000000000000000     
  -3.4215380446449135E-005   9.8313694320265280E-002   0.0000000000000000     
  -3.6971411596656290E-005  0.10512430782304660        0.0000000000000000     
   1.9518319036588100E-002  0.10549736270736856        0.0000000000000000     
   2.0087738089557199E-002  0.11244086546319038        0.0000000000000000     
   2.0636215298376660E-002  0.11952242197595467        0.0000000000000000     
   2.1163750663046474E-002  0.12674203224566138        0.0000000000000000     
   2.1670344183566649E-002  0.13409969627231053        0.0000000000000000     
   1.4601584645262660E-002  0.10534517525830131        0.0000000000000000     
   1.5030517600856141E-002  0.11229674100405734        0.0000000000000000     
   1.5444079175295156E-002  0.11938699796323479        0.0000000000000000     
   1.5842269368579714E-002  0.12661594613583363        0.0000000000000000     
   1.6225088180709807E-002  0.13398358552185397        0.0000000000000000     
   9.7034581067900524E-003  0.10523227029455859        0.0000000000000000     
   9.9900645325298205E-003  0.11218887483590427        0.0000000000000000     
   1.0266422998071536E-002  0.11928375923891600        0.0000000000000000     
   1.0532533503415202E-002  0.12651692350359375        0.0000000000000000     
   1.0788396048560817E-002  0.13388836762993753        0.0000000000000000     
   4.8239394211702820E-003  0.10515864781614034        0.0000000000000000     
   4.9663788845782427E-003  0.11211726695873120        0.0000000000000000     
   5.1032467667057983E-003  0.11921270580299827        0.0000000000000000     
   5.2345430675529445E-003  0.12644496434894159        0.0000000000000000     
   5.3602677871196856E-003  0.13381404259656116        0.0000000000000000     
  -3.6971411596656290E-005  0.10512430782304660        0.0000000000000000     
  -4.0539342998591145E-005  0.11208191737253809        0.0000000000000000     
  -4.5449518802058203E-005  0.11917383765548166        0.0000000000000000     
  -5.1701939007058251E-005  0.12640006867187725        0.0000000000000000     
  -5.9296603613591316E-005  0.13376061042172493        0.0000000000000000     
   2.1670344183566649E-002  0.13409969627231053        0.0000000000000000     
   2.2149727193296768E-002  0.14158182098547875        0.0000000000000000     
   2.2595631025596415E-002  0.14917481331474269        0.0000000000000000     
   2.3008055680465590E-002  0.15687867326010230        0.0000000000000000     
   2.3387001157904295E-002  0.16469340082155759        0.0000000000000000     
   1.6225088180709807E-002  0.13398358552185397        0.0000000000000000     
   1.6589717314397269E-002  0.14147812096665027        0.0000000000000000     
   1.6933338472353926E-002  0.14908775731557705        0.0000000000000000     
   1.7255951654579778E-002  0.15681249456863439        0.0000000000000000     
   1.7557556861074824E-002  0.16465233272582219        0.0000000000000000     
   1.0788396048560817E-002  0.13388836762993753        0.0000000000000000     
   1.1033468939995589E-002  0.14138731646864919        0.0000000000000000     
   1.1267210484206725E-002  0.14900299487043051        0.0000000000000000     
   1.1489620681194227E-002  0.15673540283528148        0.0000000000000000     
   1.1700699530958090E-002  0.16458454036320214        0.0000000000000000     
   5.3602677871196856E-003  0.13381404259656116        0.0000000000000000     
   5.4809820700917368E-003  0.14130940749147547        0.0000000000000000     
   5.5972470611548213E-003  0.14892052597930294        0.0000000000000000     
   5.7090627603089373E-003  0.15664739806004360        0.0000000000000000     
   5.8164291675540849E-003  0.16449002373369742        0.0000000000000000     
  -5.9296603613591316E-005  0.13376061042172493        0.0000000000000000     
  -6.7743295314290700E-005  0.14124439403512917        0.0000000000000000     
  -7.6551796801788943E-005  0.14884035064219445        0.0000000000000000     
  -8.5722108076090304E-005  0.15654848024292070        0.0000000000000000     
  -9.5254229137190470E-005  0.16436878283730799        0.0000000000000000     
   0.0000000000000000        0.0000000000000000        0.0000000000000000     
  -1.4572370530304812E-007   1.0733940845627161E-003   0.0000000000000000     
  -3.4522005308828402E-007   2.5156938377847047E-003   0.0000000000000000     
  -5.9848904335581612E-007   4.3268992596659670E-003   0.0000000000000000     
  -9.0553067610559023E-007   6.5070103502065007E-003   0.0000000000000000     
   0.0000000000000000        0.0000000000000000        0.0000000000000000     
  -2.1315126933874599E-004   1.0757040585419664E-003   0.0000000000000000     
  -4.2734202264503292E-004   2.5209206440841305E-003   0.0000000000000000     
  -6.4257225991886041E-004   4.3356497566264928E-003   0.0000000000000000     
  -8.5884198116022907E-004   6.5198913961690523E-003   0.0000000000000000     
   0.0000000000000000        0.0000000000000000        0.0000000000000000     
  -4.2442599228516807E-004   1.0825998234428515E-003   0.0000000000000000     
  -8.5334097405717873E-004   2.5364574025843051E-003   0.0000000000000000     
  -1.2867449453160314E-003   4.3615727374243605E-003   0.0000000000000000     
  -1.7246379060617265E-003   6.5579458279630166E-003   0.0000000000000000     
   0.0000000000000000        0.0000000000000000        0.0000000000000000     
  -6.3396989254456936E-004   1.0940813792653713E-003   0.0000000000000000     
  -1.2783420742895257E-003   2.5623041132852285E-003   0.0000000000000000     
  -1.9331165452348682E-003   4.4046682020595701E-003   0.0000000000000000     
  -2.5982933053805986E-003   6.6211736455883971E-003   0.0000000000000000     
   0.0000000000000000        0.0000000000000000        0.0000000000000000     
  -8.4178297011694978E-004   1.1101487260095258E-003   0.0000000000000000     
  -1.7023453233420739E-003   2.5984607761868998E-003   0.0000000000000000     
  -2.5816870596753715E-003   4.4649361505321224E-003   0.0000000000000000     
  -3.4798081791168438E-003   6.7095748490451929E-003   0.0000000000000000     
  -9.0553067610559023E-007   6.5070103502065007E-003   0.0000000000000000     
  -1.2591709163730237E-006   9.0286470892879077E-003   0.0000000000000000     
  -1.6522357291930053E-006   1.1864429456791784E-002   0.0000000000000000     
  -2.0847251145665007E-006   1.5014357452718131E-002   0.0000000000000000     
  -2.5566390724925375E-006   1.8478431077066947E-002   0.0000000000000000     
  -8.5884198116022907E-004   6.5198913961690523E-003   0.0000000000000000     
  -1.0773323828519217E-003   9.0455971021049901E-003   0.0000000000000000     
  -1.2992246614767222E-003   1.1884718413827487E-002   0.0000000000000000     
  -1.5245188170346293E-003   1.5037255331336543E-002   0.0000000000000000     
  -1.7532148495256437E-003   1.8503207854632161E-002   0.0000000000000000     
  -1.7246379060617265E-003   6.5579458279630166E-003   0.0000000000000000     
  -2.1672275399902121E-003   9.0956428802120275E-003   0.0000000000000000     
  -2.6147215307974346E-003   1.1944730100183144E-002   0.0000000000000000     
  -3.0671198784833955E-003   1.5105207487876362E-002   0.0000000000000000     
  -3.5244225830480935E-003   1.8577075043291685E-002   0.0000000000000000     
  -2.5982933053805986E-003   6.6211736455883971E-003   0.0000000000000000     
  -3.2709446423312429E-003   9.1787844236090183E-003   0.0000000000000000     
  -3.9481428436913320E-003   1.2044464515858748E-002   0.0000000000000000     
  -4.6298879094608643E-003   1.5218213922337579E-002   0.0000000000000000     
  -5.3161798396398410E-003   1.8700032643045518E-002   0.0000000000000000     
  -3.4798081791168438E-003   6.7095748490451929E-003   0.0000000000000000     
  -4.3884836898750159E-003   9.2950217322959675E-003   0.0000000000000000     
  -5.2994886001584141E-003   1.2183921660854307E-002   0.0000000000000000     
  -6.2128229099670381E-003   1.5376274634720204E-002   0.0000000000000000     
  -7.1284866193008873E-003   1.8872080653893661E-002   0.0000000000000000     
  -2.5566390724925375E-006   1.8478431077066947E-002   0.0000000000000000     
  -3.1826045486898743E-006   2.2227451096435490E-002   0.0000000000000000     
  -4.0772484888765650E-006   2.6232218277421011E-002   0.0000000000000000     
  -5.2405708930536532E-006   3.0492732620023513E-002   0.0000000000000000     
  -6.6725717612202851E-006   3.5008994124242999E-002   0.0000000000000000     
  -1.7532148495256437E-003   1.8503207854632161E-002   0.0000000000000000     
  -1.9817946812745262E-003   2.2253737453132246E-002   0.0000000000000000     
  -2.2067402346060351E-003   2.6260005596254701E-002   0.0000000000000000     
  -2.4280515095201735E-003   3.0522012283999540E-002   0.0000000000000000     
  -2.6457285060169397E-003   3.5039757516366746E-002   0.0000000000000000     
  -3.5244225830480935E-003   1.8577075043291685E-002   0.0000000000000000     
  -3.9807799296156096E-003   2.2332186879092806E-002   0.0000000000000000     
  -4.4303422033100271E-003   2.6342397107943435E-002   0.0000000000000000     
  -4.8731094041313434E-003   3.0607705729843560E-002   0.0000000000000000     
  -5.3090815320795612E-003   3.5128112744793188E-002   0.0000000000000000     
  -5.3161798396398410E-003   1.8700032643045518E-002   0.0000000000000000     
  -6.0001383495719429E-003   2.2462799374317183E-002   0.0000000000000000     
  -6.6748831546008516E-003   2.6479392812487207E-002   0.0000000000000000     
  -7.3404142547265662E-003   3.0749812957555588E-002   0.0000000000000000     
  -7.9967316499490858E-003   3.5274059809522314E-002   0.0000000000000000     
  -7.1284866193008873E-003   1.8872080653893661E-002   0.0000000000000000     
  -8.0398699411435241E-003   2.2645574938805372E-002   0.0000000000000000     
  -8.9403630884785056E-003   2.6670992709886026E-002   0.0000000000000000     
  -9.8299660613058362E-003   3.0948333967135616E-002   0.0000000000000000     
  -1.0708678859625514E-002   3.5477598710554149E-002   0.0000000000000000     
  -6.6725717612202851E-006   3.5008994124242999E-002   0.0000000000000000     
  -8.4896881632013158E-006   3.9761337954631430E-002   0.0000000000000000     
  -1.0808357168819865E-005   4.4730099275740787E-002   0.0000000000000000     
  -1.3628578778076585E-005   4.9915278087571041E-002   0.0000000000000000     
  -1.6950352990971907E-005   5.5316874390122221E-002   0.0000000000000000     
  -2.6457285060169397E-003   3.5039757516366746E-002   0.0000000000000000     
  -2.8600810582435155E-003   3.9792946381214105E-002   0.0000000000000000     
  -3.0714190003470841E-003   4.4761283966399383E-002   0.0000000000000000     
  -3.2797423323276450E-003   4.9944770271922581E-002   0.0000000000000000     
  -3.4850510541852000E-003   5.5343405297783699E-002   0.0000000000000000     
  -5.3090815320795612E-003   3.5128112744793188E-002   0.0000000000000000     
  -5.7376743596302595E-003   3.9882933768912873E-002   0.0000000000000000     
  -6.1583036592590193E-003   4.4851484418323172E-002   0.0000000000000000     
  -6.5709694309658414E-003   5.0033764693024105E-002   0.0000000000000000     
  -6.9756716747507250E-003   5.5429774593015645E-002   0.0000000000000000     
  -7.9967316499490858E-003   3.5274059809522314E-002   0.0000000000000000     
  -8.6412695923234369E-003   4.0031300117727736E-002   0.0000000000000000     
  -9.2714623339046238E-003   4.5000700631512160E-002   0.0000000000000000     
  -9.8873098746926642E-003   5.0182261350875612E-002   0.0000000000000000     
  -1.0488812214687547E-002   5.5575982275818059E-002   0.0000000000000000     
  -1.0708678859625514E-002   3.5477598710554149E-002   0.0000000000000000     
  -1.1570866756323035E-002   4.0238045427658700E-002   0.0000000000000000     
  -1.2410895024283903E-002   4.5208932605966347E-002   0.0000000000000000     
  -1.3228763663508114E-002   5.0390260245477096E-002   0.0000000000000000     
  -1.4024472673995670E-002   5.5782028346190948E-002   0.0000000000000000     
  -1.6950352990971907E-005   5.5316874390122221E-002   0.0000000000000000     
  -2.0297657790532288E-005   6.0919419899906471E-002   0.0000000000000000     
  -2.3194471159783370E-005   6.6707446333435963E-002   0.0000000000000000     
  -2.5640793098725764E-005   7.2680953690710662E-002   0.0000000000000000     
  -2.7636623607360132E-005   7.8839941971730609E-002   0.0000000000000000     
  -3.4850510541852000E-003   5.5343405297783699E-002   0.0000000000000000     
  -3.6852256070645144E-003   6.0942664698808699E-002   0.0000000000000000     
  -3.8781464321103595E-003   6.6728024129823524E-002   0.0000000000000000     
  -4.0638135293227353E-003   7.2699483590828173E-002   0.0000000000000000     
  -4.2422268987016391E-003   7.8857043081822675E-002   0.0000000000000000     
  -6.9756716747507250E-003   5.5429774593015645E-002   0.0000000000000000     
  -7.3697102785890275E-003   6.1025811949973779E-002   0.0000000000000000     
  -7.7503851304561088E-003   6.6808174595574504E-002   0.0000000000000000     
  -8.1176962303519673E-003   7.2776862529817812E-002   0.0000000000000000     
  -8.4716435782766046E-003   7.8931875752703690E-002   0.0000000000000000     
  -1.0488812214687547E-002   5.5575982275818059E-002   0.0000000000000000     
  -1.1073751672364074E-002   6.1168861653401747E-002   0.0000000000000000     
  -1.1639910566197034E-002   6.6947897730688918E-002   0.0000000000000000     
  -1.2187288896186430E-002   7.2913090507679579E-002   0.0000000000000000     
  -1.2715886662332259E-002   7.9064439984373680E-002   0.0000000000000000     
  -1.4024472673995670E-002   5.5782028346190948E-002   0.0000000000000000     
  -1.4797349788389647E-002   6.1371813809092603E-002   0.0000000000000000     
  -1.5546722739333130E-002   6.7147193535166766E-002   0.0000000000000000     
  -1.6272591526826113E-002   7.3108167524413445E-002   0.0000000000000000     
  -1.6974956150868602E-002   7.9254735776832633E-002   0.0000000000000000     
  -2.7636623607360132E-005   7.8839941971730609E-002   0.0000000000000000     
  -2.9547986451800880E-005   8.5171511394607269E-002   0.0000000000000000     
  -3.1740905398163551E-005   9.1662762177452159E-002   0.0000000000000000     
  -3.4215380446449135E-005   9.8313694320265280E-002   0.0000000000000000     
  -3.6971411596656290E-005  0.10512430782304660        0.0000000000000000     
  -4.2422268987016391E-003   7.8857043081822675E-002   0.0000000000000000     
  -4.4139909142762081E-003   8.5187407490345660E-002   0.0000000000000000     
  -4.5797099500755794E-003   9.1677281703935826E-002   0.0000000000000000     
  -4.7393840060997519E-003   9.8326665722593160E-002   0.0000000000000000     
  -4.8930130823487258E-003  0.10513555954631766        0.0000000000000000     
  -8.4716435782766046E-003   7.8931875752703690E-002   0.0000000000000000     
  -8.8124852262088313E-003   8.5259684932127211E-002   0.0000000000000000     
  -9.1404792261274535E-003   9.1746760735983410E-002   0.0000000000000000     
  -9.4556255780324731E-003   9.8393103164272286E-002   0.0000000000000000     
  -9.7579242819238951E-003  0.10519871221699383        0.0000000000000000     
  -1.2715886662332259E-002   7.9064439984373680E-002   0.0000000000000000     
  -1.3225030922249664E-002   8.5388343719951895E-002   0.0000000000000000     
  -1.3714048733553785E-002   9.1871199273594883E-002   0.0000000000000000     
  -1.4182940096244616E-002   9.8513006645302603E-002   0.0000000000000000     
  -1.4631705010322162E-002  0.10531376583507505        0.0000000000000000     
  -1.6974956150868602E-002   7.9254735776832633E-002   0.0000000000000000     
  -1.7651628002398716E-002   8.5573383853819754E-002   0.0000000000000000     
  -1.8300418472354574E-002   9.2050597316770275E-002   0.0000000000000000     
  -1.8921327560736178E-002   9.8686376165684153E-002   0.0000000000000000     
  -1.9514355267543526E-002  0.10548072040056139        0.0000000000000000     
  -3.6971411596656290E-005  0.10512430782304660        0.0000000000000000     
  -4.0539342998591145E-005  0.11208191737253809        0.0000000000000000     
  -4.5449518802058203E-005  0.11917383765548166        0.0000000000000000     
  -5.1701939007058251E-005  0.12640006867187725        0.0000000000000000     
  -5.9296603613591316E-005  0.13376061042172493        0.0000000000000000     
  -4.8930130823487258E-003  0.10513555954631766        0.0000000000000000     
  -5.0420753666838682E-003  0.11209022898372287        0.0000000000000000     
  -5.1880490469665376E-003  0.11917693984342222        0.0000000000000000     
  -5.3309341231967374E-003  0.12639569212541574        0.0000000000000000     
  -5.4707305953744685E-003  0.13374648582970350        0.0000000000000000     
  -9.7579242819238951E-003  0.10519871221699383        0.0000000000000000     
  -1.0049614402960764E-002  0.11214960469868335        0.0000000000000000     
  -1.0332935006302139E-002  0.11923179741387613        0.0000000000000000     
  -1.0607886091948023E-002  0.12644529036257218        0.0000000000000000     
  -1.0874467659898407E-002  0.13379008354477151        0.0000000000000000     
  -1.4631705010322162E-002  0.10531376583507505        0.0000000000000000     
  -1.5063156451829294E-002  0.11226004451741957        0.0000000000000000     
  -1.5480107396808874E-002  0.11933841036684337        0.0000000000000000     
  -1.5882557845260908E-002  0.12654886338334650        0.0000000000000000     
  -1.6270507797185401E-002  0.13389140356692894        0.0000000000000000     
  -1.9514355267543526E-002  0.10548072040056139        0.0000000000000000     
  -2.0082701513289437E-002  0.11242154843993149        0.0000000000000000     
  -2.0629566218486731E-002  0.11949677870232395        0.0000000000000000     
  -2.1154949383135408E-002  0.12670641118773873        0.0000000000000000     
  -2.1658851007235459E-002  0.13405044589617590        0.0000000000000000     
  -5.9296603613591316E-005  0.13376061042172493        0.0000000000000000     
  -6.7743295314290700E-005  0.14124439403512917        0.0000000000000000     
  -7.6551796801788943E-005  0.14884035064219445        0.0000000000000000     
  -8.5722108076090304E-005  0.15654848024292070        0.0000000000000000     
  -9.5254229137190470E-005  0.16436878283730799        0.0000000000000000     
  -5.4707305953744685E-003  0.13374648582970350        0.0000000000000000     
  -5.6070663684025090E-003  0.14121760351380114        0.0000000000000000     
  -5.7395693471836342E-003  0.14879732773522444        0.0000000000000000     
  -5.8682395317178459E-003  0.15648565849397342        0.0000000000000000     
  -5.9930769220051441E-003  0.16428259579004803        0.0000000000000000     
  -1.0874467659898407E-002  0.13379008354477151        0.0000000000000000     
  -1.1131346361352934E-002  0.14125436334168220        0.0000000000000000     
  -1.1377188847511240E-002  0.14882631613451247        0.0000000000000000     
  -1.1611995118373325E-002  0.15650594192326231        0.0000000000000000     
  -1.1835765173939188E-002  0.16429324070793172        0.0000000000000000     
  -1.6270507797185401E-002  0.13389140356692894        0.0000000000000000     
  -1.6640583274165562E-002  0.14135467351877243        0.0000000000000000     
  -1.6989410297784599E-002  0.14892731584005858        0.0000000000000000     
  -1.7316988868042522E-002  0.15660933053078746        0.0000000000000000     
  -1.7623318984939313E-002  0.16440071759095898        0.0000000000000000     
  -2.1658851007235459E-002  0.13405044589617590        0.0000000000000000     
  -2.2134777106840395E-002  0.14151853404507175        0.0000000000000000     
  -2.2576233698003725E-002  0.14910032685186272        0.0000000000000000     
  -2.2983220780725434E-002  0.15679582431654876        0.0000000000000000     
  -2.3355738355005533E-002  0.16460502643912989        0.0000000000000000     
   0.0000000000000000        0.0000000000000000        0.0000000000000000     
  -8.4178297011694978E-004   1.1101487260095258E-003   0.0000000000000000     
  -1.7023453233420739E-003   2.5984607761868998E-003   0.0000000000000000     
  -2.5816870596753715E-003   4.4649361505321224E-003   0.0000000000000000     
  -3.4798081791168438E-003   6.7095748490451929E-003   0.0000000000000000     
   0.0000000000000000        0.0000000000000000        0.0000000000000000     
  -1.0567758898961624E-003   1.1343503346837296E-003   0.0000000000000000     
  -2.1399065166193428E-003   2.6507622485794939E-003   0.0000000000000000     
  -3.2493918801695409E-003   4.5492357416872936E-003   0.0000000000000000     
  -4.3852319805467574E-003   6.8297708140071280E-003   0.0000000000000000     
   0.0000000000000000        0.0000000000000000        0.0000000000000000     
  -1.2878593167760606E-003   1.1702346762963980E-003   0.0000000000000000     
  -2.6055814495258528E-003   2.7250433877531845E-003   0.0000000000000000     
  -3.9531663982493772E-003   4.6644261343703596E-003   0.0000000000000000     
  -5.3306141629466336E-003   6.9883829161479236E-003   0.0000000000000000     
   0.0000000000000000        0.0000000000000000        0.0000000000000000     
  -1.5350332507566438E-003   1.2178017508475301E-003   0.0000000000000000     
  -3.0993701220616036E-003   2.8213041937079708E-003   0.0000000000000000     
  -4.6930106139148799E-003   4.8105073285813213E-003   0.0000000000000000     
  -6.3159547263164717E-003   7.1854111554675833E-003   0.0000000000000000     
   0.0000000000000000        0.0000000000000000        0.0000000000000000     
  -1.7982976918379126E-003   1.2770515583371269E-003   0.0000000000000000     
  -3.6212725342265957E-003   2.9395446664438533E-003   0.0000000000000000     
  -5.4689245271660478E-003   4.9874793243201796E-003   0.0000000000000000     
  -7.3412536706562717E-003   7.4208555319661054E-003   0.0000000000000000     
  -3.4798081791168438E-003   6.7095748490451929E-003   0.0000000000000000     
  -4.3884836898750159E-003   9.2950217322959675E-003   0.0000000000000000     
  -5.2994886001584141E-003   1.2183921660854307E-002   0.0000000000000000     
  -6.2128229099670381E-003   1.5376274634720204E-002   0.0000000000000000     
  -7.1284866193008873E-003   1.8872080653893661E-002   0.0000000000000000     
  -4.3852319805467574E-003   6.8297708140071280E-003   0.0000000000000000     
  -5.5344515737395569E-003   9.4503776495676404E-003   0.0000000000000000     
  -6.6840754157365010E-003   1.2369066432397473E-002   0.0000000000000000     
  -7.8341035065375934E-003   1.5585837162496622E-002   0.0000000000000000     
  -8.9845358461428312E-003   1.9100689839865095E-002   0.0000000000000000     
  -5.3306141629466336E-003   6.9883829161479236E-003   0.0000000000000000     
  -6.7234551850428896E-003   9.6508750187187988E-003   0.0000000000000000     
  -8.1172199059634156E-003   1.2605863727715900E-002   0.0000000000000000     
  -9.5119083257082029E-003   1.5853349043139231E-002   0.0000000000000000     
  -1.0907520444277263E-002   1.9393330964988794E-002   0.0000000000000000     
  -6.3159547263164717E-003   7.1854111554675833E-003   0.0000000000000000     
  -7.9554945237850193E-003   9.8965138397494445E-003   0.0000000000000000     
  -9.5989220708391516E-003   1.2894313546809590E-002   0.0000000000000000     
  -1.1246237367478880E-002   1.6178810276648026E-002   0.0000000000000000     
  -1.2897440413704195E-002   1.9750004029264745E-002   0.0000000000000000     
  -7.3412536706562717E-003   7.4208555319661054E-003   0.0000000000000000     
  -9.2305695899659364E-003   1.0187294112659577E-002   0.0000000000000000     
  -1.1129181910363717E-002   1.3234415889678547E-002   0.0000000000000000     
  -1.3037090631849609E-002   1.6562220863023013E-002   0.0000000000000000     
  -1.4954295754423618E-002   2.0170709032692968E-002   0.0000000000000000     
  -7.1284866193008873E-003   1.8872080653893661E-002   0.0000000000000000     
  -8.0398699411435241E-003   2.2645574938805372E-002   0.0000000000000000     
  -8.9403630884785056E-003   2.6670992709886026E-002   0.0000000000000000     
  -9.8299660613058362E-003   3.0948333967135616E-002   0.0000000000000000     
  -1.0708678859625514E-002   3.5477598710554149E-002   0.0000000000000000     
  -8.9845358461428312E-003   1.9100689839865095E-002   0.0000000000000000     
  -1.0128281699352952E-002   2.2888820150819864E-002   0.0000000000000000     
  -1.1258250330968691E-002   2.6925423781677900E-002   0.0000000000000000     
  -1.2374441740990054E-002   3.1210500732439205E-002   0.0000000000000000     
  -1.3476855929417036E-002   3.5744051003103787E-002   0.0000000000000000     
  -1.0907520444277263E-002   1.9393330964988794E-002   0.0000000000000000     
  -1.2293680619222820E-002   2.3200841588623140E-002   0.0000000000000000     
  -1.3660013208097102E-002   2.7250913009400860E-002   0.0000000000000000     
  -1.5006518210900108E-002   3.1543545227321924E-002   0.0000000000000000     
  -1.6333195627631841E-002   3.6078738242386353E-002   0.0000000000000000     
  -1.2897440413704195E-002   1.9750004029264745E-002   0.0000000000000000     
  -1.4536066700753136E-002   2.3581639252215212E-002   0.0000000000000000     
  -1.6145651719863739E-002   2.7647460393054886E-002   0.0000000000000000     
  -1.7726195471036009E-002   3.1947467451783770E-002   0.0000000000000000     
  -1.9277697954269934E-002   3.6481660428401862E-002   0.0000000000000000     
  -1.4954295754423618E-002   2.0170709032692968E-002   0.0000000000000000     
  -1.6855439943943895E-002   2.4031213141596078E-002   0.0000000000000000     
  -1.8715165866268604E-002   2.8115065932640008E-002   0.0000000000000000     
  -2.0533473521397744E-002   3.2422267405824753E-002   0.0000000000000000     
  -2.2310362909331312E-002   3.6952817561150306E-002   0.0000000000000000     
  -1.0708678859625514E-002   3.5477598710554149E-002   0.0000000000000000     
  -1.1570866756323035E-002   4.0238045427658700E-002   0.0000000000000000     
  -1.2410895024283903E-002   4.5208932605966347E-002   0.0000000000000000     
  -1.3228763663508114E-002   5.0390260245477096E-002   0.0000000000000000     
  -1.4024472673995670E-002   5.5782028346190948E-002   0.0000000000000000     
  -1.3476855929417036E-002   3.5744051003103787E-002   0.0000000000000000     
  -1.4557307621928601E-002   4.0506266714657145E-002   0.0000000000000000     
  -1.5607611544203707E-002   4.5477339988084779E-002   0.0000000000000000     
  -1.6627767696242364E-002   5.0657270823386710E-002   0.0000000000000000     
  -1.7617776078044562E-002   5.6046059220562924E-002   0.0000000000000000     
  -1.6333195627631841E-002   3.6078738242386353E-002   0.0000000000000000     
  -1.7631433959439655E-002   4.0839060994674457E-002   0.0000000000000000     
  -1.8892621707470900E-002   4.5807082424266538E-002   0.0000000000000000     
  -2.0116758871725583E-002   5.0982802531162608E-002   0.0000000000000000     
  -2.1303845452203696E-002   5.6366221315362654E-002   0.0000000000000000     
  -1.9277697954269934E-002   3.6481660428401862E-002   0.0000000000000000     
  -2.0793245768856199E-002   4.1236428267710644E-002   0.0000000000000000     
  -2.2265925514085478E-002   4.6198159914511615E-002   0.0000000000000000     
  -2.3695737189957773E-002   5.1366855368804774E-002   0.0000000000000000     
  -2.5082680796473081E-002   5.6742514630590123E-002   0.0000000000000000     
  -2.2310362909331312E-002   3.6952817561150306E-002   0.0000000000000000     
  -2.4042743050178242E-002   4.1698368533765712E-002   0.0000000000000000     
  -2.5727522964047445E-002   4.6650572458820025E-002   0.0000000000000000     
  -2.7364702650938936E-002   5.1809429336313224E-002   0.0000000000000000     
  -2.8954282110852703E-002   5.7174939166245324E-002   0.0000000000000000     
  -1.4024472673995670E-002   5.5782028346190948E-002   0.0000000000000000     
  -1.4797349788389647E-002   6.1371813809092603E-002   0.0000000000000000     
  -1.5546722739333130E-002   6.7147193535166766E-002   0.0000000000000000     
  -1.6272591526826113E-002   7.3108167524413445E-002   0.0000000000000000     
  -1.6974956150868602E-002   7.9254735776832633E-002   0.0000000000000000     
  -1.7617776078044562E-002   5.6046059220562924E-002   0.0000000000000000     
  -1.8578562216524284E-002   6.1631660541355895E-002   0.0000000000000000     
  -1.9511051638595515E-002   6.7402030147508063E-002   0.0000000000000000     
  -2.0415244344258256E-002   7.3357168039019413E-002   0.0000000000000000     
  -2.1291140333512495E-002   7.9497074215889973E-002   0.0000000000000000     
  -2.1303845452203696E-002   5.6366221315362654E-002   0.0000000000000000     
  -2.2455446546626515E-002   6.1945393974501210E-002   0.0000000000000000     
  -2.3573127252715306E-002   6.7708375706212812E-002   0.0000000000000000     
  -2.4656887570470073E-002   7.3655166510497444E-002   0.0000000000000000     
  -2.5706727499890804E-002   7.9785766387355142E-002   0.0000000000000000     
  -2.5082680796473081E-002   5.6742514630590123E-002   0.0000000000000000     
  -2.6428002778696339E-002   6.2313014108528582E-002   0.0000000000000000     
  -2.7732949581692503E-002   6.8066230211281054E-002   0.0000000000000000     
  -2.8997521205461559E-002   7.4002162938847565E-002   0.0000000000000000     
  -3.0221717650003522E-002   8.0120812291228097E-002   0.0000000000000000     
  -2.8954282110852703E-002   5.7174939166245324E-002   0.0000000000000000     
  -3.0496230912733759E-002   6.2734520943437955E-002   0.0000000000000000     
  -3.1990518625527105E-002   6.8475593662712747E-002   0.0000000000000000     
  -3.3437145249232733E-002   7.4398157324069722E-002   0.0000000000000000     
  -3.4836110783850655E-002   8.0502211927508852E-002   0.0000000000000000     
  -1.6974956150868602E-002   7.9254735776832633E-002   0.0000000000000000     
  -1.7651628002398716E-002   8.5573383853819754E-002   0.0000000000000000     
  -1.8300418472354574E-002   9.2050597316770275E-002   0.0000000000000000     
  -1.8921327560736178E-002   9.8686376165684153E-002   0.0000000000000000     
  -1.9514355267543526E-002  0.10548072040056139        0.0000000000000000     
  -2.1291140333512495E-002   7.9497074215889973E-002   0.0000000000000000     
  -2.2135110916282102E-002   8.5808465976922557E-002   0.0000000000000000     
  -2.2943527402490921E-002   9.2278060620919977E-002   0.0000000000000000     
  -2.3716389792138960E-002   9.8905858147882247E-002   0.0000000000000000     
  -2.4453698085226207E-002  0.10569185855780935        0.0000000000000000     
  -2.5706727499890804E-002   7.9785766387355142E-002   0.0000000000000000     
  -2.6718314113525942E-002   8.6087250732452034E-002   0.0000000000000000     
  -2.7687314483923930E-002   9.2546694941454427E-002   0.0000000000000000     
  -2.8613728611084757E-002   9.9164099014362225E-002   0.0000000000000000     
  -2.9497556495008435E-002  0.10593946295117553        0.0000000000000000     
  -3.0221717650003522E-002   8.0120812291228097E-002   0.0000000000000000     
  -3.1401237594130244E-002   8.6409738120408225E-002   0.0000000000000000     
  -3.2531779716653601E-002   9.2856500278373569E-002   0.0000000000000000     
  -3.3613344017573585E-002   9.9461098765124101E-002   0.0000000000000000     
  -3.4645930496890187E-002  0.10622353358065985        0.0000000000000000     
  -3.4836110783850655E-002   8.0502211927508852E-002   0.0000000000000000     
  -3.6183881358094999E-002   8.6775928140791117E-002   0.0000000000000000     
  -3.7476923100679925E-002   9.3207476631677430E-002   0.0000000000000000     
  -3.8715236011605425E-002   9.9796857400167860E-002   0.0000000000000000     
  -3.9898820090871499E-002  0.10654407044626238        0.0000000000000000     
  -1.9514355267543526E-002  0.10548072040056139        0.0000000000000000     
  -2.0082701513289437E-002  0.11242154843993149        0.0000000000000000     
  -2.0629566218486731E-002  0.11949677870232395        0.0000000000000000     
  -2.1154949383135408E-002  0.12670641118773873        0.0000000000000000     
  -2.1658851007235459E-002  0.13405044589617590        0.0000000000000000     
  -2.4453698085226207E-002  0.10569185855780935        0.0000000000000000     
  -2.5158963183457853E-002  0.11262539063728717        0.0000000000000000     
  -2.5835695988539065E-002  0.11969578317290153        0.0000000000000000     
  -2.6483896500469836E-002  0.12690303616465243        0.0000000000000000     
  -2.7103564719250170E-002  0.13424714961253989        0.0000000000000000     
  -2.9497556495008435E-002  0.10593946295117553        0.0000000000000000     
  -3.0342655058451181E-002  0.11286284528055458        0.0000000000000000     
  -3.1152881224169201E-002  0.11992430453115978        0.0000000000000000     
  -3.1928234992162526E-002  0.12712384070299113        0.0000000000000000     
  -3.2668716362431134E-002  0.13446145379604857        0.0000000000000000     
  -3.4645930496890187E-002  0.10622353358065985        0.0000000000000000     
  -3.5633777138269401E-002  0.11313391236973376        0.0000000000000000     
  -3.6581121925377158E-002  0.12018234277709872        0.0000000000000000     
  -3.7487964858213478E-002  0.12736882480275477        0.0000000000000000     
  -3.8354305936778348E-002  0.13469335844670194        0.0000000000000000     
  -3.9898820090871499E-002  0.10654407044626238        0.0000000000000000     
  -4.1032329422912545E-002  0.11343859190482465        0.0000000000000000     
  -4.2120418092162937E-002  0.12046989791071831        0.0000000000000000     
  -4.3163086098622697E-002  0.12763798846394342        0.0000000000000000     
  -4.4160333442291810E-002  0.13494286356449992        0.0000000000000000     
  -2.1658851007235459E-002  0.13405044589617590        0.0000000000000000     
  -2.2134777106840395E-002  0.14151853404507175        0.0000000000000000     
  -2.2576233698003725E-002  0.14910032685186272        0.0000000000000000     
  -2.2983220780725434E-002  0.15679582431654876        0.0000000000000000     
  -2.3355738355005533E-002  0.16460502643912989        0.0000000000000000     
  -2.7103564719250170E-002  0.13424714961253989        0.0000000000000000     
  -2.7685403509143360E-002  0.14171851684353903        0.0000000000000000     
  -2.8220115734412663E-002  0.14930753118462492        0.0000000000000000     
  -2.8707701395058103E-002  0.15701419263579758        0.0000000000000000     
  -2.9148160491079666E-002  0.16483850119705701        0.0000000000000000     
  -3.2668716362431134E-002  0.13446145379604857        0.0000000000000000     
  -3.3363938130840355E-002  0.14192719383713301        0.0000000000000000     
  -3.4003513093255486E-002  0.14951111085304516        0.0000000000000000     
  -3.4587441249676554E-002  0.15721320484378515        0.0000000000000000     
  -3.5115722600103538E-002  0.16503347580935288        0.0000000000000000     
  -3.8354305936778348E-002  0.13469335844670194        0.0000000000000000     
  -3.9170380971931380E-002  0.14214456502585363        0.0000000000000000     
  -3.9926425774532197E-002  0.14971106585712352        0.0000000000000000     
  -4.0622440344580783E-002  0.15739286094051144        0.0000000000000000     
  -4.1258424682077147E-002  0.16518995027601752        0.0000000000000000     
  -4.4160333442291810E-002  0.13494286356449992        0.0000000000000000     
  -4.5104732032416453E-002  0.14237063040970099        0.0000000000000000     
  -4.5988853778242779E-002  0.14990739619685989        0.0000000000000000     
  -4.6812698679770795E-002  0.15755316092597652        0.0000000000000000     
  -4.7576266737000494E-002  0.16530792459705090        0.0000000000000000     
   0.0000000000000000        0.0000000000000000        0.0000000000000000     
  -1.7982976918379126E-003   1.2770515583371269E-003   0.0000000000000000     
  -3.6212725342265957E-003   2.9395446664438533E-003   0.0000000000000000     
  -5.4689245271660478E-003   4.9874793243201796E-003   0.0000000000000000     
  -7.3412536706562717E-003   7.4208555319661054E-003   0.0000000000000000     
   0.0000000000000000        0.0000000000000000        0.0000000000000000     
  -2.0693848995402093E-003   1.3551137838569173E-003   0.0000000000000000     
  -4.1639406120770319E-003   3.0942994399923438E-003   0.0000000000000000     
  -6.2836671376104661E-003   5.2175569684062804E-003   0.0000000000000000     
  -8.4285644761405154E-003   7.7248863690987267E-003   0.0000000000000000     
   0.0000000000000000        0.0000000000000000        0.0000000000000000     
  -2.3400271333838766E-003   1.4591181124986312E-003   0.0000000000000000     
  -4.7200262816691155E-003   3.3001031483849562E-003   0.0000000000000000     
  -7.1399974448557177E-003   5.5229551076589741E-003   0.0000000000000000     
  -9.5999406229436823E-003   8.1276739903206885E-003   0.0000000000000000     
   0.0000000000000000        0.0000000000000000        0.0000000000000000     
  -2.6102243933689142E-003   1.5890645442622690E-003   0.0000000000000000     
  -5.2895295430028478E-003   3.5569557916216889E-003   0.0000000000000000     
  -8.0379154489018025E-003   5.9036737420782625E-003   0.0000000000000000     
  -1.0855382111065773E-002   8.6292183956319848E-003   0.0000000000000000     
   0.0000000000000000        0.0000000000000000        0.0000000000000000     
  -2.8799766794953222E-003   1.7449530791478296E-003   0.0000000000000000     
  -5.8724503960782279E-003   3.8648573697025431E-003   0.0000000000000000     
  -8.9774211497487180E-003   6.3597128716641410E-003   0.0000000000000000     
  -1.2194888940506790E-002   9.2295195850326250E-003   0.0000000000000000     
  -7.3412536706562717E-003   7.4208555319661054E-003   0.0000000000000000     
  -9.2305695899659364E-003   1.0187294112659577E-002   0.0000000000000000     
  -1.1129181910363717E-002   1.3234415889678547E-002   0.0000000000000000     
  -1.3037090631849609E-002   1.6562220863023013E-002   0.0000000000000000     
  -1.4954295754423618E-002   2.0170709032692968E-002   0.0000000000000000     
  -8.4285644761405154E-003   7.7248863690987267E-003   0.0000000000000000     
  -1.0590298660409036E-002   1.0558862121891385E-002   0.0000000000000000     
  -1.2760535723157896E-002   1.3662058706605954E-002   0.0000000000000000     
  -1.4939275664387094E-002   1.7034476123242437E-002   0.0000000000000000     
  -1.7126518484096624E-002   2.0676114371800832E-002   0.0000000000000000     
  -9.5999406229436823E-003   8.1276739903206885E-003   0.0000000000000000     
  -1.2076300011937708E-002   1.1046864151887046E-002   0.0000000000000000     
  -1.4545519807842485E-002   1.4213129947875002E-002   0.0000000000000000     
  -1.7007600010658031E-002   1.7626471378284561E-002   0.0000000000000000     
  -1.9462540620384317E-002   2.1286888443115715E-002   0.0000000000000000     
  -1.0855382111065773E-002   8.6292183956319848E-003   0.0000000000000000     
  -1.3688573644551942E-002   1.1651300202646563E-002   0.0000000000000000     
  -1.6484134164417488E-002   1.4887629613485697E-002   0.0000000000000000     
  -1.9242063670662401E-002   1.8338206628149382E-002   0.0000000000000000     
  -2.1962362163286689E-002   2.2003031246637626E-002   0.0000000000000000     
  -1.2194888940506790E-002   9.2295195850326250E-003   0.0000000000000000     
  -1.5427119558251750E-002   1.2372170274169937E-002   0.0000000000000000     
  -1.8576378792882892E-002   1.5685557703438029E-002   0.0000000000000000     
  -2.1642666644400226E-002   1.9169681872836904E-002   0.0000000000000000     
  -2.4625983112803746E-002   2.2824542782366557E-002   0.0000000000000000     
  -1.4954295754423618E-002   2.0170709032692968E-002   0.0000000000000000     
  -1.6855439943943895E-002   2.4031213141596078E-002   0.0000000000000000     
  -1.8715165866268604E-002   2.8115065932640008E-002   0.0000000000000000     
  -2.0533473521397744E-002   3.2422267405824753E-002   0.0000000000000000     
  -2.2310362909331312E-002   3.6952817561150306E-002   0.0000000000000000     
  -1.7126518484096624E-002   2.0676114371800832E-002   0.0000000000000000     
  -1.9291034598991626E-002   2.4559293859915086E-002   0.0000000000000000     
  -2.1401594425777225E-002   2.8656334995219142E-002   0.0000000000000000     
  -2.3458197964453417E-002   3.2967237777712995E-002   0.0000000000000000     
  -2.5460845215020213E-002   3.7492002207396659E-002   0.0000000000000000     
  -1.9462540620384317E-002   2.1286888443115715E-002   0.0000000000000000     
  -2.1882084916092857E-002   2.5175612010321577E-002   0.0000000000000000     
  -2.4237976176855122E-002   2.9273872947855224E-002   0.0000000000000000     
  -2.6530214402671129E-002   3.3581671255716670E-002   0.0000000000000000     
  -2.8758799593540860E-002   3.8099006933905923E-002   0.0000000000000000     
  -2.1962362163286689E-002   2.2003031246637626E-002   0.0000000000000000     
  -2.4628590895247587E-002   2.5880167592815542E-002   0.0000000000000000     
  -2.7224311119502312E-002   2.9967679790548256E-002   0.0000000000000000     
  -2.9749522836050871E-002   3.4265567839835774E-002   0.0000000000000000     
  -3.2204226044893258E-002   3.8773831740678076E-002   0.0000000000000000     
  -2.4625983112803746E-002   2.2824542782366557E-002   0.0000000000000000     
  -2.7530552536455807E-002   2.6672960607397000E-002   0.0000000000000000     
  -3.0360599253718774E-002   3.0737755523298240E-002   0.0000000000000000     
  -3.3116123264592644E-002   3.5018927530070285E-002   0.0000000000000000     
  -3.5797124569077417E-002   3.9516476627713133E-002   0.0000000000000000     
  -2.2310362909331312E-002   3.6952817561150306E-002   0.0000000000000000     
  -2.4042743050178242E-002   4.1698368533765712E-002   0.0000000000000000     
  -2.5727522964047445E-002   4.6650572458820025E-002   0.0000000000000000     
  -2.7364702650938936E-002   5.1809429336313224E-002   0.0000000000000000     
  -2.8954282110852703E-002   5.7174939166245324E-002   0.0000000000000000     
  -2.5460845215020213E-002   3.7492002207396659E-002   0.0000000000000000     
  -2.7410294561595733E-002   4.2226690078435491E-002   0.0000000000000000     
  -2.9307304388298115E-002   4.7167363184994843E-002   0.0000000000000000     
  -3.1151874695127355E-002   5.2314021527074733E-002   0.0000000000000000     
  -3.2944005482083455E-002   5.7666665104675129E-002   0.0000000000000000     
  -2.8758799593540860E-002   3.8099006933905923E-002   0.0000000000000000     
  -3.0926269061298643E-002   4.2823201187315807E-002   0.0000000000000000     
  -3.3035160117778802E-002   4.7751575220839192E-002   0.0000000000000000     
  -3.5085472762981323E-002   5.2884129034476049E-002   0.0000000000000000     
  -3.7077206996906212E-002   5.8220862628226400E-002   0.0000000000000000     
  -3.2204226044893258E-002   3.8773831740678076E-002   0.0000000000000000     
  -3.4590666549286969E-002   4.3487901860406679E-002   0.0000000000000000     
  -3.6911090152489508E-002   4.8403208566353051E-002   0.0000000000000000     
  -3.9165496854500825E-002   5.3519751858517206E-002   0.0000000000000000     
  -4.1353886655320977E-002   5.8837531736899137E-002   0.0000000000000000     
  -3.5797124569077417E-002   3.9516476627713133E-002   0.0000000000000000     
  -3.8403487025560727E-002   4.4220792097708080E-002   0.0000000000000000     
  -4.0935094492430220E-002   4.9122263221536434E-002   0.0000000000000000     
  -4.3391946969685895E-002   5.4220889999198184E-002   0.0000000000000000     
  -4.5774044457327745E-002   5.9516672430693335E-002   0.0000000000000000     
  -2.8954282110852703E-002   5.7174939166245324E-002   0.0000000000000000     
  -3.0496230912733759E-002   6.2734520943437955E-002   0.0000000000000000     
  -3.1990518625527105E-002   6.8475593662712747E-002   0.0000000000000000     
  -3.3437145249232733E-002   7.4398157324069722E-002   0.0000000000000000     
  -3.4836110783850655E-002   8.0502211927508852E-002   0.0000000000000000     
  -3.2944005482083455E-002   5.7666665104675129E-002   0.0000000000000000     
  -3.4682460275858876E-002   6.3212553023993881E-002   0.0000000000000000     
  -3.6366002603146090E-002   6.8938944391228760E-002   0.0000000000000000     
  -3.7994632463945084E-002   7.4845839206379799E-002   0.0000000000000000     
  -3.9568349858255858E-002   8.0933237469447000E-002   0.0000000000000000     
  -3.7077206996906212E-002   5.8220862628226400E-002   0.0000000000000000     
  -3.9009020195191813E-002   6.3749748894960823E-002   0.0000000000000000     
  -4.0879569733476437E-002   6.9458760727549904E-002   0.0000000000000000     
  -4.2688855611760106E-002   7.5347898125993670E-002   0.0000000000000000     
  -4.4436877830042784E-002   8.1417161090292053E-002   0.0000000000000000     
  -4.1353886655320977E-002   5.8837531736899137E-002   0.0000000000000000     
  -4.3475910670732545E-002   6.4346108556338807E-002   0.0000000000000000     
  -4.5531220016518145E-002   7.0035042671676179E-002   0.0000000000000000     
  -4.7519814692677784E-002   7.5904334082911279E-002   0.0000000000000000     
  -4.9441694699211461E-002   8.1953982790044066E-002   0.0000000000000000     
  -4.5774044457327745E-002   5.9516672430693335E-002   0.0000000000000000     
  -4.8083131702481088E-002   6.5001632008127835E-002   0.0000000000000000     
  -5.0320953452271222E-002   7.0667790223607599E-002   0.0000000000000000     
  -5.2487509706698139E-002   7.6515147077132681E-002   0.0000000000000000     
  -5.4582800465761847E-002   8.2543702568703012E-002   0.0000000000000000     
  -3.4836110783850655E-002   8.0502211927508852E-002   0.0000000000000000     
  -3.6183881358094999E-002   8.6775928140791117E-002   0.0000000000000000     
  -3.7476923100679925E-002   9.3207476631677430E-002   0.0000000000000000     
  -3.8715236011605425E-002   9.9796857400167860E-002   0.0000000000000000     
  -3.9898820090871499E-002  0.10654407044626238        0.0000000000000000     
  -3.9568349858255858E-002   8.0933237469447000E-002   0.0000000000000000     
  -4.1084426871211291E-002   8.7189818661456114E-002   0.0000000000000000     
  -4.2540135587944256E-002   9.3604262263432991E-002   0.0000000000000000     
  -4.3935476008454752E-002  0.10017656827537764        0.0000000000000000     
  -4.5270448132742794E-002  0.10690673669729002        0.0000000000000000     
  -4.4436877830042784E-002   8.1417161090292053E-002   0.0000000000000000     
  -4.6121055599270176E-002   8.7655407550258718E-002   0.0000000000000000     
  -4.7738808130387930E-002   9.4051495435707191E-002   0.0000000000000000     
  -4.9290135423396039E-002  0.10060542474663753        0.0000000000000000     
  -5.0775037478294503E-002  0.10731719548304969        0.0000000000000000     
  -4.9441694699211461E-002   8.1953982790044066E-002   0.0000000000000000     
  -5.1293767542271669E-002   8.8172694807198873E-002   0.0000000000000000     
  -5.3072940728010949E-002   9.4549176148500030E-002   0.0000000000000000     
  -5.4779214256429273E-002  0.10108342681394752        0.0000000000000000     
  -5.6412588127526662E-002  0.10777544680354136        0.0000000000000000     
  -5.4582800465761847E-002   8.2543702568703012E-002   0.0000000000000000     
  -5.6602562700215762E-002   8.8741680432276634E-002   0.0000000000000000     
  -5.8542533380813305E-002   9.5097304401811508E-002   0.0000000000000000     
  -6.0402712507554461E-002  0.10161057447730766        0.0000000000000000     
  -6.2183100080439244E-002  0.10828149065876506        0.0000000000000000     
  -3.9898820090871499E-002  0.10654407044626238        0.0000000000000000     
  -4.1032329422912545E-002  0.11343859190482465        0.0000000000000000     
  -4.2120418092162937E-002  0.12046989791071831        0.0000000000000000     
  -4.3163086098622697E-002  0.12763798846394342        0.0000000000000000     
  -4.4160333442291810E-002  0.13494286356449992        0.0000000000000000     
  -4.5270448132742794E-002  0.10690673669729002        0.0000000000000000     
  -4.6550316307185723E-002  0.11378338042940914        0.0000000000000000     
  -4.7780344878160935E-002  0.12079511237197400        0.0000000000000000     
  -4.8960533845668432E-002  0.12794193252498459        0.0000000000000000     
  -5.0090883209708219E-002  0.13522384088844092        0.0000000000000000     
  -5.0775037478294503E-002  0.10731719548304969        0.0000000000000000     
  -5.2199742185894099E-002  0.11417477448706906        0.0000000000000000     
  -5.3570477437005583E-002  0.12116612860082114        0.0000000000000000     
  -5.4887243231628961E-002  0.12829125782430581        0.0000000000000000     
  -5.6150039569764228E-002  0.13555016215752316        0.0000000000000000     
  -5.6412588127526662E-002  0.10777544680354136        0.0000000000000000     
  -5.7980607059037660E-002  0.11461277407780444        0.0000000000000000     
  -5.9490815768696879E-002  0.12158294659725971        0.0000000000000000     
  -6.0943214256504279E-002  0.12868596436190713        0.0000000000000000     
  -6.2337802522459879E-002  0.13592182737174674        0.0000000000000000     
  -6.2183100080439244E-002  0.10828149065876506        0.0000000000000000     
  -6.3892910926616420E-002  0.11509737920161525        0.0000000000000000     
  -6.5541359873234811E-002  0.12204556636128976        0.0000000000000000     
  -6.7128446920294377E-002  0.12912605213778852        0.0000000000000000     
  -6.8654172067795130E-002  0.13633883653111159        0.0000000000000000     
  -4.4160333442291810E-002  0.13494286356449992        0.0000000000000000     
  -4.5104732032416453E-002  0.14237063040970099        0.0000000000000000     
  -4.5988853778242779E-002  0.14990739619685989        0.0000000000000000     
  -4.6812698679770795E-002  0.15755316092597652        0.0000000000000000     
  -4.7576266737000494E-002  0.16530792459705090        0.0000000000000000     
  -5.0090883209708219E-002  0.13522384088844092        0.0000000000000000     
  -5.1165931546941330E-002  0.14262487491659034        0.0000000000000000     
  -5.2180217434028862E-002  0.15012907206368037        0.0000000000000000     
  -5.3133740870970822E-002  0.15773643232971091        0.0000000000000000     
  -5.4026501857767188E-002  0.16544695571468199        0.0000000000000000     
  -5.6150039569764228E-002  0.13555016215752316        0.0000000000000000     
  -5.7352919750151804E-002  0.14292678347443699        0.0000000000000000     
  -5.8489937071532112E-002  0.15040506364901102        0.0000000000000000     
  -5.9561091533905118E-002  0.15798500268124521        0.0000000000000000     
  -6.0566383137270856E-002  0.16566660057113969        0.0000000000000000     
  -6.2337802522459879E-002  0.13592182737174674        0.0000000000000000     
  -6.3665696642047881E-002  0.14327635608324085        0.0000000000000000     
  -6.4918012690752452E-002  0.15073537095285172        0.0000000000000000     
  -6.6094750668573676E-002  0.15829887198057946        0.0000000000000000     
  -6.7195910575511469E-002  0.16596685916642401        0.0000000000000000     
  -6.8654172067795130E-002  0.13633883653111159        0.0000000000000000     
  -7.0104262222629526E-002  0.14367359274300195        0.0000000000000000     
  -7.1464444291689980E-002  0.15111999397520265        0.0000000000000000     
  -7.2734718274976490E-002  0.15867804022771362        0.0000000000000000     
  -7.3915084172489057E-002  0.16634773150053495        0.0000000000000000     
   0.0000000000000000        0.0000000000000000        0.0000000000000000     
  -2.8799766794953222E-003   1.7449530791478296E-003   0.0000000000000000     
  -5.8724503960782279E-003   3.8648573697025431E-003   0.0000000000000000     
  -8.9774211497487180E-003   6.3597128716641410E-003   0.0000000000000000     
  -1.2194888940506790E-002   9.2295195850326250E-003   0.0000000000000000     
   0.0000000000000000        0.0000000000000000        0.0000000000000000     
  -3.2831172117610686E-003   1.9994442519750679E-003   0.0000000000000000     
  -6.6767566163333956E-003   4.3311207160244879E-003   0.0000000000000000     
  -1.0180918213716980E-002   6.9950293921482616E-003   0.0000000000000000     
  -1.3795602003911823E-002   9.9911702803463856E-003   0.0000000000000000     
   0.0000000000000000        0.0000000000000000        0.0000000000000000     
  -3.9534792101641198E-003   2.4251985975637380E-003   0.0000000000000000     
  -7.9104159792064890E-003   5.0630586639844946E-003   0.0000000000000000     
  -1.1870810307127107E-002   7.9135801992622715E-003   0.0000000000000000     
  -1.5834662193925975E-002   1.0976763203397064E-002   0.0000000000000000     
   0.0000000000000000        0.0000000000000000        0.0000000000000000     
  -4.8910626747044770E-003   3.0222161159138396E-003   0.0000000000000000     
  -9.5734284846975097E-003   6.0606712135825623E-003   0.0000000000000000     
  -1.4047097429979097E-002   9.1153652930061682E-003   0.0000000000000000     
  -1.8312069510549239E-002   1.2186298354184654E-002   0.0000000000000000     
   0.0000000000000000        0.0000000000000000        0.0000000000000000     
  -6.0958676053821399E-003   3.7904968070253736E-003   0.0000000000000000     
  -1.1665794132806455E-002   7.3239583648186911E-003   0.0000000000000000     
  -1.6709779582272950E-002   1.0600384673379953E-002   0.0000000000000000     
  -2.1227823953781619E-002   1.3619775732709160E-002   0.0000000000000000     
  -1.2194888940506790E-002   9.2295195850326250E-003   0.0000000000000000     
  -1.5427119558251750E-002   1.2372170274169937E-002   0.0000000000000000     
  -1.8576378792882892E-002   1.5685557703438029E-002   0.0000000000000000     
  -2.1642666644400226E-002   1.9169681872836904E-002   0.0000000000000000     
  -2.4625983112803746E-002   2.2824542782366557E-002   0.0000000000000000     
  -1.3795602003911823E-002   9.9911702803463856E-003   0.0000000000000000     
  -1.7403735347984919E-002   1.3221522360868791E-002   0.0000000000000000     
  -2.0888245607003263E-002   1.6588064613965399E-002   0.0000000000000000     
  -2.4249132780966853E-002   2.0090797039636208E-002   0.0000000000000000     
  -2.7486396869875692E-002   2.3729719637881220E-002   0.0000000000000000     
  -1.5834662193925975E-002   1.0976763203397064E-002   0.0000000000000000     
  -1.9730218608699265E-002   1.4211404457154747E-002   0.0000000000000000     
  -2.3485726520543163E-002   1.7576300741301183E-002   0.0000000000000000     
  -2.7101185929457650E-002   2.1071452055836382E-002   0.0000000000000000     
  -3.0576596835442744E-002   2.4696858400760333E-002   0.0000000000000000     
  -1.8312069510549239E-002   1.2186298354184654E-002   0.0000000000000000     
  -2.2406569340394783E-002   1.5341816563027804E-002   0.0000000000000000     
  -2.6368821533502573E-002   1.8650266085445392E-002   0.0000000000000000     
  -3.0198826089872618E-002   2.2111646921437422E-002   0.0000000000000000     
  -3.3896583009504912E-002   2.5725959071003897E-002   0.0000000000000000     
  -2.1227823953781619E-002   1.3619775732709160E-002   0.0000000000000000     
  -2.5432787543071472E-002   1.6612758678487966E-002   0.0000000000000000     
  -2.9537530645881518E-002   1.9809960646398027E-002   0.0000000000000000     
  -3.3542053262211748E-002   2.3211381636439338E-002   0.0000000000000000     
  -3.7446355392062175E-002   2.6817021648611911E-002   0.0000000000000000     
  -2.4625983112803746E-002   2.2824542782366557E-002   0.0000000000000000     
  -2.7530552536455807E-002   2.6672960607397000E-002   0.0000000000000000     
  -3.0360599253718774E-002   3.0737755523298240E-002   0.0000000000000000     
  -3.3116123264592644E-002   3.5018927530070285E-002   0.0000000000000000     
  -3.5797124569077417E-002   3.9516476627713133E-002   0.0000000000000000     
  -2.7486396869875692E-002   2.3729719637881220E-002   0.0000000000000000     
  -3.0623086695849091E-002   2.7547469639999902E-002   0.0000000000000000     
  -3.3682251081006358E-002   3.1586684277291714E-002   0.0000000000000000     
  -3.6663890025347499E-002   3.5847363549756678E-002   0.0000000000000000     
  -3.9568003528872513E-002   4.0329507457394762E-002   0.0000000000000000     
  -3.0576596835442744E-002   2.4696858400760333E-002   0.0000000000000000     
  -3.3941310229558978E-002   2.8497173276558228E-002   0.0000000000000000     
  -3.7224677102866893E-002   3.2517050183715236E-002   0.0000000000000000     
  -4.0426697455366485E-002   3.6756489122231367E-002   0.0000000000000000     
  -4.3547371287057768E-002   4.1215490092106628E-002   0.0000000000000000     
  -3.3896583009504912E-002   2.5725959071003897E-002   0.0000000000000000     
  -3.7485223137585476E-002   2.9522071517071966E-002   0.0000000000000000     
  -4.0987877319300377E-002   3.3528853242568796E-002   0.0000000000000000     
  -4.4404545554649608E-002   3.7746304247494381E-002   0.0000000000000000     
  -4.7735227843633148E-002   4.2174424531848727E-002   0.0000000000000000     
  -3.7446355392062175E-002   2.6817021648611911E-002   0.0000000000000000     
  -4.1254825419928594E-002   3.0622164361541131E-002   0.0000000000000000     
  -4.4971851730306822E-002   3.4622093453852386E-002   0.0000000000000000     
  -4.8597434323196846E-002   3.8816808925545704E-002   0.0000000000000000     
  -5.2131573198598694E-002   4.3206310776621057E-002   0.0000000000000000     
  -3.5797124569077417E-002   3.9516476627713133E-002   0.0000000000000000     
  -3.8403487025560727E-002   4.4220792097708080E-002   0.0000000000000000     
  -4.0935094492430220E-002   4.9122263221536434E-002   0.0000000000000000     
  -4.3391946969685895E-002   5.4220889999198184E-002   0.0000000000000000     
  -4.5774044457327745E-002   5.9516672430693335E-002   0.0000000000000000     
  -3.9568003528872513E-002   4.0329507457394762E-002   0.0000000000000000     
  -4.2391763576033338E-002   4.5019437248405715E-002   0.0000000000000000     
  -4.5132342151281847E-002   4.9903474170989261E-002   0.0000000000000000     
  -4.7789739254618095E-002   5.4981618225145419E-002   0.0000000000000000     
  -5.0363954886042048E-002   6.0253869410874149E-002   0.0000000000000000     
  -4.3547371287057768E-002   4.1215490092106628E-002   0.0000000000000000     
  -4.6582529286618199E-002   4.5881402661685229E-002   0.0000000000000000     
  -4.9528002142725291E-002   5.0741576399311455E-002   0.0000000000000000     
  -5.2383789855379018E-002   5.5796011304985287E-002   0.0000000000000000     
  -5.5149892424579405E-002   6.1044707378706722E-002   0.0000000000000000     
  -4.7735227843633148E-002   4.2174424531848727E-002   0.0000000000000000     
  -5.0975784157315344E-002   4.6806688337546656E-002   0.0000000000000000     
  -5.4122074466760525E-002   5.1636569906503012E-002   0.0000000000000000     
  -5.7174098771968690E-002   5.6664069238717828E-002   0.0000000000000000     
  -6.0131857072939804E-002   6.1889186334191056E-002   0.0000000000000000     
  -5.2131573198598694E-002   4.3206310776621057E-002   0.0000000000000000     
  -5.5571528188124782E-002   4.7795294275989962E-002   0.0000000000000000     
  -5.8914559123387576E-002   5.2588454692563957E-002   0.0000000000000000     
  -6.2160666004387070E-002   5.7585792026343008E-002   0.0000000000000000     
  -6.5309848831123271E-002   6.2787306277327148E-002   0.0000000000000000     
  -4.5774044457327745E-002   5.9516672430693335E-002   0.0000000000000000     
  -4.8083131702481088E-002   6.5001632008127835E-002   0.0000000000000000     
  -5.0320953452271222E-002   7.0667790223607599E-002   0.0000000000000000     
  -5.2487509706698139E-002   7.6515147077132681E-002   0.0000000000000000     
  -5.4582800465761847E-002   8.2543702568703012E-002   0.0000000000000000     
  -5.0363954886042048E-002   6.0253869410874149E-002   0.0000000000000000     
  -5.2858815982996431E-002   6.5714068009420173E-002   0.0000000000000000     
  -5.5278149482923915E-002   7.1356054302028127E-002   0.0000000000000000     
  -5.7621955385824521E-002   7.7179828288698030E-002   0.0000000000000000     
  -5.9890233691698248E-002   8.3185389969429896E-002   0.0000000000000000     
  -5.5149892424579405E-002   6.1044707378706722E-002   0.0000000000000000     
  -5.7831096204837520E-002   6.6481165319308089E-002   0.0000000000000000     
  -6.0432187550664478E-002   7.2098885825621725E-002   0.0000000000000000     
  -6.2953166462060256E-002   7.7897868897647604E-002   0.0000000000000000     
  -6.5394032939024904E-002   8.3878114535385725E-002   0.0000000000000000     
  -6.0131857072939804E-002   6.1889186334191056E-002   0.0000000000000000     
  -6.2999972368004406E-002   6.7302923937791595E-002   0.0000000000000000     
  -6.5783067655492924E-002   7.2896284794388380E-002   0.0000000000000000     
  -6.8481142935405401E-002   7.8669268903981307E-002   0.0000000000000000     
  -7.1094198207741807E-002   8.4621876266570500E-002   0.0000000000000000     
  -6.5309848831123271E-002   6.2787306277327148E-002   0.0000000000000000     
  -6.8365444472497039E-002   6.8179343864870720E-002   0.0000000000000000     
  -7.1330789797409241E-002   7.3748251208328092E-002   0.0000000000000000     
  -7.4205884805859892E-002   7.9494028307699249E-002   0.0000000000000000     
  -7.6990729497848992E-002   8.5416675162984207E-002   0.0000000000000000     
  -5.4582800465761847E-002   8.2543702568703012E-002   0.0000000000000000     
  -5.6602562700215762E-002   8.8741680432276634E-002   0.0000000000000000     
  -5.8542533380813305E-002   9.5097304401811508E-002   0.0000000000000000     
  -6.0402712507554461E-002  0.10161057447730766        0.0000000000000000     
  -6.2183100080439244E-002  0.10828149065876506        0.0000000000000000     
  -5.9890233691698248E-002   8.3185389969429896E-002   0.0000000000000000     
  -6.2077432829471174E-002   8.9360687808129419E-002   0.0000000000000000     
  -6.4178001228069395E-002   9.5693670268702347E-002   0.0000000000000000     
  -6.6191938887492904E-002  0.10218433735114867        0.0000000000000000     
  -6.8119245807741702E-002  0.10883268905546835        0.0000000000000000     
  -6.5394032939024904E-002   8.3878114535385725E-002   0.0000000000000000     
  -6.7748369686406587E-002   9.0028040317394725E-002   0.0000000000000000     
  -7.0009759409053587E-002   9.6336063822233239E-002   0.0000000000000000     
  -7.2178202106965919E-002  0.10280218504990124        0.0000000000000000     
  -7.4253697780143527E-002  0.10942640400039877        0.0000000000000000     
  -7.1094198207741807E-002   8.4621876266570500E-002   0.0000000000000000     
  -7.3615373271022036E-002   9.0743737960072568E-002   0.0000000000000000     
  -7.6037807923765924E-002   9.7024485062404200E-002   0.0000000000000000     
  -7.8361502165973471E-002  0.10346411757356544        0.0000000000000000     
  -8.0586455997644690E-002  0.11006263549355624        0.0000000000000000     
  -7.6990729497848992E-002   8.5416675162984207E-002   0.0000000000000000     
  -7.9678443583317479E-002   9.1507780736162905E-002   0.0000000000000000     
  -8.2262146772206349E-002   9.7758933989215230E-002   0.0000000000000000     
  -8.4741839064515601E-002  0.10417013492214125        0.0000000000000000     
  -8.7117520460245207E-002  0.11074138353494087        0.0000000000000000     
  -6.2183100080439244E-002  0.10828149065876506        0.0000000000000000     
  -6.3892910926616420E-002  0.11509737920161525        0.0000000000000000     
  -6.5541359873234811E-002  0.12204556636128976        0.0000000000000000     
  -6.7128446920294377E-002  0.12912605213778852        0.0000000000000000     
  -6.8654172067795130E-002  0.13633883653111159        0.0000000000000000     
  -6.8119245807741702E-002  0.10883268905546835        0.0000000000000000     
  -6.9970472933597344E-002  0.11562594456448522        0.0000000000000000     
  -7.1756171209841346E-002  0.12255132306102301        0.0000000000000000     
  -7.3476340636473722E-002  0.12960882454508174        0.0000000000000000     
  -7.5130981213494430E-002  0.13679844901666138        0.0000000000000000     
  -7.4253697780143527E-002  0.10942640400039877        0.0000000000000000     
  -7.6247112224947400E-002  0.11619582487239802        0.0000000000000000     
  -7.8169311237738473E-002  0.12309755186457129        0.0000000000000000     
  -8.0020294818516732E-002  0.13013158497691851        0.0000000000000000     
  -8.1800062967282192E-002  0.13729792420943981        0.0000000000000000     
  -8.0586455997644690E-002  0.11006263549355624        0.0000000000000000     
  -8.2722828800666601E-002  0.11680702012535361        0.0000000000000000     
  -8.4780779956926178E-002  0.12368425277193451        0.0000000000000000     
  -8.6760309466423449E-002  0.13069433343329892        0.0000000000000000     
  -8.8661417329158387E-002  0.13783726210944686        0.0000000000000000     
  -8.7117520460245207E-002  0.11074138353494087        0.0000000000000000     
  -8.9397622660754919E-002  0.11745953032335207        0.0000000000000000     
  -9.1590577367404488E-002  0.12431142578311276        0.0000000000000000     
  -9.3696384580193845E-002  0.13129706991422291        0.0000000000000000     
  -9.5715044299123059E-002  0.13841646271668256        0.0000000000000000     
  -6.8654172067795130E-002  0.13633883653111159        0.0000000000000000     
  -7.0104262222629526E-002  0.14367359274300195        0.0000000000000000     
  -7.1464444291689980E-002  0.15111999397520265        0.0000000000000000     
  -7.2734718274976490E-002  0.15867804022771362        0.0000000000000000     
  -7.3915084172489057E-002  0.16634773150053495        0.0000000000000000     
  -7.5130981213494430E-002  0.13679844901666138        0.0000000000000000     
  -7.6701784811276291E-002  0.14411288339627742        0.0000000000000000     
  -7.8170443300192058E-002  0.15154481460444524        0.0000000000000000     
  -7.9536956680241688E-002  0.15909424264116484        0.0000000000000000     
  -8.0801324951425224E-002  0.16676116750643627        0.0000000000000000     
  -8.1800062967282192E-002  0.13729792420943981        0.0000000000000000     
  -8.3491432727367698E-002  0.14458861798562431        0.0000000000000000     
  -8.5077221142106085E-002  0.15199571472896112        0.0000000000000000     
  -8.6557428211497395E-002  0.15951921443945033        0.0000000000000000     
  -8.7932053935541599E-002  0.16715911711709189        0.0000000000000000     
  -8.8661417329158387E-002  0.13783726210944686        0.0000000000000000     
  -9.0473205970903720E-002  0.14510079651104255        0.0000000000000000     
  -9.2184777817432131E-002  0.15247269434875030        0.0000000000000000     
  -9.3796132868743595E-002  0.15995295562256995        0.0000000000000000     
  -9.5307271124838153E-002  0.16754158033250172        0.0000000000000000     
  -9.5715044299123059E-002  0.13841646271668256        0.0000000000000000     
  -9.7647104541884369E-002  0.14564941897253228        0.0000000000000000     
  -9.9493113326170127E-002  0.15297575346381270        0.0000000000000000     
 -0.10125307065198030       0.16039546619052389        0.0000000000000000     
 -0.10292697651931490       0.16790855715266578        0.0000000000000000     
 </DataArray>
 <DataArray  type="Float64" Name="stress" NumberOfComponents="3" format="ascii">
   13416829159.703775        4025048747.9111323        2893937047.3525667     
   11766740227.427691        1890499707.6099064        1715782361.3110797     
   10313929102.794598        413543359.45199490        810718598.15299618     
   9058395785.8045025       -405820296.56259966        178745757.87831610     
   8000140276.4573994       -567591260.43387794       -180136159.51296136     
   10540104818.240328        3162031445.4720984        2225691535.6914577     
   9667795206.3928814        1589624672.1586933        1446661319.3539963     
   8944124540.9201527        512681053.42767429        863106826.54258883     
   8369092821.8221378       -68799410.720962048        475028057.25723690     
   7942700049.0988407       -154816720.28721189        282425011.49793887     
   8338087037.3645992        2501426111.2093797        1712283489.5878310     
   8021799033.4962282        1424634291.1489272        1275632404.8080685     
   7805511114.7342930        681176088.10992813        956841844.19701159     
   7689223281.0787945        271051502.09238148        755911807.75466228     
   7672935532.5297318        194260533.09628963        672842295.48101747     
   6810775817.0765896        2043232745.1229770        1353712909.0416865     
   6828751708.7377253        1395528564.5806057        1202695617.6732972     
   6898088824.2370167        919028463.49875689        1091923651.1162655     
   7018787163.5744667        613732441.87742996        1021397009.3705909     
   7190846726.7500715        479640499.71662450        991115692.43627274     
   5958171157.3762989        1787451347.2128897        1149979794.0530241     
   6088653232.1173744        1502307492.4537303        1227850957.9496820     
   6221857669.4283266        1226238179.5941615        1268352247.3003485     
   6357784469.3091545        959243408.63418305        1271483662.1050239     
   6496433631.7598648        701323179.57379651        1237245202.3637080     
   8000140276.4573994       -567591260.43387794       -180136159.51296136     
   7917921985.6291304       -200222338.54079342       -78261790.200861037     
   7794247021.3614082        28957671.887457371       -9018176.6562401243     
   7629115383.6542387        119948770.85088110        27594681.120896637     
   7422527072.5076237        72750958.349478245        31576783.130552541     
   7942700049.0988407       -154816720.28721189        282425011.49793887     
   7740048031.7006750        16291234.566506386        281130447.39723569     
   7514033796.1623621        109525128.95306730        265116303.32702646     
   7264657342.4839020        124884962.87247181        234382579.28730798     
   6991918670.6652985        62370736.324728012        188929275.27808490     
   7672935532.5297318        194260533.09628963        672842295.48101747     
   7401024576.5558834        184459957.30890799        589488995.81669664     
   7123845857.7411900        157100172.05204105        509327291.98084307     
   6841399376.0856524        112181177.32569408        432357183.97345608     
   6553685131.5892677        49702973.129857779        358578671.79453725     
   7190846726.7500715        479640499.71662450        991115692.43627274     
   6900851620.1947536        304283829.68640637        846813855.05752146     
   6623683206.0978889        171682801.18437505        723614789.30521059     
   6359341484.4594841        81837414.210535526        621518495.17933881     
   6107826455.2795315        34747668.764880419        540524972.67990828     
   6496433631.7598648        701323179.57379651        1237245202.3637080     
   6239529162.6172829        375762851.69900322        1053105025.1197093     
   6013545841.2324619        153273016.35007167        907978795.30012488     
   5818483667.6053953        33853673.527003765        801866512.90495574     
   5654342641.7360926        17504823.229793310        734768177.93419921     
   7422527072.5076237        72750958.349478245        31576783.130552541     
   7219767815.4222918       -17835479.591144085        14758009.572639020     
   7029099951.5625973       -68117273.446308136        2322898.2490042453     
   6850523480.9285469       -78094423.215991497       -5728550.8403436206     
   6684038403.5201387       -47766928.900199413       -9396337.6954117827     
   6991918670.6652985        62370736.324728012        188929275.27808490     
   6809132770.3020353        3122751.8762860298        180682480.64969414     
   6634069798.4059782       -30382137.681467056        176184193.53656781     
   6466729754.9771280       -38143932.348531008        175434413.93871480     
   6307112640.0154829       -20162632.124910116        178433141.85612732     
   6553685131.5892677        49702973.129857779        358578671.79453725     
   6389057860.1794586        21249023.843018532        353807313.87749678     
   6227785052.4784231        3976620.2520864010        352149308.75670528     
   6069866708.4861574       -2114237.6429407597        353604656.43216926     
   5915302828.2026625        2976450.1579318047        358173356.90388399     
   6107826455.2795315        34747668.764880419        540524972.67990828     
   5959543085.0545635        36543336.309061289        534132509.25604343     
   5810245713.7799339        34959000.354361773        530218243.90941393     
   5659934341.4556389        29994660.900780678        528782176.64002228     
   5508608968.0816793        21650317.948323488        529824307.44786626     
   5654342641.7360926        17504823.229793310        734768177.93419921     
   5520588444.9273520        49005689.274404049        721658066.78533673     
   5381451782.3105116        62565002.625356197        710390998.99469233     
   5236932653.8855734        58182763.282643557        700966974.56227124     
   5087031059.6525383        35858971.246273279        693385993.48807359     
   6684038403.5201387       -47766928.900199413       -9396337.6954117827     
   6509396856.5017567       -8975191.7074062824       -3919963.6292811618     
   6329858103.3522415        13492525.048273087        2962141.6748070857     
   6145422144.0715933        19636221.366847038        11249978.216866091     
   5956088978.6598082        9455897.2482936382        20943545.996875681     
   6307112640.0154829       -20162632.124910116        178433141.85612732     
   6132437278.3194103        564196.81989979744        174797492.03184617     
   5954827781.1725178        11510574.261973381        173898924.65938368     
   5774284148.5748034        12676500.201301098        175737439.73872861     
   5590806380.5262632        4061974.6378924847        180313037.26989156     
   5915302828.2026625        2976450.1579318047        358173356.90388399     
   5744397512.4399033        6779529.0380594730        347715932.31623358     
   5572521131.9066372        7345725.3498160839        341326941.39424771     
   5399673686.6028595        4675039.0932121277        339006384.13791925     
   5225855176.5285740       -1232529.7317585945        340754260.54725933     
   5508608968.0816793        21650317.948323488        529824307.44786626     
   5345277558.8632402        9670804.9470708370        514835357.22387165     
   5182938155.5546007        997978.31182098389        505246191.87939012     
   5021590758.1557636       -4368161.9574222565        501056811.41442800     
   4861235366.6667290       -6427615.8606564999        502267215.82897526     
   5087031059.6525383        35858971.246273279        693385993.48807359     
   4935077417.5894165        9238024.5469334126        676155766.75476503     
   4786078852.1164074       -7532666.8520295620        665656676.11482191     
   4640035363.2335186       -14453102.950596809        661888721.56824684     
   4496946950.9407396       -11523283.748793840        664851903.11503470     
   5956088978.6598082        9455897.2482936382        20943545.996875681     
   5778640936.8762398       -1371145.5287268162        13751048.957813324     
   5603312789.7423086       -5131872.8069674969        10546643.173753098     
   5430104537.2580166       -1826284.5864009857        11330328.644695640     
   5259016179.4233618        8545619.1329512596        16102105.370647995     
   5590806380.5262632        4061974.6378924847        180313037.26989156     
   5425032260.5515575       -1625728.5705068111        175176562.63753930     
   5260620228.5108652       -2773138.6655082703        173845935.16423103     
   5097570284.4042101        619744.35294389725        176321154.84997362     
   4935882428.2315817        8552920.4848053455        182602221.69476819     
   5225855176.5285740       -1232529.7317585945        340754260.54725933     
   5071234280.9457035       -1937102.5966460705        336789700.48673350     
   4917217666.5812531       -627404.73347997665        336448743.48930085     
   4763805333.4352140        2696563.8577320576        339731389.55496174     
   4610997281.5075970        8034803.1770153046        346637638.68371964     
   4861235366.6667290       -6427615.8606564999        502267215.82897526     
   4717246998.0586872       -2305267.6071336269        498590462.50539744     
   4573105103.9534588        1305328.9890775681        498355068.14896023     
   4428809684.3510284        4404173.9279732704        501561032.75966322     
   4284360739.2514110        6991267.2095558643        508208356.33750558     
   4496946950.9407396       -11523283.748793840        664851903.11503470     
   4363070411.8905134       -2730223.6019678116        660578848.69353056     
   4228282540.6274858        3025062.5021779537        659564909.14320993     
   4092583337.1516542        5742574.5636522770        661810084.46407390     
   3955972801.4630165        5422312.5824375153        667314374.65612662     
   5259016179.4233618        8545619.1329512596        16102105.370647995     
   5062967631.2675409        11879361.051326752        13054774.829586767     
   4865095822.7227755        9135568.3398764133        13198714.311622834     
   4665400753.7890759        314240.99864506721        16533923.816751074     
   4463882424.4664192       -14584620.972432613        23060403.344971485     
   4935882428.2315817        8552920.4848053455        182602221.69476819     
   4747844028.0159092        8767137.5563519001        177404901.12649098     
   4558566311.8349466        4850301.4102509022        175897853.14604276     
   4368049279.6886930       -3197587.9534897804        178081077.75341719     
   4176292931.5771475       -15376530.534851074        183954574.94861549     
   4610997281.5075970        8034803.1770153046        346637638.68371964     
   4432394750.8455763        5557211.8857502937        339971596.58249968     
   4253136848.6419230        895048.78904747963        337494829.63382953     
   4073223574.8966341       -5951686.1131205559        339207337.83771259     
   3892654929.6097083       -14982992.820729733        345109121.19415092     
   4284360739.2514110        6991267.2095558643        508208356.33750558     
   4116619799.7565536        2249584.0395567417        500754861.19759953     
   3948807433.1437192       -2730189.5237071514        497989643.77497602     
   3780923639.4128990       -7948053.4802441597        499912704.06963271     
   3612968418.5641041       -13404007.830045938        506524042.08157349     
   3955972801.4630165        5422312.5824375153        667314374.65612662     
   3800519174.7488332       -1155745.9822442532        659754694.97180355     
   3645578065.3403234       -6025413.5280189514        657382295.56949067     
   3491149473.2374840       -9186690.0548901558        660197176.44918132     
   3337233398.4403281       -10639575.562817335        668199337.61088586     
   4463882424.4664192       -14584620.972432613        23060403.344971485     
   4291392178.8608117       -18599011.772684336        9196278.6995499674     
   4122159949.2852831       -11753349.139328957        3487893.9483912610     
   3956185735.7398224        5952366.9275758266        5935249.0915011326     
   3793469538.2244534        34518136.428130388        16538344.128880221     
   4176292931.5771475       -15376530.534851074        183954574.94861549     
   4024617932.4007034       -13998455.859115124        173914298.72743788     
   3875192762.9763021       -5120948.6765506268        170485595.52457145     
   3728017423.3039536        11255991.012856722        173668465.34001684     
   3583091913.3836565        35132363.209081173        183462908.17379263     
   3892654929.6097083       -14982992.820729733        345109121.19415092     
   3757383271.5025697       -9536024.2769615650        337716476.07283783     
   3623353256.8694553        49755.846880197525        335391237.09389555     
   3490564885.7103591        13774347.550793409        338133404.25732249     
   3359018158.0252752        31637750.834742904        345942977.56312698     
   3612968418.5641041       -13404007.830045938        506524042.08157349     
   3489688196.1664252       -5211717.0261938572        500602810.73576063     
   3366641430.9647322        3758764.4309554100        498204818.65637988     
   3243828122.9590273        13507436.541395307        499330065.84342003     
   3121248272.1493111        24034299.305129528        503978552.29687905     
   3337233398.4403281       -10639575.562817335        668199337.61088586     
   3221532706.3922496       -1025534.1068453789        662573302.71621752     
   3105057285.2621293        6006077.0756407976        658926340.21202147     
   2987807135.0499802        10455257.984704733        657258450.09829855     
   2869782255.7557788        12322008.620259404        657569632.37505889     
   3793469538.2244534        34518136.428130388        16538344.128880221     
   3628559811.0342231        49149107.290061951        28444210.422588021     
   3451638173.4823785        23740376.946613073        29585743.002281416     
   3262704625.5689263       -41708054.602190256        19962941.867954008     
   3061759167.2938676       -147196187.35636020       -424192.98039292765     
   3583091913.3836565        35132363.209081173        183462908.17379263     
   3393279321.5075707        37160115.988137960        181672270.21940520     
   3195689980.2110152        13265370.698954105        174398351.16287738     
   2990323889.4940119       -36551872.658405542        161641151.00421745     
   2777181049.3565288       -112291614.08401024        143400669.74342859     
   3359018158.0252752        31637750.834742904        345942977.56312698     
   3159391423.2115645        25588902.055410743        335396856.45865011     
   2956223099.9185309        7734758.3449841738        324648506.86390620     
   2749513188.1461816       -21924680.296509147        313697928.77891475     
   2539261687.8944912       -63389413.869083166        302545122.20366448     
   3121248272.1493111        24034299.305129528        503978552.29687905     
   2926896116.1462116        14435465.491884828        489617969.14030612     
   2733237532.6049151        7148539.8846757412        480336210.10535705     
   2540272521.5254464        2173522.4835360050        476133275.19203222     
   2348001082.9077892       -489586.71154236794        477009164.40032566     
   2869782255.7557788        12322008.620259404        657569632.37505889     
   2695793400.3114915        3699806.2975386381        644335608.26438725     
   2526733278.2701640        11506715.318016648        641461460.88722670     
   2362601889.6317983        35742735.681691527        648947190.24355590     
   2203399234.3963904        76407867.388576150        666792796.33339989     
   5958171157.3762989        1787451347.2128897        1149979794.0530241     
   6088653232.1173744        1502307492.4537303        1227850957.9496820     
   6221857669.4283266        1226238179.5941615        1268352247.3003485     
   6357784469.3091545        959243408.63418305        1271483662.1050239     
   6496433631.7598648        701323179.57379651        1237245202.3637080     
   5434863491.0152626        1630459047.3045788        1033394872.6945668     
   5490103660.5401659        1372539661.6136296        1113785906.9603150     
   5547541254.7484293        1121945024.8672104        1167385857.3592587     
   5607176273.6400490        878675137.06531978        1194194723.8913968     
   5669008717.2150297        642729998.20795894        1194212506.5567307     
   4895443250.7450151        1468632975.2235045        936268873.03903842     
   4905666631.2799931        1247005593.4686394        1018567350.1396053     
   4917562498.6118135        1030953167.7032434        1084653534.0525539     
   4931130852.7404728        820475697.92731535        1134527424.7778842     
   4946371693.6659727        615573184.14085531        1168189022.3155966     
   4339910436.5655546        1301973130.9696662        858601795.08643889     
   4335342144.3368559        1125705288.0187600        942195287.48755288     
   4331921401.0184793        953262608.10226107        1020155277.3802353     
   4329648206.6104259        784645091.22016931        1092481764.7644861     
   4328522561.1126938        619852737.37248456        1159174749.6403048     
   3768265048.4768825        1130479514.5430648        800393638.83676779     
   3779130199.7107539        1008638745.2639915        884669719.00415790     
   3790617961.9684296        888873346.06426406        973891087.34230256     
   3802728335.2499089        771183316.94388294        1068057743.8512022     
   3815461319.5551925        655568657.90284705        1167169688.5308566     
   6496433631.7598648        701323179.57379651        1237245202.3637080     
   6239529162.6172829        375762851.69900322        1053105025.1197093     
   6013545841.2324619        153273016.35007167        907978795.30012488     
   5818483667.6053953        33853673.527003765        801866512.90495574     
   5654342641.7360926        17504823.229793310        734768177.93419921     
   5669008717.2150297        642729998.20795894        1194212506.5567307     
   5519068358.3961926        383207274.21928859        1073376989.1500121     
   5393274040.1160860        204171352.02638650        980568162.13265097     
   5291625762.3747082        105622231.62925148        915786025.50465095     
   5214123525.1720619        87559913.027885675        879030579.26600981     
   4946371693.6659727        615573184.14085531        1168189022.3155966     
   4872003282.2135773        412670415.15111685        1102753872.9906240     
   4815005804.0808849        267670757.22705221        1054358157.0199552     
   4775379259.2678957        180574210.36866403        1023001874.4035915     
   4753123647.7746067        151380774.57594824        1008685025.1415306     
   4328522561.1126938        619852737.37248456        1159174749.6403048     
   4298333934.0694418        464152274.49448836        1141235676.6415460     
   4278741133.1268616        343771231.95207334        1129348779.9620376     
   4269744158.2849565        258709609.74523759        1123514059.6017761     
   4271343009.5437264        208967407.87398434        1123731515.5607650     
   3815461319.5551925        655568657.90284705        1167169688.5308566     
   3798060313.9637790        537652852.24940193        1188822400.1027796     
   3784480027.2540131        432472776.20144391        1205540030.9588969     
   3774720459.4258928        340028429.75897563        1217322581.0992072     
   3768781610.4794202        260319812.92199218        1224170050.5237107     
   5654342641.7360926        17504823.229793310        734768177.93419921     
   5520588444.9273520        49005689.274404049        721658066.78533673     
   5381451782.3105116        62565002.625356197        710390998.99469233     
   5236932653.8855734        58182763.282643557        700966974.56227124     
   5087031059.6525383        35858971.246273279        693385993.48807359     
   5214123525.1720619        87559913.027885675        879030579.26600981     
   5077841524.2871361        85290254.763281107        855359943.60773742     
   4939452992.3853140        75998826.442353964        835694997.83476806     
   4798957929.4665947        59685628.065098047        820035741.94709897     
   4656356335.5309753        36350659.631520987        808382175.94473302     
   4753123647.7746067        151380774.57594824        1008685025.1415306     
   4620492832.8908682        117194289.02534056        978275788.89692044     
   4489031421.7814322        86905816.055743694        954034889.06469214     
   4358739414.4462996        60515355.667157173        935962325.64484465     
   4229616810.8854704        38022907.859583616        924058098.63737702     
   4271343009.5437264        208967407.87398434        1123731515.5607650     
   4148542370.7385435        144717792.06058264        1090405602.6528833     
   4030187070.4988661        95285971.465529680        1065410672.6844629     
   3916277108.8246899        60671946.088822365        1048746725.6555037     
   3806812485.7160225        40875715.930465221        1040413761.5660046     
   3768781610.4794202        260319812.92199218        1224170050.5237107     
   3661990137.8301649        167860763.86900973        1191749384.8756266     
   3562919938.5376143        101139292.67171037        1169822348.6940827     
   3471571012.6017694        60155399.330093622        1158388941.9790771     
   3387943360.0226297        44909083.844162822        1157449164.7306154     
   5087031059.6525383        35858971.246273279        693385993.48807359     
   4935077417.5894165        9238024.5469334126        676155766.75476503     
   4786078852.1164074       -7532666.8520295620        665656676.11482191     
   4640035363.2335186       -14453102.950596809        661888721.56824684     
   4496946950.9407396       -11523283.748793840        664851903.11503470     
   4656356335.5309753        36350659.631520987        808382175.94473302     
   4522670216.2623281        15750763.987195015        795105213.47484481     
   4391130472.2232103        2305452.4413163662        787759582.20233762     
   4261737103.4136267       -3985275.0061175823        786345282.12720609     
   4134490109.8335781       -3121418.3551061153        790862313.24945283     
   4229616810.8854704        38022907.859583616        924058098.63737702     
   4111913057.5656142        22758516.216575861        913790915.51023269     
   3995546978.1147094        11953037.470070839        908655258.68447948     
   3880518572.5327563        5606471.6200754642        908651128.16011608     
   3766827840.8197565        3718818.6665887833        913778523.93714261     
   3806812485.7160225        40875715.930465221        1040413761.5660046     
   3702805941.4992776        30261281.235063076        1032212872.8609263     
   3599328369.7909050        21410088.234230280        1028343705.5612468     
   3496379770.5909042        14322136.927970886        1028806259.6669708     
   3393960143.8992739        8997427.3162837029        1033600535.1780992     
   3387943360.0226297        44909083.844162822        1157449164.7306154     
   3295348868.0633197        38259059.042667985        1150371085.5269213     
   3202474647.2518005        30676604.733806849        1146824922.8326421     
   3109320697.5880694        22161720.917572021        1146810676.6477797     
   3015887019.0721297        12714407.593978286        1150328346.9723320     
   4496946950.9407396       -11523283.748793840        664851903.11503470     
   4363070411.8905134       -2730223.6019678116        660578848.69353056     
   4228282540.6274858        3025062.5021779537        659564909.14320993     
   4092583337.1516542        5742574.5636522770        661810084.46407390     
   3955972801.4630165        5422312.5824375153        667314374.65612662     
   4134490109.8335781       -3121418.3551061153        790862313.24945283     
   4008268404.9362040        729198.00835776329        784269481.66684985     
   3881666812.5725760        3313522.8176481724        781446433.12679911     
   3754685332.7427015        4631556.0727770329        782393167.62930393     
   3627323965.4465742        4683297.7737329006        787109685.17435825     
   3766827840.8197565        3718818.6665887833        913778523.93714261     
   3649720021.9934201        3064706.8221390247        905485934.06442094     
   3532763760.4473877        2915785.9120314121        901473795.40562332     
   3415959056.1816573        3272055.9362714291        901742107.96074128     
   3299305909.1962304        4133516.8948559761        906290871.72977793     
   3393960143.8992739        8997427.3162837029        1033600535.1780992     
   3287425263.0621676        4276302.8393769264        1024228205.8862456     
   3181573384.2519183        1831851.7853304148        1019646995.9796729     
   3076404507.4685273        1664074.1541413069        1019856905.4583877     
   2971918632.7119932        3772969.9458086491        1024857934.3223881     
   3015887019.0721297        12714407.593978286        1150328346.9723320     
   2921384128.1424451        4363986.0600810051        1140496297.1323159     
   2828095683.9861698        61720.437546491623        1135966034.8489532     
   2736021686.6033077       -192389.27361094952        1136737560.1222415     
   2645162135.9938555        3601656.9265977144        1142810872.9521816     
   3955972801.4630165        5422312.5824375153        667314374.65612662     
   3800519174.7488332       -1155745.9822442532        659754694.97180355     
   3645578065.3403234       -6025413.5280189514        657382295.56949067     
   3491149473.2374840       -9186690.0548901558        660197176.44918132     
   3337233398.4403281       -10639575.562817335        668199337.61088586     
   3627323965.4465742        4683297.7737329006        787109685.17435825     
   3485712010.1967711        344087.66029071808        780124929.69210792     
   3344403606.9659843       -2983282.3897550106        778083676.18093216     
   3203398755.7542238       -5298812.3763902187        780985924.64082491     
   3062697456.5614843       -6602502.2996131182        788831675.07179773     
   3299305909.1962304        4133516.8948559761        906290871.72977793     
   3170839115.9509892        1824202.3947122097        899637247.61517227     
   3042466909.4381146       -169822.99754059315        897683347.16070485     
   2914189289.6576090       -1848559.2819033861        900429170.36637247     
   2786006256.6094708       -3212006.4583646059        907874717.23217559     
   2971918632.7119932        3772969.9458086491        1024857934.3223881     
   2855900492.0114937        3284598.2210199833        1018291648.7409950     
   2739767972.7567101        2414964.6486117840        1016181308.5088111     
   2623521074.9476399        1164069.2285783291        1018526913.6258192     
   2507159798.5842857       -468088.03906345367        1025328464.0920329     
   2645162135.9938555        3601656.9265977144        1142810872.9521816     
   2540896138.3782825        4725275.1392134428        1136088133.0695789     
   2436306796.9217687        4771080.5486934185        1133577560.2252407     
   2331394111.6243196        3739073.1550568342        1135279154.4191647     
   2226158082.4859324        1629252.9582837820        1141192915.6513550     
   3337233398.4403281       -10639575.562817335        668199337.61088586     
   3221532706.3922496       -1025534.1068453789        662573302.71621752     
   3105057285.2621293        6006077.0756407976        658926340.21202147     
   2987807135.0499802        10455257.984704733        657258450.09829855     
   2869782255.7557788        12322008.620259404        657569632.37505889     
   3062697456.5614843       -6602502.2996131182        788831675.07179773     
   2952332784.0325093        1015671.0223453045        782056943.69261777     
   2841546455.2511482        7228323.5030243397        777868355.27627301     
   2730338470.2173977        12035455.142400622        776265909.82276118     
   2618708828.9312654        15437065.940509558        777249607.33209133     
   2786006256.6094708       -3212006.4583646059        907874717.23217559     
   2682712090.9492011        2930644.9344737530        900363207.66974711     
   2579349341.8662004        8844684.9182074070        896044911.64251435     
   2475918009.3604627        14530113.492824078        894919829.15047753     
   2372418093.4319949        19986930.658332705        896987960.19364011     
   2507159798.5842857       -468088.03906345367        1025328464.0920329     
   2412670627.1423273        4719387.6295402050        1017492094.6476164     
   2318465945.1072860        10855161.321195602        1013456009.3107545     
   2224545752.4791675        17939233.035932541        1013220208.0814523     
   2130910049.2579665        25971602.773725033        1016784690.9597083     
   2226158082.4859324        1629252.9582837820        1141192915.6513550     
   2142208392.6118779        6381899.1075072289        1133443604.6262147     
   2058896264.9744139        13259752.712016463        1130101648.2809870     
   1976221699.5735044        22262813.771721244        1131167046.6156843     
   1894184696.4091763        33391082.286688805        1136639799.6302953     
   2869782255.7557788        12322008.620259404        657569632.37505889     
   2695793400.3114915        3699806.2975386381        644335608.26438725     
   2526733278.2701640        11506715.318016648        641461460.88722670     
   2362601889.6317983        35742735.681691527        648947190.24355590     
   2203399234.3963904        76407867.388576150        666792796.33339989     
   2618708828.9312654        15437065.940509558        777249607.33209133     
   2469593993.9946065        11166302.163082480        768889852.33929956     
   2323256760.4881086        16154209.819520116        768299904.41611850     
   2179697128.4117708        30400788.909835935        775479763.56254244     
   2038915097.7655957        53906039.434027314        790429429.77857268     
   2372418093.4319949        19986930.658332705        896987960.19364011     
   2240777079.9632649        17847545.714284658        890992820.35046148     
   2109762535.9519043        17796392.294785738        890177417.91299486     
   1979374461.3979027        19833470.399824858        894541752.88124979     
   1849612856.3012624        23958780.029416919        904085825.25520670     
   2130910049.2579665        25971602.773725033        1016784690.9597083     
   2009342658.2174742        23743536.951154351        1010644512.2978779     
   1886250604.6615498        16433262.743802905        1007094001.3778690     
   1761633888.5901866        4040780.1516579390        1006133158.1996820     
   1635492510.0033937       -13433910.825250983        1007761982.7632982     
   1894184696.4091763        33391082.286688805        1136639799.6302953     
   1775290728.7572296        28854275.873691320        1127844928.1815493     
   1652720966.6170449        12064821.166576743        1119049654.8107266     
   1526475409.9886286       -16977281.834661245        1110253979.5178323     
   1396554058.8719790       -58272033.129989207        1101457902.3028579     
   3768265048.4768825        1130479514.5430648        800393638.83676779     
   3779130199.7107539        1008638745.2639915        884669719.00415790     
   3790617961.9684296        888873346.06426406        973891087.34230256     
   3802728335.2499089        771183316.94388294        1068057743.8512022     
   3815461319.5551925        655568657.90284705        1167169688.5308566     
   3207710314.8937283        962313094.46811843        756506507.60496211     
   3235815437.1687412        868164363.92127097        852880489.37302125     
   3263649047.6683922        773110594.12321782        951180228.67915070     
   3291211146.3926816        677151785.07395911        1051405725.5233512     
   3318501733.3416090        580287936.77349496        1153556979.9056227     
   2685449464.2308207        805634839.26924622        721802504.70595801     
   2722167327.1678782        736589978.34089565        829231244.80899298     
   2757719555.5304060        663659668.83078730        935566211.81741428     
   2792106149.3184090        586843910.73892212        1040807405.7312230     
   2825327108.5318837        506142704.06529969        1144954826.5504184     
   2201482496.4881606        660444748.94644821        696281630.13975573     
   2238185869.7081642        613915588.52286494        813721985.31207359     
   2272829485.5544739        560520570.18697274        927049036.75709391     
   2305413344.0270910        500259693.93877172        1036262784.4748169     
   2335937445.1260171        433132959.77826196        1141363228.4652436     
   1755809411.6657476        526742823.49972427        679943883.90635514     
   1783871064.7895997        500141194.46717924        806352710.88226271     
   1808978837.7405939        463693298.19177389        925628703.49818909     
   1831132730.5187297        417399134.67350769        1037771861.7541337     
   1850332743.1240079        361258703.91238195        1142782185.6500976     
   3815461319.5551925        655568657.90284705        1167169688.5308566     
   3798060313.9637790        537652852.24940193        1188822400.1027796     
   3784480027.2540131        432472776.20144391        1205540030.9588969     
   3774720459.4258928        340028429.75897563        1217322581.0992072     
   3768781610.4794202        260319812.92199218        1224170050.5237107     
   3318501733.3416090        580287936.77349496        1153556979.9056227     
   3293835070.6395049        473067641.12308145        1181839880.7091465     
   3272888751.0613513        378248489.21917129        1207000700.6041672     
   3255662774.6071486        295830481.06176472        1229039439.5906856     
   3242157141.2768979        225813616.65086186        1247956097.6687021     
   2825327108.5318837        506142704.06529969        1144954826.5504184     
   2798574788.1685266        411171918.25274950        1179750811.5348976     
   2775442435.1714268        328267690.32771909        1213237715.4181790     
   2755930049.5405812        257430020.29020691        1245415538.2002611     
   2740037631.2759924        198658908.14021587        1276284279.8811455     
   2335937445.1260171        433132959.77826196        1141363228.4652436     
   2312279466.5508471        351965683.63840634        1182555192.5800343     
   2292141079.5842385        282530379.52708769        1224251075.4009311     
   2275522284.2261896        224827047.44430310        1266450876.9279332     
   2262423080.4767013        178855687.39005446        1309154597.1610396     
   1850332743.1240079        361258703.91238195        1142782185.6500976     
   1834949105.7864642        295448937.28005362        1190253023.8445563     
   1822984684.2997868        241036556.81727755        1240040780.5524244     
   1814439478.6639740        198021562.52405041        1292145455.7737005     
   1809313488.8790276        166403954.40037769        1346567049.5083864     
   3768781610.4794202        260319812.92199218        1224170050.5237107     
   3661990137.8301649        167860763.86900973        1191749384.8756266     
   3562919938.5376143        101139292.67171037        1169822348.6940827     
   3471571012.6017694        60155399.330093622        1158388941.9790771     
   3387943360.0226297        44909083.844162822        1157449164.7306154     
   3242157141.2768979        225813616.65086186        1247956097.6687021     
   3164926758.3363371        151527476.94571197        1230936016.7411294     
   3093766021.0117207        97473489.293713927        1221967857.8118949     
   3028674929.3030519        63651653.694873214        1221051620.8809996     
   2969653483.2103310        50061970.149190187        1228187305.9484453     
   2740037631.2759924        198658908.14021587        1276284279.8811455     
   2685392030.9921203        140452785.66729558        1272737884.6431985     
   2635164448.5834351        96973389.445002317        1274801703.9353900     
   2589354884.0499358        68220719.473333478        1282475737.7577174     
   2547963337.3916283        54194775.752292752        1295759986.1101840     
   2262423080.4767013        178855687.39005446        1309154597.1610396     
   2223385955.7975149        134636690.03376520        1317154988.5818355     
   2187115221.2527561        99638993.125571609        1328323887.0645654     
   2153610876.8424273        73862596.665475965        1342661292.6092331     
   2122872922.5665267        57307500.653478503        1360167205.2158368     
   1809313488.8790276        166403954.40037769        1346567049.5083864     
   1778908532.7525201        134079190.04511553        1364187328.5570378     
   1749618339.0196838        105470300.33542234        1382534407.1994231     
   1721442907.6805186        80577285.271298885        1401608285.4355450     
   1694382238.7350230        59400144.852740884        1421408963.2653997     
   3387943360.0226297        44909083.844162822        1157449164.7306154     
   3295348868.0633197        38259059.042667985        1150371085.5269213     
   3202474647.2518005        30676604.733806849        1146824922.8326421     
   3109320697.5880694        22161720.917572021        1146810676.6477797     
   3015887019.0721297        12714407.593978286        1150328346.9723320     
   2969653483.2103310        50061970.149190187        1228187305.9484453     
   2885561861.1086245        38667044.412127018        1220238087.6752319     
   2801806622.3654709        28393396.536904454        1216392599.1528218     
   2718387766.9808660        19241026.523515105        1216650840.3812006     
   2635305294.9548097        11209934.371953607        1221012811.3603790     
   2547963337.3916283        54194775.752292752        1295759986.1101840     
   2474008337.2657614        38545074.715138674        1287658426.3466773     
   2401005832.7092052        26070358.909023046        1284232409.5753462     
   2328955823.7219591        16770628.333938479        1285481935.7961941     
   2257858310.3040233        10645882.989887118        1291407005.0092196     
   2122872922.5665267        57307500.653478503        1360167205.2158368     
   2060688296.5347311        37893149.951700687        1352632101.5412514     
   2000072278.2830064        23707491.850160599        1350344354.1002247     
   1941024867.8113539        14750526.348854899        1353303962.8927586     
   1883546065.1197689        11022253.447782755        1361510927.9188526     
   1694382238.7350230        59400144.852740884        1421408963.2653997     
   1645601738.9155319        36711270.121807992        1415159113.2589560     
   1599005959.0868740        21304795.360319078        1414728432.7274554     
   1554594899.2490458        13180720.568262339        1420116921.6708956     
   1512368559.4020467        12339045.745634735        1431324580.0892766     
   3015887019.0721297        12714407.593978286        1150328346.9723320     
   2921384128.1424451        4363986.0600810051        1140496297.1323159     
   2828095683.9861698        61720.437546491623        1135966034.8489532     
   2736021686.6033077       -192389.27361094952        1136737560.1222415     
   2645162135.9938555        3601656.9265977144        1142810872.9521816     
   2635305294.9548097        11209934.371953607        1221012811.3603790     
   2554919806.1331186        5770837.4159811735        1213267915.2698536     
   2475373472.5688758        3128924.6515010595        1210408927.5723779     
   2396666294.2620907        3284196.0785461664        1212435848.2679536     
   2318798271.2127557        6236651.6970958710        1219348677.3565824     
   2257858310.3040233        10645882.989887118        1291407005.0092196     
   2190401997.4086061        7761642.7573162317        1285311422.5662327     
   2123409548.2546823        6423614.9963917732        1283685869.3526950     
   2056880962.8422534        6631799.7071155310        1286530345.3686073     
   1990816241.1713223        8386196.8894937038        1293844850.6139724     
   1883546065.1197689        11022253.447782755        1361510927.9188526     
   1827830701.9689064        10336402.084095716        1356626819.0214534     
   1772203911.0435863        9945791.4722104073        1355796860.1898994     
   1716665692.3437972        9850421.6120984554        1359021051.4242008     
   1661216045.8695498        10050292.503791690        1366299392.7243481     
   1512368559.4020467        12339045.745634735        1431324580.0892766     
   1467205919.8140273        13495115.396329582        1427214104.6355133     
   1421756560.9355869        13695454.078953028        1426741900.0839992     
   1376020482.7667227        12940061.793498933        1429907966.4347320     
   1329997685.3074422        11228938.539988995        1436712303.6877151     
   2645162135.9938555        3601656.9265977144        1142810872.9521816     
   2540896138.3782825        4725275.1392134428        1136088133.0695789     
   2436306796.9217687        4771080.5486934185        1133577560.2252407     
   2331394111.6243196        3739073.1550568342        1135279154.4191647     
   2226158082.4859324        1629252.9582837820        1141192915.6513550     
   2318798271.2127557        6236651.6970958710        1219348677.3565824     
   2225429440.4402766        5619027.7704584599        1211976865.9115496     
   2131933649.6444762        4578203.7660839558        1209177148.5704579     
   2038310898.8253505        3114179.6839618683        1210949525.3333127     
   1944561187.9829051        1226955.5240967274        1217293996.2001088     
   1990816241.1713223        8386196.8894937038        1293844850.6139724     
   1909372940.2867351        6335839.7370476723        1286053082.0603933     
   1827999063.1964419        4516895.2322452068        1283193334.6764345     
   1746694609.9004412        2929363.3750811815        1285265608.4620998     
   1665459580.3987308        1573244.1655623913        1292269903.4173920     
   1661216045.8695498        10050292.503791690        1366299392.7243481     
   1592726637.9176552        6875711.0389746428        1358316781.5161064     
   1524503037.5776706        4587154.9471869469        1355626118.5431669     
   1456545244.8495905        3184624.2284233570        1358227403.8055317     
   1388853259.7334242        2668118.8826931119        1366120637.3031967     
   1329997685.3074422        11228938.539988995        1436712303.6877151     
   1275490533.3330369        7238641.6762366891        1428767964.2786975     
   1221445572.7881589        4788982.9109075665        1426475500.1706619     
   1167862803.6728017        3879962.2439816594        1429834911.3636103     
   1114742225.9869707        4511579.6754731536        1438846197.8575385     
   2226158082.4859324        1629252.9582837820        1141192915.6513550     
   2142208392.6118779        6381899.1075072289        1133443604.6262147     
   2058896264.9744139        13259752.712016463        1130101648.2809870     
   1976221699.5735044        22262813.771721244        1131167046.6156843     
   1894184696.4091763        33391082.286688805        1136639799.6302953     
   1944561187.9829051        1226955.5240967274        1217293996.2001088     
   1872205766.3729012        6569535.6857781410        1211160039.0088120     
   1800512371.3038962        14118870.984124184        1209401256.4147606     
   1729481002.7758982        23874961.419152975        1212017648.4179530     
   1659111660.7888975        35837806.990844309        1219009215.0183880     
   1665459580.3987308        1573244.1655623913        1292269903.4173920     
   1604606483.9594116        7478175.4116702080        1287779841.7484436     
   1544439878.3655281        15671409.475896537        1287632774.5940652     
   1484959763.6170707        26152946.358215153        1291828701.9542549     
   1426166139.7140465        38922786.058638215        1300367623.8290088     
   1388853259.7334242        2668118.8826931119        1366120637.3031967     
   1339410545.3714304        9107818.2852288485        1363303012.8451037     
   1290678786.1592984        17917368.187303782        1364796202.8189011     
   1242657982.0970268        29096768.588910758        1370600207.2245915     
   1195348133.1846151        42646019.490056396        1380715026.0621724     
   1114742225.9869707        4511579.6754731536        1438846197.8575385     
   1076617950.6089454        11458464.306429744        1437729552.2987931     
   1039229094.6852077        20856747.118346095        1440891541.0892665     
   1002575658.2157646        32706428.111244202        1448332164.2289531     
   966657641.20060813        47007507.285095125        1460051421.7178612     
   1894184696.4091763        33391082.286688805        1136639799.6302953     
   1775290728.7572296        28854275.873691320        1127844928.1815493     
   1652720966.6170449        12064821.166576743        1119049654.8107266     
   1526475409.9886286       -16977281.834661245        1110253979.5178323     
   1396554058.8719790       -58272033.129989207        1101457902.3028579     
   1659111660.7888975        35837806.990844309        1219009215.0183880     
   1543905190.6060305        32500916.080437541        1208997797.2110498     
   1426817838.0426006        22894417.234817207        1201546414.2629478     
   1307849603.0985940        7018310.4539479613        1196655066.1740711     
   1187000485.7740269       -15127404.262138128        1194323752.9444280     
   1426166139.7140465        38922786.058638215        1300367623.8290088     
   1321962700.6611338        38980470.749106109        1291233723.7887013     
   1217673291.3353140        38751587.863217592        1287220295.3889270     
   1113297911.7365878        38236137.400975466        1288327338.6296771     
   1008836561.8649555        37434119.362383664        1294554853.5109682     
   1195348133.1846151        42646019.490056396        1380715026.0621724     
   1109463258.9225206        48292939.879650474        1374552707.9144914     
   1025287326.4951799        59636333.051757395        1376071298.1886485     
   942820335.90259588        76676199.006389111        1385270796.8846402     
   862062287.14477694        99412537.743570089        1402151204.0024679     
   966657641.20060813        47007507.285095125        1460051421.7178612     
   906406865.39019632        60438323.472074956        1458954749.5884225     
   849659943.52220309        85548652.800449342        1468099422.6621215     
   796416875.59663451        122338495.27023810        1487485440.9389627     
   746677661.61348367        170807850.88142201        1517112804.4189365     
   1755809411.6657476        526742823.49972427        679943883.90635514     
   1783871064.7895997        500141194.46717924        806352710.88226271     
   1808978837.7405939        463693298.19177389        925628703.49818909     
   1831132730.5187297        417399134.67350769        1037771861.7541337     
   1850332743.1240079        361258703.91238195        1142782185.6500976     
   1326161045.0510883        397848313.51532656        669665812.31502330     
   1339344516.9614456        375546459.05000603        791791470.32930565     
   1350318540.2095819        345879775.71061599        908612952.25459802     
   1359083114.7954974        308848263.49715614        1020130258.0909005     
   1365638240.7191913        264451922.40962639        1126343387.8382134     
   890268231.93169129        267080469.57950738        662323961.67502749     
   893798260.54567206        250645811.05654705        781034954.15676105     
   895863272.00806916        229327762.02830780        896270428.82049656     
   896463266.31888270        203126322.49478966        1008030385.6662339     
   895598243.47811222        172041492.45599246        1116314824.6939726     
   448130972.30755603        134439291.69226682        657918331.98636746     
   447232295.54227918        125439250.48680222        774083162.36462951     
   445613033.13605571        114037257.14484943        888601133.19588423     
   443273185.08888602        100233311.66640840        1001472244.4801328     
   440212751.40076959        84027414.051479369        1112696496.2173748     
  -250733.82131747261       -75220.146395241783        656448923.24904335     
  -353378.04873326625       -73222.659228378616        770936094.95291018     
  -432176.40645842202        8261.0602408709528        885605065.38076162     
  -487128.89449271408        169231.01201278286        1000455834.5325983     
  -518235.51283636247        409687.19608718704        1115488402.4084194     
   1850332743.1240079        361258703.91238195        1142782185.6500976     
   1834949105.7864642        295448937.28005362        1190253023.8445563     
   1822984684.2997868        241036556.81727755        1240040780.5524244     
   1814439478.6639740        198021562.52405041        1292145455.7737005     
   1809313488.8790276        166403954.40037769        1346567049.5083864     
   1365638240.7191913        264451922.40962639        1126343387.8382134     
   1359975400.0025814        216908796.64147028        1181740314.1411843     
   1356863945.5161905        177870291.64071196        1238082479.1320395     
   1356303877.2600195        147336407.40735298        1295369882.8107786     
   1358295195.2340672        125307143.94138992        1353602525.1774027     
   895598243.47811222        172041492.45599246        1116314824.6939726     
   895737114.16665065        141589281.98727223        1178625371.2147012     
   897559541.46476233        116748926.88379771        1240509476.5977900     
   901065525.37244785        97520427.145567596        1301967140.8432384     
   906255065.88970625        83903782.772582084        1362998363.9510474     
   440212751.40076959        84027414.051479369        1112696496.2173748     
   442234248.27867228        69490393.317460477        1180908195.0651078     
   445071472.14550245        57672462.546533689        1247321772.9496763     
   448724423.00126028        48573621.738699272        1311937229.8710806     
   453193100.84594476        42193870.893953979        1374754565.8293207     
  -518235.51283636247        409687.19608718704        1115488402.4084194     
  -533197.66135386832        612130.63203380420        1188588785.6924036     
  -600262.44158962788        640898.62892018235        1258519368.1876986     
  -719429.85354389949        495991.18674463709        1325280149.8943048     
  -890699.89721711562        177408.30550577020        1388871130.8122215     
   1809313488.8790276        166403954.40037769        1346567049.5083864     
   1778908532.7525201        134079190.04511553        1364187328.5570378     
   1749618339.0196838        105470300.33542234        1382534407.1994231     
   1721442907.6805186        80577285.271298885        1401608285.4355450     
   1694382238.7350230        59400144.852740884        1421408963.2653997     
   1358295195.2340672        125307143.94138992        1353602525.1774027     
   1332742582.0074346        100226061.85787767        1372335177.3204410     
   1308074644.5787051        78093899.100709140        1392401982.3453970     
   1284291382.9478810        58910655.669891298        1413802940.2522728     
   1261392797.1149592        42676331.565414965        1436538051.0410657     
   906255065.88970625        83903782.772582084        1362998363.9510474     
   887290090.67204535        66586971.493548870        1382574954.8267441     
   868979704.65652156        51452124.221638650        1404093051.8725438     
   851323907.84313440        38499240.956851661        1427552655.0884461     
   834322700.23188412        27728321.699187696        1452953764.4744513     
   453193100.84594476        42193870.893953979        1374754565.8293207     
   442551058.74635255        33161918.952128932        1394906661.0759478     
   432333519.25313056        25544975.698204741        1417607615.7808623     
   422540482.36627817        19343041.132178858        1442857429.9440634     
   413171948.08579594        14556115.254054666        1470656103.5655508     
  -890699.89721711562        177408.30550577020        1388871130.8122215     
  -1474513.7696438804       -49095.766382485046        1409330296.0680523     
  -1863911.6314671007        372453.53040756693        1432945674.0703533     
  -2058893.4826868800        1442056.1958755832        1459717264.8191259     
  -2059459.3233039614        3159712.2300197789        1489645068.3143680     
   1694382238.7350230        59400144.852740884        1421408963.2653997     
   1645601738.9155319        36711270.121807992        1415159113.2589560     
   1599005959.0868740        21304795.360319078        1414728432.7274554     
   1554594899.2490458        13180720.568262339        1420116921.6708956     
   1512368559.4020467        12339045.745634735        1431324580.0892766     
   1261392797.1149592        42676331.565414965        1436538051.0410657     
   1228633918.5433967        27024330.990203440        1434011073.0040400     
   1197324701.3283415        16204534.936681747        1436365355.4930058     
   1167465145.4697897        10216943.404838204        1443600898.5079615     
   1139055250.9677455        9061556.3946886063        1455717702.0489092     
   834322700.23188412        27728321.699187696        1452953764.4744513     
   814905703.05410469        18309273.323447764        1453292090.0001299     
   796203308.59850752        11272234.021647513        1457573767.1028497     
   778215516.86509192        6617203.7937864661        1465798795.7826109     
   760942327.85385752        4344182.6398646235        1477967176.0394113     
   413171948.08579594        14556115.254054666        1470656103.5655508     
   404417092.44765747        10566097.121546745        1473002164.2472243     
   395641780.89737457        6507892.6152243614        1478353667.5569873     
   386846013.43495202        2381501.7351021171        1486710613.4948401     
   378029790.06038475       -1813075.5188347399        1498073002.0607860     
  -2059459.3233039614        3159712.2300197789        1489645068.3143680     
  -2831913.2759456150        3794802.3844985543        1493141295.7453222     
  -4359881.7750563622        1911510.7174147216        1498705056.8554163     
  -6643364.8206318002       -2490162.7712184256        1506336351.6446514     
  -9682362.4126747083       -9410218.0814101547        1516035180.1130271     
   1512368559.4020467        12339045.745634735        1431324580.0892766     
   1467205919.8140273        13495115.396329582        1427214104.6355133     
   1421756560.9355869        13695454.078953028        1426741900.0839992     
   1376020482.7667227        12940061.793498933        1429907966.4347320     
   1329997685.3074422        11228938.539988995        1436712303.6877151     
   1139055250.9677455        9061556.3946886063        1455717702.0489092     
   1103136953.7725883        7722005.6508446932        1449915196.3002825     
   1067132747.1380068        6096090.1089199185        1448161364.6580417     
   1031042631.0639997        4183809.7689114213        1450456207.1221845     
   994866605.55056977        1985164.6308230758        1456799723.6927125     
   760942327.85385752        4344182.6398646235        1477967176.0394113     
   735440953.63480937        860785.67645785213        1470706918.1554196     
   710054479.82733345       -2239609.9150411189        1467905737.5819466     
   684782906.43143010       -4957004.1346333623        1469563634.3189950     
   659626233.44709861       -7291396.9823175073        1475680608.3665655     
   378029790.06038475       -1813075.5188347399        1498073002.0607860     
   364117919.40069145       -7088544.5268323570        1489589270.2009215     
   350521759.00356871       -11311645.992928013        1485975018.8557136     
   337241308.86901271       -14482379.917134136        1487230248.0251637     
   324276568.99702841       -16600746.299436927        1493354957.7092712     
  -9682362.4126747083       -9410218.0814101547        1516035180.1130271     
  -10832148.929764945       -16125984.959019976        1506562252.4367867     
  -11465415.333289322       -21120018.124743246        1502369208.4793408     
  -11582161.623248775       -24392317.578583263        1503456048.2406890     
  -11182387.799643051       -25942883.320540056        1509822771.7208288     
   1329997685.3074422        11228938.539988995        1436712303.6877151     
   1275490533.3330369        7238641.6762366891        1428767964.2786975     
   1221445572.7881589        4788982.9109075665        1426475500.1706619     
   1167862803.6728017        3879962.2439816594        1429834911.3636103     
   1114742225.9869707        4511579.6754731536        1438846197.8575385     
   994866605.55056977        1985164.6308230758        1456799723.6927125     
   954992204.97948003       -960124.34484189749        1449131950.5208313     
   915442967.92235291       -2821534.9406324625        1446827108.9994192     
   876218894.37919056       -3599067.1565437317        1449885199.1284823     
   837319984.34998930       -3292720.9925793409        1458306220.9080117     
   659626233.44709861       -7291396.9823175073        1475680608.3665655     
   633559030.99214768       -9439344.0560581684        1468129535.5303323     
   607679964.13559949       -10960172.468457103        1465652450.6940584     
   581989032.87745535       -11853882.219509840        1468249353.8577464     
   556486237.21771252       -12120473.309223950        1475920245.0213931     
   324276568.99702841       -16600746.299436927        1493354957.7092712     
   311191011.37104249       -18199017.457403719        1485760719.3071995     
   298156561.42789876       -19626929.672565803        1482951525.2545767     
   285173219.16759968       -20884482.944910303        1484927375.5514023     
   272240984.59014148       -21971677.274453506        1491688270.1976800     
  -11182387.799643051       -25942883.320540056        1509822771.7208288     
  -12111853.883836042       -27239144.548881315        1502025501.8514302     
  -13127240.200751454       -28821806.552964330        1498724332.6809704     
  -14228546.750377908       -30690869.332750294        1499919264.2094502     
  -15415773.532726947       -32846332.888278898        1505610296.4368687     
   1114742225.9869707        4511579.6754731536        1438846197.8575385     
   1076617950.6089454        11458464.306429744        1437729552.2987931     
   1039229094.6852077        20856747.118346095        1440891541.0892665     
   1002575658.2157646        32706428.111244202        1448332164.2289531     
   966657641.20060813        47007507.285095125        1460051421.7178612     
   837319984.34998930       -3292720.9925793409        1458306220.9080117     
   809034558.43164003        799365.33481070399        1456301223.8422458     
   780820690.93131101        5129979.7222698331        1458244737.7739842     
   752678381.84899282        9699122.1697643697        1464136762.7032337     
   724607631.18469369        14506792.677322626        1473977298.6299982     
   556486237.21771252       -12120473.309223950        1475920245.0213931     
   537096451.18273950       -11166148.158278555        1472252391.9062765     
   517114362.52950734       -12186165.068198442        1472202926.4369638     
   496539971.25801915       -15180524.038972616        1475771848.6134579     
   475373277.36827344       -20149225.070601612        1482959158.4357522     
   272240984.59014148       -21971677.274453506        1491688270.1976800     
   260803628.86224103       -24438076.172849700        1485583056.4908957     
   248110109.47980702       -31091687.253022358        1482766107.0782115     
   234160426.44284037       -41932510.514972836        1483237421.9596248     
   218954579.75134662       -56960545.958677828        1486997001.1351416     
  -15415773.532726947       -32846332.888278898        1505610296.4368687     
  -19843908.529858038       -39016418.708907679        1496293217.5961015     
  -26192068.217795976       -51586586.832224570        1489934279.6977253     
  -34460252.596540220       -70556837.258228794        1486533482.7417409     
  -44648461.666087836       -95927169.986913010        1486090826.7281532     
   966657641.20060813        47007507.285095125        1460051421.7178612     
   906406865.39019632        60438323.472074956        1458954749.5884225     
   849659943.52220309        85548652.800449342        1468099422.6621215     
   796416875.59663451        122338495.27023810        1487485440.9389627     
   746677661.61348367        170807850.88142201        1517112804.4189365     
   724607631.18469369        14506792.677322626        1473977298.6299982     
   685607669.37520278        18957964.656168342        1472460384.1557832     
   648462917.15747738        29593168.607557297        1479121130.0656338     
   613173374.53151584        46412404.531499535        1493959536.3595417     
   579739041.49731743        69415672.427980214        1516975603.0375137     
   475373277.36827344       -20149225.070601612        1482959158.4357522     
   451727887.21948761       -26446570.001948088        1479098583.2076652     
   428289062.31180632       -32055364.129614115        1481351983.5445683     
   405056802.64523399       -36975607.453582734        1489719359.4464557     
   382031108.21976608       -41207299.973870441        1504200710.9133272     
   218954579.75134662       -56960545.958677828        1486997001.1351416     
   204767518.92304388       -75775280.502289772        1478869346.7440789     
   189138378.98519230       -99396945.411063880        1474791983.0989287     
   172067159.93778652       -127825540.68501729        1474764910.1996844     
   153553861.78083062       -161061066.32413965        1478788128.0463490     
  -44648461.666087836       -95927169.986913010        1486090826.7281532     
  -55273435.514121234       -129028166.84483455        1471772674.7650163     
  -68989132.822370499       -172431575.23680827        1459441128.7287111     
  -85795553.590823397       -226137395.16279307        1449096188.6192372     
  -105692697.81948890       -290145626.62282413        1440737854.4365964     
  -250733.82131747261       -75220.146395241783        656448923.24904335     
  -353378.04873326625       -73222.659228378616        770936094.95291018     
  -432176.40645842202        8261.0602408709528        885605065.38076162     
  -487128.89449271408        169231.01201278286        1000455834.5325983     
  -518235.51283636247        409687.19608718704        1115488402.4084194     
  -448629156.61709124       -134588746.98512739        657930679.41553307     
  -447908888.94698083       -125535157.35916406        774144138.64772880     
  -446444224.49958807       -114000245.14226043        888719979.35277641     
  -444235163.27491337       -99984010.334416211        1001658201.5306752     
  -441281705.27295649       -83486452.935632020        1112958805.1814263     
  -890756566.24192750       -267226969.87257823        662378544.43831432     
  -894411721.67752862       -250681288.60878992        781158933.92436254     
  -896601929.42825568       -229252448.39542317        896482287.63212872     
  -897327189.49410951       -202940449.23247814        1008348605.5616139     
  -896587501.87509000       -171745291.11995488        1116757887.7128172     
  -1326632962.6958263       -397989888.80874783        669792518.31738734     
  -1339861876.2403762       -375511616.40810573        791980480.78281105     
  -1350905291.1924615       -345748348.69924736        908891990.21881986     
  -1359763207.5520816       -308700085.68217289        1020527046.6254138     
  -1366435625.3192375       -264366827.35688210        1126885650.0025933     
  -1756258345.9787869       -526877503.79363614        680172601.05275190     
  -1784259352.6355245       -500026140.75711161        806608779.22307432     
  -1809354309.7922049       -463487946.05373275        925949087.11284876     
  -1831543217.4488294       -417262919.68349993        1038193524.7220753     
  -1850826075.6053977       -361351061.64641309        1143342092.0507538     
  -518235.51283636247        409687.19608718704        1115488402.4084194     
  -533197.66135386832        612130.63203380420        1188588785.6924036     
  -600262.44158962788        640898.62892018235        1258519368.1876986     
  -719429.85354389949        495991.18674463709        1325280149.8943048     
  -890699.89721711562        177408.30550577020        1388871130.8122215     
  -441281705.27295649       -83486452.935632020        1112958805.1814263     
  -443376467.38207316       -68696980.927467614        1181117039.4773893     
  -446343287.38317370       -56814368.559248909        1247478991.0756845     
  -450182165.27625769       -47838615.830975935        1312044659.9763117     
  -454893101.06132609       -41769722.742650554        1374814046.1792705     
  -896587501.87509000       -171745291.11995488        1116757887.7128172     
  -896837726.54188907       -141191489.31869751        1179017358.5504506     
  -898779964.36093712       -116277731.35827059        1240854064.7814362     
  -902414215.33223474       -97004017.238674968        1302268006.4057751     
  -907740479.45578194       -83370346.959910929        1363259183.4234662     
  -1366435625.3192375       -264366827.35688210        1126885650.0025933     
  -1360916975.1408017       -216871394.54165667        1182289742.9115860     
  -1357910293.3748806       -177749189.76814687        1238644589.3049529     
  -1357415580.0214744       -147000213.03635323        1295950189.1826932     
  -1359432835.0805831       -124624464.34627527        1354206542.5448072     
  -1850826075.6053977       -361351061.64641309        1143342092.0507538     
  -1835614213.1788111       -295736696.59634525        1190934192.5607972     
  -1823734274.4250040       -241228743.78887641        1240850564.6462350     
  -1815186259.3439775       -197827203.22401088        1293091208.3070674     
  -1809970167.9357309       -165532074.90174359        1347656123.5432947     
  -890699.89721711562        177408.30550577020        1388871130.8122215     
  -1474513.7696438804       -49095.766382485046        1409330296.0680523     
  -1863911.6314671007        372453.53040756693        1432945674.0703533     
  -2058893.4826868800        1442056.1958755832        1459717264.8191259     
  -2059459.3233039614        3159712.2300197789        1489645068.3143680     
  -454893101.06132609       -41769722.742650554        1374814046.1792705     
  -445297213.48556960       -33042812.694643959        1395397076.8820755     
  -435906650.46743262       -25000317.838701904        1418588261.9247298     
  -426721412.00691622       -17642238.174829647        1444387601.3072321     
  -417741498.10402089       -10968573.703026488        1472795095.0295832     
  -907740479.45578194       -83370346.959910929        1363259183.4234662     
  -889530771.59361911       -66159787.140541911        1383499715.5769854     
  -871926128.85729980       -50966111.073984385        1405800343.6637304     
  -854926551.24682534       -37789318.760240406        1430161067.6837025     
  -838532038.76219296       -26629410.199307621        1456581887.6369002     
  -1359432835.0805831       -124624464.34627527        1354206542.5448072     
  -1334175188.0937929       -99400019.104078352        1373638212.1527796     
  -1309922346.8010685       -77524926.175436497        1394581919.2873559     
  -1286674311.2024124       -58999185.560355484        1417037663.9485364     
  -1264431081.2978230       -43822797.258826911        1441005446.1363215     
  -1809970167.9357309       -165532074.90174359        1347656123.5432947     
  -1779230462.9860892       -132763508.58524942        1365812566.6094582     
  -1749895304.2987380       -104676763.14305842        1384932988.7956054     
  -1721964691.8736777       -81271838.575169623        1405017390.1017334     
  -1695438625.7109084       -62548734.881583750        1426065770.5278442     
  -2059459.3233039614        3159712.2300197789        1489645068.3143680     
  -2831913.2759456150        3794802.3844985543        1493141295.7453222     
  -4359881.7750563622        1911510.7174147216        1498705056.8554163     
  -6643364.8206318002       -2490162.7712184256        1506336351.6446514     
  -9682362.4126747083       -9410218.0814101547        1516035180.1130271     
  -417741498.10402089       -10968573.703026488        1472795095.0295832     
  -410597011.03723514       -6447121.6009873450        1474095425.9319053     
  -404303189.07366341       -4761219.8429952413        1478521325.0282862     
  -398860032.21330702       -5910868.4290549457        1486072792.3187268     
  -394267540.45616460       -9896067.3591596037        1496749827.8032260     
  -838532038.76219296       -26629410.199307621        1456581887.6369002     
  -820447654.91906989       -17314709.422634095        1455575313.0277190     
  -803309086.73590863       -11152727.512501448        1458752341.1275153     
  -787116334.21271002       -8143464.4689089060        1466112971.9362893     
  -771869397.34947169       -8286920.2918533683        1477657205.4540410     
  -1264431081.2978230       -43822797.258826911        1441005446.1363215     
  -1232383844.9214532       -28807961.080448389        1437580957.0327637     
  -1201377574.7617917       -17263012.291099906        1439398105.1531024     
  -1171412270.8188386       -9187950.8907793164        1446456890.4973369     
  -1142487933.0925963       -4582776.8794919848        1458757313.0654657     
  -1695438625.7109084       -62548734.881583750        1426065770.5278442     
  -1646405581.0443816       -40926876.574424326        1420112357.9470389     
  -1598508653.1513090       -23092074.178781867        1420458617.1050487     
  -1551747842.0316975       -9044327.6946737170        1427104548.0018713     
  -1506123147.6855385        1216362.8779241443        1440050150.6375103     
  -9682362.4126747083       -9410218.0814101547        1516035180.1130271     
  -10832148.929764945       -16125984.959019976        1506562252.4367867     
  -11465415.333289322       -21120018.124743246        1502369208.4793408     
  -11582161.623248775       -24392317.578583263        1503456048.2406890     
  -11182387.799643051       -25942883.320540056        1509822771.7208288     
  -394267540.45616460       -9896067.3591596037        1496749827.8032260     
  -381022694.93270850       -12170440.415181652        1489922293.3814120     
  -367510621.83734858       -13554054.898193642        1487862732.0823965     
  -353731321.17007518       -14046910.808159411        1490571143.9061816     
  -339684792.93089628       -13649008.145106852        1498047528.8527622     
  -771869397.34947169       -8286920.2918533683        1477657205.4540410     
  -745692521.48831439       -6558680.0371524394        1473184222.9880517     
  -719497710.59690666       -4770656.3482818305        1472967303.0488679     
  -693284964.67524767       -2922849.2252393067        1477006445.6364884     
  -667054283.72333753       -1015258.6680283844        1485301650.7509103     
  -1142487933.0925963       -4582776.8794919848        1458757313.0654657     
  -1104841628.5965810        709296.17508214712        1456348041.2567050     
  -1067426681.6119701        5230177.5249708891        1457682921.3787522     
  -1030243092.1387646        8979867.1701775193        1462761953.4316099     
  -993290860.17696500        11958365.110696673        1471585137.4152758     
  -1506123147.6855385        1216362.8779241443        1440050150.6375103     
  -1458470016.2575042        9633488.2215245962        1439413748.1873748     
  -1411297534.8825355        16448446.721576631        1442009587.0720532     
  -1364605703.5606265        21661238.378091633        1447837667.2915471     
  -1318394522.2917833        25271863.191057920        1456897988.8458545     
  -11182387.799643051       -25942883.320540056        1509822771.7208288     
  -12111853.883836042       -27239144.548881315        1502025501.8514302     
  -13127240.200751454       -28821806.552964330        1498724332.6809704     
  -14228546.750377908       -30690869.332750294        1499919264.2094502     
  -15415773.532726947       -32846332.888278898        1505610296.4368687     
  -339684792.93089628       -13649008.145106852        1498047528.8527622     
  -328120604.95960826       -13789585.468749642        1490695895.0238016     
  -316687673.94901913       -14367685.994723693        1488191967.3298023     
  -305385999.89913023       -15383309.723030269        1490535745.7707644     
  -294215582.80993819       -16836456.653661475        1497727230.3466916     
  -667054283.72333753       -1015258.6680283844        1485301650.7509103     
  -641991854.73649967        301224.00104627013        1478342760.1130743     
  -617106019.43834174        1029061.0411904752        1476583181.0462234     
  -592396777.82886338        1168252.4524021447        1480022913.5503633     
  -567864129.90806639        718798.23467588425        1488661957.6254833     
  -993290860.17696500        11958365.110696673        1471585137.4152758     
  -953725603.21451139        15033283.860507727        1464966097.1192524     
  -914382276.66871643        17368434.554787397        1463897973.8302395     
  -875260880.53958356        18963817.193528473        1468380767.5482388     
  -836361414.82710755        19819431.776745200        1478414478.2732484     
  -1318394522.2917833        25271863.191057920        1456897988.8458545     
  -1263321850.3936415        30406594.109633625        1450565906.0423350     
  -1208516445.6401422        34650434.546072245        1450136345.6818485     
  -1153978308.0312834        38003384.500371695        1455609307.7643988     
  -1099707437.5670683        40465443.972528577        1466984792.2899795     
  -15415773.532726947       -32846332.888278898        1505610296.4368687     
  -19843908.529858038       -39016418.708907679        1496293217.5961015     
  -26192068.217795976       -51586586.832224570        1489934279.6977253     
  -34460252.596540220       -70556837.258228794        1486533482.7417409     
  -44648461.666087836       -95927169.986913010        1486090826.7281532     
  -294215582.80993819       -16836456.653661475        1497727230.3466916     
  -289824808.90468711       -21967609.571962789        1488851164.4833391     
  -286386808.60961032       -30274674.524179146        1483560980.0096600     
  -283901581.92470306       -41757651.510292999        1481856676.9256523     
  -282369128.84996349       -56416540.530300364        1483738255.2313180     
  -567864129.90806639        718798.23467588425        1488661957.6254833     
  -552860902.96534824       -2835358.5407692492        1481355364.3336194     
  -537843198.55216873       -6341257.0813432038        1478262392.8787088     
  -522811016.66852623       -9798897.3870385885        1479383043.2607455     
  -507764357.31442231       -13208279.457865983        1484717315.4797380     
  -836361414.82710755        19819431.776745200        1478414478.2732484     
  -808952190.71184242        18380334.384670317        1473805817.1469443     
  -780561238.04547906        20213665.496256977        1474038518.3048732     
  -751188556.82801795        25319425.111503601        1479112581.7470293     
  -720834147.05946302        33697613.230395526        1489028007.4734204     
  -1099707437.5670683        40465443.972528577        1466984792.2899795     
  -1058098672.1441659        41679469.204371035        1466202522.9233112     
  -1014540927.0895351        49390093.208643377        1470889356.2881520     
  -969034202.40317476        63597315.985347092        1481045292.3845017     
  -921578498.08508587        84301137.534479082        1496670331.2123630     
  -44648461.666087836       -95927169.986913010        1486090826.7281532     
  -55273435.514121234       -129028166.84483455        1471772674.7650163     
  -68989132.822370499       -172431575.23680827        1459441128.7287111     
  -85795553.590823397       -226137395.16279307        1449096188.6192372     
  -105692697.81948890       -290145626.62282413        1440737854.4365964     
  -282369128.84996349       -56416540.530300364        1483738255.2313180     
  -280454990.60387409       -74565962.890250325        1472211263.8088524     
  -279965027.46716595       -97462635.614804178        1464892773.9555047     
  -280899239.43984795       -125106558.70399317        1461782785.6712770     
  -283257626.52191567       -157497732.15780199        1462881298.9561543     
  -507764357.31442231       -13208279.457865983        1484717315.4797380     
  -486962833.71053398       -14501645.340718180        1477925791.0072405     
  -465918936.86520702       -14987100.418773741        1477564663.7461426     
  -444632666.77844852       -14664644.692062706        1483633933.6964476     
  -423104023.45025444       -13534278.160560071        1496133600.8581479     
  -720834147.05946302        33697613.230395526        1489028007.4734204     
  -674796964.83410811        51164785.803739667        1488916256.3601787     
  -626850861.01649761        74995030.351268470        1497456798.1006227     
  -576995835.60662436        105188346.87300682        1514649632.6947558     
  -525231888.60450196        141744735.36890915        1540494760.1425614     
  -921578498.08508587        84301137.534479082        1496670331.2123630     
  -843957383.97460127        122433330.54310513        1505182659.8676732     
  -762760799.92102587        172483756.69536525        1524569177.0189514     
  -677988745.92438328        234452415.99118116        1554829882.6661963     
  -589641221.98465753        308339308.43061268        1595964776.8094127     
  -1756258345.9787869       -526877503.79363614        680172601.05275190     
  -1784259352.6355245       -500026140.75711161        806608779.22307432     
  -1809354309.7922049       -463487946.05373275        925949087.11284876     
  -1831543217.4488294       -417262919.68349993        1038193524.7220753     
  -1850826075.6053977       -361351061.64641309        1143342092.0507538     
  -2201878199.1721921       -660563459.75165761        696605202.51892591     
  -2238467584.9142303       -613857763.19887209        814037871.47829533     
  -2273028086.2981906       -560389118.78582418        927378195.99499726     
  -2305559703.3240724       -500157526.51251376        1036626176.0690317     
  -2336062435.9918752       -433162986.37894058        1141781811.7003989     
  -2685738005.3574209       -805721401.60722637        722176732.59042692     
  -2722334267.7908177       -736586920.81999683        829582533.00653648     
  -2757778811.0081129       -663613375.97909629        935899514.81785893     
  -2792071635.0093074       -586800767.08452487        1041127678.0243943     
  -2825212739.7943993       -506149094.13628203        1145267022.6261430     
  -3207837764.5344758       -962351329.36034274        756887191.26725519     
  -3235859401.2652850       -868213613.62048554        853242763.80779755     
  -3263606483.9219713       -773160717.63354933        951513043.58143342     
  -3291079012.5045338       -677192641.39953375        1051698030.5881628     
  -3318276987.0129719       -580309384.91843832        1153797724.8279862     
  -3768177476.7033548       -1130453243.0110064        800736578.54941070     
  -3779042985.3376336       -1008737841.6003387        885018563.88207889     
  -3790511105.0397654       -889031143.74918282        974218782.28572106     
  -3802581835.8097510       -771333149.45753956        1068337233.7603377     
  -3815255177.6475911       -655643858.72540796        1167373918.3059278     
  -1850826075.6053977       -361351061.64641309        1143342092.0507538     
  -1835614213.1788111       -295736696.59634525        1190934192.5607972     
  -1823734274.4250040       -241228743.78887641        1240850564.6462350     
  -1815186259.3439775       -197827203.22401088        1293091208.3070674     
  -1809970167.9357309       -165532074.90174359        1347656123.5432947     
  -2336062435.9918752       -433162986.37894058        1141781811.7003989     
  -2312531814.6070099       -352140389.41618776        1183135060.8821425     
  -2292468725.5274458       -282676233.47110319        1225007338.0150096     
  -2275873168.7531815       -224770518.54368877        1267398643.0989990     
  -2262745144.2842202       -178423244.63394535        1310308976.1341112     
  -2825212739.7943993       -506149094.13628203        1145267022.6261430     
  -2798521198.3777466       -411265616.93879181        1180223210.4083133     
  -2775432797.8989148       -328392609.53403902        1213893182.5173347     
  -2755947538.3579049       -257530071.92202473        1246276938.9532075     
  -2740065419.7547159       -198678004.10274851        1277374479.7159319     
  -3318276987.0129719       -580309384.91843832        1153797724.8279862     
  -3293582364.4910207       -473112379.16415703        1182198641.1393087     
  -3272626491.5394115       -378377871.97768295        1207508098.1532106     
  -3255409368.1581450       -296105863.35901546        1229726095.8696928     
  -3241930994.3472204       -226296353.30815434        1248852634.2887547     
  -3815255177.6475911       -655643858.72540796        1167373918.3059278     
  -3797715312.9468327       -537680676.09228384        1189061353.0751293     
  -3784049806.4489360       -432632020.80203438        1205852084.9226377     
  -3774258658.1539025       -340497892.85466039        1217746113.8484557     
  -3768341868.0617318       -261278292.25016248        1224743439.8525813     
  -1809970167.9357309       -165532074.90174359        1347656123.5432947     
  -1779230462.9860892       -132763508.58524942        1365812566.6094582     
  -1749895304.2987380       -104676763.14305842        1384932988.7956054     
  -1721964691.8736777       -81271838.575169623        1405017390.1017334     
  -1695438625.7109084       -62548734.881583750        1426065770.5278442     
  -2262745144.2842202       -178423244.63394535        1310308976.1341112     
  -2222911110.2036386       -133817349.23603523        1318494743.5323713     
  -2186040212.8696122       -99088576.326645136        1329980478.2771990     
  -2152132452.2821450       -74236925.905785084        1344766180.3685944     
  -2121187828.4412348       -59262397.973447442        1362851849.8065591     
  -2740065419.7547159       -198678004.10274851        1277374479.7159319     
  -2684462804.4672327       -140232504.00062990        1273771215.8813095     
  -2633381916.4105749       -96859428.001260400        1275803907.6198404     
  -2586822755.5847421       -68558776.104637742        1283472554.9315245     
  -2544785321.9897323       -55330548.310763478        1296777157.8163640     
  -3241930994.3472204       -226296353.30815434        1248852634.2887547     
  -3163885545.7768774       -152008972.87904119        1231641983.6562717     
  -3091920414.9216266       -97989318.166902423        1222403276.8235283     
  -3026035601.7814660       -64237389.171730399        1221136513.7905242     
  -2966231106.3563962       -50753185.893528700        1227841694.5572603     
  -3768341868.0617318       -261278292.25016248        1224743439.8525813     
  -3661179334.1325698       -169146755.87126911        1192107046.8572593     
  -3561655708.4027638       -102478246.82356703        1169778585.8882632     
  -3469770990.8723173       -61272765.107057810        1157758056.9455934     
  -3385525181.5412292       -45530310.721743941        1156045460.0292480     
  -1695438625.7109084       -62548734.881583750        1426065770.5278442     
  -1646405581.0443816       -40926876.574424326        1420112357.9470389     
  -1598508653.1513090       -23092074.178781867        1420458617.1050487     
  -1551747842.0316975       -9044327.6946737170        1427104548.0018713     
  -1506123147.6855385        1216362.8779241443        1440050150.6375103     
  -2121187828.4412348       -59262397.973447442        1362851849.8065591     
  -2057618579.0051301       -40310629.366408825        1356081888.6883867     
  -1994917058.9788537       -24251292.125471234        1354810126.3541818     
  -1933083268.3624067       -11084386.250629783        1359036562.8039427     
  -1872117207.1557920       -809911.74189531803        1368761198.0376718     
  -2544785321.9897323       -55330548.310763478        1296777157.8163640     
  -2468969790.5121832       -39735846.222286701        1289503766.7517228     
  -2393753601.0808363       -26138950.954486966        1286927101.5162008     
  -2319136753.6956954       -14539862.507367969        1289047162.1097977     
  -2245119248.3567543       -4938580.8809235096        1295863948.5325143     
  -2966231106.3563962       -50753185.893528700        1227841694.5572603     
  -2880459215.5655398       -39202527.142056465        1220377992.1370482     
  -2795018279.4572592       -28755050.665834188        1216809542.5911086     
  -2709908298.0315547       -19410756.464871407        1217136345.9194405     
  -2625129271.2884302       -11169644.539167643        1221358402.1220429     
  -3385525181.5412292       -45530310.721743941        1156045460.0292480     
  -3292086854.1652002       -38710672.125713110        1148704564.8443632     
  -3198711094.1081233       -32099591.259521127        1144457449.5789027     
  -3105397901.3699937       -25697068.123152375        1143304114.2328651     
  -3012147275.9508152       -19503102.716622949        1145244558.8062522     
  -1506123147.6855385        1216362.8779241443        1440050150.6375103     
  -1458470016.2575042        9633488.2215245962        1439413748.1873748     
  -1411297534.8825355        16448446.721576631        1442009587.0720532     
  -1364605703.5606265        21661238.378091633        1447837667.2915471     
  -1318394522.2917833        25271863.191057920        1456897988.8458545     
  -1872117207.1557920       -809911.74189531803        1368761198.0376718     
  -1815773022.5178390        5905052.0369232893        1365368923.8307400     
  -1759993821.2784038        10736737.820682406        1365822640.3500354     
  -1704779603.4374816        13685145.609396935        1370122347.5955575     
  -1650130368.9950738        14750275.403066874        1378268045.5673070     
  -2245119248.3567543       -4938580.8809235096        1295863948.5325143     
  -2178330440.8191342        600292.24003279209        1289617413.6657608     
  -2112190950.0254817        3974776.2144266367        1287830618.9166451     
  -2046700775.9757943        5184871.0422717333        1290503564.2851694     
  -1981859918.6700730        4230576.7235597372        1297636249.7713361     
  -2625129271.2884302       -11169644.539167643        1221358402.1220429     
  -2546142271.1613894       -6280791.1691449881        1212159217.6924374     
  -2467888921.1237688       -3837438.0971875191        1208033522.7718830     
  -2390369221.1755667       -3839585.3232928514        1208981317.3603830     
  -2313583171.3167834       -6287232.8474621773        1215002601.4579341     
  -3012147275.9508152       -19503102.716622949        1145244558.8062522     
  -2919208513.5446053       -14738198.190609455        1132994335.9107673     
  -2827087734.5732679       -12699905.114172459        1126431351.9157498     
  -2735784939.0367985       -13388223.487299800        1125555606.8211946     
  -2645300126.9352007       -16803153.309993029        1130367100.6271067     
  -1318394522.2917833        25271863.191057920        1456897988.8458545     
  -1263321850.3936415        30406594.109633625        1450565906.0423350     
  -1208516445.6401422        34650434.546072245        1450136345.6818485     
  -1153978308.0312834        38003384.500371695        1455609307.7643988     
  -1099707437.5670683        40465443.972528577        1466984792.2899795     
  -1650130368.9950738        14750275.403066874        1378268045.5673070     
  -1580547170.5199914        19148052.330992818        1371433954.6717954     
  -1511155609.7951086        22907036.758246362        1370029351.1595082     
  -1441955686.8204246        26027228.684845030        1374054235.0304458     
  -1372947401.5959365        28508628.110782623        1383508606.2846096     
  -1981859918.6700730        4230576.7235597372        1297636249.7713361     
  -1899117722.3603635        7485941.0381336212        1290388385.0773468     
  -1816491534.4064076        10354610.833517313        1288096972.7067761     
  -1733981354.8082066        12836586.109722733        1290762012.6596210     
  -1651587183.5657601        14931866.866745114        1298383504.9358816     
  -2313583171.3167834       -6287232.8474621773        1215002601.4579341     
  -2219033505.9147530       -4579739.7689249516        1207429197.2589874     
  -2124524219.4740369       -3006843.2281074524        1204339210.3236518     
  -2030055311.9946287       -1568543.2249799967        1205732640.6519198     
  -1935626783.4765337       -264839.75956821442        1211609488.2437985     
  -2645300126.9352007       -16803153.309993029        1130367100.6271067     
  -2540294521.1831622       -17048990.090191126        1122556391.2167211     
  -2435253664.9979978       -17177325.426637530        1118756064.0101335     
  -2330177558.3796949       -17188159.319293380        1118966119.0073457     
  -2225066201.3282652       -17081491.768178940        1123186556.2083559     
  -1099707437.5670683        40465443.972528577        1466984792.2899795     
  -1058098672.1441659        41679469.204371035        1466202522.9233112     
  -1014540927.0895351        49390093.208643377        1470889356.2881520     
  -969034202.40317476        63597315.985347092        1481045292.3845017     
  -921578498.08508587        84301137.534479082        1496670331.2123630     
  -1372947401.5959365        28508628.110782623        1383508606.2846096     
  -1318268678.1108661        28164363.564900875        1382389318.1281588     
  -1262426973.2162430        31696703.717527628        1386214346.4674933     
  -1205422286.9120717        39105648.568650007        1394983691.3026166     
  -1147254619.1983535        50391198.118257999        1408697352.6335278     
  -1651587183.5657601        14931866.866745114        1298383504.9358816     
  -1585337891.2634361        12579495.769679666        1296010200.0637715     
  -1518711615.7737434        11483735.297174156        1298056425.4517267     
  -1451708357.0966830        11644585.449228585        1304522181.0997443     
  -1384328115.2322531        13062046.225848973        1315407467.0078297     
  -1935626783.4765337       -264839.75956821442        1211609488.2437985     
  -1859306311.6018825       -5075134.1813126802        1207065168.7301512     
  -1783394854.7620349       -11248812.052413344        1206415593.2408457     
  -1707892412.9570038       -18785873.372893929        1209660761.7758875     
  -1632798986.1867795       -27686318.142735600        1216800674.3352711     
  -2225066201.3282652       -17081491.768178940        1123186556.2083559     
  -2140173939.1261964       -24799526.288056850        1115554224.1272955     
  -2056476690.1811233       -36500938.331248164        1111291849.8348596     
  -1973974454.4930408       -52185727.897740006        1110399433.3310399     
  -1892667232.0619481       -71853894.987536073        1112876974.6158493     
  -921578498.08508587        84301137.534479082        1496670331.2123630     
  -843957383.97460127        122433330.54310513        1505182659.8676732     
  -762760799.92102587        172483756.69536525        1524569177.0189514     
  -677988745.92438328        234452415.99118116        1554829882.6661963     
  -589641221.98465753        308339308.43061268        1595964776.8094127     
  -1147254619.1983535        50391198.118257999        1408697352.6335278     
  -1048565884.0025978        77743635.177984357        1414604510.0621765     
  -948461734.21715522        109814120.87000871        1428330977.3563519     
  -846942169.84203410        146602655.19429576        1449876754.5160465     
  -744007190.87721980        188109238.15088305        1479241841.5412695     
  -1384328115.2322531        13062046.225848973        1315407467.0078297     
  -1273299983.6096363        27016259.939146042        1316189388.6308577     
  -1163016492.7507279        38488337.773419619        1321735741.4889660     
  -1053477642.6555287        47478279.728654027        1332046525.5821581     
  -944683433.32403874        53986085.804869831        1347121740.9104316     
  -1632798986.1867795       -27686318.142735600        1216800674.3352711     
  -1518159682.7957120       -29748795.173400998        1209937295.5737169     
  -1406425075.5217452       -41493592.594399810        1204783469.4168034     
  -1297595164.3648779       -62920710.405745924        1201339195.8645332     
  -1191669949.3251150       -94030148.607413888        1199604474.9168949     
  -1892667232.0619481       -71853894.987536073        1112876974.6158493     
  -1783144981.5608273       -92551530.159663200        1095848230.8907533     
  -1678687482.5302029       -130131670.23345202        1077474161.1398573     
  -1579294734.9700758       -184594315.20889562        1057754765.3631561     
  -1484966738.8804426       -255939465.08597976        1036690043.5606585     
  -3768177476.7033548       -1130453243.0110064        800736578.54941070     
  -3779042985.3376336       -1008737841.6003387        885018563.88207889     
  -3790511105.0397654       -889031143.74918282        974218782.28572106     
  -3802581835.8097510       -771333149.45753956        1068337233.7603377     
  -3815255177.6475911       -655643858.72540796        1167373918.3059278     
  -4339620908.3961029       -1301886272.5188310        858888256.77611983     
  -4335107494.5004807       -1125748356.3550999        942487384.04174042     
  -4331725390.9323177       -953381474.61623693        1020439176.7779113     
  -4329474597.6916161       -784785627.30224097        1092743634.9846327     
  -4328355114.7783756       -619960814.41311383        1159400758.6619043     
  -4895031826.1447630       -1468509547.8434289        936505588.28661013     
  -4905326825.7204504       -1247005317.7269979        1018805041.6823082     
  -4917281834.8832045       -1031034452.9007900        1084891592.9481332     
  -4930896853.6330252       -820596953.36480582        1134765242.0840850     
  -4946171881.9699135       -615692819.11904490        1168425989.0901637     
  -5434410229.9493370       -1630323068.9848011        1033588573.0808808     
  -5489700978.9975443       -1372508725.7160330        1113971536.8037820     
  -5547180436.8924246       -1121990078.6028433        1167576030.7963867     
  -5606848603.6339779       -878767127.64523387        1194402055.0586944     
  -5668705479.2222071       -642839872.84320259        1194449609.5907054     
  -5957756119.8098230       -1787326835.9429469        1150137211.1589322     
  -6088229954.3317595       -1502258580.3222048        1227986869.4061625     
  -6221421196.9599791       -1226248351.7223973        1268492490.3226719     
  -6357329847.6944771       -959296150.14352596        1271654073.9084613     
  -6495955906.5352554       -701401975.58558726        1237471620.1635299     
  -3815255177.6475911       -655643858.72540796        1167373918.3059278     
  -3797715312.9468327       -537680676.09228384        1189061353.0751293     
  -3784049806.4489360       -432632020.80203438        1205852084.9226377     
  -3774258658.1539025       -340497892.85466039        1217746113.8484557     
  -3768341868.0617318       -261278292.25016248        1224743439.8525813     
  -4328355114.7783756       -619960814.41311383        1159400758.6619043     
  -4297951896.5265665       -464198331.29960036        1141455476.5053995     
  -4278184917.6465425       -343889979.42536390        1129578869.1220734     
  -4269054178.1382990       -259035758.79039979        1123770936.5119245     
  -4270559678.0018401       -209635669.39471221        1124031678.6749542     
  -4946171881.9699135       -615692819.11904490        1168425989.0901637     
  -4871575659.6102858       -412732140.35811281        1102959128.6442132     
  -4814377557.7913628       -267765196.73285675        1054526320.6663116     
  -4774577576.5131369       -180791988.24327230        1023127565.1564574     
  -4752175715.7756195       -151812514.88936424        1008762862.1146516     
  -5668705479.2222071       -642839872.84320259        1194449609.5907054     
  -5518586602.1979895       -383282103.26782107        1073572309.4915702     
  -5392627726.8833942       -204257672.72451401        980694439.55535328     
  -5290828853.2784176       -105766581.21327543        915815999.78205371     
  -5213189981.3830690       -87808828.734116793        878936990.17167211     
  -6495955906.5352554       -701401975.58558726        1237471620.1635299     
  -6238984724.2896757       -375848220.02872300        1053295019.0474699     
  -6012935424.9226379       -153367407.40033388        908083225.78919733     
  -5817808008.4341421       -33959537.700414181        801836240.38871229     
  -5653602474.8241863       -17624610.928969622        734554062.84601545     
  -3768341868.0617318       -261278292.25016248        1224743439.8525813     
  -3661179334.1325698       -169146755.87126911        1192107046.8572593     
  -3561655708.4027638       -102478246.82356703        1169778585.8882632     
  -3469770990.8723173       -61272765.107057810        1157758056.9455934     
  -3385525181.5412292       -45530310.721743941        1156045460.0292480     
  -4270559678.0018401       -209635669.39471221        1124031678.6749542     
  -4147786845.9565177       -145713139.81048417        1090551009.6994522     
  -4029385066.4410305       -96360785.325702906        1065280101.1242069     
  -3915354339.4553766       -61578605.940365791        1048218952.9492205     
  -3805694664.9995584       -41366601.654477119        1039367565.1744910     
  -4752175715.7756195       -151812514.88936424        1008762862.1146516     
  -4619787361.6886187       -117897424.92214680        978250415.44008017     
  -4488502204.4619284       -87659657.822626114        953849557.53969836     
  -4358320244.0955477       -61099213.590806961        935560288.41350687     
  -4229241480.5894766       -38216092.226683617        923382608.06150436     
  -5213189981.3830690       -87808828.734116793        878936990.17167211     
  -5077180881.3288698       -85699611.206253529        855205264.07914317     
  -4939007122.4654570       -76374864.314342022        835486955.13473558     
  -4798668704.7928286       -59834588.058378458        819782063.33845055     
  -4656165628.3109856       -36078782.438369751        808090588.69028687     
  -5653602474.8241863       -17624610.928969622        734554062.84601545     
  -5519967404.8772717       -49119698.662807465        721415555.61664104     
  -5380899820.4516134       -62506404.800841331        710192293.90932095     
  -5236399721.5472193       -57784729.343089104        700884277.72405171     
  -5086467108.1640854       -34954672.289530993        693491507.06083882     
  -3385525181.5412292       -45530310.721743941        1156045460.0292480     
  -3292086854.1652002       -38710672.125713110        1148704564.8443632     
  -3198711094.1081233       -32099591.259521127        1144457449.5789027     
  -3105397901.3699937       -25697068.123152375        1143304114.2328651     
  -3012147275.9508152       -19503102.716622949        1145244558.8062522     
  -3805694664.9995584       -41366601.654477119        1039367565.1744910     
  -3701812090.2465487       -30704279.665874004        1030831372.2379478     
  -3598712233.7679543       -22651018.591988564        1026348662.7352184     
  -3496395095.5637751       -17206818.432820559        1025919436.6663022     
  -3394860675.6340127       -14371679.188369513        1029543694.0312001     
  -4229241480.5894766       -38216092.226683617        923382608.06150436     
  -4112172648.4183741       -22888483.833173513        912810941.25859249     
  -3996606685.4771495       -12570439.539267063        907252461.40388477     
  -3882543591.7658067       -7261959.3449599743        906707168.49737895     
  -3769983367.2843461       -6963043.2502579689        911175062.53907692     
  -4656165628.3109856       -36078782.438369751        808090588.69028687     
  -4523168528.6806717       -15263284.627612829        794643271.90629756     
  -4392394449.2357101       -1857854.1013545990        787168845.58490217     
  -4263843389.9760919        4137509.1404261589        785667309.72609711     
  -4137515350.9018202        2722805.0977137089        790138664.32988703     
  -5086467108.1640854       -34954672.289530993        693491507.06083882     
  -4934799731.0334558       -7828682.0492048264        676328364.18106294     
  -4786075525.0436363        9486737.7217469215        666097815.27826893     
  -4640294490.1946268        16991587.023334742        662799860.35245621     
  -4497456626.4864330        14685865.855540037        666434499.40362692     
  -3012147275.9508152       -19503102.716622949        1145244558.8062522     
  -2919208513.5446053       -14738198.190609455        1132994335.9107673     
  -2827087734.5732679       -12699905.114172459        1126431351.9157498     
  -2735784939.0367985       -13388223.487299800        1125555606.8211946     
  -2645300126.9352007       -16803153.309993029        1130367100.6271067     
  -3394860675.6340127       -14371679.188369513        1029543694.0312001     
  -3288716028.7709241       -11995975.169325829        1018888616.8968316     
  -3183003500.9776373       -11060668.049620509        1013256027.4842819     
  -3077723092.2541599       -11565757.829269886        1012645925.7935476     
  -2972874802.6004820       -13511244.508264184        1017058311.8246317     
  -3769983367.2843461       -6963043.2502579689        911175062.53907692     
  -3652532125.0462308       -7546326.4627273083        902565306.25840425     
  -3535127137.5128555       -8283792.0243263245        898313286.52089930     
  -3417768404.6842165       -9175439.9350483418        898419003.32656324     
  -3300455926.5603180       -10221270.194900036        902882456.67539585     
  -4137515350.9018202        2722805.0977137089        790138664.32988703     
  -4010656802.3705311       -1389252.0708343983        784024403.99548650     
  -3883458644.1789122       -4369277.0382802486        781603129.02560592     
  -3755920876.3269701       -6217269.8046376705        782874839.42024553     
  -3628043498.8146911       -6933230.3698964119        787839535.17940497     
  -4497456626.4864330        14685865.855540037        666434499.40362692     
  -4363090060.7438250        6475248.0063619614        663265910.10807693     
  -4227998020.9758186        682876.90850043297        663125554.99839628     
  -4092180507.1824160       -2691247.4380340576        666013434.07458830     
  -3955637519.3636227       -3647125.0332634449        671929547.33665526     
  -2645300126.9352007       -16803153.309993029        1130367100.6271067     
  -2540294521.1831622       -17048990.090191126        1122556391.2167211     
  -2435253664.9979978       -17177325.426637530        1118756064.0101335     
  -2330177558.3796949       -17188159.319293380        1118966119.0073457     
  -2225066201.3282652       -17081491.768178940        1123186556.2083559     
  -2972874802.6004820       -13511244.508264184        1017058311.8246317     
  -2856729923.7079034       -12718744.023463845        1009421742.5763094     
  -2740582149.6628108       -11916593.030280709        1006103846.4788346     
  -2624431480.4651966       -11104791.528693557        1007104623.5322092     
  -2508277916.1150699       -10283339.518727779        1012424073.7364320     
  -3300455926.5603180       -10221270.194900036        902882456.67539585     
  -3172290943.2499104       -8126183.0619188547        895382279.76175523     
  -3044155420.0676031       -6129296.3559348583        892509066.94601345     
  -2916049357.0133858       -4230610.0769165754        894262818.22817051     
  -2787972754.0872650       -2430124.2248888016        900643533.60822678     
  -3628043498.8146911       -6933230.3698964119        787839535.17940497     
  -3486977579.8091745       -3271307.2055497169        780438002.77306128     
  -3345973476.2123694        184564.59642267227        777971725.41167033     
  -3205031188.0242658        3434385.0360547304        780440703.09522474     
  -3064150715.2448735        6478154.1133220196        787844935.82373238     
  -3955637519.3636227       -3647125.0332634449        671929547.33665526     
  -3800789833.3857026        1845883.5456399918        664588911.61023104     
  -3646036318.0971065        7024989.8267960548        662491821.87580490     
  -3491376973.4978266        11890193.810232639        665638278.13338065     
  -3336811799.5878730        16441495.495915413        674028280.38295448     
  -2225066201.3282652       -17081491.768178940        1123186556.2083559     
  -2140173939.1261964       -24799526.288056850        1115554224.1272955     
  -2056476690.1811233       -36500938.331248164        1111291849.8348596     
  -1973974454.4930408       -52185727.897740006        1110399433.3310399     
  -1892667232.0619481       -71853894.987536073        1112876974.6158493     
  -2508277916.1150699       -10283339.518727779        1012424073.7364320     
  -2414813507.5989327       -17708773.325026989        1004663228.9362777     
  -2322301536.4766965       -28308998.444314003        1000058861.8090336     
  -2230742002.7483568       -42084014.876592040        998610972.35469973     
  -2140134906.4139130       -59033822.621852636        1000319560.5732788     
  -2787972754.0872650       -2430124.2248888016        900643533.60822678     
  -2686546142.4448152       -9745940.2739452124        893037181.26258969     
  -2585829392.3331666       -19427961.425664663        888373826.47414970     
  -2485822503.7523127       -31476187.680042386        886653469.24290967     
  -2386525476.7022600       -45890619.037079096        887876109.56887317     
  -3064150715.2448735        6478154.1133220196        787844935.82373238     
  -2955371843.6638460       -911027.13480424881        780676081.10622406     
  -2847060257.7505236       -9857827.2752683163        776236743.83020675     
  -2739215957.5049052       -20362246.308080316        774526923.99567580     
  -2631838942.9269853       -32424284.233221292        775546621.60263419     
  -3336811799.5878730        16441495.495915413        674028280.38295448     
  -3221290611.2560201        8795966.0923937559        667579928.46719182     
  -3105994132.7287750        401404.00684714317        663647613.87720191     
  -2990922364.0061374       -8742190.7607159615        662231336.61299586     
  -2876075305.0880957       -18634818.210285783        663331096.67456019     
  -1892667232.0619481       -71853894.987536073        1112876974.6158493     
  -1783144981.5608273       -92551530.159663200        1095848230.8907533     
  -1678687482.5302029       -130131670.23345202        1077474161.1398573     
  -1579294734.9700758       -184594315.20889562        1057754765.3631561     
  -1484966738.8804426       -255939465.08597976        1036690043.5606585     
  -2140134906.4139130       -59033822.621852636        1000319560.5732788     
  -2028119530.4438224       -74528916.986631870        981062199.69382417     
  -1918427170.1635039       -97767396.983979523        963867367.32229507     
  -1811057825.5729675       -128749262.61392260        948735063.45869637     
  -1706011496.6721864       -167474513.87640935        935665288.10302007     
  -2386525476.7022600       -45890619.037079096        887876109.56887317     
  -2262280248.0239806       -53262154.422741294        869588823.27923870     
  -2137616299.2547476       -59237956.171902776        856771920.03126204     
  -2012533630.3945706       -63818024.284556031        849425399.82493329     
  -1887032241.4434297       -67002358.760695457        847549262.66026664     
  -2631838942.9269853       -32424284.233221292        775546621.60263419     
  -2485627134.3012962       -28751242.468008637        761428101.64699745     
  -2336254869.8039250       -14543347.797192931        756187819.26674211     
  -2183722149.4348917        10199399.779188275        759825774.46186972     
  -2028028973.1941619        45477000.261181831        772341967.23237741     
  -2876075305.0880957       -18634818.210285783        663331096.67456019     
  -2698160189.2757711       -996181.12240695953        656580034.79709911     
  -2514342881.8110428        36316428.140133023        662115065.02874935     
  -2324623382.6939182        93303009.577322245        679936187.36951005     
  -2129001691.9243946        169963563.18919551        710043401.81937301     
  -5957756119.8098230       -1787326835.9429469        1150137211.1589322     
  -6088229954.3317595       -1502258580.3222048        1227986869.4061625     
  -6221421196.9599791       -1226248351.7223973        1268492490.3226719     
  -6357329847.6944771       -959296150.14352596        1271654073.9084613     
  -6495955906.5352554       -701401975.58558726        1237471620.1635299     
  -6810421693.9367504       -2043126508.1810250        1353842323.1541355     
  -6828324881.7321739       -1395461766.8403800        1202812868.4390242     
  -6897590097.9389820       -919003786.87102079        1092044144.1396675     
  -7018217342.5571766       -613752568.27294970        1021536150.2560647     
  -7190206615.5867567       -479708111.04616380        991288886.78821599     
  -8337759150.5406494       -2501327745.1621947        1712394729.6998613     
  -8021363783.7624874       -1424548145.7475250        1275734104.9997854     
  -7804975065.7008162       -681124042.05449390        956938978.46193898     
  -7688592996.3556376       -271055434.08310127        756009350.08632112     
  -7672217575.7269497       -194342321.83334684        672945219.87293291     
  -10539768489.621519       -3161930546.8864555        2225794430.7961097     
  -9667346660.4227028       -1589517717.0436399        1446750579.0884464     
  -8943576100.2454777       -512609117.27281427        863176993.28948700     
  -8368456809.0898581        68795252.426018238        475073673.39923060     
  -7941988786.9558287        154695392.05286455        282440619.41767889     
  -13416449711.179361       -4024934913.3538084        2894041426.4428811     
  -11766273511.712814       -1890370480.7287250        1715862290.7050073     
  -10313393201.572971       -413459012.52598572        810758188.62231135     
  -9057808780.7598343        405799491.25441170        178729120.19479388     
  -7999520249.2733955        567405030.61246729       -180224914.57754508     
  -6495955906.5352554       -701401975.58558726        1237471620.1635299     
  -6238984724.2896757       -375848220.02872300        1053295019.0474699     
  -6012935424.9226379       -153367407.40033388        908083225.78919733     
  -5817808008.4341421       -33959537.700414181        801836240.38871229     
  -5653602474.8241863       -17624610.928969622        734554062.84601545     
  -7190206615.5867567       -479708111.04616380        991288886.78821599     
  -6900261993.7012711       -304413782.44496560        846939796.86331940     
  -6623129165.6682072       -171825433.35183358        723665335.79340875     
  -6358808131.4875612       -81943063.766770601        621465503.57848394     
  -6107298891.1593370       -34766673.689772129        540340300.21854508     
  -7672217575.7269497       -194342321.83334684        672945219.87293291     
  -7400414311.3524199       -184641859.33307219        589552078.33634210     
  -7123312751.8041878       -157280412.92045832        509343386.65193397     
  -6840912897.0822563       -112257982.59550810        432319144.81971198     
  -6553214747.1866198       -49574568.358216286        358479352.83967412     
  -7941988786.9558287        154695392.05286455        282440619.41767889     
  -7739441677.2431164       -16532450.693044662        281131863.46653587     
  -7513486183.3305836       -109732346.10620880        265117378.36477333     
  -7264122305.2182245       -124904294.18662691        234397164.11239609     
  -6991350042.9060440       -62048294.934299946        188971220.70939860     
  -7999520249.2733955        567405030.61246729       -180224914.57754508     
  -7917344091.3733654        199914443.47511816       -78320847.746097490     
  -7793649460.2473888       -29181232.909080029       -9012689.0680729151     
  -7628436355.8954716       -119881998.54013157        27699561.456537586     
  -7421704778.3176022       -72187853.418025494        31815903.827725690     
  -5653602474.8241863       -17624610.928969622        734554062.84601545     
  -5519967404.8772717       -49119698.662807465        721415555.61664104     
  -5380899820.4516134       -62506404.800841331        710192293.90932095     
  -5236399721.5472193       -57784729.343089104        700884277.72405171     
  -5086467108.1640854       -34954672.289530993        693491507.06083882     
  -6107298891.1593370       -34766673.689772129        540340300.21854508     
  -5958952520.8428631       -36441593.858079195        533984103.25193661     
  -5809598169.3608599       -34756576.807942152        530147468.53242493     
  -5659235836.7133198       -29711622.539355040        528830396.06001079     
  -5507865522.9002466       -21306731.052326202        530032885.83469409     
  -6553214747.1866198       -49574568.358216286        358479352.83967412     
  -6388430457.2861843       -20911335.196672201        353743510.60375720     
  -6227062719.5334187       -3636609.1940345764        352131547.33998442     
  -6069111533.9283218        2249609.6497044563        353643463.04835033     
  -5914576900.4708996       -3252678.6654696465        358279257.72885716     
  -6991350042.9060440       -62048294.934299946        188971220.70939860     
  -6808401214.2072306       -2528922.6785821915        180693777.67210600     
  -6633293470.9692936        30853498.040878296        176144530.33199504     
  -6466026813.1922350        38098967.224087477        175323478.68907005     
  -6306601240.8760509        19207484.871037722        178230622.74332765     
  -7421704778.3176022       -72187853.418025494        31815903.827725690     
  -7218864791.6060038        18705643.696192741        14834904.456977796     
  -7028290423.6684904        68713744.896790504        2186417.5084588029     
  -6849981674.5050526        77836450.183803558       -6129557.0178316496     
  -6683938544.1157007        46073759.557199001       -10113019.121894721     
  -5086467108.1640854       -34954672.289530993        693491507.06083882     
  -4934799731.0334558       -7828682.0492048264        676328364.18106294     
  -4786075525.0436363        9486737.7217469215        666097815.27826893     
  -4640294490.1946268        16991587.023334742        662799860.35245621     
  -4497456626.4864330        14685865.855540037        666434499.40362692     
  -5507865522.9002466       -21306731.052326202        530032885.83469409     
  -5344515642.9533415       -9168551.4679369926        515049028.62905771     
  -5182081820.0463390       -83895.349876165390        505577843.61032486     
  -5020564054.1792374        5947237.3018450737        501619330.77849758     
  -4859962345.3520317        8924846.4872426987        503173490.13357031     
  -5914576900.4708996       -3252678.6654696465        358279257.72885716     
  -5743601437.1079493       -7319385.5570852757        347839652.64842248     
  -5571514916.6839828       -7682568.9119849205        341492797.96481472     
  -5398317339.1990070       -4342228.7301857471        339238693.67803615     
  -5224008704.6530209        2701634.9883191586        341077339.78808165     
  -6306601240.8760509        19207484.871037722        178230622.74332765     
  -6132057113.4972696       -2281184.3166418076        174700236.23915854     
  -5954374814.9565706       -13309282.964587450        173842678.34173927     
  -5773554345.2539425       -13876811.072771549        175657949.05107054     
  -5589595704.3893881       -3983768.6412100792        180146048.36714968     
  -6683938544.1157007        46073759.557199001       -10113019.121894721     
  -6509882672.1213140        5946052.2533779144       -4369220.5987339457     
  -6330661514.8640928       -16964037.507647753        2627484.7411005958     
  -6146275072.3440380       -22656509.725906134        10877096.897610184     
  -5956723344.5611448       -11131364.401359320        20379615.870783288     
  -4497456626.4864330        14685865.855540037        666434499.40362692     
  -4363090060.7438250        6475248.0063619614        663265910.10807693     
  -4227998020.9758186        682876.90850043297        663125554.99839628     
  -4092180507.1824160       -2691247.4380340576        666013434.07458830     
  -3955637519.3636227       -3647125.0332634449        671929547.33665526     
  -4859962345.3520317        8924846.4872426987        503173490.13357031     
  -4715957383.9414015        5564763.5506277084        500019835.86370510     
  -4571932190.4779263        2272120.7901628017        500132743.71124023     
  -4427886764.9616003       -953081.79415369034        503512213.67617232     
  -4283821107.3924413       -4110844.2023274899        510158245.75850612     
  -5224008704.6530209        2701634.9883191586        341077339.78808165     
  -5069684410.6271448        4396368.0484416485        337115838.24259061     
  -4916045126.5209713        3807734.7095432281        336659226.74602491     
  -4763090852.3345165        935734.97160363197        339707505.29838860     
  -4610821588.0677576       -4219631.1653501987        346260673.89967275     
  -5589595704.3893881       -3983768.6412100792        180146048.36714968     
  -5424271140.8010540        2970061.4998018742        174553917.24472335     
  -5260336829.1049738        5289718.6666204929        172705004.10275251     
  -5097792769.3011522        2975202.8592498302        174599308.94123158     
  -4936638961.3895884       -3973485.9223227501        180236831.76016626     
  -5956723344.5611448       -11131364.401359320        20379615.870783288     
  -5779717574.4631262        1285843.9047200680        12334072.870113960     
  -5604807298.2299109        6718072.6614415646        8270075.7814205270     
  -5431992515.8615131        5165321.8687736988        8187624.6047125207     
  -5261273227.3579245       -3372408.4732534885        12086719.339979932     
  -3955637519.3636227       -3647125.0332634449        671929547.33665526     
  -3800789833.3857026        1845883.5456399918        664588911.61023104     
  -3646036318.0971065        7024989.8267960548        662491821.87580490     
  -3491376973.4978266        11890193.810232639        665638278.13338065     
  -3336811799.5878730        16441495.495915413        674028280.38295448     
  -4283821107.3924413       -4110844.2023274899        510158245.75850612     
  -4116247459.3431702        31251.910431861877        503067069.44552439     
  -3948530881.9993458        4649779.0050547123        500833297.76453388     
  -3780671375.3609567        9744737.0815594196        503456930.71553266     
  -3612668939.4280090        15316126.139927387        510937968.29852873     
  -4610821588.0677576       -4219631.1653501987        346260673.89967275     
  -4431625238.9757433       -1759425.8273129463        339695573.64799780     
  -4252048860.6052847        1967543.7722029686        337601736.66830516     
  -4072092452.9563770        6961277.6332082748        339979162.96059531     
  -3891756016.0290298        13221775.755678415        346827852.52486849     
  -4936638961.3895884       -3973485.9223227501        180236831.76016626     
  -4746923172.2834063       -3526149.6675624847        174474424.21765614     
  -4556590253.9149122       -1021715.8717534542        172797138.58712843     
  -4365640206.2840834        3539815.4651703835        175204974.86856580     
  -4174073029.3909307        10158444.343164682        181697933.06198400     
  -5261273227.3579245       -3372408.4732534885        12086719.339979932     
  -5062141259.2661829       -5268919.6103789806        7403621.1544999015     
  -4862155061.9282341       -4317999.9268131256        6419503.5209903168     
  -4661314635.3440752       -519649.42254281044        9134366.4394497350     
  -4459619979.5137186        6126131.9023752213        15548209.909868391     
  -3336811799.5878730        16441495.495915413        674028280.38295448     
  -3221290611.2560201        8795966.0923937559        667579928.46719182     
  -3105994132.7287750        401404.00684714317        663647613.87720191     
  -2990922364.0061374       -8742190.7607159615        662231336.61299586     
  -2876075305.0880957       -18634818.210285783        663331096.67456019     
  -3612668939.4280090        15316126.139927387        510937968.29852873     
  -3489116519.5936475        7772888.0733344555        503790538.05182201     
  -3365561725.0727782        237565.62842798233        500281335.17274219     
  -3242004555.8654113       -7289841.1948111057        500410359.66129565     
  -3118445011.9715333       -14809332.396358132        504177611.51748121     
  -3891756016.0290298        13221775.755678415        346827852.52486849     
  -3756966107.4297185        6742706.2047538757        339246275.85351449     
  -3621946739.6527948        1028500.5792014599        336425116.59164250     
  -3486697912.6982555       -3920841.1209676266        338364374.73925489     
  -3351219626.5660987       -8105318.8957519531        345064050.29634601     
  -4174073029.3909307        10158444.343164682        181697933.06198400     
  -4024839374.7642307        5705420.4866483212        173947141.87227595     
  -3875149176.4688215        2774208.8591766357        172078958.13389111     
  -3725002434.5046849        1364809.4607889652        176093381.84685278     
  -3574399148.8718247        1477222.2914776802        185990413.01114908     
  -4459619979.5137186        6126131.9023752213        15548209.909868391     
  -4292736321.5972009        4661030.9189853668        7893136.1080938689     
  -4125169035.5208569        5474690.4683532715        7242859.7995000118     
  -3956918121.2846813        8567110.5504763126        13597380.984108919     
  -3787983578.8886743        13938291.165396690        26956699.661897849     
  -2876075305.0880957       -18634818.210285783        663331096.67456019     
  -2698160189.2757711       -996181.12240695953        656580034.79709911     
  -2514342881.8110428        36316428.140133023        662115065.02874935     
  -2324623382.6939182        93303009.577322245        679936187.36951005     
  -2129001691.9243946        169963563.18919551        710043401.81937301     
  -3118445011.9715333       -14809332.396358132        504177611.51748121     
  -2916875091.5983191        3361705.4379427433        501856646.04763639     
  -2713799359.4772968        26552115.764944315        505322730.26633811     
  -2509217815.6084423        54761898.584689617        514575864.17359340     
  -2303130459.9917932        87991053.897126555        529616047.76940668     
  -3351219626.5660987       -8105318.8957519531        345064050.29634601     
  -3144563594.2621698        5027511.8959134817        342044071.34542787     
  -2940798130.1150093        8525115.4983354807        338312099.66250467     
  -2739923234.1246114        2387491.9115438461        333868135.24757874     
  -2541938906.2909927       -13385358.864489317        328712178.10063916     
  -3574399148.8718247        1477222.2914776802        185990413.01114908     
  -3381225697.2673306        4001238.2514753342        177142310.69047859     
  -3195339193.7241898       -17764572.659699082        161083173.21725178     
  -3016739638.2424092       -63820210.442080855        137813000.59144938     
  -2845427030.8219776       -134165675.09561753        107331792.81309779     
  -3787983578.8886743        13938291.165396690        26956699.661897849     
  -3626861400.6137867        282884.50466203690        7151364.0827879617     
  -3477422550.3048515       -52316948.709214926       -26364049.069431085     
  -3339667027.9618311       -143861208.47619009       -73589539.794778824     
  -3213594833.5847797       -274349894.79633081       -134525108.09325045     
 </DataArray>
 <DataArray  type="Float64" Name="VM" NumberOfComponents="1" format="ascii">
   12935746813.217022     
   11340937928.536736     
   10210518532.056749     
   9273141610.4488544     
   8304369999.7634563     
   10130410554.560226     
   9322204239.5762959     
   8826640507.9441090     
   8443884866.5259247     
   8036131327.9475851     
   7982447221.6139708     
   7735142320.2216272     
   7669401283.2058201     
   7669918907.4017801     
   7666764543.0049553     
   6491770408.1701622     
   6587037425.9213343     
   6757632318.3619013     
   6961475341.1260166     
   7171906391.3688164     
   5657932959.7705078     
   5891048339.4814606     
   6116522359.9002943     
   6331897072.6390715     
   6536951255.4300289     
   8304369999.7634563     
   8021053368.1756821     
   7779824285.3832226     
   7570004665.1946001     
   7386622784.8623838     
   8036131327.9475851     
   7747232859.8460264     
   7473993851.0898790     
   7214457822.7043304     
   6968630317.5952005     
   7666764543.0049553     
   7381496420.7650909     
   7101615712.6432390     
   6827199426.3158264     
   6558449324.7377501     
   7171906391.3688164     
   6911281016.5131350     
   6658553656.9054241     
   6409863113.5705261     
   6162063000.0047512     
   6536951255.4300289     
   6328935866.4993191     
   6143109015.0056887     
   5965558727.2653475     
   5787276707.2675343     
   7386622784.8623838     
   7228747251.8413734     
   7063406076.6070862     
   6889909783.9192152     
   6708069164.8120337     
   6968630317.5952005     
   6814761483.6828432     
   6656311666.1235485     
   6492999837.2519388     
   6324773477.0382271     
   6558449324.7377501     
   6407830324.2977219     
   6255604234.9392967     
   6101739770.6411276     
   5946265573.0591230     
   6162063000.0047512     
   6012952704.2192211     
   5865189780.6260328     
   5718812847.8710737     
   5573878340.4531755     
   5787276707.2675343     
   5636588435.3899508     
   5490101386.5279436     
   5347729774.4584084     
   5209520858.4943609     
   6708069164.8120337     
   6513892628.2624884     
   6323124718.8905439     
   6135658540.5684853     
   5951477217.1855345     
   6324773477.0382271     
   6139624571.4938326     
   5956700883.6556902     
   5775982284.5249090     
   5597495970.9388399     
   5946265573.0591230     
   5772514490.4068995     
   5600144976.5386047     
   5429183186.9688444     
   5259690605.4731293     
   5573878340.4531755     
   5414384443.7054024     
   5255806085.0472364     
   5098186121.5283394     
   4941630684.9269905     
   5209520858.4943609     
   5067646786.7365246     
   4926657679.2623873     
   4786594824.3254814     
   4647641167.3653965     
   5951477217.1855345     
   5779375709.2878981     
   5605910250.7433672     
   5431053366.1644335     
   5254822593.3091011     
   5597495970.9388399     
   5434322201.0893812     
   5270615574.6549549     
   5106401026.8553400     
   4941742911.3569536     
   5259690605.4731293     
   5105636717.6642141     
   4951939855.3295898     
   4798672198.8672915     
   4645942852.6600018     
   4941630684.9269905     
   4796777712.1267509     
   4653213503.6849451     
   4511048633.9158983     
   4370431318.6983795     
   4647641167.3653965     
   4511917139.8724480     
   4378432274.6315689     
   4247322350.3070111     
   4118764998.1711540     
   5254822593.3091011     
   5057088966.5336504     
   4860588238.6490421     
   4665331536.3349543     
   4471370974.3727093     
   4941742911.3569536     
   4753408489.9373674     
   4566318001.2383480     
   4380521723.1371050     
   4196116518.9673882     
   4645942852.6600018     
   4468586399.8119345     
   4292676946.7886534     
   4118326494.5820522     
   3945707975.5788751     
   4370431318.6983795     
   4205896961.0793686     
   4043247413.4774895     
   3882684104.7124624     
   3724493057.2575402     
   4118764998.1711540     
   3969152118.6219354     
   3822132428.2494020     
   3678024209.1754737     
   3537261337.1785355     
   4471370974.3727093     
   4300751344.1616535     
   4128053593.4035950     
   3953226279.7310061     
   3776437433.6936264     
   4196116518.9673882     
   4042873043.3875656     
   3888982624.3420401     
   3734536153.6260052     
   3579787056.8253427     
   3945707975.5788751     
   3807362307.0906229     
   3669600848.7695789     
   3532584789.8308387     
   3396580896.2637911     
   3724493057.2575402     
   3598325674.2817683     
   3473652021.2786317     
   3350638608.3230948     
   3229509955.4399061     
   3537261337.1785355     
   3420319863.1354246     
   3305347087.6471243     
   3192464331.0374603     
   3081823163.3108158     
   3776437433.6936264     
   3604573300.8025918     
   3440211104.4794240     
   3283939350.1320457     
   3137947694.2626657     
   3579787056.8253427     
   3389490406.5543213     
   3203351801.1794171     
   3021764141.4550390     
   2845854772.5389962     
   3396580896.2637911     
   3199849489.1564765     
   3005434932.0379148     
   2813504013.2506599     
   2624391567.6520128     
   3229509955.4399061     
   3040370934.0486760     
   2853641266.5157657     
   2669752152.4689641     
   2489351743.7127819     
   3081823163.3108158     
   2915964156.2547731     
   2754969597.0932984     
   2600407034.3618512     
   2454849732.9893670     
   5657932959.7705078     
   5891048339.4814606     
   6116522359.9002943     
   6331897072.6390715     
   6536951255.4300289     
   5151556115.3743668     
   5311428757.4387817     
   5467934483.9561396     
   5618176972.5675898     
   5760690085.0722218     
   4643537041.8103333     
   4755589622.6239614     
   4868770747.6555281     
   4980443380.1103048     
   5088680209.9459095     
   4134138480.9330416     
   4224367669.3651271     
   4320525928.8284788     
   4420953915.0710993     
   4524194593.5620947     
   3624879156.1889820     
   3719586210.4751301     
   3825557820.4295001     
   3942728481.8551931     
   4071004020.5311780     
   6536951255.4300289     
   6328935866.4993191     
   6143109015.0056887     
   5965558727.2653475     
   5787276707.2675343     
   5760690085.0722218     
   5652294286.4224548     
   5559899326.5996885     
   5474444088.3437662     
   5390388385.7840595     
   5088680209.9459095     
   5054144789.1349182     
   5030119844.2780352     
   5011401229.3412361     
   4994787828.3591118     
   4524194593.5620947     
   4539084387.8005381     
   4558638199.5170202     
   4580379189.6359110     
   4602584552.5183020     
   4071004020.5311780     
   4112443418.9638491     
   4151218796.1739135     
   4186435764.3008475     
   4217365249.3590617     
   5787276707.2675343     
   5636588435.3899508     
   5490101386.5279436     
   5347729774.4584084     
   5209520858.4943609     
   5390388385.7840595     
   5249150452.7365351     
   5111138566.2232389     
   4976394942.0360346     
   4845013859.2964373     
   4994787828.3591118     
   4867469949.0705004     
   4743351188.3744802     
   4622399501.3924360     
   4504656689.1537256     
   4602584552.5183020     
   4494210974.5626316     
   4390075928.0203733     
   4289861117.5946474     
   4193479262.5643597     
   4217365249.3590617     
   4133333319.8339362     
   4055826601.9436541     
   3983991095.5896749     
   3917536638.1088786     
   5209520858.4943609     
   5067646786.7365246     
   4926657679.2623873     
   4786594824.3254814     
   4647641167.3653965     
   4845013859.2964373     
   4720183827.1352196     
   4597129982.3678770     
   4475982565.1538534     
   4356984425.0854158     
   4504656689.1537256     
   4395430287.7925739     
   4288792690.7334175     
   4184930157.7406950     
   4084112049.7269740     
   4193479262.5643597     
   4098295521.1025457     
   4006374108.5651212     
   3917923934.1476150     
   3833210103.9895210     
   3917536638.1088786     
   3834680152.7878137     
   3755551368.6188669     
   3680350883.9512062     
   3609315290.8404474     
   4647641167.3653965     
   4511917139.8724480     
   4378432274.6315689     
   4247322350.3070111     
   4118764998.1711540     
   4356984425.0854158     
   4231847017.0864730     
   4109314032.2013144     
   3989575236.7676492     
   3872872088.6204009     
   4084112049.7269740     
   3971019345.1912074     
   3861099910.3291364     
   3754600678.9750805     
   3651833548.2664437     
   3833210103.9895210     
   3733665139.5374942     
   3638079764.5747380     
   3546755195.9954014     
   3460072685.8999629     
   3609315290.8404474     
   3524762516.8574324     
   3445171570.0787578     
   3370883849.9094133     
   3302335356.2459855     
   4118764998.1711540     
   3969152118.6219354     
   3822132428.2494020     
   3678024209.1754737     
   3537261337.1785355     
   3872872088.6204009     
   3738284855.8821254     
   3607113015.7043180     
   3479738915.2370424     
   3356657117.6178393     
   3651833548.2664437     
   3532206294.4483395     
   3416815444.2441258     
   3306086471.5441399     
   3200546727.5935979     
   3460072685.8999629     
   3355227498.8245521     
   3255394183.3649111     
   3161012724.8934207     
   3072607919.0305634     
   3302335356.2459855     
   3211893183.0310564     
   3127136711.2913365     
   3048486756.8392119     
   2976427271.1154342     
   3537261337.1785355     
   3420319863.1354246     
   3305347087.6471243     
   3192464331.0374603     
   3081823163.3108158     
   3356657117.6178393     
   3247785474.7407851     
   3141518171.7450314     
   3038058333.2461820     
   2937652108.2575240     
   3200546727.5935979     
   3101782131.6431694     
   3006492503.6752439     
   2914970024.7890739     
   2827562896.5085258     
   3072607919.0305634     
   2985881107.4445410     
   2903706958.3072481     
   2826457950.5975442     
   2754571171.0071039     
   2976427271.1154342     
   2903361738.1904516     
   2836074470.4567494     
   2774989773.8767858     
   2720597701.5600467     
   3081823163.3108158     
   2915964156.2547731     
   2754969597.0932984     
   2600407034.3618512     
   2454849732.9893670     
   2937652108.2575240     
   2800895885.9286795     
   2670413223.8012342     
   2547517587.4505143     
   2434030987.8268609     
   2827562896.5085258     
   2713487185.0360308     
   2605976978.7995090     
   2505927693.1179819     
   2414423494.7609901     
   2754571171.0071039     
   2656034593.6640105     
   2563187298.4152503     
   2476522502.6574483     
   2396610089.7895460     
   2720597701.5600467     
   2630088887.9424844     
   2543326318.0922918     
   2460553292.6057611     
   2382177039.0169468     
   3624879156.1889820     
   3719586210.4751301     
   3825557820.4295001     
   3942728481.8551931     
   4071004020.5311780     
   3137759806.7608218     
   3255335104.5454016     
   3382332763.8081589     
   3518283366.4051304     
   3662728823.8966012     
   2694474204.5712910     
   2830284782.9920025     
   2973403179.2071314     
   3122747540.2670150     
   3277407461.5503092     
   2298516743.3503251     
   2449232849.2627826     
   2604655303.5832887     
   2762862057.6813164     
   2922424758.1078372     
   1955105046.0165184     
   2119142248.2029963     
   2284506519.3098998     
   2448237571.8786440     
   2608379511.1830044     
   4071004020.5311780     
   4112443418.9638491     
   4151218796.1739135     
   4186435764.3008475     
   4217365249.3590617     
   3662728823.8966012     
   3702049728.1155515     
   3739981222.5098128     
   3775625156.5680089     
   3808232497.3012161     
   3277407461.5503092     
   3320515586.3598766     
   3363865272.5654006     
   3406631930.9704828     
   3448136219.4256225     
   2922424758.1078372     
   2975228310.7650928     
   3030265127.3097811     
   3086850074.3850193     
   3144448694.8530931     
   2608379511.1830044     
   2676247618.2917366     
   2748648621.0097623     
   2825070734.8522034     
   2905160428.3146620     
   4217365249.3590617     
   4133333319.8339362     
   4055826601.9436541     
   3983991095.5896749     
   3917536638.1088786     
   3808232497.3012161     
   3755763441.3559337     
   3709305250.4925528     
   3668384436.6724906     
   3632907029.1774955     
   3448136219.4256225     
   3422494955.8435025     
   3401957206.3863630     
   3386295495.4889340     
   3375492521.9186182     
   3144448694.8530931     
   3141164531.3199987     
   3141466537.8339276     
   3145257102.4453425     
   3152519870.2044754     
   2905160428.3146620     
   2920102632.4521265     
   2936317371.4823222     
   2953754652.0419612     
   2972376712.3778439     
   3917536638.1088786     
   3834680152.7878137     
   3755551368.6188669     
   3680350883.9512062     
   3609315290.8404474     
   3632907029.1774955     
   3561366201.0260515     
   3494310603.4625249     
   3431969623.9693127     
   3374616262.2374568     
   3375492521.9186182     
   3316780789.9022074     
   3263536767.6689320     
   3215999044.1653328     
   3174460071.6680908     
   3152519870.2044754     
   3107833165.0884795     
   3069808477.7783670     
   3038660695.9278874     
   3014671187.3629394     
   2972376712.3778439     
   2942272356.1976986     
   2920201546.4458694     
   2906311161.0510778     
   2900830896.0334525     
   3609315290.8404474     
   3524762516.8574324     
   3445171570.0787578     
   3370883849.9094133     
   3302335356.2459855     
   3374616262.2374568     
   3305898001.1781187     
   3242685257.2563868     
   3185302348.0427036     
   3134140451.8853354     
   3174460071.6680908     
   3120416061.1189022     
   3072265880.5120492     
   3030287683.0700555     
   2994800118.5089788     
   3014671187.3629394     
   2973800212.0949192     
   2939002386.6684909     
   2910488430.4669471     
   2888488557.0030665     
   2900830896.0334525     
   2871218472.6158452     
   2847610407.1132998     
   2830142116.8445225     
   2818955870.6053252     
   3302335356.2459855     
   3211893183.0310564     
   3127136711.2913365     
   3048486756.8392119     
   2976427271.1154342     
   3134140451.8853354     
   3057241696.1272011     
   2986926472.0858541     
   2923622686.1052914     
   2867812380.3157516     
   2994800118.5089788     
   2931798982.9876781     
   2876299619.2348585     
   2828702351.0955863     
   2789448408.6117215     
   2888488557.0030665     
   2839180819.7529778     
   2798268025.3600559     
   2766087613.2533894     
   2743004130.0224142     
   2818955870.6053252     
   2782414305.3956871     
   2755104316.9774623     
   2737274363.3015051     
   2729189711.1865792     
   2976427271.1154342     
   2903361738.1904516     
   2836074470.4567494     
   2774989773.8767858     
   2720597701.5600467     
   2867812380.3157516     
   2809559393.9479628     
   2757639776.4960694     
   2712442368.1912236     
   2674402237.2857895     
   2789448408.6117215     
   2745532575.8692541     
   2708381632.6068878     
   2678323652.7166281     
   2655715036.1266880     
   2743004130.0224142     
   2712506178.4348364     
   2689061773.1446619     
   2672924042.0939407     
   2664361265.3472304     
   2729189711.1865792     
   2710737891.4750900     
   2699493003.5587282     
   2695632609.6141925     
   2699341956.3113518     
   2720597701.5600467     
   2630088887.9424844     
   2543326318.0922918     
   2460553292.6057611     
   2382177039.0169468     
   2674402237.2857895     
   2592209141.8467345     
   2516904545.5239849     
   2448936705.7287068     
   2388803656.2967944     
   2655715036.1266880     
   2588325273.0293150     
   2531373426.2330580     
   2485495529.0526867     
   2451327073.2034850     
   2664361265.3472304     
   2616839148.4736996     
   2583474960.3413343     
   2565038613.2935371     
   2562307248.6679897     
   2699341956.3113518     
   2675087170.4082251     
   2668801429.9639940     
   2681352814.5337224     
   2713679831.8131814     
   1955105046.0165184     
   2119142248.2029963     
   2284506519.3098998     
   2448237571.8786440     
   2608379511.1830044     
   1653702622.3917365     
   1820080763.2315402     
   1988134199.8135424     
   2155166103.4018621     
   2319419161.7055888     
   1393612333.1860499     
   1570897406.6001968     
   1749176363.3353782     
   1926444180.2163916     
   2101449688.6419220     
   1207153045.6743300     
   1399023042.8987465     
   1590470026.4456518     
   1780715323.5327399     
   1969298964.5451469     
   1137002909.4816644     
   1335300524.9254005     
   1533913030.7481959     
   1732840436.6594069     
   1932082756.1078129     
   2608379511.1830044     
   2676247618.2917366     
   2748648621.0097623     
   2825070734.8522034     
   2905160428.3146620     
   2319419161.7055888     
   2406475098.0210838     
   2495980067.4255385     
   2587544141.3954167     
   2680892204.9710484     
   2101449688.6419220     
   2205229925.5719438     
   2308905717.8043017     
   2412242178.4123302     
   2515073255.6784582     
   1969298964.5451469     
   2086456687.4916127     
   2200722875.8453608     
   2312023944.4054775     
   2420308386.7585855     
   1932082756.1078129     
   2058696405.4496975     
   2179819753.1181607     
   2295452797.9309554     
   2405595568.0139651     
   2905160428.3146620     
   2920102632.4521265     
   2936317371.4823222     
   2953754652.0419612     
   2972376712.3778439     
   2680892204.9710484     
   2702329371.0500679     
   2726051196.3047771     
   2752041539.6252470     
   2780292458.8812718     
   2515073255.6784582     
   2543064310.4227467     
   2574391984.8057418     
   2609057111.7760901     
   2647064937.7782459     
   2420308386.7585855     
   2453481014.6944132     
   2491054982.4060650     
   2533032586.4430780     
   2579417935.4156713     
   2405595568.0139651     
   2441032108.4440203     
   2481935579.6675076     
   2528306304.0782142     
   2580144961.2595115     
   2972376712.3778439     
   2942272356.1976986     
   2920201546.4458694     
   2906311161.0510778     
   2900830896.0334525     
   2780292458.8812718     
   2765182070.5108838     
   2757513960.2170529     
   2757372297.8625736     
   2764877835.8806105     
   2647064937.7782459     
   2643039897.4817843     
   2645497238.9890890     
   2654470172.4747868     
   2670001375.6815920     
   2579417935.4156713     
   2582362841.3580465     
   2590480394.9019470     
   2603777943.6894054     
   2622263023.5130749     
   2580144961.2595115     
   2586202999.3775144     
   2595839274.4418988     
   2609057570.2742500     
   2625867321.3293543     
   2900830896.0334525     
   2871218472.6158452     
   2847610407.1132998     
   2830142116.8445225     
   2818955870.6053252     
   2764877835.8806105     
   2741389167.5110102     
   2724668445.7395763     
   2714815343.8938289     
   2711933781.3770618     
   2670001375.6815920     
   2651259624.6929731     
   2640078481.5051756     
   2636512563.6847878     
   2640619113.5369983     
   2622263023.5130749     
   2606116220.4456706     
   2598330945.9940639     
   2598920338.9903107     
   2607899768.0462208     
   2625867321.3293543     
   2609481206.1352029     
   2602244238.5170593     
   2604148014.7707977     
   2615186873.1756535     
   2818955870.6053252     
   2782414305.3956871     
   2755104316.9774623     
   2737274363.3015051     
   2729189711.1865792     
   2711933781.3770618     
   2685680207.0865383     
   2668436394.7647147     
   2660343464.0571713     
   2661549128.0662837     
   2640619113.5369983     
   2621770304.1896720     
   2611602316.6020956     
   2610176061.8152094     
   2617554282.8493819     
   2607899768.0462208     
   2593316248.6576557     
   2587000218.0359526     
   2588965730.5140724     
   2599227036.1942601     
   2615186873.1756535     
   2601691868.0154428     
   2595987008.1147718     
   2598072572.4994235     
   2607948862.6579280     
   2729189711.1865792     
   2710737891.4750900     
   2699493003.5587282     
   2695632609.6141925     
   2699341956.3113518     
   2661549128.0662837     
   2648835707.4824800     
   2642940562.9911056     
   2643937949.2701607     
   2651901612.8349547     
   2617554282.8493819     
   2607139408.5679874     
   2603075445.9605985     
   2605384381.5869002     
   2614090232.5724082     
   2599227036.1942601     
   2587636053.3393273     
   2581864726.5629940     
   2581934957.5460429     
   2587882846.7199793     
   2607948862.6579280     
   2591876154.9238558     
   2581028576.8337069     
   2575476607.5030541     
   2575327230.1506944     
   2699341956.3113518     
   2675087170.4082251     
   2668801429.9639940     
   2681352814.5337224     
   2713679831.8131814     
   2651901612.8349547     
   2638529572.2221079     
   2639240002.4123125     
   2654321407.9423223     
   2684086037.5646782     
   2614090232.5724082     
   2603824497.7126627     
   2604111965.0592647     
   2614996508.5971780     
   2636521878.5041399     
   2587882846.7199793     
   2573781571.9953837     
   2566999617.5558610     
   2567632309.1911941     
   2575789973.4299693     
   2575327230.1506944     
   2551649664.2384472     
   2532291742.3579478     
   2517684791.0558205     
   2508359195.2912412     
   1137002909.4816644     
   1335300524.9254005     
   1533913030.7481959     
   1732840436.6594069     
   1932082756.1078129     
   1207319407.4810755     
   1399303604.6127672     
   1590875028.2623184     
   1781258748.0592628     
   1969997561.6752319     
   1393936635.5886183     
   1571378055.5758486     
   1749841419.5311196     
   1927323963.1701205     
   2102575908.5756741     
   1654155529.8017223     
   1820660420.9385412     
   1988886045.5976248     
   2156135214.5715909     
   2320648549.6603222     
   1955662182.0106130     
   2119736877.2701206     
   2285194809.5396657     
   2449073542.2626529     
   2609411275.1569033     
   1932082756.1078129     
   2058696405.4496975     
   2179819753.1181607     
   2295452797.9309554     
   2405595568.0139651     
   1969997561.6752319     
   2087092648.9077623     
   2201295752.5419192     
   2312531079.3059411     
   2420746304.1669121     
   2102575908.5756741     
   2206325652.6195440     
   2309972785.5873442     
   2413281846.9498825     
   2516086556.0704169     
   2320648549.6603222     
   2407781418.9258265     
   2497372407.2982750     
   2589035808.6754465     
   2682498160.4719982     
   2609411275.1569033     
   2677508917.3965969     
   2750162041.3835316     
   2826870735.7134385     
   2907286680.2572351     
   2405595568.0139651     
   2441032108.4440203     
   2481935579.6675076     
   2528306304.0782142     
   2580144961.2595115     
   2420746304.1669121     
   2454804792.6267495     
   2493375180.2759171     
   2536462244.8753791     
   2584070900.0076027     
   2516086556.0704169     
   2545389033.8311005     
   2578223778.7798052     
   2614594115.1987739     
   2654507087.5905399     
   2682498160.4719982     
   2705167752.8015046     
   2730371993.7777038     
   2758094663.6598225     
   2788330248.9790754     
   2907286680.2572351     
   2922909887.7842121     
   2940074076.4168916     
   2958723014.2072711     
   2978819847.2371092     
   2580144961.2595115     
   2586202999.3775144     
   2595839274.4418988     
   2609057570.2742500     
   2625867321.3293543     
   2584070900.0076027     
   2585508900.8260221     
   2592225817.1759114     
   2604228040.4566526     
   2621530710.9693766     
   2654507087.5905399     
   2648646223.3696694     
   2649593546.7625570     
   2657380350.1074190     
   2672052969.1478314     
   2788330248.9790754     
   2772005483.0526648     
   2763777742.1944675     
   2763736755.9974041     
   2771999748.7530866     
   2978819847.2371092     
   2948745739.4789190     
   2927790690.3362231     
   2916136283.1516495     
   2914013335.0540147     
   2625867321.3293543     
   2609481206.1352029     
   2602244238.5170593     
   2604148014.7707977     
   2615186873.1756535     
   2621530710.9693766     
   2607737433.2192559     
   2602205418.2908936     
   2604949392.2337146     
   2615984497.1964130     
   2672052969.1478314     
   2657447056.6345472     
   2650125518.9044757     
   2650145343.0379400     
   2657564335.3850079     
   2771999748.7530866     
   2753962243.5935774     
   2742175852.1749997     
   2736740855.5169439     
   2737761187.5689483     
   2914013335.0540147     
   2890849972.1626897     
   2872876586.8548932     
   2860223543.2497025     
   2853029323.2258606     
   2615186873.1756535     
   2601691868.0154428     
   2595987008.1147718     
   2598072572.4994235     
   2607948862.6579280     
   2615984497.1964130     
   2601893808.6060987     
   2596168992.7755523     
   2598824702.8208976     
   2609876107.6150618     
   2657564335.3850079     
   2639855860.6058893     
   2631035843.4658966     
   2631165302.6913047     
   2640307110.6758146     
   2737761187.5689483     
   2713398818.9529228     
   2698382818.0019174     
   2692854574.2793722     
   2696960797.4149914     
   2853029323.2258606     
   2819174403.3846812     
   2795044639.2136455     
   2780892059.1307540     
   2776981669.4619155     
   2607948862.6579280     
   2591876154.9238558     
   2581028576.8337069     
   2575476607.5030541     
   2575327230.1506944     
   2609876107.6150618     
   2593867307.2134671     
   2584013010.1967630     
   2580346174.2962284     
   2582909694.8366685     
   2640307110.6758146     
   2624373602.3521128     
   2615661297.3351855     
   2614197194.5698943     
   2620009337.4511271     
   2696960797.4149914     
   2680656832.8088164     
   2672794624.1184263     
   2673437314.0310678     
   2682655588.7992845     
   2776981669.4619155     
   2759467427.5749793     
   2751797129.2094026     
   2754121521.0446730     
   2766617061.7980785     
   2575327230.1506944     
   2551649664.2384472     
   2532291742.3579478     
   2517684791.0558205     
   2508359195.2912412     
   2582909694.8366685     
   2562327204.7128549     
   2549181392.1433511     
   2543588102.2709608     
   2545681258.3925376     
   2620009337.4511271     
   2604433771.0906630     
   2599983519.4994054     
   2606703248.8836269     
   2624637315.6402383     
   2682655588.7992845     
   2672659626.0248413     
   2678191095.2012873     
   2699476347.4037719     
   2736746477.1055202     
   2766617061.7980785     
   2761757957.9768672     
   2777778259.5086632     
   2815329584.0019078     
   2875042638.4394569     
   1955662182.0106130     
   2119736877.2701206     
   2285194809.5396657     
   2449073542.2626529     
   2609411275.1569033     
   2299110226.0833917     
   2449781775.1965952     
   2605187784.8859000     
   2763403977.9250364     
   2922998325.8751020     
   2695002174.3382230     
   2830733099.2103577     
   2973777308.7028379     
   3123051377.0896454     
   3277643165.5912738     
   3138138130.8885055     
   3255646387.6876469     
   3382564657.5229497     
   3518423324.9013743     
   3662764179.8096299     
   3625034453.1423802     
   3719734913.8089657     
   3825673155.9495645     
   3942785735.6332779     
   4070979969.0957632     
   2609411275.1569033     
   2677508917.3965969     
   2750162041.3835316     
   2826870735.7134385     
   2907286680.2572351     
   2922998325.8751020     
   2976053781.5302520     
   3031372827.6773057     
   3088279332.5028548     
   3146244261.1147494     
   3277643165.5912738     
   3320949448.1906934     
   3364527794.2450380     
   3407557458.0714335     
   3449361884.3824801     
   3662764179.8096299     
   3702170499.5721173     
   3740212820.2547774     
   3775990181.0850430     
   3808751522.0137630     
   4070979969.0957632     
   4112345398.2725253     
   4151064928.5053043     
   4186234215.4826150     
   4217116352.8022308     
   2907286680.2572351     
   2922909887.7842121     
   2940074076.4168916     
   2958723014.2072711     
   2978819847.2371092     
   3146244261.1147494     
   3142779340.1121926     
   3143011766.3716688     
   3146840599.0014510     
   3154257226.6127515     
   3449361884.3824801     
   3423015643.2599926     
   3401770279.1976905     
   3385396323.9563036     
   3373882396.9567671     
   3808751522.0137630     
   3755418140.5278254     
   3708019403.8011909     
   3666081891.4414334     
   3629510003.3104048     
   4217116352.8022308     
   4132423715.9528947     
   4054139460.2914186     
   3981416051.2575464     
   3913953636.3548098     
   2978819847.2371092     
   2948745739.4789190     
   2927790690.3362231     
   2916136283.1516495     
   2914013335.0540147     
   3154257226.6127515     
   3109557770.8216453     
   3072203495.2826147     
   3042441105.6837144     
   3020567644.5559239     
   3373882396.9567671     
   3314776621.9481754     
   3261397466.3201299     
   3214002880.9631443     
   3172898870.9454045     
   3629510003.3104048     
   3557193863.3097205     
   3489191816.4560161     
   3425732191.0601788     
   3367084158.4978437     
   3913953636.3548098     
   3830203912.1390939     
   3749593883.3880649     
   3672300333.1137929     
   3598530347.7585135     
   2914013335.0540147     
   2890849972.1626897     
   2872876586.8548932     
   2860223543.2497025     
   2853029323.2258606     
   3020567644.5559239     
   2983368175.0022869     
   2951779899.5488305     
   2926003533.6195450     
   2906261533.1373224     
   3172898870.9454045     
   3120219659.8156042     
   3073318239.8869267     
   3032461240.8324981     
   2997957730.7916627     
   3367084158.4978437     
   3297707996.8594427     
   3234046236.2794037     
   3176414520.5812488     
   3125196721.5578136     
   3598530347.7585135     
   3511409999.1346092     
   3429755876.4906626     
   3353907787.8128366     
   3284301306.2873979     
   2853029323.2258606     
   2819174403.3846812     
   2795044639.2136455     
   2780892059.1307540     
   2776981669.4619155     
   2906261533.1373224     
   2858540481.1126428     
   2819516514.5047307     
   2789537390.3599811     
   2768975685.5747766     
   2997957730.7916627     
   2935341104.3723822     
   2880301930.1361275     
   2833251530.9648123     
   2794641952.5905972     
   3125196721.5578136     
   3047560315.6580029     
   2976327080.4037452     
   2911926579.2220531     
   2854843452.8231244     
   3284301306.2873979     
   3192252499.5186381     
   3105441952.6008286     
   3024272962.1746368     
   2949211428.1269050     
   2776981669.4619155     
   2759467427.5749793     
   2751797129.2094026     
   2754121521.0446730     
   2766617061.7980785     
   2768975685.5747766     
   2740210652.1240716     
   2720204396.8280087     
   2709178742.5092363     
   2707365631.5462809     
   2794641952.5905972     
   2751785700.3215365     
   2716414692.4246125     
   2688834627.7504516     
   2669364628.2002873     
   2854843452.8231244     
   2796181047.9685788     
   2743515704.5425887     
   2697221279.0964713     
   2657706626.4918113     
   2949211428.1269050     
   2874242141.3756070     
   2803618036.2948108     
   2737744675.4680638     
   2677095852.3925443     
   2766617061.7980785     
   2761757957.9768672     
   2777778259.5086632     
   2815329584.0019078     
   2875042638.4394569     
   2707365631.5462809     
   2681486820.6119466     
   2671363216.8924208     
   2677572624.2848325     
   2700621352.3388705     
   2669364628.2002873     
   2617916356.5959325     
   2576782372.8735752     
   2546591933.5012078     
   2527954113.9126616     
   2657706626.4918113     
   2579219876.1442113     
   2505175683.8043232     
   2436332121.7316632     
   2373608797.4364147     
   2677095852.3925443     
   2574060809.2855263     
   2469681601.6385212     
   2365006030.0012393     
   2261580945.2247295     
   3625034453.1423802     
   3719734913.8089657     
   3825673155.9495645     
   3942785735.6332779     
   4070979969.0957632     
   4134076888.4321408     
   4224342981.0311785     
   4320518799.6650429     
   4420949591.4607420     
   4524182711.4481268     
   4643337597.8990107     
   4755436471.1960621     
   4868652278.1670885     
   4980353468.3312149     
   5088617621.6720314     
   5151294935.0273800     
   5311189348.9268684     
   5467713643.2500648     
   5617976280.9690037     
   5760514266.3121958     
   5657683679.7536802     
   5890762631.9014482     
   6116206245.3744087     
   6331559215.4733410     
   6536600002.8283358     
   4070979969.0957632     
   4112345398.2725253     
   4151064928.5053043     
   4186234215.4826150     
   4217116352.8022308     
   4524182711.4481268     
   4538890868.0201340     
   4558261384.4448929     
   4579810996.6577740     
   4601815629.1255598     
   5088617621.6720314     
   5053859702.8868294     
   5029600779.2440491     
   5010632839.0558014     
   4993754986.2424889     
   5760514266.3121958     
   5651920053.2040157     
   5559312381.9029884     
   5473629552.7884932     
   5389330827.1286240     
   6536600002.8283358     
   6328473130.4208479     
   6142521559.0859280     
   5964838411.2234917     
   5786414955.7401686     
   4217116352.8022308     
   4132423715.9528947     
   4054139460.2914186     
   3981416051.2575464     
   3913953636.3548098     
   4601815629.1255598     
   4493204369.7437000     
   4388783406.2275457     
   4288237211.9766493     
   4191473396.1130166     
   4993754986.2424889     
   4866476719.5904951     
   4742400512.7093563     
   4621495178.4322414     
   4503801195.7660856     
   5389330827.1286240     
   5248249787.1828299     
   5110432842.0828133     
   4975922331.1081362     
   4844813974.6222935     
   5786414955.7401686     
   5635834895.7191029     
   5489514414.6811352     
   5347368838.0740585     
   5209449595.8564730     
   3913953636.3548098     
   3830203912.1390939     
   3749593883.3880649     
   3672300333.1137929     
   3598530347.7585135     
   4191473396.1130166     
   4096160883.6282043     
   4003736135.7730870     
   3914389476.6480937     
   3828364710.6000400     
   4503801195.7660856     
   4395001458.4018078     
   4288601753.2313557     
   4184776729.1111746     
   4083784090.7805152     
   4844813974.6222935     
   4720659052.1653671     
   4598247100.3236294     
   4477704616.0885601     
   4359273295.7583847     
   5209449595.8564730     
   5068129523.2252331     
   4927785716.8704414     
   4788463073.0594482     
   4650353282.5449333     
   3598530347.7585135     
   3511409999.1346092     
   3429755876.4906626     
   3353907787.8128366     
   3284301306.2873979     
   3828364710.6000400     
   3727029340.6975985     
   3629943637.6048856     
   3537410396.3884263     
   3449814884.3480477     
   4083784090.7805152     
   3969553761.8088260     
   3858601887.1896291     
   3751177900.9614429     
   3647597721.4402885     
   4359273295.7583847     
   4233660461.2717423     
   4110597593.8851619     
   3990276651.1623487     
   3872940360.6537404     
   4650353282.5449333     
   4514932325.0465441     
   4381559247.4585819     
   4250371414.2382965     
   4121543731.5708470     
   3284301306.2873979     
   3192252499.5186381     
   3105441952.6008286     
   3024272962.1746368     
   2949211428.1269050     
   3449814884.3480477     
   3343879538.7949109     
   3242685456.8081093     
   3146648902.5310068     
   3056268622.5799417     
   3647597721.4402885     
   3527441782.2665935     
   3411448162.1182804     
   3300021673.7169175     
   3193665478.2239761     
   3872940360.6537404     
   3738297312.5712562     
   3607197818.5906425     
   3480015387.2510905     
   3357232571.8492441     
   4121543731.5708470     
   3972160349.8063717     
   3825693374.2218418     
   3682470726.1033692     
   3542934920.8085451     
   2949211428.1269050     
   2874242141.3756070     
   2803618036.2948108     
   2737744675.4680638     
   2677095852.3925443     
   3056268622.5799417     
   2969329739.6612349     
   2885913542.7763491     
   2806380941.6802235     
   2731160876.8450670     
   3193665478.2239761     
   3095801747.8420300     
   3000712892.7880859     
   2908697849.2869220     
   2820117484.4712410     
   3357232571.8492441     
   3249599447.8062344     
   3144107807.8167496     
   3040989635.1170115     
   2940528821.2515993     
   3542934920.8085451     
   3426676789.0848446     
   3312058414.0947127     
   3199249416.5243554     
   3088460086.8336196     
   2677095852.3925443     
   2574060809.2855263     
   2469681601.6385212     
   2365006030.0012393     
   2261580945.2247295     
   2731160876.8450670     
   2618228209.3270082     
   2507884077.4188070     
   2400755948.1352849     
   2297654910.4654069     
   2820117484.4712410     
   2696072888.9427190     
   2578460572.9980736     
   2467893628.8255963     
   2365156156.1554880     
   2940528821.2515993     
   2801253697.5840335     
   2672036940.7168446     
   2554021286.4239979     
   2448823123.6364322     
   3088460086.8336196     
   2927571274.8635492     
   2780241004.0979786     
   2648851324.1377697     
   2536902329.2247343     
   5657683679.7536802     
   5890762631.9014482     
   6116206245.3744087     
   6331559215.4733410     
   6536600002.8283358     
   6491557870.8652954     
   6586724855.2388630     
   6757224795.5376186     
   6960978830.7808905     
   7171328439.2953138     
   7982248240.7105589     
   7734810145.4698143     
   7668937748.9643745     
   7669325186.2268362     
   7666043353.4464960     
   10130201932.745255     
   9321856089.1227741     
   8826153549.7189884     
   8443257501.4876480     
   8035360834.2141809     
   12935505957.922960     
   11340574367.910702     
   10210036671.708401     
   9272543320.2677021     
   8303654844.6287727     
   6536600002.8283358     
   6328473130.4208479     
   6142521559.0859280     
   5964838411.2234917     
   5786414955.7401686     
   7171328439.2953138     
   6910692406.5414381     
   6657958879.4406233     
   6409270895.7405481     
   6161483662.2360268     
   7666043353.4464960     
   7380820638.4396439     
   7101003884.9389057     
   6826671485.2933750     
   6558027958.7204161     
   8035360834.2141809     
   7746507873.4499102     
   7473346306.8080244     
   7213915716.8689165     
   6968224625.4454679     
   8303654844.6287727     
   8020317771.0934639     
   7779115556.3566484     
   7569359453.1212130     
   7386081012.3666735     
   5786414955.7401686     
   5635834895.7191029     
   5489514414.6811352     
   5347368838.0740585     
   5209449595.8564730     
   6161483662.2360268     
   6012379435.4161997     
   5864630097.3931684     
   5718275327.4395218     
   5573372997.2047710     
   6558027958.7204161     
   6407362467.8748541     
   6255051384.6240969     
   6101062538.6687937     
   5945425498.0580854     
   6968224625.4454679     
   6814328014.7569323     
   6655770068.4559393     
   6492266028.9292879     
   6323766326.4439678     
   7386081012.3666735     
   7228281435.8911343     
   7062899004.9883223     
   6889237869.7362127     
   6707116984.9406395     
   5209449595.8564730     
   5068129523.2252331     
   4927785716.8704414     
   4788463073.0594482     
   4650353282.5449333     
   5573372997.2047710     
   5413940945.2856598     
   5255507978.4902649     
   5098119568.6840754     
   4941886153.3335714     
   5945425498.0580854     
   5771477166.2212038     
   5599007584.7949295     
   5428043560.5167370     
   5258648958.1420689     
   6323766326.4439678     
   6138379412.5244770     
   5955348180.0102797     
   5774648990.7017937     
   5596310047.6191988     
   6707116984.9406395     
   6512862130.6703901     
   6322198203.6307364     
   6135007121.0314636     
   5951270153.4173250     
   4650353282.5449333     
   4514932325.0465441     
   4381559247.4585819     
   4250371414.2382965     
   4121543731.5708470     
   4941886153.3335714     
   4797560599.9583549     
   4654390978.7467117     
   4512486633.9290123     
   4371992036.2649469     
   5258648958.1420689     
   5105384296.5195580     
   4952398558.8152981     
   4799759983.7225513     
   4647572153.1436539     
   5596310047.6191988     
   5434173705.2792759     
   5271477809.3060169     
   5108240567.3815441     
   4944518207.5559406     
   5951270153.4173250     
   5780400081.0175152     
   5608187645.5709591     
   5434595520.7585316     
   5259629497.4069567     
   4121543731.5708470     
   3972160349.8063717     
   3825693374.2218418     
   3682470726.1033692     
   3542934920.8085451     
   4371992036.2649469     
   4207475634.7724967     
   4044969656.1275153     
   3884690373.7847219     
   3726944642.0832434     
   4647572153.1436539     
   4469640644.0195789     
   4293042542.7966995     
   4117898719.5735950     
   3944396570.6877222     
   4944518207.5559406     
   4754774195.4634390     
   4565899341.7183304     
   4377941394.2390003     
   4190994315.6571589     
   5259629497.4069567     
   5059525107.7295799     
   4860010219.7662630     
   4661081683.4937143     
   4462767454.3822241     
   3542934920.8085451     
   3426676789.0848446     
   3312058414.0947127     
   3199249416.5243554     
   3088460086.8336196     
   3726944642.0832434     
   3600351335.0732236     
   3475435162.1725273     
   3352349111.8677745     
   3231303407.6267939     
   3944396570.6877222     
   3805973728.5204201     
   3669028480.9790759     
   3533677725.7037783     
   3400115229.5670748     
   4190994315.6571589     
   4038947978.1245394     
   3887977985.1222291     
   3738148680.2594614     
   3589622395.3138647     
   4462767454.3822241     
   4295090491.8853540     
   4127928166.1033225     
   3961278636.4035773     
   3795259131.9846840     
   3088460086.8336196     
   2927571274.8635492     
   2780241004.0979786     
   2648851324.1377697     
   2536902329.2247343     
   3231303407.6267939     
   3045251640.7439837     
   2864179163.0898604     
   2689042097.7029443     
   2521167723.8751583     
   3400115229.5670748     
   3202358075.7529535     
   3002799059.8328204     
   2801451475.3559995     
   2598415458.4612646     
   3589622395.3138647     
   3397112083.8258424     
   3198685303.9637480     
   2994868841.0410013     
   2786979927.9553685     
   3795259131.9846840     
   3627024001.6026039     
   3451863512.4431529     
   3272593716.2303824     
   3094366046.3539271     
 </DataArray>
 <DataArray  type="Float64" Name="strain" NumberOfComponents="3" format="ascii">
  0.20348857558884059        0.0000000000000000       0.12540393871861122     
  0.18665983858574531       -2.7325372676973346E-002   7.4350568990146790E-002
  0.16983110158264997       -4.4677256189773064E-002   3.5131139253296501E-002
  0.15300236457955468       -5.2055650538399167E-002   7.7456495080603649E-003
  0.13617362757645937       -4.9460555722851629E-002  -7.8059002455616588E-003
  0.15985825640997831        0.0000000000000000        9.6446633213296495E-002
  0.15318179674575458       -2.1845231495986189E-002   6.2688657172006501E-002
  0.14650533708153085       -3.6175938480806198E-002   3.7401295816845516E-002
  0.13982887741730712       -4.2992120954460061E-002   2.0584549147813599E-002
  0.13315241775308340       -4.2293778916947730E-002   1.2238417164910684E-002
  0.12646098673336309        0.0000000000000000        7.4198951215472680E-002
  0.12657347910252584       -1.6365090314999022E-002   5.5277404208349638E-002
  0.12668597147168859       -2.7674620771839336E-002   4.1463146581870503E-002
  0.12679846384085133       -3.3928591370520941E-002   3.2756178336035363E-002
  0.12691095621001408       -3.5127002111043831E-002   2.9156499470844088E-002
  0.10329676655899495        0.0000000000000000        5.8660892725139746E-002
  0.10683488565605906       -1.0884949134011862E-002   5.2116810099176208E-002
  0.11037300475312317       -1.9173303062872474E-002   4.7316691548371502E-002
  0.11391112385018730       -2.4865061786581835E-002   4.4260537072725606E-002
  0.11744924294725141       -2.7960225305139950E-002   4.2948346672238485E-002
   9.0365595886873873E-002   0.0000000000000000        4.9832457742297706E-002
   9.3966016406354255E-002  -5.4048079530247001E-003   5.3206874844486218E-002
   9.7566436925834638E-002  -1.0671985353905608E-002   5.4961930716348438E-002
  0.10116685744531501       -1.5801532202642726E-002   5.5097625357884372E-002
  0.10476727796479543       -2.0793448499236047E-002   5.3613958769094014E-002
  0.13617362757645937       -4.9460555722851629E-002  -7.8059002455616588E-003
  0.13296647811985612       -4.2926648903825540E-002  -3.3913442420373113E-003
  0.12975932866325285       -3.8488607242016082E-002  -3.9078765510373870E-004
  0.12655217920664957       -3.6146430737423171E-002   1.1957695152388544E-003
  0.12334502975004633       -3.5900119390046809E-002   1.3683272689906101E-003
  0.13315241775308340       -4.2293778916947730E-002   1.2238417164910684E-002
  0.12891934435551206       -3.8428719582394938E-002   1.2182319387213546E-002
  0.12468627095794070       -3.5744750164927355E-002   1.1488373144171147E-002
  0.12045319756036935       -3.4241870664544982E-002   1.0156578435783346E-002
  0.11622012416279801       -3.3920081081247694E-002   8.1869352620503461E-003
  0.12691095621001408       -3.5127002111043831E-002   2.9156499470844088E-002
  0.12242810982272019       -3.3930790260964287E-002   2.5544523152056853E-002
  0.11794526343542630       -3.3000893087838601E-002   2.2070849319169868E-002
  0.11346241704813240       -3.2337310591666689E-002   1.8735477972183098E-002
  0.10897957066083849       -3.1940042772448704E-002   1.5538409111096614E-002
  0.11744924294725141       -2.7960225305139950E-002   4.2948346672238485E-002
  0.11349277452148053       -2.9432860939533661E-002   3.6695267052492597E-002
  0.10953630609570961       -3.0257036010749860E-002   3.1356640869892462E-002
  0.10557983766993873       -3.0432750518788496E-002   2.6932468124438013E-002
  0.10162336924416779       -2.9960004463649652E-002   2.3422748816129359E-002
  0.10476727796479543       -2.0793448499236047E-002   5.3613958769094014E-002
  0.10211333845179303       -2.4934931618103028E-002   4.5634551088520735E-002
   9.9459398938790675E-002  -2.7513178933661116E-002   3.9345747796338745E-002
   9.6805459425788248E-002  -2.8528190445910248E-002   3.4747548892548080E-002
   9.4151519912785905E-002  -2.7979966154850572E-002   3.1839954377148635E-002
  0.12334502975004633       -3.5900119390046809E-002   1.3683272689906101E-003
  0.12041864098832725       -3.6396097070297187E-002   6.3951374814769091E-004
  0.11749225222660815       -3.6280787648584785E-002   1.0065892412351729E-004
  0.11456586346488909       -3.5554191124909262E-002  -2.4823720308155689E-004
  0.11163947470316998       -3.4216307499270682E-002  -4.0717463346784388E-004
  0.11622012416279801       -3.3920081081247694E-002   8.1869352620503461E-003
  0.11346993241231916       -3.3993617986905408E-002   7.8295741614867465E-003
  0.11071974066184030       -3.3676717953387676E-002   7.6346483865846054E-003
  0.10796954891136146       -3.2969380980694490E-002   7.6021579373443081E-003
  0.10521935716088260       -3.1871607068825913E-002   7.7321028137655179E-003
  0.10897957066083849       -3.1940042772448704E-002   1.5538409111096614E-002
  0.10637805255044255       -3.1591138903513651E-002   1.5331650268024861E-002
  0.10377653444004661       -3.1072648258190675E-002   1.5259803379457228E-002
  0.10117501632965066       -3.0384570836479802E-002   1.5322868445394001E-002
   9.8573498219254721E-002  -2.9526906638381117E-002   1.5520845465834973E-002
  0.10162336924416779       -2.9960004463649652E-002   2.3422748816129359E-002
   9.9143001402697425E-002  -2.9188659820121799E-002   2.3145742067761883E-002
   9.6662633561227104E-002  -2.8468578562993646E-002   2.2976123902741272E-002
   9.4182265719756741E-002  -2.7799760692265182E-002   2.2913894321067631E-002
   9.1701897878286365E-002  -2.7182206207936335E-002   2.2959053322740872E-002
   9.4151519912785905E-002  -2.7979966154850572E-002   3.1839954377148635E-002
   9.1764778969083846E-002  -2.6786180736730024E-002   3.1271849560697923E-002
   8.9378038025381745E-002  -2.5864508867796621E-002   3.0783609956436669E-002
   8.6991297081679672E-002  -2.5214950548050473E-002   3.0375235564365090E-002
   8.4604556137977599E-002  -2.4837505777491470E-002   3.0046726384483191E-002
  0.11163947470316998       -3.4216307499270682E-002  -4.0717463346784388E-004
  0.10853482356689964       -3.2696570810965553E-002  -1.6986509060218369E-004
  0.10543017243062933       -3.1424415099289990E-002   1.2835947257497371E-004
  0.10232552129435900       -3.0399840364243851E-002   4.8749905606419730E-004
   9.9220870158088670E-002  -2.9622846605827480E-002   9.0755365986461278E-004
  0.10521935716088260       -3.1871607068825913E-002   7.7321028137655179E-003
  0.10220446698789068       -3.0652783111265389E-002   7.5745579880466679E-003
   9.9189576814898761E-002  -2.9582296001496367E-002   7.5356200685732927E-003
   9.6174686641906884E-002  -2.8660145739519000E-002   7.6152890553449065E-003
   9.3159796468914924E-002  -2.7886332325333107E-002   7.8135649483619674E-003
   9.8573498219254721E-002  -2.9526906638381117E-002   1.5520845465834973E-002
   9.5706060895474773E-002  -2.8608995411565197E-002   1.5067690400370121E-002
   9.2838623571694867E-002  -2.7740176903702916E-002   1.4790834127084068E-002
   8.9971186247914933E-002  -2.6920451114794096E-002   1.4690276645976500E-002
   8.7103748924135027E-002  -2.6149818044838846E-002   1.4766017957047906E-002
   9.1701897878286365E-002  -2.7182206207936335E-002   2.2959053322740872E-002
   8.9039605289651977E-002  -2.6565207711865019E-002   2.2309532146367772E-002
   8.6377312701017575E-002  -2.5898057805909324E-002   2.1894001648106905E-002
   8.3715020112383173E-002  -2.5180756490069189E-002   2.1712461827958548E-002
   8.1052727523748758E-002  -2.4413303764344585E-002   2.1764912685922261E-002
   8.4604556137977599E-002  -2.4837505777491470E-002   3.0046726384483191E-002
   8.2205100170422263E-002  -2.4521420012164855E-002   2.9300083226039816E-002
   7.9805644202866940E-002  -2.4055938708115863E-002   2.8845122631642281E-002
   7.7406188235311618E-002  -2.3441061865344205E-002   2.8681844601290696E-002
   7.5006732267756310E-002  -2.2676789483850268E-002   2.8810249134984839E-002
   9.9220870158088670E-002  -2.9622846605827480E-002   9.0755365986461278E-004
   9.6317538008914294E-002  -2.8916057109859977E-002   5.9587878817191076E-004
   9.3414205859739974E-002  -2.8102095162161000E-002   4.5702120419596759E-004
   9.0510873710565626E-002  -2.7180960762730105E-002   4.9098090793681104E-004
   8.7607541561391278E-002  -2.6152653911567625E-002   6.9775789939474642E-004
   9.3159796468914924E-002  -2.7886332325333107E-002   7.8135649483619674E-003
   9.0425332985378498E-002  -2.7152256778932904E-002   7.5909843809600364E-003
   8.7690869501841961E-002  -2.6349320120312797E-002   7.5333238571166777E-003
   8.4956406018305453E-002  -2.5477522349471989E-002   7.6405833768321899E-003
   8.2221942534768999E-002  -2.4536863466411152E-002   7.9127629401066213E-003
   8.7103748924135027E-002  -2.6149818044838846E-002   1.4766017957047906E-002
   8.4530256862078296E-002  -2.5388456448005955E-002   1.4594220354425119E-002
   8.1956764800021606E-002  -2.4596545078464260E-002   1.4579445551203038E-002
   7.9383272737964916E-002  -2.3774083936213872E-002   1.4721693547381676E-002
   7.6809780675908212E-002  -2.2921073021254401E-002   1.5020964342961185E-002
   8.1052727523748758E-002  -2.4413303764344585E-002   2.1764912685922261E-002
   7.8632309639013798E-002  -2.3624656117079000E-002   2.1605586708567222E-002
   7.6211891754278921E-002  -2.2843770036616001E-002   2.1595386286454944E-002
   7.3791473869543947E-002  -2.2070645522955588E-002   2.1734311419585407E-002
   7.1371055984809070E-002  -2.1305282576097789E-002   2.2022362107958576E-002
   7.5006732267756310E-002  -2.2676789483850268E-002   2.8810249134984839E-002
   7.2731491316185060E-002  -2.1860855786152031E-002   2.8625083443386323E-002
   7.0456250364613879E-002  -2.1090994994767798E-002   2.8581146062872431E-002
   6.8181009413042643E-002  -2.0367207109697402E-002   2.8678436993443204E-002
   6.5905768461471420E-002  -1.9689492130941122E-002   2.8916956235098823E-002
   8.7607541561391278E-002  -2.6152653911567625E-002   6.9775789939474642E-004
   8.4323397049202387E-002  -2.5116848805482261E-002   5.6570690928209322E-004
   8.1039252537013551E-002  -2.4173219641282606E-002   5.7194428683698950E-004
   7.7755108024824715E-002  -2.3321766418967965E-002   7.1647003205921322E-004
   7.4470963512635824E-002  -2.2562489138539310E-002   9.9928414494876439E-004
   8.2221942534768999E-002  -2.4536863466411152E-002   7.9127629401066213E-003
   7.9086898112483400E-002  -2.3593101180807013E-002   7.6875457154812754E-003
   7.5951853690197857E-002  -2.2711993202337216E-002   7.6222403029951868E-003
   7.2816809267912327E-002  -2.1893539531001628E-002   7.7168467026480780E-003
   6.9681764845626715E-002  -2.1137740166799923E-002   7.9713649144400045E-003
   7.6809780675908212E-002  -2.2921073021254401E-002   1.5020964342961185E-002
   7.3845459787997517E-002  -2.2069353556132043E-002   1.4732102518574985E-002
   7.0881138900086821E-002  -2.1250766763392159E-002   1.4624775950799279E-002
   6.7916818012176181E-002  -2.0465312643035180E-002   1.4698984639634212E-002
   6.4952497124265457E-002  -1.9712991195060703E-002   1.4954728585079874E-002
   7.1371055984809070E-002  -2.1305282576097789E-002   2.2022362107958576E-002
   6.8599082075744777E-002  -2.0545605931456823E-002   2.1699377318562647E-002
   6.5827108166680526E-002  -1.9789540324447047E-002   2.1579551230248961E-002
   6.3055134257616205E-002  -1.9037085755068565E-002   2.1662883843017417E-002
   6.0283160348551967E-002  -1.8288242223321288E-002   2.1949375156868185E-002
   6.5905768461471420E-002  -1.9689492130941122E-002   2.8916956235098823E-002
   6.3347764975725113E-002  -1.9021858306781575E-002   2.8589370115444823E-002
   6.0789761489978819E-002  -1.8328313885501935E-002   2.8486566141344594E-002
   5.8231758004232519E-002  -1.7608858867102256E-002   2.8608544312797857E-002
   5.5673754518486218E-002  -1.6863493251581929E-002   2.8955304629805056E-002
   7.4470963512635824E-002  -2.2562489138539310E-002   9.9928414494876439E-004
   7.1616198039876955E-002  -2.1766944423848800E-002   3.9850541031383191E-004
   6.8761432567118030E-002  -2.0806688898748565E-002   1.5114207109695466E-004
   6.5906667094359161E-002  -1.9681722563239516E-002   2.5719412729838242E-004
   6.3051901621600237E-002  -1.8392045417320091E-002   7.1666157891814297E-004
   6.9681764845626715E-002  -2.1137740166799923E-002   7.9713649144400045E-003
   6.7146957819307296E-002  -2.0356397259655434E-002   7.5362862781889750E-003
   6.4612150792987794E-002  -1.9461312959490690E-002   7.3877091393980965E-003
   6.2077343766668278E-002  -1.8452487266305488E-002   7.5256334980673967E-003
   5.9542536740348873E-002  -1.7329920180100267E-002   7.9500593541976805E-003
   6.4952497124265457E-002  -1.9712991195060703E-002   1.4954728585079874E-002
   6.2670734646427639E-002  -1.8945850095462208E-002   1.4634380629822974E-002
   6.0388972168589850E-002  -1.8115937020232606E-002   1.4533620274068806E-002
   5.8107209690752018E-002  -1.7223251969371908E-002   1.4652447517817309E-002
   5.5825447212914214E-002  -1.6267794942880665E-002   1.4990862361068835E-002
   6.0283160348551967E-002  -1.8288242223321288E-002   2.1949375156868185E-002
   5.8187528521238055E-002  -1.7535302931268690E-002   2.1692788465216294E-002
   5.6091896693924087E-002  -1.6770561080974404E-002   2.1588875475109796E-002
   5.3996264866610147E-002  -1.5994016672438549E-002   2.1637636186548202E-002
   5.1900633039296200E-002  -1.5205669705661062E-002   2.1839070599531427E-002
   5.5673754518486218E-002  -1.6863493251581929E-002   2.8955304629805056E-002
   5.3697339443738390E-002  -1.6124755767075338E-002   2.8711509784369427E-002
   5.1720924368990617E-002  -1.5425185141716632E-002   2.8553474742520929E-002
   4.9744509294242817E-002  -1.4764781375504823E-002   2.8481199504259605E-002
   4.7768094219495016E-002  -1.4143544468441238E-002   2.8494684069585885E-002
   6.3051901621600237E-002  -1.8392045417320091E-002   7.1666157891814297E-004
   6.0230251314120076E-002  -1.7323647267003417E-002   1.2325824516454809E-003
   5.7408601006639914E-002  -1.6862517918301678E-002   1.2820488634321947E-003
   5.4586950699159725E-002  -1.7008657371214472E-002   8.6506081427800696E-004
   5.1765300391679592E-002  -1.7762065625742007E-002  -1.8381695817026866E-005
   5.9542536740348873E-002  -1.7329920180100267E-002   7.9500593541976805E-003
   5.6368854778518829E-002  -1.6347061341068891E-002   7.8724650428408927E-003
   5.3195172816688813E-002  -1.5757360389405839E-002   7.5572618837246863E-003
   5.0021490854858894E-002  -1.5560817325110152E-002   7.0044498768494223E-003
   4.6847808893028864E-002  -1.5757432148182815E-002   6.2140290222152395E-003
   5.5825447212914214E-002  -1.6267794942880665E-002   1.4990862361068835E-002
   5.2528579209915688E-002  -1.5370475415134310E-002   1.4533863779874839E-002
   4.9231711206917259E-002  -1.4652202860509583E-002   1.4068101964102603E-002
   4.5934843203918906E-002  -1.4112977279006060E-002   1.3593576913752972E-002
   4.2637975200920275E-002  -1.3752798670623845E-002   1.3110288628825462E-002
   5.1900633039296200E-002  -1.5205669705661062E-002   2.1839070599531427E-002
   4.8709424608310771E-002  -1.4393889489199646E-002   2.1216778662746599E-002
   4.5518216177325210E-002  -1.3547045331613314E-002   2.0814569104565472E-002
   4.2327007746339761E-002  -1.2665137232901632E-002   2.0632441924988063E-002
   3.9135799315354200E-002  -1.1748165193064652E-002   2.0670397124014112E-002
   4.7768094219495016E-002  -1.4143544468441238E-002   2.8494684069585885E-002
   4.4911390973703835E-002  -1.3417303563265148E-002   2.7921209691456783E-002
   4.2054687727912654E-002  -1.2441887802717211E-002   2.7796663305113156E-002
   3.9197984482121515E-002  -1.1217297186797467E-002   2.8121044910554088E-002
   3.6341281236330292E-002  -9.7435317155056822E-003   2.8894354507780662E-002
   9.0365595886873873E-002   0.0000000000000000        4.9832457742297706E-002
   9.3966016406354255E-002  -5.4048079530247001E-003   5.3206874844486218E-002
   9.7566436925834638E-002  -1.0671985353905608E-002   5.4961930716348438E-002
  0.10116685744531501       -1.5801532202642726E-002   5.5097625357884372E-002
  0.10476727796479543       -2.0793448499236047E-002   5.3613958769094014E-002
   8.2428762947064818E-002   0.0000000000000000        4.4780444483431228E-002
   8.4639029367601287E-002  -4.5748572758070056E-003   4.8264055968280317E-002
   8.6849295788137770E-002  -9.0386225259553084E-003   5.0586720485567879E-002
   8.9059562208674226E-002  -1.3391295750444917E-002   5.1748438035293859E-002
   9.1269828629210709E-002  -1.7632876949275837E-002   5.1749208617458332E-002
   7.4247555969632728E-002   0.0000000000000000        4.0571651165025001E-002
   7.5526082553990015E-002  -3.7449065985893067E-003   4.4137918506049562E-002
   7.6804609138347343E-002  -7.4052596980050123E-003   4.7001653142277333E-002
   7.8083135722704644E-002  -1.0981059298247111E-002   4.9162855073708323E-002
   7.9361662307061945E-002  -1.4472305399315613E-002   5.0621524300342516E-002
   6.5821974954577575E-002   0.0000000000000000        3.7206077787079017E-002
   6.6627175965520466E-002  -2.9149559213716113E-003   4.0828462457793958E-002
   6.7432376976463357E-002  -5.7718968700547144E-003   4.4206728686476862E-002
   6.8237577987406248E-002  -8.5708228460493058E-003   4.7340876473127735E-002
   6.9042778998349139E-002  -1.1311733849355392E-002   5.0230905817746543E-002
   5.7152019901899387E-002   0.0000000000000000        3.4683724349593270E-002
   5.7942309602192613E-002  -2.0850052441539133E-003   3.8335687823513508E-002
   5.8732599302485845E-002  -4.1385340421044147E-003   4.2201947118166445E-002
   5.9522889002779071E-002  -6.1605863938514957E-003   4.6282502233552097E-002
   6.0313178703072304E-002  -8.1511622993951770E-003   5.0577353169670457E-002
  0.10476727796479543       -2.0793448499236047E-002   5.3613958769094014E-002
  0.10211333845179303       -2.4934931618103028E-002   4.5634551088520735E-002
   9.9459398938790675E-002  -2.7513178933661116E-002   3.9345747796338745E-002
   9.6805459425788248E-002  -2.8528190445910248E-002   3.4747548892548080E-002
   9.4151519912785905E-002  -2.7979966154850572E-002   3.1839954377148635E-002
   9.1269828629210709E-002  -1.7632876949275837E-002   5.1749208617458332E-002
   9.0068436268840105E-002  -2.1208553888326154E-002   4.6513002863167195E-002
   8.8867043908469501E-002  -2.3563514333473989E-002   4.2491287025748212E-002
   8.7665651548098883E-002  -2.4697758284719349E-002   3.9684061105201542E-002
   8.6464259187728265E-002  -2.4611285742062214E-002   3.8091325101527095E-002
   7.9361662307061945E-002  -1.4472305399315613E-002   5.0621524300342516E-002
   7.9136702627804048E-002  -1.7482176158549276E-002   4.7786001162927035E-002
   7.8911742948546165E-002  -1.9613849733286892E-002   4.5688853470864724E-002
   7.8686783269288268E-002  -2.0867326123528408E-002   4.4330081224155632E-002
   7.8461823590030372E-002  -2.1242605329273898E-002   4.3709684422799662E-002
   6.9042778998349139E-002  -1.1311733849355392E-002   5.0230905817746543E-002
   6.9318137528684917E-002  -1.3755798428772401E-002   4.9453545987800329E-002
   6.9593496059020668E-002  -1.5664185133099754E-002   4.8938447131688295E-002
   6.9868854589356419E-002  -1.7036893962337488E-002   4.8685609249410296E-002
   7.0144213119692184E-002  -1.7873924916485560E-002   4.8695032340966483E-002
   6.0313178703072304E-002  -8.1511622993951770E-003   5.0577353169670457E-002
   6.0612740971482643E-002  -1.0029420698995529E-002   5.1515637337787121E-002
   6.0912303239893002E-002  -1.1714520532912666E-002   5.2240068008218864E-002
   6.1211865508303341E-002  -1.3206461801146541E-002   5.2750645180965644E-002
   6.1511427776713708E-002  -1.4505244503697230E-002   5.3047368856027462E-002
   9.4151519912785905E-002  -2.7979966154850572E-002   3.1839954377148635E-002
   9.1764778969083846E-002  -2.6786180736730024E-002   3.1271849560697923E-002
   8.9378038025381745E-002  -2.5864508867796621E-002   3.0783609956436669E-002
   8.6991297081679672E-002  -2.5214950548050473E-002   3.0375235564365090E-002
   8.4604556137977599E-002  -2.4837505777491470E-002   3.0046726384483191E-002
   8.6464259187728265E-002  -2.4611285742062214E-002   3.8091325101527095E-002
   8.4204240797635874E-002  -2.3967703375380997E-002   3.7065597556335289E-002
   8.1944222407543468E-002  -2.3430617854554005E-002   3.6213449906173284E-002
   7.9684204017451091E-002  -2.3000029179581341E-002   3.5534882151040954E-002
   7.7424185627358658E-002  -2.2675937350462860E-002   3.5029894290938432E-002
   7.8461823590030372E-002  -2.1242605329273898E-002   4.3709684422799662E-002
   7.6422242436387774E-002  -2.1149226014032001E-002   4.2391950852199885E-002
   7.4382661282745149E-002  -2.0996726841311431E-002   4.1341511859469993E-002
   7.2343080129102552E-002  -2.0785107811112213E-002   4.0558367444609937E-002
   7.0303498975459927E-002  -2.0514368923434292E-002   4.0042517607619670E-002
   7.0144213119692184E-002  -1.7873924916485560E-002   4.8695032340966483E-002
   6.8418783885339479E-002  -1.8330748652683006E-002   4.7250909448291606E-002
   6.6693354650986789E-002  -1.8562835828068835E-002   4.6167795816326726E-002
   6.4967925416634056E-002  -1.8570186442643077E-002   4.5445691445071830E-002
   6.3242496182281380E-002  -1.8352800496405690E-002   4.5084596334526869E-002
   6.1511427776713708E-002  -1.4505244503697230E-002   5.3047368856027462E-002
   6.0193865144491029E-002  -1.5512271291333993E-002   5.1642473344610487E-002
   5.8876302512268358E-002  -1.6128944814826233E-002   5.0692301776743581E-002
   5.7558739880045694E-002  -1.6355265074173956E-002   5.0196854152426675E-002
   5.6241177247823015E-002  -1.6191232069377101E-002   5.0156130471659996E-002
   8.4604556137977599E-002  -2.4837505777491470E-002   3.0046726384483191E-002
   8.2205100170422263E-002  -2.4521420012164855E-002   2.9300083226039816E-002
   7.9805644202866940E-002  -2.4055938708115863E-002   2.8845122631642281E-002
   7.7406188235311618E-002  -2.3441061865344205E-002   2.8681844601290696E-002
   7.5006732267756310E-002  -2.2676789483850268E-002   2.8810249134984839E-002
   7.7424185627358658E-002  -2.2675937350462860E-002   3.5029894290938432E-002
   7.5299083117769491E-002  -2.2350838348191723E-002   3.4454559250576611E-002
   7.3173980608180256E-002  -2.1917228153760779E-002   3.4136248562101297E-002
   7.1048878098591034E-002  -2.1375106767170093E-002   3.4074962225512262E-002
   6.8923775589001840E-002  -2.0724474188419661E-002   3.4270700240809623E-002
   7.0303498975459927E-002  -2.0514368923434292E-002   4.0042517607619670E-002
   6.8418091711677356E-002  -2.0180256684218474E-002   3.9597606338776750E-002
   6.6532684447894799E-002  -1.9778517599405698E-002   3.9375061209660778E-002
   6.4647277184112228E-002  -1.9309151668995859E-002   3.9374882220271697E-002
   6.2761869920329671E-002  -1.8772158892988972E-002   3.9597069370609514E-002
   6.3242496182281380E-002  -1.8352800496405690E-002   4.5084596334526869E-002
   6.1562125952145982E-002  -1.8009675020245339E-002   4.4729224490640138E-002
   5.9881755722010599E-002  -1.7639807045050686E-002   4.4561560574320695E-002
   5.8201385491875215E-002  -1.7243196570821670E-002   4.4581604585568736E-002
   5.6521015261739818E-002  -1.6819843597558309E-002   4.4789356524384295E-002
   5.6241177247823015E-002  -1.6191232069377101E-002   5.0156130471659996E-002
   5.4731185839175328E-002  -1.5839093356272135E-002   4.9849413706166593E-002
   5.3221194430527641E-002  -1.5501096490695556E-002   4.9695746656081154E-002
   5.1711203021879960E-002  -1.5177241472647478E-002   4.9695129321403783E-002
   5.0201211613232266E-002  -1.4867528302127675E-002   4.9847561702134391E-002
   7.5006732267756310E-002  -2.2676789483850268E-002   2.8810249134984839E-002
   7.2731491316185060E-002  -2.1860855786152031E-002   2.8625083443386323E-002
   7.0456250364613879E-002  -2.1090994994767798E-002   2.8581146062872431E-002
   6.8181009413042643E-002  -2.0367207109697402E-002   2.8678436993443204E-002
   6.5905768461471420E-002  -1.9689492130941122E-002   2.8916956235098823E-002
   6.8923775589001840E-002  -2.0724474188419661E-002   3.4270700240809623E-002
   6.6800827425561607E-002  -2.0029188724541722E-002   3.3985010872230159E-002
   6.4677879262121360E-002  -1.9353108682568745E-002   3.3862678768827960E-002
   6.2554931098681141E-002  -1.8696234062500556E-002   3.3903703930603171E-002
   6.0431982935240908E-002  -1.8058564864337323E-002   3.4108086357555523E-002
   6.2761869920329671E-002  -1.8772158892988972E-002   3.9597069370609514E-002
   6.0813343499112972E-002  -1.8197521662931447E-002   3.9237723809458239E-002
   5.8864817077896300E-002  -1.7615222370369749E-002   3.9063864467577009E-002
   5.6916290656679594E-002  -1.7025261015303765E-002   3.9075491344965456E-002
   5.4967764235462895E-002  -1.6427637597733552E-002   3.9272604441623712E-002
   5.6521015261739818E-002  -1.6819843597558309E-002   4.4789356524384295E-002
   5.4769039536839238E-002  -1.6365854601321225E-002   4.4383222255070645E-002
   5.3017063811938651E-002  -1.5877336058170752E-002   4.4184703159119161E-002
   5.1265088087038078E-002  -1.5354287968106946E-002   4.4193799236530135E-002
   4.9513112362137512E-002  -1.4796710331129823E-002   4.4410510487303483E-002
   5.0201211613232266E-002  -1.4867528302127675E-002   4.9847561702134391E-002
   4.8667915538740350E-002  -1.4534187539710877E-002   4.9421506209067018E-002
   4.7134619464248434E-002  -1.4139449745971741E-002   4.9225194843454639E-002
   4.5601323389756518E-002  -1.3683314920910055E-002   4.9258627605297131E-002
   4.4068027315264602E-002  -1.3165783064525982E-002   4.9521804494594535E-002
   6.5905768461471420E-002  -1.9689492130941122E-002   2.8916956235098823E-002
   6.3347764975725113E-002  -1.9021858306781575E-002   2.8589370115444823E-002
   6.0789761489978819E-002  -1.8328313885501935E-002   2.8486566141344594E-002
   5.8231758004232519E-002  -1.7608858867102256E-002   2.8608544312797857E-002
   5.5673754518486218E-002  -1.6863493251581929E-002   2.8955304629805056E-002
   6.0431982935240908E-002  -1.8058564864337323E-002   3.4108086357555523E-002
   5.8093479731644734E-002  -1.7422825256645680E-002   3.3805413619991342E-002
   5.5754976528048519E-002  -1.6771739407992509E-002   3.3716959301173730E-002
   5.3416473324452346E-002  -1.6105307318377622E-002   3.3842723401102413E-002
   5.1077970120856131E-002  -1.5423528987800972E-002   3.4182705919777900E-002
   5.4967764235462895E-002  -1.6427637597733552E-002   3.9272604441623712E-002
   5.2838197587209597E-002  -1.5823792206509743E-002   3.8984280729990800E-002
   5.0708630938956278E-002  -1.5215164930482916E-002   3.8899611710297211E-002
   4.8579064290702995E-002  -1.4601755769653099E-002   3.9018597382542805E-002
   4.6449497642449669E-002  -1.3983564724020098E-002   3.9341237746727611E-002
   4.9513112362137512E-002  -1.4796710331129823E-002   4.4410510487303483E-002
   4.7581918542419790E-002  -1.4224759156373799E-002   4.4125971445443120E-002
   4.5650724722702103E-002  -1.3658590452973352E-002   4.4034523368715148E-002
   4.3719530902984444E-002  -1.3098204220928562E-002   4.4136166257118831E-002
   4.1788337083266749E-002  -1.2543600460239154E-002   4.4430900110654759E-002
   4.4068027315264602E-002  -1.3165783064525982E-002   4.9521804494594535E-002
   4.2324642597275308E-002  -1.2625726106237856E-002   4.9230485766348420E-002
   4.0581257879286015E-002  -1.2102015975463953E-002   4.9121694276427097E-002
   3.8837873161296707E-002  -1.1594652672203984E-002   4.9195430024830469E-002
   3.7094488443307455E-002  -1.1103636196458266E-002   4.9451693011558717E-002
   5.5673754518486218E-002  -1.6863493251581929E-002   2.8955304629805056E-002
   5.3697339443738390E-002  -1.6124755767075338E-002   2.8711509784369427E-002
   5.1720924368990617E-002  -1.5425185141716632E-002   2.8553474742520929E-002
   4.9744509294242817E-002  -1.4764781375504823E-002   2.8481199504259605E-002
   4.7768094219495016E-002  -1.4143544468441238E-002   2.8494684069585885E-002
   5.1077970120856131E-002  -1.5423528987800972E-002   3.4182705919777900E-002
   4.9200468045430101E-002  -1.4744736069790126E-002   3.3889134226680107E-002
   4.7322965970004016E-002  -1.4087260217872002E-002   3.3707628728638500E-002
   4.5445463894577959E-002  -1.3451101432046978E-002   3.3638189425652984E-002
   4.3567961819151874E-002  -1.2836259712314502E-002   3.3680816317723961E-002
   4.6449497642449669E-002  -1.3983564724020098E-002   3.9341237746727611E-002
   4.4697214957814313E-002  -1.3364716372504776E-002   3.9015738999022373E-002
   4.2944932273178971E-002  -1.2749335294027546E-002   3.8828612837842287E-002
   4.1192649588543594E-002  -1.2137421488588580E-002   3.8779859263187361E-002
   3.9440366903908258E-002  -1.1528974956187765E-002   3.8869478275057739E-002
   4.1788337083266749E-002  -1.2543600460239154E-002   4.4430900110654759E-002
   4.0187580180891087E-002  -1.1984696675219300E-002   4.4091324101396712E-002
   3.8586823278515453E-002  -1.1411410370183169E-002   4.3916427070132699E-002
   3.6986066376139791E-002  -1.0823741545130293E-002   4.3906209016862929E-002
   3.5385309473764157E-002  -1.0221690200061084E-002   4.4060669941587360E-002
   3.7094488443307455E-002  -1.1103636196458266E-002   4.9451693011558717E-002
   3.5671563714660431E-002  -1.0604676977934269E-002   4.9115889533802637E-002
   3.4248638986013477E-002  -1.0073485446338459E-002   4.8971071425509438E-002
   3.2825714257366474E-002  -9.5100616016721706E-003   4.9017238686679648E-002
   3.1402789528719499E-002  -8.9144054439344034E-003   4.9254391317312796E-002
   4.7768094219495016E-002  -1.4143544468441238E-002   2.8494684069585885E-002
   4.4911390973703835E-002  -1.3417303563265148E-002   2.7921209691456783E-002
   4.2054687727912654E-002  -1.2441887802717211E-002   2.7796663305113156E-002
   3.9197984482121515E-002  -1.1217297186797467E-002   2.8121044910554088E-002
   3.6341281236330292E-002  -9.7435317155056822E-003   2.8894354507780662E-002
   4.3567961819151874E-002  -1.2836259712314502E-002   3.3680816317723961E-002
   4.1104068389094695E-002  -1.2161864933921657E-002   3.3318560268036312E-002
   3.8640174959037543E-002  -1.1347046972115207E-002   3.3292995858031804E-002
   3.6176281528980336E-002  -1.0391805826894921E-002   3.3604123087710172E-002
   3.3712388098923129E-002  -9.2961414982608570E-003   3.4251941957071486E-002
   3.9440366903908258E-002  -1.1528974956187765E-002   3.8869478275057739E-002
   3.7257046937482996E-002  -1.0906426304578248E-002   3.8609688881853330E-002
   3.5073726971057810E-002  -1.0252206141513093E-002   3.8574354776229780E-002
   3.2890407004632582E-002  -9.5663144669924302E-003   3.8763475958187493E-002
   3.0707087038207292E-002  -8.8487512810160318E-003   3.9177052427725623E-002
   3.5385309473764157E-002  -1.0221690200061084E-002   4.4060669941587360E-002
   3.3370326618868802E-002  -9.6509876752347984E-003   4.3794595532908043E-002
   3.1355343763973482E-002  -9.1573653109110337E-003   4.3640740059707660E-002
   2.9340360909078152E-002  -8.7408231070899671E-003   4.3599103521986218E-002
   2.7325378054182815E-002  -8.4013610637711511E-003   4.3669685919742920E-002
   3.1402789528719499E-002  -8.9144054439344034E-003   4.9254391317312796E-002
   2.9443907433252037E-002  -8.3955490458912929E-003   4.8873280221200466E-002
   2.7485025337784533E-002  -8.0625244803089469E-003   4.8492151708464826E-002
   2.5526143242317119E-002  -7.9153317471874970E-003   4.8111005779106070E-002
   2.3567261146849594E-002  -7.9539708465263814E-003   4.7729842433123837E-002
   5.7152019901899387E-002   0.0000000000000000        3.4683724349593270E-002
   5.7942309602192613E-002  -2.0850052441539133E-003   3.8335687823513508E-002
   5.8732599302485845E-002  -4.1385340421044147E-003   4.2201947118166445E-002
   5.9522889002779071E-002  -6.1605863938514957E-003   4.6282502233552097E-002
   6.0313178703072304E-002  -8.1511622993951770E-003   5.0577353169670457E-002
   4.8650273109221542E-002   0.0000000000000000        3.2781948662881692E-002
   4.9589435466539329E-002  -1.7096711204891884E-003   3.6958154539497586E-002
   5.0528597823857116E-002  -3.4330686696216629E-003   4.1217809909429866E-002
   5.1467760181174896E-002  -5.1701926473974227E-003   4.5560914772678554E-002
   5.2406922538492676E-002  -6.9210430538164634E-003   4.9987469129243650E-002
   4.0729316874167448E-002   0.0000000000000000        3.1278108537258181E-002
   4.1686505561093490E-002  -1.3343369968244626E-003   3.5933353941723027E-002
   4.2643694248019504E-002  -2.7276032971389102E-003   4.0541202512087954E-002
   4.3600882934945538E-002  -4.1797989009433427E-003   4.5101654248352996E-002
   4.4558071621871566E-002  -5.6909238082377576E-003   4.9614709150518133E-002
   3.3389151196737105E-002   0.0000000000000000        3.0172203972722748E-002
   3.4233519885855074E-002  -9.5900287315973725E-004   3.5261286030189853E-002
   3.5077888574973036E-002  -2.0221379246561579E-003   4.0172124926140737E-002
   3.5922257264090998E-002  -3.1894051544892610E-003   4.4904720660575402E-002
   3.6766625953208974E-002  -4.4608045626590518E-003   4.9459073233493890E-002
   2.6629776076930504E-002   0.0000000000000000        2.9464234969275388E-002
   2.7230478440824102E-002  -5.8366874949501192E-004   3.4941950804898050E-002
   2.7831180804717699E-002  -1.3166725521734056E-003   4.0110577151588195E-002
   2.8431883168611290E-002  -2.1990114080351862E-003   4.4970114009345794E-002
   2.9032585532504891E-002  -3.2306853170803408E-003   4.9520561378170895E-002
   6.0313178703072304E-002  -8.1511622993951770E-003   5.0577353169670457E-002
   6.0612740971482643E-002  -1.0029420698995529E-002   5.1515637337787121E-002
   6.0912303239893002E-002  -1.1714520532912666E-002   5.2240068008218864E-002
   6.1211865508303341E-002  -1.3206461801146541E-002   5.2750645180965644E-002
   6.1511427776713708E-002  -1.4505244503697230E-002   5.3047368856027462E-002
   5.2406922538492676E-002  -6.9210430538164634E-003   4.9987469129243650E-002
   5.2531912971709671E-002  -8.5847146678128330E-003   5.1213061497396350E-002
   5.2656903404926667E-002  -1.0060302268320567E-002   5.2303363692847250E-002
   5.2781893838143655E-002  -1.1347805855339666E-002   5.3258375715596377E-002
   5.2906884271360657E-002  -1.2447225428870126E-002   5.4078097565643760E-002
   4.4558071621871566E-002  -5.6909238082377576E-003   4.9614709150518133E-002
   4.4587053544878366E-002  -7.1400086366301425E-003   5.1122535166512224E-002
   4.4616035467885187E-002  -8.4060840037284840E-003   5.2573634334787761E-002
   4.4645017390891988E-002  -9.4891499095327916E-003   5.3968006655344652E-002
   4.4673999313898795E-002  -1.0389206354043033E-002   5.5305652128182968E-002
   3.6766625953208974E-002  -4.4608045626590518E-003   4.9459073233493890E-002
   3.6778162690988749E-002  -5.6953026054474614E-003   5.1244058345134819E-002
   3.6789699428768537E-002  -6.7518657391363972E-003   5.3050879934040347E-002
   3.6801236166548311E-002  -7.6304939637258963E-003   5.4879538000210441E-002
   3.6812772904328085E-002  -8.3311872792159337E-003   5.6730032543645045E-002
   2.9032585532504891E-002  -3.2306853170803408E-003   4.9520561378170895E-002
   2.9105240410040804E-002  -4.2505965742647622E-003   5.1577631033264112E-002
   2.9177895287576729E-002  -5.0976474745443095E-003   5.3735100490605057E-002
   2.9250550165112649E-002  -5.7718380179190305E-003   5.5992969750193688E-002
   2.9323205042648570E-002  -6.2731682043888418E-003   5.8351238812030075E-002
   6.1511427776713708E-002  -1.4505244503697230E-002   5.3047368856027462E-002
   6.0193865144491029E-002  -1.5512271291333993E-002   5.1642473344610487E-002
   5.8876302512268358E-002  -1.6128944814826233E-002   5.0692301776743581E-002
   5.7558739880045694E-002  -1.6355265074173956E-002   5.0196854152426675E-002
   5.6241177247823015E-002  -1.6191232069377101E-002   5.0156130471659996E-002
   5.2906884271360657E-002  -1.2447225428870126E-002   5.4078097565643760E-002
   5.1991141920877060E-002  -1.3299175842586487E-002   5.3340560725448946E-002
   5.1075399570393441E-002  -1.3844271950163370E-002   5.2951940505182114E-002
   5.0159657219909837E-002  -1.4082513751600707E-002   5.2912236904843313E-002
   4.9243914869426225E-002  -1.4013901246898483E-002   5.3221449924432632E-002
   4.4673999313898795E-002  -1.0389206354043033E-002   5.5305652128182968E-002
   4.4054269921532191E-002  -1.1086080393839008E-002   5.5151975001205264E-002
   4.3434540529165566E-002  -1.1559599085500468E-002   5.5241407170533566E-002
   4.2814811136798935E-002  -1.1809762429027456E-002   5.5573948636167748E-002
   4.2195081744432338E-002  -1.1836570424419927E-002   5.6149599398107972E-002
   3.6812772904328085E-002  -8.3311872792159337E-003   5.6730032543645045E-002
   3.6383249146456423E-002  -8.8729849450914881E-003   5.7076716171879538E-002
   3.5953725388584740E-002  -9.2749262208375854E-003   5.7560701772797838E-002
   3.5524201630713070E-002  -9.5370111064542028E-003   5.8181989346400100E-002
   3.5094677872841387E-002  -9.6592396019413267E-003   5.8940578892686259E-002
   2.9323205042648570E-002  -6.2731682043888418E-003   5.8351238812030075E-002
   2.8978079595649759E-002  -6.6598894963440097E-003   5.9114784237471636E-002
   2.8632954148650955E-002  -6.9902533561747148E-003   5.9909824311975002E-002
   2.8287828701652151E-002  -7.2642597838809449E-003   6.0736359035540283E-002
   2.7942703254653346E-002  -7.4819087794627676E-003   6.1594388408167319E-002
   5.6241177247823015E-002  -1.6191232069377101E-002   5.0156130471659996E-002
   5.4731185839175328E-002  -1.5839093356272135E-002   4.9849413706166593E-002
   5.3221194430527641E-002  -1.5501096490695556E-002   4.9695746656081154E-002
   5.1711203021879960E-002  -1.5177241472647478E-002   4.9695129321403783E-002
   5.0201211613232266E-002  -1.4867528302127675E-002   4.9847561702134391E-002
   4.9243914869426225E-002  -1.4013901246898483E-002   5.3221449924432632E-002
   4.7899362463083107E-002  -1.3783358565341006E-002   5.2876983799260049E-002
   4.6554810056739990E-002  -1.3535809836212279E-002   5.2710345963288947E-002
   4.5210257650396858E-002  -1.3271255059512412E-002   5.2721536416518694E-002
   4.3865705244053727E-002  -1.2989694235241489E-002   5.2910555158949754E-002
   4.2195081744432338E-002  -1.1836570424419927E-002   5.6149599398107972E-002
   4.1040746914186993E-002  -1.1727623774409827E-002   5.5798531808356019E-002
   3.9886412083941641E-002  -1.1570523181728977E-002   5.5650071081598335E-002
   3.8732077253696297E-002  -1.1365268646377488E-002   5.5704217217835077E-002
   3.7577742423450952E-002  -1.1111860168355331E-002   5.5960970217066183E-002
   3.5094677872841387E-002  -9.6592396019413267E-003   5.8940578892686259E-002
   3.4155339192487019E-002  -9.6718889834786458E-003   5.8614057733454232E-002
   3.3216000512132637E-002  -9.6052365272456877E-003   5.8514922011009739E-002
   3.2276661831778290E-002  -9.4592822332425202E-003   5.8643171725352869E-002
   3.1337323151423901E-002  -9.2340261014691311E-003   5.8998806876483609E-002
   2.7942703254653346E-002  -7.4819087794627676E-003   6.1594388408167319E-002
   2.7243139297983159E-002  -7.6161541925475265E-003   6.1323561574554764E-002
   2.6543575341312974E-002  -7.6399498727623867E-003   6.1304898751523070E-002
   2.5844011384642783E-002  -7.5532958201075225E-003   6.1538399939072147E-002
   2.5144447427972602E-002  -7.3561920345829868E-003   6.2024065137201989E-002
   5.0201211613232266E-002  -1.4867528302127675E-002   4.9847561702134391E-002
   4.8667915538740350E-002  -1.4534187539710877E-002   4.9421506209067018E-002
   4.7134619464248434E-002  -1.4139449745971741E-002   4.9225194843454639E-002
   4.5601323389756518E-002  -1.3683314920910055E-002   4.9258627605297131E-002
   4.4068027315264602E-002  -1.3165783064525982E-002   4.9521804494594535E-002
   4.3865705244053727E-002  -1.2989694235241489E-002   5.2910555158949754E-002
   4.2553142581805405E-002  -1.2678418407065906E-002   5.2574942995026991E-002
   4.1240579919557097E-002  -1.2324718618652697E-002   5.2451053528136372E-002
   3.9928017257308782E-002  -1.1928594870001349E-002   5.2538886758277989E-002
   3.8615454595060453E-002  -1.1490047161112182E-002   5.2838442685451903E-002
   3.7577742423450952E-002  -1.1111860168355331E-002   5.5960970217066183E-002
   3.6467891743023520E-002  -1.0822649274421094E-002   5.5696828311203414E-002
   3.5358041062596081E-002  -1.0509987491333549E-002   5.5626387671950113E-002
   3.4248190382168642E-002  -1.0173874819092673E-002   5.5749648299306315E-002
   3.3138339701741237E-002  -9.8143112576983826E-003   5.6066610193272137E-002
   3.1337323151423901E-002  -9.2340261014691311E-003   5.8998806876483609E-002
   3.0412163022394630E-002  -8.9668801417762713E-003   5.8787162157596315E-002
   2.9487002893365387E-002  -8.6952563640144247E-003   5.8751197274895646E-002
   2.8561842764336126E-002  -8.4191547681840111E-003   5.8890912228382032E-002
   2.7636682635306872E-002  -8.1385753542845551E-003   5.9206307018055085E-002
   2.5144447427972602E-002  -7.3561920345829868E-003   6.2024065137201989E-002
   2.4385956419918808E-002  -7.1111110091313101E-003   6.1845944534205582E-002
   2.3627465411865015E-002  -6.8805252366953840E-003   6.1825482336973298E-002
   2.2868974403811217E-002  -6.6644347172752985E-003   6.1962678545505051E-002
   2.2110483395757427E-002  -6.4628394508707276E-003   6.2257533159800982E-002
   4.4068027315264602E-002  -1.3165783064525982E-002   4.9521804494594535E-002
   4.2324642597275308E-002  -1.2625726106237856E-002   4.9230485766348420E-002
   4.0581257879286015E-002  -1.2102015975463953E-002   4.9121694276427097E-002
   3.8837873161296707E-002  -1.1594652672203984E-002   4.9195430024830469E-002
   3.7094488443307455E-002  -1.1103636196458266E-002   4.9451693011558717E-002
   3.8615454595060453E-002  -1.1490047161112182E-002   5.2838442685451903E-002
   3.7062395535152323E-002  -1.1033496739360410E-002   5.2518997522833816E-002
   3.5509336475244187E-002  -1.0583364852120983E-002   5.2397676438053181E-002
   3.3956277415336036E-002  -1.0139651499394057E-002   5.2474479431110221E-002
   3.2403218355427935E-002  -9.7023566811795803E-003   5.2749406502004714E-002
   3.3138339701741237E-002  -9.8143112576983826E-003   5.6066610193272137E-002
   3.1791203139427016E-002  -9.4412673724828811E-003   5.5728966889283707E-002
   3.0444066577112808E-002  -9.0647137287781232E-003   5.5605044502645501E-002
   2.9096930014798614E-002  -8.6846503265841854E-003   5.5694843033357658E-002
   2.7749793452484371E-002  -8.3010771659009497E-003   5.5998362481420316E-002
   2.7636682635306872E-002  -8.1385753542845551E-003   5.9206307018055085E-002
   2.6511065410099382E-002  -7.8490380056053660E-003   5.8860393865697941E-002
   2.5385448184891905E-002  -7.5460626054352359E-003   5.8743798470203897E-002
   2.4259830959684394E-002  -7.2296491537742306E-003   5.8856520831573042E-002
   2.3134213734476938E-002  -6.8997976506222358E-003   5.9198560949805190E-002
   2.2110483395757427E-002  -6.4628394508707276E-003   6.2257533159800982E-002
   2.1221982347169432E-002  -6.2568086387279065E-003   6.1913278452076892E-002
   2.0333481298581445E-002  -6.0274114820923347E-003   6.1813938340728680E-002
   1.9444980249993454E-002  -5.7746479809643141E-003   6.1959512825756444E-002
   1.8556479201405476E-002  -5.4985181353436330E-003   6.2350001907160002E-002
   3.7094488443307455E-002  -1.1103636196458266E-002   4.9451693011558717E-002
   3.5671563714660431E-002  -1.0604676977934269E-002   4.9115889533802637E-002
   3.4248638986013477E-002  -1.0073485446338459E-002   4.8971071425509438E-002
   3.2825714257366474E-002  -9.5100616016721706E-003   4.9017238686679648E-002
   3.1402789528719499E-002  -8.9144054439344034E-003   4.9254391317312796E-002
   3.2403218355427935E-002  -9.7023566811795803E-003   5.2749406502004714E-002
   3.1170581761119462E-002  -9.2515365704348707E-003   5.2483601690381854E-002
   2.9937945166810982E-002  -8.7672473401174122E-003   5.2407387777972964E-002
   2.8705308572502541E-002  -8.2494889902269414E-003   5.2520764764777961E-002
   2.7472671978194071E-002  -7.6982615207637495E-003   5.2823732650796817E-002
   2.7749793452484371E-002  -8.3010771659009497E-003   5.5998362481420316E-002
   2.6706050522265178E-002  -7.8983961629358890E-003   5.5803793142432556E-002
   2.5662307592045987E-002  -7.4610092338960321E-003   5.5797420232409495E-002
   2.4618564661826770E-002  -6.9889163787817676E-003   5.5979243751351049E-002
   2.3574821731607583E-002  -6.4821175975929290E-003   5.6349263699257052E-002
   2.3134213734476938E-002  -6.8997976506222358E-003   5.9198560949805190E-002
   2.2277969998097696E-002  -6.5452557554366714E-003   5.9076463889954495E-002
   2.1421726261718455E-002  -6.1547711276747630E-003   5.9141168788819046E-002
   2.0565482525339226E-002  -5.7283437673366217E-003   5.9392675646398968E-002
   1.9709238788959971E-002  -5.2659736744221364E-003   5.9830984462694144E-002
   1.8556479201405476E-002  -5.4985181353436330E-003   6.2350001907160002E-002
   1.7886340188616942E-002  -5.1921153479375648E-003   6.2301613932947697E-002
   1.7216201175828401E-002  -4.8485330214536049E-003   6.2438633447201547E-002
   1.6546062163039856E-002  -4.4677711558914202E-003   6.2761060449921302E-002
   1.5875923150251325E-002  -4.0498297512514547E-003   6.3268894941107323E-002
   3.1402789528719499E-002  -8.9144054439344034E-003   4.9254391317312796E-002
   2.9443907433252037E-002  -8.3955490458912929E-003   4.8873280221200466E-002
   2.7485025337784533E-002  -8.0625244803089469E-003   4.8492151708464826E-002
   2.5526143242317119E-002  -7.9153317471874970E-003   4.8111005779106070E-002
   2.3567261146849594E-002  -7.9539708465263814E-003   4.7729842433123837E-002
   2.7472671978194071E-002  -7.6982615207637495E-003   5.2823732650796817E-002
   2.5569248596364988E-002  -7.1778440183561942E-003   5.2389904545812160E-002
   2.3665825214535925E-002  -6.7525155696327166E-003   5.2067011284727738E-002
   2.1762401832706824E-002  -6.4222761745938370E-003   5.1855052867543078E-002
   1.9858978450877807E-002  -6.1871258332391044E-003   5.1754029294258541E-002
   2.3574821731607583E-002  -6.4821175975929290E-003   5.6349263699257052E-002
   2.1837809323940034E-002  -5.9601389908205682E-003   5.5953461364177060E-002
   2.0100796916272482E-002  -5.4425066589562782E-003   5.5779546133520166E-002
   1.8363784508604916E-002  -4.9292206020000139E-003   5.5827518007286005E-002
   1.6626772100937340E-002  -4.4202808199517163E-003   5.6097376985475289E-002
   1.9709238788959971E-002  -5.2659736744221364E-003   5.9830984462694144E-002
   1.8249589615977092E-002  -4.7424339632850948E-003   5.9563950676294629E-002
   1.6789940442994214E-002  -4.1324977482799438E-003   5.9629756254841432E-002
   1.5330291270011318E-002  -3.4361650294064943E-003   6.0028401198334413E-002
   1.3870642097028433E-002  -2.6534358066643837E-003   6.0759885506773609E-002
   1.5875923150251325E-002  -4.0498297512514547E-003   6.3268894941107323E-002
   1.4804589472476232E-002  -3.5247289357497325E-003   6.3221372482164973E-002
   1.3733255794701138E-002  -2.8224888376035262E-003   6.3617641648691936E-002
   1.2661922116926051E-002  -1.9431094568125376E-003   6.4457702440688380E-002
   1.1590588439150951E-002  -8.8659079337705116E-004   6.5741554858153917E-002
   2.6629776076930504E-002   0.0000000000000000        2.9464234969275388E-002
   2.7230478440824102E-002  -5.8366874949501192E-004   3.4941950804898050E-002
   2.7831180804717699E-002  -1.3166725521734056E-003   4.0110577151588195E-002
   2.8431883168611290E-002  -2.1990114080351862E-003   4.4970114009345794E-002
   2.9032585532504891E-002  -3.2306853170803408E-003   4.9520561378170895E-002
   2.0113442516608175E-002   0.0000000000000000        2.9018851866984344E-002
   2.0444676320774062E-002  -4.3761493397379350E-004   3.4310963714269914E-002
   2.0775910124939952E-002  -9.8692977253764334E-004   3.9373227931032581E-002
   2.1107143929105843E-002  -1.6479445156915512E-003   4.4205644517272359E-002
   2.1438377733271726E-002  -2.4206591634355172E-003   4.8808213472989248E-002
   1.3502401517630651E-002   0.0000000000000000        2.8700705005917856E-002
   1.3643408620478466E-002  -2.9156111845257595E-004   3.3844848013459647E-002
   1.3784415723326282E-002  -6.5718699290188282E-004   3.8838385248888184E-002
   1.3925422826174098E-002  -1.0968776233479197E-003   4.3681316712203468E-002
   1.4066429929021910E-002  -1.6106330097906871E-003   4.8373642403405477E-002
   6.7966530799979333E-003   0.0000000000000000        2.8509794386075926E-002
   6.8266753399373083E-003  -1.4550730293135883E-004   3.3543603702467277E-002
   6.8566975998766815E-003  -3.2744421326612143E-004   3.8506049105154982E-002
   6.8867198598160581E-003  -5.4581073100428996E-004   4.3397130594139091E-002
   6.9167421197554304E-003  -8.0060685614585857E-004   4.8216848169419575E-002
  -3.8027962899816678E-006   0.0000000000000000        2.8446120007458546E-002
  -5.5235208494125443E-006   5.4651258986002094E-007   3.3407230781292777E-002
  -7.2442454088447218E-006   2.2985663696399594E-006   3.8376219499833004E-002
  -8.9649699682758151E-006   5.2561613393432849E-006   4.3353086163079257E-002
  -1.0685694527708643E-005   9.4192974989682626E-006   4.8337830771031508E-002
   2.9032585532504891E-002  -3.2306853170803408E-003   4.9520561378170895E-002
   2.9105240410040804E-002  -4.2505965742647622E-003   5.1577631033264112E-002
   2.9177895287576729E-002  -5.0976474745443095E-003   5.3735100490605057E-002
   2.9250550165112649E-002  -5.7718380179190305E-003   5.5992969750193688E-002
   2.9323205042648570E-002  -6.2731682043888418E-003   5.8351238812030075E-002
   2.1438377733271726E-002  -2.4206591634355172E-003   4.8808213472989248E-002
   2.1581712683502341E-002  -3.1847303893217361E-003   5.1208746946117989E-002
   2.1725047633732949E-002  -3.8198148669024200E-003   5.3650240762388376E-002
   2.1868382583963564E-002  -4.3259125961775486E-003   5.6132694921800404E-002
   2.2011717534194172E-002  -4.7030235771471710E-003   5.8656109424354119E-002
   1.4066429929021910E-002  -1.6106330097906871E-003   4.8373642403405477E-002
   1.4221005492841150E-002  -2.1188642043787165E-003   5.1073766085970383E-002
   1.4375581056660385E-002  -2.5419822592605171E-003   5.3755410652570904E-002
   1.4530156620479627E-002  -2.8799871744361128E-003   5.6418576103206997E-002
   1.4684732184298860E-002  -3.1328789499054967E-003   5.9063262437878725E-002
   6.9167421197554304E-003  -8.0060685614585857E-004   4.8216848169419575E-002
   7.0231188380572357E-003  -1.0529980194356867E-003   5.1172688452821337E-002
   7.1294955563590383E-003  -1.2641496516186174E-003   5.4050610161152639E-002
   7.2358722746608418E-003  -1.4340617526946470E-003   5.6850613294413495E-002
   7.3422489929626427E-003  -1.5627343226638241E-003   5.9572697852603898E-002
  -1.0685694527708643E-005   9.4192974989682626E-006   4.8337830771031508E-002
  -1.1947280849400159E-005   1.2868165507332746E-005   5.1505514046670822E-002
  -1.3208867171094710E-005   1.3682956023284513E-005   5.4535839288133610E-002
  -1.4470453492788178E-005   1.1863669046796783E-005   5.7428806495419871E-002
  -1.5732039814480778E-005   7.4103045778484145E-006   6.0184415668529598E-002
   2.9323205042648570E-002  -6.2731682043888418E-003   5.8351238812030075E-002
   2.8978079595649759E-002  -6.6598894963440097E-003   5.9114784237471636E-002
   2.8632954148650955E-002  -6.9902533561747148E-003   5.9909824311975002E-002
   2.8287828701652151E-002  -7.2642597838809449E-003   6.0736359035540283E-002
   2.7942703254653346E-002  -7.4819087794627676E-003   6.1594388408167319E-002
   2.2011717534194172E-002  -4.7030235771471710E-003   5.8656109424354119E-002
   2.1711246057501188E-002  -4.9932785457392111E-003   5.9467857683885780E-002
   2.1410774580808208E-002  -5.2388082378817067E-003   6.0337419234967209E-002
   2.1110303104115227E-002  -5.4396126535745503E-003   6.1264794077598494E-002
   2.0809831627422247E-002  -5.5956917928178806E-003   6.2249982211779513E-002
   1.4684732184298860E-002  -3.1328789499054967E-003   5.9063262437878725E-002
   1.4455233320399677E-002  -3.3266675951344124E-003   5.9911581375825577E-002
   1.4225734456500499E-002  -3.4873631195886301E-003   6.0844032247810230E-002
   1.3996235592601314E-002  -3.6149655232681436E-003   6.1860615053832668E-002
   1.3766736728702130E-002  -3.7094748061729590E-003   6.2961329793892892E-002
   7.3422489929626427E-003  -1.5627343226638241E-003   5.9572697852603898E-002
   7.2100413843452314E-003  -1.6600566445296137E-003   6.0445955313291069E-002
   7.0778337757278192E-003  -1.7359180012955738E-003   6.1429663350504031E-002
   6.9456261671104079E-003  -1.7903183929617430E-003   6.2523821964242748E-002
   6.8134185584929931E-003  -1.8232578195280687E-003   6.3728431154507201E-002
  -1.5732039814480778E-005   7.4103045778484145E-006   6.0184415668529598E-002
  -2.4329750662152247E-005   6.5543060751779847E-006   6.1070979496282270E-002
  -3.2927461509822849E-005   1.5527116997461621E-005   6.2094312543048646E-002
  -4.1525172357492583E-005   3.4328737344694119E-005   6.3254414808828791E-002
  -5.0122883205164920E-005   6.2959167116849457E-005   6.4551286293622612E-002
   2.7942703254653346E-002  -7.4819087794627676E-003   6.1594388408167319E-002
   2.7243139297983159E-002  -7.6161541925475265E-003   6.1323561574554764E-002
   2.6543575341312974E-002  -7.6399498727623867E-003   6.1304898751523070E-002
   2.5844011384642783E-002  -7.5532958201075225E-003   6.1538399939072147E-002
   2.5144447427972602E-002  -7.3561920345829868E-003   6.2024065137201989E-002
   2.0809831627422247E-002  -5.5956917928178806E-003   6.2249982211779513E-002
   2.0342110320772263E-002  -5.6927640762135939E-003   6.2140479830175066E-002
   1.9874389014122282E-002  -5.7165479243636783E-003   6.2242498738030255E-002
   1.9406667707472305E-002  -5.6670433372683123E-003   6.2556038935345004E-002
   1.8938946400822318E-002  -5.5442503149272515E-003   6.3081100422119396E-002
   1.3766736728702130E-002  -3.7094748061729590E-003   6.2961329793892892E-002
   1.3490215350951172E-002  -3.7693739598797273E-003   6.2975990566672302E-002
   1.3213693973200220E-002  -3.7931459759650791E-003   6.3161529907790157E-002
   1.2937172595449267E-002  -3.7807908544290184E-003   6.3517947817246470E-002
   1.2660651217698302E-002  -3.7323085952715440E-003   6.4045244295041159E-002
   6.8134185584929931E-003  -1.8232578195280687E-003   6.3728431154507201E-002
   6.6874543885198905E-003  -1.8459838435458415E-003   6.3830093784046388E-002
   6.5614902185467880E-003  -1.8697440275664669E-003   6.4061992260802780E-002
   6.4355260485736898E-003  -1.8945383715897248E-003   6.4424126584776406E-002
   6.3095618786005872E-003  -1.9203668756158365E-003   6.4916496755967390E-002
  -5.0122883205164920E-005   6.2959167116849457E-005   6.4551286293622612E-002
  -6.6172566521586346E-005   7.7406272788037300E-005   6.4702789482297296E-002
  -8.2222249838012976E-005   5.3657920832193839E-005   6.4943885797068043E-002
  -9.8271933154437871E-005  -8.2858887504814321E-006   6.5274575237934895E-002
  -1.1432161647086103E-004  -1.0842515596012903E-004   6.5694857804897838E-002
   2.5144447427972602E-002  -7.3561920345829868E-003   6.2024065137201989E-002
   2.4385956419918808E-002  -7.1111110091313101E-003   6.1845944534205582E-002
   2.3627465411865015E-002  -6.8805252366953840E-003   6.1825482336973298E-002
   2.2868974403811217E-002  -6.6644347172752985E-003   6.1962678545505051E-002
   2.2110483395757427E-002  -6.4628394508707276E-003   6.2257533159800982E-002
   1.8938946400822318E-002  -5.5442503149272515E-003   6.3081100422119396E-002
   1.8347005867955582E-002  -5.3869846746821964E-003   6.2829658506345573E-002
   1.7755065335088846E-002  -5.2340622338747020E-003   6.2753659135181813E-002
   1.7163124802222103E-002  -5.0854829925048081E-003   6.2853102308627992E-002
   1.6571184269355381E-002  -4.9412469505724643E-003   6.3127988026684206E-002
   1.2660651217698302E-002  -3.7323085952715440E-003   6.4045244295041159E-002
   1.2253045298864534E-002  -3.6628583402330828E-003   6.3730633120068186E-002
   1.1845439380030765E-002  -3.5875992310540200E-003   6.3609248628551024E-002
   1.1437833461197002E-002  -3.5065312677343731E-003   6.3681090820489783E-002
   1.1030227542363231E-002  -3.4196544502741177E-003   6.3946159695884505E-002
   6.3095618786005872E-003  -1.9203668756158365E-003   6.4916496755967390E-002
   6.1040747126456865E-003  -1.9387320057839968E-003   6.4548868375373269E-002
   5.8985875466907849E-003  -1.9411362282333103E-003   6.4392250817080929E-002
   5.6931003807358825E-003  -1.9275795429639659E-003   6.4446644081090423E-002
   5.4876132147809913E-003  -1.8980619499757573E-003   6.4712048167401753E-002
  -1.1432161647086103E-004  -1.0842515596012903E-004   6.5694857804897838E-002
  -9.9905890700982547E-005  -2.1460567133484154E-004   6.5284364272260753E-002
  -8.5490164931105797E-005  -2.9467322541260749E-004   6.5102665700771431E-002
  -7.1074439161229915E-005  -3.4862781819347717E-004   6.5149762090429858E-002
  -5.6658713391350563E-005  -3.7646944967745233E-004   6.5425653441235909E-002
   2.2110483395757427E-002  -6.4628394508707276E-003   6.2257533159800982E-002
   2.1221982347169432E-002  -6.2568086387279065E-003   6.1913278452076892E-002
   2.0333481298581445E-002  -6.0274114820923347E-003   6.1813938340728680E-002
   1.9444980249993454E-002  -5.7746479809643141E-003   6.1959512825756444E-002
   1.8556479201405476E-002  -5.4985181353436330E-003   6.2350001907160002E-002
   1.6571184269355381E-002  -4.9412469505724643E-003   6.3127988026684206E-002
   1.5921337371382210E-002  -4.7909630973114320E-003   6.2795717855902697E-002
   1.5271490473409043E-002  -4.6242404219556388E-003   6.2695841389974832E-002
   1.4621643575435895E-002  -4.4410789245050153E-003   6.2828358628900904E-002
   1.3971796677462719E-002  -4.2414786049596032E-003   6.3193269572680510E-002
   1.1030227542363231E-002  -3.4196544502741177E-003   6.3946159695884505E-002
   1.0606513903482752E-002  -3.3251175558950408E-003   6.3618946539647739E-002
   1.0182800264602278E-002  -3.2210693618189498E-003   6.3511606196742537E-002
   9.7590866257218044E-003  -3.1075098680457738E-003   6.3624138667169011E-002
   9.3353729868413289E-003  -2.9844390745756288E-003   6.3956543950927036E-002
   5.4876132147809913E-003  -1.8980619499757573E-003   6.4712048167401753E-002
   5.2775119434710603E-003  -1.8592720144786079E-003   6.4382964503311976E-002
   5.0674106721611423E-003  -1.8178983016822574E-003   6.4261232761031656E-002
   4.8573094008512131E-003  -1.7739408115865036E-003   6.4346852940560764E-002
   4.6472081295412917E-003  -1.7273995441915990E-003   6.4639825041899468E-002
  -5.6658713391350563E-005  -3.7646944967745233E-004   6.5425653441235909E-002
  -6.5668508652860780E-005  -3.9342647306217504E-004   6.5087771746895312E-002
  -7.4678303914369262E-005  -4.1472724154564822E-004   6.4944721082842050E-002
  -8.3688099175880347E-005  -4.4037175512728205E-004   6.4996501449076177E-002
  -9.2697894437387962E-005  -4.7036001380768022E-004   6.5243112845597639E-002
   1.8556479201405476E-002  -5.4985181353436330E-003   6.2350001907160002E-002
   1.7886340188616942E-002  -5.1921153479375648E-003   6.2301613932947697E-002
   1.7216201175828401E-002  -4.8485330214536049E-003   6.2438633447201547E-002
   1.6546062163039856E-002  -4.4677711558914202E-003   6.2761060449921302E-002
   1.5875923150251325E-002  -4.0498297512514547E-003   6.3268894941107323E-002
   1.3971796677462719E-002  -4.2414786049596032E-003   6.3193269572680510E-002
   1.3479912480519947E-002  -4.0318500365780219E-003   6.3106386366497319E-002
   1.2988028283577167E-002  -3.8186037926187244E-003   6.3190605303539316E-002
   1.2496144086634391E-002  -3.6017398730822242E-003   6.3445926383806792E-002
   1.2004259889691615E-002  -3.3812582779680911E-003   6.3872349607299927E-002
   9.3353729868413289E-003  -2.9844390745756288E-003   6.3956543950927036E-002
   9.0074382605037188E-003  -2.8715847252183402E-003   6.3797603649271978E-002
   8.6795035341661140E-003  -2.7886745637841770E-003   6.3795460145601765E-002
   8.3515688078285161E-003  -2.7357085902729728E-003   6.3950113439916509E-002
   8.0236340814908991E-003  -2.7126868046847274E-003   6.4261563532215932E-002
   4.6472081295412917E-003  -1.7273995441915990E-003   6.4639825041899468E-002
   4.4689175285682657E-003  -1.7113194138587001E-003   6.4375265781272145E-002
   4.2906269275952286E-003  -1.7587453349494075E-003   6.4253197973389173E-002
   4.1123363266222035E-003  -1.8696773074637490E-003   6.4273621618250412E-002
   3.9340457256491664E-003  -2.0441153314013638E-003   6.4436536715856141E-002
  -9.2697894437387962E-005  -4.7036001380768022E-004   6.5243112845597639E-002
  -1.3564971528642888E-004  -5.5105410249917108E-004   6.4839372762497738E-002
  -1.7860153613547675E-004  -7.2881610611476300E-004   6.4563818786901428E-002
  -2.2155335698452634E-004  -1.0036460246544456E-003   6.4416450918808779E-002
  -2.6450517783356553E-004  -1.3755438581181112E-003   6.4397269158219972E-002
   1.5875923150251325E-002  -4.0498297512514547E-003   6.3268894941107323E-002
   1.4804589472476232E-002  -3.5247289357497325E-003   6.3221372482164973E-002
   1.3733255794701138E-002  -2.8224888376035262E-003   6.3617641648691936E-002
   1.2661922116926051E-002  -1.9431094568125376E-003   6.4457702440688380E-002
   1.1590588439150951E-002  -8.8659079337705116E-004   6.5741554858153917E-002
   1.2004259889691615E-002  -3.3812582779680911E-003   6.3872349607299927E-002
   1.1332004666305871E-002  -3.1120722692732083E-003   6.3806616646750608E-002
   1.0659749442920169E-002  -2.7490951089947646E-003   6.4095248969510799E-002
   9.9874942195344318E-003  -2.2923267971325864E-003   6.4738246575580138E-002
   9.3152389961487225E-003  -1.7417673336869166E-003   6.5735609464958933E-002
   8.0236340814908991E-003  -2.7126868046847274E-003   6.4261563532215932E-002
   7.6610309703345342E-003  -2.6994156027965732E-003   6.4094271938998831E-002
   7.2984278591781762E-003  -2.6757013803859336E-003   6.4191919286931298E-002
   6.9358247480218130E-003  -2.6415441374525485E-003   6.4554505576013083E-002
   6.5732216368654534E-003  -2.5969438739966710E-003   6.5182030806244184E-002
   3.9340457256491664E-003  -2.0441153314013638E-003   6.4436536715856141E-002
   3.7916683845621805E-003  -2.2867589363200491E-003   6.4084338358910087E-002
   3.6492910434751911E-003  -2.6023076517770263E-003   6.3907652600953574E-002
   3.5069137023881953E-003  -2.9907614777725539E-003   6.3906479441986325E-002
   3.3645363613012090E-003  -3.4521204143064810E-003   6.4080818882008464E-002
  -2.6450517783356553E-004  -1.3755438581181112E-003   6.4397269158219972E-002
  -2.7608309101118111E-004  -1.8741022698433030E-003   6.3776815906484041E-002
  -2.8766100418880017E-004  -2.5289139231682856E-003   6.3242448911577487E-002
  -2.9923891736642443E-004  -3.3399788180924345E-003   6.2794168173500281E-002
  -3.1081683054402787E-004  -4.3072969546162909E-003   6.2431973692252507E-002
  -3.8027962899816678E-006   0.0000000000000000        2.8446120007458546E-002
  -5.5235208494125443E-006   5.4651258986002094E-007   3.3407230781292777E-002
  -7.2442454088447218E-006   2.2985663696399594E-006   3.8376219499833004E-002
  -8.9649699682758151E-006   5.2561613393432849E-006   4.3353086163079257E-002
  -1.0685694527708643E-005   9.4192974989682626E-006   4.8337830771031508E-002
  -6.8042088753592174E-003   0.0000000000000000        2.8510329441339764E-002
  -6.8374723623205267E-003   1.4729182208216961E-004   3.3546246008068249E-002
  -6.8707358492818326E-003   3.3221703679359952E-004   3.8511199105286976E-002
  -6.9039993362431410E-003   5.5477564413429666E-004   4.3405188732995925E-002
  -6.9372628232044486E-003   8.1496764410424888E-004   4.8228214891195137E-002
  -1.3509807921335900E-002   0.0000000000000000        2.8703070258993622E-002
  -1.3653455584914860E-002   2.9403713157447747E-004   3.3850220470055710E-002
  -1.3797103248493812E-002   6.6213550721755908E-004   3.8847565797392243E-002
  -1.3940750912072768E-002   1.1042951269292448E-003   4.3695106241003270E-002
  -1.4084398575651726E-002   1.6205159907095356E-003   4.8392841800888743E-002
  -2.0120599934220031E-002   0.0000000000000000        2.9024342460420117E-002
  -2.0453473188632412E-002   4.4078244106678620E-004   3.4319154167255145E-002
  -2.0786346443044789E-002   9.9205397764151864E-004   3.9385319576148860E-002
  -2.1119219697457163E-002   1.6538146097241939E-003   4.4222838687101265E-002
  -2.1452092951869547E-002   2.4260643373148192E-003   4.8831711500112375E-002
  -2.6636584914011604E-002   0.0000000000000000        2.9474146045619248E-002
  -2.7237525173473182E-002   5.8752775055909492E-004   3.4953047099666554E-002
  -2.7838465432934750E-002   1.3219724480654782E-003   4.0124460441556778E-002
  -2.8439405692396325E-002   2.2033340925191481E-003   4.4988386071289931E-002
  -2.9040345951857897E-002   3.2316126839201037E-003   4.9544823988865998E-002
  -1.0685694527708643E-005   9.4192974989682626E-006   4.8337830771031508E-002
  -1.1947280849400159E-005   1.2868165507332746E-005   5.1505514046670822E-002
  -1.3208867171094710E-005   1.3682956023284513E-005   5.4535839288133610E-002
  -1.4470453492788178E-005   1.1863669046796783E-005   5.7428806495419871E-002
  -1.5732039814480778E-005   7.4103045778484145E-006   6.0184415668529598E-002
  -6.9372628232044486E-003   8.1496764410424888E-004   4.8228214891195137E-002
  -7.0461228850638817E-003   1.0719326547859059E-003   5.1181738377353542E-002
  -7.1549829469233174E-003   1.2848102942617200E-003   5.4057422946612997E-002
  -7.2638430087827487E-003   1.4536005625316898E-003   5.6855268598973503E-002
  -7.3727030706421826E-003   1.5783034595957882E-003   5.9575275334435053E-002
  -1.4084398575651726E-002   1.6205159907095356E-003   4.8392841800888743E-002
  -1.4241337995771330E-002   2.1309971440644868E-003   5.1090752203852854E-002
  -1.4398277415890932E-002   2.5559376325001758E-003   5.3770342807195573E-002
  -1.4555216836010536E-002   2.8953374560165899E-003   5.6431613610916920E-002
  -1.4712156256130145E-002   3.1491966146137279E-003   5.9074564615016874E-002
  -2.1452092951869547E-002   2.4260643373148192E-003   4.8831711500112375E-002
  -2.1597592612971745E-002   3.1900616333430639E-003   5.1232555526168733E-002
  -2.1743092274073943E-002   3.8270649707386217E-003   5.3674598869881296E-002
  -2.1888591935176137E-002   4.3370743495014831E-003   5.6157841531250044E-002
  -2.2034091596278341E-002   4.7200897696316607E-003   5.8682283510274984E-002
  -2.9040345951857897E-002   3.2316126839201037E-003   4.9544823988865998E-002
  -2.9114886736665124E-002   4.2491261226216340E-003   5.1607148344301211E-002
  -2.9189427521472352E-002   5.0981923089770797E-003   5.3770191134670187E-002
  -2.9263968306279569E-002   5.7788112429863724E-003   5.6033952359972918E-002
  -2.9338509091086797E-002   6.2909829246495935E-003   5.8398432020209431E-002
  -1.5732039814480778E-005   7.4103045778484145E-006   6.0184415668529598E-002
  -2.4329750662152247E-005   6.5543060751779847E-006   6.1070979496282270E-002
  -3.2927461509822849E-005   1.5527116997461621E-005   6.2094312543048646E-002
  -4.1525172357492583E-005   3.4328737344694119E-005   6.3254414808828791E-002
  -5.0122883205164920E-005   6.2959167116849457E-005   6.4551286293622612E-002
  -7.3727030706421826E-003   1.5783034595957882E-003   5.9575275334435053E-002
  -7.2564061612862734E-003   1.6757725225171154E-003   6.0467206664889944E-002
  -7.1401092519303676E-003   1.7628612883587979E-003   6.1472158016738290E-002
  -7.0238123425744557E-003   1.8395697571207538E-003   6.2590129389980056E-002
  -6.9075154332185491E-003   1.9058979288029965E-003   6.3821120784615271E-002
  -1.4712156256130145E-002   3.1491966146137279E-003   5.9074564615016874E-002
  -1.4494713924190942E-002   3.3449907389590632E-003   5.9951654341669366E-002
  -1.4277271592251742E-002   3.5101954597200925E-003   6.0918014892094988E-002
  -1.4059829260312552E-002   3.6448107768967857E-003   6.1973646266293779E-002
  -1.3842386928373345E-002   3.7488366904891712E-003   6.3118548464265678E-002
  -2.2034091596278341E-002   4.7200897696316607E-003   5.8682283510274984E-002
  -2.1739253039376155E-002   5.0142089554009919E-003   5.9524322526620453E-002
  -2.1444414482473959E-002   5.2575296310814010E-003   6.0431883169118759E-002
  -2.1149575925571762E-002   5.4500517966728033E-003   6.1404965437769916E-002
  -2.0854737368669579E-002   5.5917754521753321E-003   6.2443569332573938E-002
  -2.9338509091086797E-002   6.2909829246495935E-003   5.8398432020209431E-002
  -2.8990023506841905E-002   6.6834271718429553E-003   5.9185211219743190E-002
  -2.8641537922597007E-002   7.0048638024427165E-003   6.0013762847809571E-002
  -2.8293052338352116E-002   7.2552928164488963E-003   6.0884086904408448E-002
  -2.7944566754107218E-002   7.4347142138614791E-003   6.1796183389539919E-002
  -5.0122883205164920E-005   6.2959167116849457E-005   6.4551286293622612E-002
  -6.6172566521586346E-005   7.7406272788037300E-005   6.4702789482297296E-002
  -8.2222249838012976E-005   5.3657920832193839E-005   6.4943885797068043E-002
  -9.8271933154437871E-005  -8.2858887504814321E-006   6.5274575237934895E-002
  -1.1432161647086103E-004  -1.0842515596012903E-004   6.5694857804897838E-002
  -6.9075154332185491E-003   1.9058979288029965E-003   6.3821120784615271E-002
  -6.8110479092823159E-003   1.9455330285030534E-003   6.3877468457049225E-002
  -6.7145803853460809E-003   1.9421622813183964E-003   6.4069257417892406E-002
  -6.6181128614098425E-003   1.8957856872489527E-003   6.4396487667144828E-002
  -6.5216453374736128E-003   1.8064032462948298E-003   6.4859159204806463E-002
  -1.3842386928373345E-002   3.7488366904891712E-003   6.3118548464265678E-002
  -1.3587554034871328E-002   3.8136597842181146E-003   6.3074930231201157E-002
  -1.3332721141369304E-002   3.8306666418045192E-003   6.3212601448858999E-002
  -1.3077888247867289E-002   3.7998572632484016E-003   6.3531562117239204E-002
  -1.2823055354365263E-002   3.7212316485498026E-003   6.4031812236341773E-002
  -2.0854737368669579E-002   5.5917754521753321E-003   6.2443569332573938E-002
  -2.0395690943288643E-002   5.6817865399331254E-003   6.2295174804753092E-002
  -1.9936644517907696E-002   5.7191710022906263E-003   6.2373917889967767E-002
  -1.9477598092526749E-002   5.7039288392478713E-003   6.2679798588217928E-002
  -1.9018551667145812E-002   5.6360600508047823E-003   6.3212816899503518E-002
  -2.7944566754107218E-002   7.4347142138614791E-003   6.1796183389539919E-002
  -2.7235458634534242E-002   7.5499132956481710E-003   6.1538202177705018E-002
  -2.6526350514961241E-002   7.6076753627768480E-003   6.1553206741218773E-002
  -2.5817242395388254E-002   7.6080004152472578E-003   6.1841197080081095E-002
  -2.5108134275815264E-002   7.5508884530597620E-003   6.2402173194292115E-002
  -1.1432161647086103E-004  -1.0842515596012903E-004   6.5694857804897838E-002
  -9.9905890700982547E-005  -2.1460567133484154E-004   6.5284364272260753E-002
  -8.5490164931105797E-005  -2.9467322541260749E-004   6.5102665700771431E-002
  -7.1074439161229915E-005  -3.4862781819347717E-004   6.5149762090429858E-002
  -5.6658713391350563E-005  -3.7646944967745233E-004   6.5425653441235909E-002
  -6.5216453374736128E-003   1.8064032462948298E-003   6.4859159204806463E-002
  -6.2895260468025663E-003   1.7022728010771815E-003   6.4563299379861189E-002
  -6.0574067561315085E-003   1.6116521942168491E-003   6.4474051723570514E-002
  -5.8252874654604568E-003   1.5345414257143860E-003   6.4591416235934535E-002
  -5.5931681747894042E-003   1.4709404955693672E-003   6.4915392916953030E-002
  -1.2823055354365263E-002   3.7212316485498026E-003   6.4031812236341773E-002
  -1.2395415291286144E-002   3.6191512734890310E-003   6.3837982996148901E-002
  -1.1967775228207037E-002   3.5179776138465034E-003   6.3828583132117617E-002
  -1.1540135165127932E-002   3.4177106696222500E-003   6.4003612644247837E-002
  -1.1112495102048817E-002   3.3183504408162146E-003   6.4363071532539451E-002
  -1.9018551667145812E-002   5.6360600508047823E-003   6.3212816899503518E-002
  -1.8417573624151758E-002   5.5360297459009396E-003   6.3108415121123890E-002
  -1.7816595581157689E-002   5.4243030334760311E-003   6.3166259926412602E-002
  -1.7215617538163631E-002   5.3008799135301141E-003   6.3386351315369766E-002
  -1.6614639495169569E-002   5.1657603860631035E-003   6.3768689287995284E-002
  -2.5108134275815264E-002   7.5508884530597620E-003   6.2402173194292115E-002
  -2.4356001045399360E-002   7.4529082183129314E-003   6.2374595754786238E-002
  -2.3603867814983474E-002   7.3306284531056212E-003   6.2487082106455635E-002
  -2.2851734584567567E-002   7.1840491574379928E-003   6.2739632249300376E-002
  -2.2099601354151677E-002   7.0131703313098814E-003   6.3132246183320362E-002
  -5.6658713391350563E-005  -3.7646944967745233E-004   6.5425653441235909E-002
  -6.5668508652860780E-005  -3.9342647306217504E-004   6.5087771746895312E-002
  -7.4678303914369262E-005  -4.1472724154564822E-004   6.4944721082842050E-002
  -8.3688099175880347E-005  -4.4037175512728205E-004   6.4996501449076177E-002
  -9.2697894437387962E-005  -4.7036001380768022E-004   6.5243112845597639E-002
  -5.5931681747894042E-003   1.4709404955693672E-003   6.4915392916953030E-002
  -5.3997288219830557E-003   1.4107766003188804E-003   6.4596822117698072E-002
  -5.2062894691767003E-003   1.3439769364997009E-003   6.4488318584291437E-002
  -5.0128501163703518E-003   1.2705415041118131E-003   6.4589882316733127E-002
  -4.8194107635639964E-003   1.1904703031553332E-003   6.4901513315023307E-002
  -1.1112495102048817E-002   3.3183504408162146E-003   6.4363071532539451E-002
  -1.0701370365613559E-002   3.2149796736999359E-003   6.4061519604899891E-002
  -1.0290245629178315E-002   3.1026811145448835E-003   6.3985271178669686E-002
  -9.8791208927430669E-003   2.9814547633510192E-003   6.4134326253849072E-002
  -9.4679961563078202E-003   2.8513006201182634E-003   6.4508684830437604E-002
  -1.6614639495169569E-002   5.1657603860631035E-003   6.3768689287995284E-002
  -1.5970593139544395E-002   5.0191827470810191E-003   6.3481864208500938E-002
  -1.5326546783919211E-002   4.8613852925900383E-003   6.3435578865977046E-002
  -1.4682500428294035E-002   4.6923680225900589E-003   6.3629833260423679E-002
  -1.4038454072668852E-002   4.5121309370812906E-003   6.4064627391840767E-002
  -2.2099601354151677E-002   7.0131703313098814E-003   6.3132246183320362E-002
  -2.1207397143775529E-002   6.8233858204621023E-003   6.2857855928501183E-002
  -2.0315192933399399E-002   6.6200894706352487E-003   6.2839241646213434E-002
  -1.9422988723023248E-002   6.4032812818292789E-003   6.3076403336457282E-002
  -1.8530784512647114E-002   6.1729612540441514E-003   6.3569340999232449E-002
  -9.2697894437387962E-005  -4.7036001380768022E-004   6.5243112845597639E-002
  -1.3564971528642888E-004  -5.5105410249917108E-004   6.4839372762497738E-002
  -1.7860153613547675E-004  -7.2881610611476300E-004   6.4563818786901428E-002
  -2.2155335698452634E-004  -1.0036460246544456E-003   6.4416450918808779E-002
  -2.6450517783356553E-004  -1.3755438581181112E-003   6.4397269158219972E-002
  -4.8194107635639964E-003   1.1904703031553332E-003   6.4901513315023307E-002
  -4.7205754338849708E-003   1.0829972183240555E-003   6.4516883794278029E-002
  -4.6217401042059434E-003   9.2735613431173258E-004   6.4287642467085265E-002
  -4.5229047745269186E-003   7.2354705111863163E-004   6.4213789333444932E-002
  -4.4240694448478904E-003   4.7156996874481161E-004   6.4295324393357112E-002
  -9.4679961563078202E-003   2.8513006201182634E-003   6.4508684830437604E-002
  -9.2001715900519587E-003   2.7170485391472543E-003   6.4192065787790173E-002
  -8.9323470237960972E-003   2.5835283747384571E-003   6.4058037024744052E-002
  -8.6645224575402444E-003   2.4507401268919881E-003   6.4106598541298979E-002
  -8.3966978912843760E-003   2.3186837956076789E-003   6.4337750337455313E-002
  -1.4038454072668852E-002   4.5121309370812906E-003   6.4064627391840767E-002
  -1.3574438183787393E-002   4.3510998599703837E-003   6.3864918743034252E-002
  -1.3110422294905937E-002   4.2397006151650117E-003   6.3875002459877844E-002
  -1.2646406406024484E-002   4.1779332026651494E-003   6.4094878542371267E-002
  -1.2182390517143028E-002   4.1657976224705739E-003   6.4524546990514881E-002
  -1.8530784512647114E-002   6.1729612540441514E-003   6.3569340999232449E-002
  -1.7843375215091287E-002   5.9851511807936797E-003   6.3535442660010155E-002
  -1.7155965917535470E-002   5.8958728555917328E-003   6.3738538772486586E-002
  -1.6468556619979646E-002   5.9051262784383246E-003   6.4178629336661741E-002
  -1.5781147322423826E-002   6.0129114493334135E-003   6.4855714352535732E-002
  -2.6450517783356553E-004  -1.3755438581181112E-003   6.4397269158219972E-002
  -2.7608309101118111E-004  -1.8741022698433030E-003   6.3776815906484041E-002
  -2.8766100418880017E-004  -2.5289139231682856E-003   6.3242448911577487E-002
  -2.9923891736642443E-004  -3.3399788180924345E-003   6.2794168173500281E-002
  -3.1081683054402787E-004  -4.3072969546162909E-003   6.2431973692252507E-002
  -4.4240694448478904E-003   4.7156996874481161E-004   6.4295324393357112E-002
  -4.3014200289466509E-003   1.5950890484853208E-004   6.3795821431716943E-002
  -4.1787706130454114E-003  -2.2455212291090654E-004   6.3478686871405204E-002
  -4.0561211971441666E-003  -6.8061311453397957E-004   6.3343920712422008E-002
  -3.9334717812429185E-003  -1.2086740700204546E-003   6.3391522954766688E-002
  -8.3966978912843760E-003   2.3186837956076789E-003   6.4337750337455313E-002
  -8.0435390018053082E-003   2.1931200795407002E-003   6.4043450943647093E-002
  -7.6903801123262483E-003   2.0798096773464725E-003   6.4027802095666178E-002
  -7.3372212228471623E-003   1.9787525890245308E-003   6.4290803793512735E-002
  -6.9840623333681066E-003   1.8899488145752708E-003   6.4832456037186403E-002
  -1.2182390517143028E-002   4.1657976224705739E-003   6.4524546990514881E-002
  -1.1502440009587167E-002   4.2267312542328683E-003   6.4519704442274409E-002
  -1.0822489502031303E-002   4.3841714776036295E-003   6.4889794584360311E-002
  -1.0142538994475441E-002   4.6381182925832355E-003   6.5634817416772753E-002
  -9.4625884869195785E-003   4.9885716991709961E-003   6.6754772939511001E-002
  -1.5781147322423826E-002   6.0129114493334135E-003   6.4855714352535732E-002
  -1.4678123052292213E-002   6.2603424289247589E-003   6.5224581927599168E-002
  -1.3575098782160590E-002   6.6885332778612167E-003   6.6064664337487894E-002
  -1.2472074512028962E-002   7.2974839961416037E-003   6.7375961582201840E-002
  -1.1369050241897355E-002   8.0871945837668324E-003   6.9158473661741215E-002
  -2.6636584914011604E-002   0.0000000000000000        2.9474146045619248E-002
  -2.7237525173473182E-002   5.8752775055909492E-004   3.4953047099666554E-002
  -2.7838465432934750E-002   1.3219724480654782E-003   4.0124460441556778E-002
  -2.8439405692396325E-002   2.2033340925191481E-003   4.4988386071289931E-002
  -2.9040345951857897E-002   3.2316126839201037E-003   4.9544823988865998E-002
  -3.3395152687444911E-002   0.0000000000000000        3.0186225442486787E-002
  -3.4238504265909485E-002   9.6137520458995217E-004   3.5274974430726129E-002
  -3.5081855844374059E-002   2.0253217850605505E-003   4.0186388493116551E-002
  -3.5925207422838633E-002   3.1918397414117967E-003   4.4920467629658040E-002
  -3.6768559001303221E-002   4.4609290736437003E-003   4.9477211840350616E-002
  -4.0733693081254220E-002   0.0000000000000000        3.1294325078918502E-002
  -4.1689303192413645E-002   1.3352226586208086E-003   3.5948576430283249E-002
  -4.2644913303573069E-002   2.7286711220556280E-003   4.0555645642107223E-002
  -4.3600523414732500E-002   4.1803453903044548E-003   4.5115532714390422E-002
  -4.4556133525891911E-002   5.6902454633672959E-003   4.9628237647132867E-002
  -4.8652206095439549E-002   0.0000000000000000        3.2798444954914394E-002
  -4.9589921952985658E-002   1.7090701126516658E-003   3.6973853098337894E-002
  -5.0527637810531774E-002   3.4320204590507011E-003   4.1232231888528779E-002
  -5.1465353668077890E-002   5.1688510391971042E-003   4.5573581325487056E-002
  -5.2403069525623999E-002   6.9195618530908855E-003   4.9997901409212737E-002
  -5.7150691730000883E-002   0.0000000000000000        3.4698585070474464E-002
  -5.7940360547625532E-002   2.0829175666825222E-003   3.8350804434890085E-002
  -5.8730029365250173E-002   4.1353697960457795E-003   4.2216147232381249E-002
  -5.9519698182874822E-002   6.1573566880897632E-003   4.6294613462947970E-002
  -6.0309367000499478E-002   8.1488782428144890E-003   5.0586203126590207E-002
  -2.9040345951857897E-002   3.2316126839201037E-003   4.9544823988865998E-002
  -2.9114886736665124E-002   4.2491261226216340E-003   5.1607148344301211E-002
  -2.9189427521472352E-002   5.0981923089770797E-003   5.3770191134670187E-002
  -2.9263968306279569E-002   5.7788112429863724E-003   5.6033952359972918E-002
  -2.9338509091086797E-002   6.2909829246495935E-003   5.8398432020209431E-002
  -3.6768559001303221E-002   4.4609290736437003E-003   4.9477211840350616E-002
  -3.6781494963035899E-002   5.6936525827652549E-003   5.1269185971559515E-002
  -3.6794430924768584E-002   6.7510730697855096E-003   5.3083651313983751E-002
  -3.6807366886501248E-002   7.6331905347044289E-003   5.4920607867623289E-002
  -3.6820302848233948E-002   8.3400049775220128E-003   5.6780055632478156E-002
  -4.4556133525891911E-002   5.6902454633672959E-003   4.9628237647132867E-002
  -4.4585691888268483E-002   7.1381790429088689E-003   5.1143005784360242E-002
  -4.4615250250645055E-002   8.4039538305939257E-003   5.2602037909084506E-002
  -4.4644808613021621E-002   9.4875698264224439E-003   5.4005334021305661E-002
  -4.4674366975398193E-002   1.0389027030394439E-002   5.5352894121023712E-002
  -5.2403069525623999E-002   6.9195618530908855E-003   4.9997901409212737E-002
  -5.2527477512362891E-002   8.5827055030524863E-003   5.1228607782703377E-002
  -5.2651885499101783E-002   1.0056834591402344E-002   5.2325350919972459E-002
  -5.2776293485840668E-002   1.1341949118140465E-002   5.3288130821020019E-002
  -5.2900701472579567E-002   1.2438049083266862E-002   5.4116947485846043E-002
  -6.0309367000499478E-002   8.1488782428144890E-003   5.0586203126590207E-002
  -6.0606851835319123E-002   1.0027231963196099E-002   5.1525991966588934E-002
  -6.0904336670138760E-002   1.1709715352210773E-002   5.2253590346647637E-002
  -6.1201821504958405E-002   1.3196328409858503E-002   5.2768998266766412E-002
  -6.1499306339778050E-002   1.4487071136139285E-002   5.3072215726945191E-002
  -2.9338509091086797E-002   6.2909829246495935E-003   5.8398432020209431E-002
  -2.8990023506841905E-002   6.6834271718429553E-003   5.9185211219743190E-002
  -2.8641537922597007E-002   7.0048638024427165E-003   6.0013762847809571E-002
  -2.8293052338352116E-002   7.2552928164488963E-003   6.0884086904408448E-002
  -2.7944566754107218E-002   7.4347142138614791E-003   6.1796183389539919E-002
  -3.6820302848233948E-002   8.3400049775220128E-003   5.6780055632478156E-002
  -3.6379431757213802E-002   8.8842663970842735E-003   5.7134772219736091E-002
  -3.5938560666193643E-002   9.2787247922373074E-003   5.7632487392011961E-002
  -3.5497689575173491E-002   9.5233801629809739E-003   5.8273201149305759E-002
  -3.5056818484153346E-002   9.6182325093153859E-003   5.9056913491617562E-002
  -4.4674366975398193E-002   1.0389027030394439E-002   5.5352894121023712E-002
  -4.4039884221117397E-002   1.1085105622325665E-002   5.5196752688190076E-002
  -4.3405401466836621E-002   1.1552585782031870E-002   5.5284835996859752E-002
  -4.2770918712555846E-002   1.1791467509513081E-002   5.5617144047032732E-002
  -4.2136435958275056E-002   1.1801750804769272E-002   5.6193676838709114E-002
  -5.2900701472579567E-002   1.2438049083266862E-002   5.4116947485846043E-002
  -5.1971380898552751E-002   1.3285944847567033E-002   5.3371152625105112E-002
  -5.1042060324525934E-002   1.3826446771826427E-002   5.2970808662352889E-002
  -5.0112739750499118E-002   1.4059554856045159E-002   5.2915915597589382E-002
  -4.9183419176472294E-002   1.3985269100223168E-002   5.3206473430814610E-002
  -6.1499306339778050E-002   1.4487071136139285E-002   5.3072215726945191E-002
  -6.0173921789519823E-002   1.5486784072808363E-002   5.1657972030481239E-002
  -5.8848537239261561E-002   1.6100307761621035E-002   5.0690405388491407E-002
  -5.7523152689003335E-002   1.6327642202577288E-002   5.0169515800975714E-002
  -5.6197768138745101E-002   1.6168787395677078E-002   5.0095303267934085E-002
  -2.7944566754107218E-002   7.4347142138614791E-003   6.1796183389539919E-002
  -2.7235458634534242E-002   7.5499132956481710E-003   6.1538202177705018E-002
  -2.6526350514961241E-002   7.6076753627768480E-003   6.1553206741218773E-002
  -2.5817242395388254E-002   7.6080004152472578E-003   6.1841197080081095E-002
  -2.5108134275815264E-002   7.5508884530597620E-003   6.2402173194292115E-002
  -3.5056818484153346E-002   9.6182325093153859E-003   5.9056913491617562E-002
  -3.4092089836586792E-002   9.6162490722521698E-003   5.8763548509830094E-002
  -3.3127361189020210E-002   9.5703970928030825E-003   5.8708438808681207E-002
  -3.2162632541453628E-002   9.4806765709682037E-003   5.8891584388170846E-002
  -3.1197903893887057E-002   9.3470875067473702E-003   5.9312985248299116E-002
  -4.2136435958275056E-002   1.1801750804769272E-002   5.6193676838709114E-002
  -4.0950817277424952E-002   1.1682584848856137E-002   5.5878496559241320E-002
  -3.9765198596574840E-002   1.1533118822829399E-002   5.5766841065702039E-002
  -3.8579579915724749E-002   1.1353352726689012E-002   5.5858710358091236E-002
  -3.7393961234874623E-002   1.1143286560435048E-002   5.6154104436408954E-002
  -4.9183419176472294E-002   1.3985269100223168E-002   5.3206473430814610E-002
  -4.7811640957048721E-002   1.3748920625460093E-002   5.2883046325938758E-002
  -4.6439862737625154E-002   1.3495840552855728E-002   5.2728413512281372E-002
  -4.5068084518201552E-002   1.3226028882409917E-002   5.2742574989842424E-002
  -4.3696306298778000E-002   1.2939485614122691E-002   5.2925530758621858E-002
  -5.6197768138745101E-002   1.6168787395677078E-002   5.0095303267934085E-002
  -5.4674560875458106E-002   1.5815256402064118E-002   4.9777197809922402E-002
  -5.3151353612171118E-002   1.5458562282881932E-002   4.9593156148419117E-002
  -5.1628146348884137E-002   1.5098705038130763E-002   4.9543178283424152E-002
  -5.0104939085597142E-002   1.4735684667810361E-002   4.9627264214937600E-002
  -2.5108134275815264E-002   7.5508884530597620E-003   6.2402173194292115E-002
  -2.4356001045399360E-002   7.4529082183129314E-003   6.2374595754786238E-002
  -2.3603867814983474E-002   7.3306284531056212E-003   6.2487082106455635E-002
  -2.2851734584567567E-002   7.1840491574379928E-003   6.2739632249300376E-002
  -2.2099601354151677E-002   7.0131703313098814E-003   6.3132246183320362E-002
  -3.1197903893887057E-002   9.3470875067473702E-003   5.9312985248299116E-002
  -3.0292408968815264E-002   9.1772826465379154E-003   5.9165986699332068E-002
  -2.9386914043743474E-002   8.9789147367367247E-003   5.9185647748501533E-002
  -2.8481419118671681E-002   8.7519837773440256E-003   5.9371968395807488E-002
  -2.7575924193599898E-002   8.4964897683598162E-003   5.9724948641249970E-002
  -3.7393961234874623E-002   1.1143286560435048E-002   5.6154104436408954E-002
  -3.6308508808185737E-002   1.0901657074762885E-002   5.5883421258849632E-002
  -3.5223056381496830E-002   1.0627201020367853E-002   5.5805993486387956E-002
  -3.4137603954807930E-002   1.0319918397250168E-002   5.5921821119024009E-002
  -3.3052151528119016E-002   9.9798092054096954E-003   5.6230904156757897E-002
  -4.3696306298778000E-002   1.2939485614122691E-002   5.2925530758621858E-002
  -4.2404300563510765E-002   1.2626031502987863E-002   5.2526899433338950E-002
  -4.1112294828243544E-002   1.2275487303999051E-002   5.2348119320114933E-002
  -3.9820289092976309E-002   1.1887853017156284E-002   5.2389190418949932E-002
  -3.8528283357709081E-002   1.1463128642459547E-002   5.2650112729843809E-002
  -5.0104939085597142E-002   1.4735684667810361E-002   4.9627264214937600E-002
  -4.8579784234790369E-002   1.4350405931212867E-002   4.9096421222799919E-002
  -4.7054629383983602E-002   1.3923773587630132E-002   4.8812025249682492E-002
  -4.5529474533176809E-002   1.3455787637062329E-002   4.8774076295585105E-002
  -4.4004319682370049E-002   1.2946448079509454E-002   4.8982574360507958E-002
  -2.2099601354151677E-002   7.0131703313098814E-003   6.3132246183320362E-002
  -2.1207397143775529E-002   6.8233858204621023E-003   6.2857855928501183E-002
  -2.0315192933399399E-002   6.6200894706352487E-003   6.2839241646213434E-002
  -1.9422988723023248E-002   6.4032812818292789E-003   6.3076403336457282E-002
  -1.8530784512647114E-002   6.1729612540441514E-003   6.3569340999232449E-002
  -2.7575924193599898E-002   8.4964897683598162E-003   5.9724948641249970E-002
  -2.6438193103654820E-002   8.2218700581165038E-003   5.9428804702444465E-002
  -2.5300462013709710E-002   7.9375619949463155E-003   5.9367938550245358E-002
  -2.4162730923764635E-002   7.6435655788495392E-003   5.9542350184652648E-002
  -2.3024999833819525E-002   7.3398808098260604E-003   5.9952039605666418E-002
  -3.3052151528119016E-002   9.9798092054096954E-003   5.6230904156757897E-002
  -3.1689391744530060E-002   9.6203542957707111E-003   5.5916830020018363E-002
  -3.0326631960941049E-002   9.2550345192573269E-003   5.5817535483960304E-002
  -2.8963872177352055E-002   8.8838498758697440E-003   5.5933020548583581E-002
  -2.7601112393763061E-002   8.5068003656078861E-003   5.6263285213888209E-002
  -3.8528283357709081E-002   1.1463128642459547E-002   5.2650112729843809E-002
  -3.6960993066401257E-002   1.1018838533425016E-002   5.2321931881222791E-002
  -3.5393702775093412E-002   1.0572507043568394E-002   5.2188032447358243E-002
  -3.3826412483785581E-002   1.0124134172890143E-002   5.2248414428249859E-002
  -3.2259122192477722E-002   9.6737199213898645E-003   5.2503077823897931E-002
  -4.4004319682370049E-002   1.2946448079509454E-002   4.8982574360507958E-002
  -4.2252997069268411E-002   1.2417322771079292E-002   4.8644110286057918E-002
  -4.0501674456166779E-002   1.1889979567879363E-002   4.8479429440439120E-002
  -3.8750351843065120E-002   1.1364418469910254E-002   4.8488531823651648E-002
  -3.6999029229963523E-002   1.0840639477171676E-002   4.8671417435695419E-002
  -1.8530784512647114E-002   6.1729612540441514E-003   6.3569340999232449E-002
  -1.7843375215091287E-002   5.9851511807936797E-003   6.3535442660010155E-002
  -1.7155965917535470E-002   5.8958728555917328E-003   6.3738538772486586E-002
  -1.6468556619979646E-002   5.9051262784383246E-003   6.4178629336661741E-002
  -1.5781147322423826E-002   6.0129114493334135E-003   6.4855714352535732E-002
  -2.3024999833819525E-002   7.3398808098260604E-003   5.9952039605666418E-002
  -2.2111966453005606E-002   7.0607494499693446E-003   5.9903537118886879E-002
  -2.1198933072191690E-002   6.8404132613733432E-003   6.0069288346924710E-002
  -2.0285899691377778E-002   6.6788722440378583E-003   6.0449293289780048E-002
  -1.9372866310563848E-002   6.5761263979627338E-003   6.1043551947452868E-002
  -2.7601112393763061E-002   8.5068003656078861E-003   5.6263285213888209E-002
  -2.6485195666572335E-002   8.1363477191451761E-003   5.6160442002763433E-002
  -2.5369278939381595E-002   7.7849536671549535E-003   5.6249111769574825E-002
  -2.4253362212190863E-002   7.4526182096372254E-003   5.6529294514322259E-002
  -2.3137445485000130E-002   7.1393413465920819E-003   5.7000990237005958E-002
  -3.2259122192477722E-002   9.6737199213898645E-003   5.2503077823897931E-002
  -3.0963062855791479E-002   9.2119459883208688E-003   5.2306157311639886E-002
  -2.9667003519105183E-002   8.7294940729366194E-003   5.2278009040436647E-002
  -2.8370944182418926E-002   8.2263641752367868E-003   5.2418633010288457E-002
  -2.7074884845732648E-002   7.7025562952216381E-003   5.2728029221195086E-002
  -3.6999029229963523E-002   1.0840639477171676E-002   4.8671417435695419E-002
  -3.5545568020662985E-002   1.0287544257496700E-002   4.8340683045516142E-002
  -3.4092106811362481E-002   9.6740344787181465E-003   4.8155980159510586E-002
  -3.2638645602061978E-002   9.0001101408362025E-003   4.8117308777678391E-002
  -3.1185184392761453E-002   8.2657712438508057E-003   4.8224668900020140E-002
  -1.5781147322423826E-002   6.0129114493334135E-003   6.4855714352535732E-002
  -1.4678123052292213E-002   6.2603424289247589E-003   6.5224581927599168E-002
  -1.3575098782160590E-002   6.6885332778612167E-003   6.6064664337487894E-002
  -1.2472074512028962E-002   7.2974839961416037E-003   6.7375961582201840E-002
  -1.1369050241897355E-002   8.0871945837668324E-003   6.9158473661741215E-002
  -1.9372866310563848E-002   6.5761263979627338E-003   6.1043551947452868E-002
  -1.7864816242599887E-002   6.5385566729793954E-003   6.1299528769360984E-002
  -1.6356766174635964E-002   6.5725440189192547E-003   6.1894342352108583E-002
  -1.4848716106672048E-002   6.6780884357817670E-003   6.2827992695695348E-002
  -1.3340666038708079E-002   6.8551899235674840E-003   6.4100479800121679E-002
  -2.3137445485000130E-002   7.1393413465920819E-003   5.7000990237005958E-002
  -2.1356747693189668E-002   6.8167709170339486E-003   5.7034873507337172E-002
  -1.9576049901379230E-002   6.4565547599772996E-003   5.7275215464521863E-002
  -1.7795352109568747E-002   6.0586928754218766E-003   5.7722016108560190E-002
  -1.6014654317758330E-002   5.6231852633680246E-003   5.8375275439452035E-002
  -2.7074884845732648E-002   7.7025562952216381E-003   5.2728029221195086E-002
  -2.5153917404061529E-002   7.0949851610885434E-003   5.2430616141527733E-002
  -2.3232949962390424E-002   6.3405655010353966E-003   5.2207283674728142E-002
  -2.1311982520719235E-002   5.4392973150619575E-003   5.2058031820796435E-002
  -1.9391015079048179E-002   4.3911806031686762E-003   5.1982860579732115E-002
  -3.1185184392761453E-002   8.2657712438508057E-003   4.8224668900020140E-002
  -2.9256325375215469E-002   7.3731994051430827E-003   4.7486756671932639E-002
  -2.7327466357669451E-002   6.2245762420934797E-003   4.6690546982727149E-002
  -2.5398607340123450E-002   4.8199017547021182E-003   4.5836039832403433E-002
  -2.3469748322577477E-002   3.1591759429692168E-003   4.4923235220961866E-002
  -5.7150691730000883E-002   0.0000000000000000        3.4698585070474464E-002
  -5.7940360547625532E-002   2.0829175666825222E-003   3.8350804434890085E-002
  -5.8730029365250173E-002   4.1353697960457795E-003   4.2216147232381249E-002
  -5.9519698182874822E-002   6.1573566880897632E-003   4.6294613462947970E-002
  -6.0309367000499478E-002   8.1488782428144890E-003   5.0586203126590207E-002
  -6.5817583777340899E-002   0.0000000000000000        3.7218491126965195E-002
  -6.6623049793232511E-002   2.9130648665840718E-003   4.0841119975142087E-002
  -6.7428515809124123E-002   5.7689357110576461E-003   4.4219030993709489E-002
  -6.8233981825015722E-002   8.5676125334207300E-003   4.7352224182667414E-002
  -6.9039447840907361E-002   1.1309095333673313E-002   5.0240699542015856E-002
  -7.4241316029862239E-002   0.0000000000000000        4.0581908825753105E-002
  -7.5520420506705849E-002   3.7432121664856223E-003   4.4148218472900021E-002
  -7.6799524983549458E-002   7.4025016260695223E-003   4.7011969027752440E-002
  -7.8078629460393054E-002   1.0977868378751695E-002   4.9173160490310348E-002
  -7.9357733937236663E-002   1.4469312424532151E-002   5.0631792860573760E-002
  -8.2421888487564945E-002   0.0000000000000000        4.4788838166838166E-002
  -8.4632472688045565E-002   4.5733594663871710E-003   4.8272099928163892E-002
  -8.6843056888526185E-002   9.0360675410813950E-003   5.0594961334510087E-002
  -8.9053641089006805E-002   1.3388124224082662E-002   5.1757422385876758E-002
  -9.1264225289487438E-002   1.7629529515390992E-002   5.1759483082263899E-002
  -9.0359301150448990E-002   0.0000000000000000        4.9839279150220392E-002
  -9.3959206337251647E-002   5.4035067662887206E-003   5.3212764340933708E-002
  -9.7559111524054318E-002   1.0669633456093269E-002   5.4968007913982452E-002
 -0.10115901671085700        1.5798380069413625E-002   5.5105009869366658E-002
 -0.10475892189765965        2.0789746606249819E-002   5.3623770207086294E-002
  -6.0309367000499478E-002   8.1488782428144890E-003   5.0586203126590207E-002
  -6.0606851835319123E-002   1.0027231963196099E-002   5.1525991966588934E-002
  -6.0904336670138760E-002   1.1709715352210773E-002   5.2253590346647637E-002
  -6.1201821504958405E-002   1.3196328409858503E-002   5.2768998266766412E-002
  -6.1499306339778050E-002   1.4487071136139285E-002   5.3072215726945191E-002
  -6.9039447840907361E-002   1.1309095333673313E-002   5.0240699542015856E-002
  -6.9311539952278109E-002   1.3753120627639493E-002   4.9463070648567309E-002
  -6.9583632063648898E-002   1.5659424931143317E-002   4.8948417661956511E-002
  -6.9855724175019659E-002   1.7028008244184833E-002   4.8696740582183401E-002
  -7.0127816286390435E-002   1.7858870566763996E-002   4.8708039409248019E-002
  -7.9357733937236663E-002   1.4469312424532151E-002   5.0631792860573760E-002
  -7.9129266958380864E-002   1.7479009292082879E-002   4.7794895574582573E-002
  -7.8900799979525094E-002   1.9609134510075867E-002   4.5696140562206840E-002
  -7.8672333000669267E-002   2.0859688078511150E-002   4.4335527823446491E-002
  -7.8443866021813496E-002   2.1230669997388693E-002   4.3713057358301569E-002
  -9.1264225289487438E-002   1.7629529515390992E-002   5.1759483082263899E-002
  -9.0060032853627389E-002   2.1204897956526265E-002   4.6521466744634712E-002
  -8.8855840417767340E-002   2.3558844089008407E-002   4.2496759047398643E-002
  -8.7651647981907249E-002   2.4691367912837499E-002   3.9685359990555662E-002
  -8.6447455546047242E-002   2.4602469428013401E-002   3.8087269574105791E-002
 -0.10475892189765965        2.0789746606249819E-002   5.3623770207086294E-002
 -0.10210383763801766        2.4930786620969664E-002   4.5642784158723693E-002
  -9.9448753378375637E-002   2.7508553667940961E-002   3.9350273117531885E-002
  -9.6793669118733633E-002   2.8523047747163809E-002   3.4746237083510864E-002
  -9.4138584859091601E-002   2.7974268858638109E-002   3.1830676056660671E-002
  -6.1499306339778050E-002   1.4487071136139285E-002   5.3072215726945191E-002
  -6.0173921789519823E-002   1.5486784072808363E-002   5.1657972030481239E-002
  -5.8848537239261561E-002   1.6100307761621035E-002   5.0690405388491407E-002
  -5.7523152689003335E-002   1.6327642202577288E-002   5.0169515800975714E-002
  -5.6197768138745101E-002   1.6168787395677078E-002   5.0095303267934085E-002
  -7.0127816286390435E-002   1.7858870566763996E-002   4.8708039409248019E-002
  -6.8401215066889551E-002   1.8310381899607854E-002   4.7257210420309594E-002
  -6.6674613847388667E-002   1.8540912243443439E-002   4.6162137715382301E-002
  -6.4948012627887783E-002   1.8550461598270788E-002   4.5422821294466224E-002
  -6.3221411408386927E-002   1.8339029964089842E-002   4.5039261157561281E-002
  -7.8443866021813496E-002   2.1230669997388693E-002   4.3713057358301569E-002
  -7.6406968903532921E-002   2.1133979726407313E-002   4.2390851335736807E-002
  -7.4370071785252345E-002   2.0981516725265874E-002   4.1333480826720261E-002
  -7.2333174666971756E-002   2.0773280993964287E-002   4.0540945831251965E-002
  -7.0296277548691194E-002   2.0509272532502655E-002   4.0013246349331857E-002
  -8.6447455546047242E-002   2.4602469428013401E-002   3.8087269574105791E-002
  -8.4191183299449912E-002   2.3957577553206797E-002   3.7058894776762871E-002
  -8.1934911052852569E-002   2.3422121207088250E-002   3.6204434722505209E-002
  -7.9678638806255239E-002   2.2996100389657832E-002   3.5523889411332860E-002
  -7.7422366559657910E-002   2.2679515100915430E-002   3.5017258843245767E-002
  -9.4138584859091601E-002   2.7974268858638109E-002   3.1830676056660671E-002
  -9.1753858254640497E-002   2.6781175380006236E-002   3.1261340743387780E-002
  -8.9369131650189365E-002   2.5862725688910716E-002   3.0774999402737240E-002
  -8.6984405045738206E-002   2.5218919785351276E-002   3.0371652034708908E-002
  -8.4599678441287102E-002   2.4849757669328246E-002   3.0051298639303017E-002
  -5.6197768138745101E-002   1.6168787395677078E-002   5.0095303267934085E-002
  -5.4674560875458106E-002   1.5815256402064118E-002   4.9777197809922402E-002
  -5.3151353612171118E-002   1.5458562282881932E-002   4.9593156148419117E-002
  -5.1628146348884137E-002   1.5098705038130763E-002   4.9543178283424152E-002
  -5.0104939085597142E-002   1.4735684667810361E-002   4.9627264214937600E-002
  -6.3221411408386927E-002   1.8339029964089842E-002   4.5039261157561281E-002
  -6.1543346772446446E-002   1.7997322456801509E-002   4.4669359463644406E-002
  -5.9865282136505965E-002   1.7616044192306626E-002   4.4475108718526134E-002
  -5.8187217500565484E-002   1.7195195170605203E-002   4.4456508922206428E-002
  -5.6509152864625031E-002   1.6734775391697237E-002   4.4613560074685338E-002
  -7.0296277548691194E-002   2.0509272532502655E-002   4.0013246349331857E-002
  -6.8421768387807030E-002   2.0179388511538977E-002   3.9555140787872339E-002
  -6.6547259226922825E-002   1.9773526101731297E-002   3.9314273327501675E-002
  -6.4672750066038648E-002   1.9291685303079700E-002   3.9290643968219754E-002
  -6.2798240905154484E-002   1.8733866115584100E-002   3.9484252710026667E-002
  -7.7422366559657910E-002   2.2679515100915430E-002   3.5017258843245767E-002
  -7.5309825721539797E-002   2.2361454566276476E-002   3.4434541782606229E-002
  -7.3197284883421740E-002   2.1931008011155977E-002   3.4110649975345762E-002
  -7.1084744045303655E-002   2.1388175435554227E-002   3.4045583421464208E-002
  -6.8972203207185570E-002   2.0732956839470996E-002   3.4239342120961774E-002
  -8.4599678441287102E-002   2.4849757669328246E-002   3.0051298639303017E-002
  -8.2207518773644905E-002   2.4543520621013865E-002   2.9307562447846061E-002
  -7.9815359106002681E-002   2.4088489920580634E-002   2.8864238662058318E-002
  -7.7423199438360457E-002   2.3484665568028716E-002   2.8721327281939771E-002
  -7.5031039770718261E-002   2.2732047563357838E-002   2.8878828307490501E-002
  -5.0104939085597142E-002   1.4735684667810361E-002   4.9627264214937600E-002
  -4.8579784234790369E-002   1.4350405931212867E-002   4.9096421222799919E-002
  -4.7054629383983602E-002   1.3923773587630132E-002   4.8812025249682492E-002
  -4.5529474533176809E-002   1.3455787637062329E-002   4.8774076295585105E-002
  -4.4004319682370049E-002   1.2946448079509454E-002   4.8982574360507958E-002
  -5.6509152864625031E-002   1.6734775391697237E-002   4.4613560074685338E-002
  -5.4751953937002107E-002   1.6243647224365859E-002   4.4151840065529371E-002
  -5.2994755009379189E-002   1.5730673037394512E-002   4.3907761190985550E-002
  -5.1237556081756314E-002   1.5195852830782968E-002   4.3881323451053729E-002
  -4.9480357154133382E-002   1.4639186604531340E-002   4.4072526845734039E-002
  -6.2798240905154484E-002   1.8733866115584100E-002   3.9484252710026667E-002
  -6.0837803785123545E-002   1.8136888517519031E-002   3.9111163271197520E-002
  -5.8877366665092627E-002   1.7537572487158839E-002   3.8926909082572306E-002
  -5.6916929545061695E-002   1.6935918024503609E-002   3.8931490144151072E-002
  -5.4956492425030798E-002   1.6331925129553254E-002   3.9124906455933819E-002
  -6.8972203207185570E-002   2.0732956839470996E-002   3.4239342120961774E-002
  -6.6837333779154684E-002   2.0030129810672086E-002   3.3974390839804414E-002
  -6.4702464351123798E-002   1.9344471936923222E-002   3.3869468924442925E-002
  -6.2567594923092981E-002   1.8675983218224220E-002   3.3924576374877308E-002
  -6.0432725495062040E-002   1.8024663654575182E-002   3.4139713191107549E-002
  -7.5031039770718261E-002   2.2732047563357838E-002   2.8878828307490501E-002
  -7.2750543919095551E-002   2.1923371103825154E-002   2.8741522771350003E-002
  -7.0470048067472812E-002   2.1151371386687434E-002   2.8735440716597171E-002
  -6.8189552215850102E-002   2.0416048411944845E-002   2.8860582143232158E-002
  -6.5909056364227392E-002   1.9717402179597054E-002   2.9116947051255060E-002
  -4.4004319682370049E-002   1.2946448079509454E-002   4.8982574360507958E-002
  -4.2252997069268411E-002   1.2417322771079292E-002   4.8644110286057918E-002
  -4.0501674456166779E-002   1.1889979567879363E-002   4.8479429440439120E-002
  -3.8750351843065120E-002   1.1364418469910254E-002   4.8488531823651648E-002
  -3.6999029229963523E-002   1.0840639477171676E-002   4.8671417435695419E-002
  -4.9480357154133382E-002   1.4639186604531340E-002   4.4072526845734039E-002
  -4.7548571675014403E-002   1.4071670551481785E-002   4.3741608844973412E-002
  -4.5616786195895445E-002   1.3504300864476043E-002   4.3597833347416168E-002
  -4.3685000716776480E-002   1.2937077543514426E-002   4.3641200353062397E-002
  -4.1753215237657522E-002   1.2370000588596552E-002   4.3871709861912050E-002
  -5.4956492425030798E-002   1.6331925129553254E-002   3.9124906455933819E-002
  -5.2830884805522248E-002   1.5726018331884237E-002   3.8799898789676060E-002
  -5.0705277186013718E-002   1.5118622161072438E-002   3.8675392900993914E-002
  -4.8579669566505182E-002   1.4509736617118319E-002   3.8751388789887389E-002
  -4.6454061946996639E-002   1.3899361700021512E-002   3.9027886456356492E-002
  -6.0432725495062040E-002   1.8024663654575182E-002   3.4139713191107549E-002
  -5.8099936460791826E-002   1.7380366112286709E-002   3.3818980120165987E-002
  -5.5767147426521606E-002   1.6732943457668892E-002   3.3712108101172381E-002
  -5.3434358392251365E-002   1.6082395690722239E-002   3.3819097134126404E-002
  -5.1101569357981172E-002   1.5428722811446402E-002   3.4139947219028403E-002
  -6.5909056364227392E-002   1.9717402179597054E-002   2.9116947051255060E-002
  -6.3355726640823243E-002   1.9034713892689181E-002   2.8798852836443345E-002
  -6.0802396917419094E-002   1.8347264754265472E-002   2.8707978947951546E-002
  -5.8249067194014945E-002   1.7655054764326345E-002   2.8844325385779829E-002
  -5.5695737470610795E-002   1.6958083922871292E-002   2.9207892149928028E-002
  -3.6999029229963523E-002   1.0840639477171676E-002   4.8671417435695419E-002
  -3.5545568020662985E-002   1.0287544257496700E-002   4.8340683045516142E-002
  -3.4092106811362481E-002   9.6740344787181465E-003   4.8155980159510586E-002
  -3.2638645602061978E-002   9.0001101408362025E-003   4.8117308777678391E-002
  -3.1185184392761453E-002   8.2657712438508057E-003   4.8224668900020140E-002
  -4.1753215237657522E-002   1.2370000588596552E-002   4.3871709861912050E-002
  -4.0158347926690409E-002   1.1778921315910879E-002   4.3535406587238701E-002
  -3.8563480615723372E-002   1.1139691041644917E-002   4.3335884011724793E-002
  -3.6968613304756322E-002   1.0452309765798584E-002   4.3273142135370320E-002
  -3.5373745993789285E-002   9.7167774883720193E-003   4.3347180958175413E-002
  -4.6454061946996639E-002   1.3899361700021512E-002   3.9027886456356492E-002
  -4.4727039339377189E-002   1.3270298374324987E-002   3.8698277854712221E-002
  -4.3000016731757788E-002   1.2605347604571424E-002   3.8496199147213153E-002
  -4.1272994124138332E-002   1.1904509390760858E-002   3.8421650333859421E-002
  -3.9545971516518938E-002   1.1167783732893316E-002   3.8474631414651170E-002
  -5.1101569357981172E-002   1.5428722811446402E-002   3.4139947219028403E-002
  -4.9251642258723416E-002   1.4761675432739159E-002   3.3829296847936376E-002
  -4.7401715159465715E-002   1.4071004167498145E-002   3.3636925565975626E-002
  -4.5551788060208015E-002   1.3356709015723186E-002   3.3562833373145952E-002
  -4.3701860960950314E-002   1.2618789977414571E-002   3.3607020269447480E-002
  -5.5695737470610795E-002   1.6958083922871292E-002   2.9207892149928028E-002
  -5.3732156684728971E-002   1.6253052491153330E-002   2.8928463566911644E-002
  -5.1768575898847147E-002   1.5536660730424659E-002   2.8758063268012085E-002
  -4.9804995112965378E-002   1.4808908640685420E-002   2.8696691253229822E-002
  -4.7841414327083498E-002   1.4069796221935715E-002   2.8744347522564273E-002
  -3.1185184392761453E-002   8.2657712438508057E-003   4.8224668900020140E-002
  -2.9256325375215469E-002   7.3731994051430827E-003   4.7486756671932639E-002
  -2.7327466357669451E-002   6.2245762420934797E-003   4.6690546982727149E-002
  -2.5398607340123450E-002   4.8199017547021182E-003   4.5836039832403433E-002
  -2.3469748322577477E-002   3.1591759429692168E-003   4.4923235220961866E-002
  -3.5373745993789285E-002   9.7167774883720193E-003   4.3347180958175413E-002
  -3.3429347589130548E-002   8.8984490357752466E-003   4.2512695320065713E-002
  -3.1484949184471832E-002   7.9626792344178604E-003   4.1767585917299455E-002
  -2.9540550779813182E-002   6.9094680842994617E-003   4.1111852749876845E-002
  -2.7596152375154392E-002   5.7388155854207756E-003   4.0545495817797539E-002
  -3.9545971516518938E-002   1.1167783732893316E-002   3.8474631414651170E-002
  -3.7438360028285975E-002   1.0423698666407549E-002   3.7682182342100343E-002
  -3.5330748540052949E-002   9.7007822267420260E-003   3.7126783201354686E-002
  -3.3223137051820062E-002   8.9990344138969180E-003   3.6808433992413778E-002
  -3.1115525563587015E-002   8.3184552278722235E-003   3.6727134715278220E-002
  -4.3701860960950314E-002   1.2618789977414571E-002   3.3607020269447480E-002
  -4.1283362692681562E-002   1.1948948297039672E-002   3.2995217738036556E-002
  -3.8864864424412789E-002   1.1438885219066410E-002   3.2768138834892158E-002
  -3.6446366156144140E-002   1.1088600743494263E-002   3.2925783560014354E-002
  -3.4027867887875270E-002   1.0898094870323838E-002   3.3468151913403021E-002
  -4.7841414327083498E-002   1.4069796221935715E-002   2.8744347522564273E-002
  -4.4964355582317483E-002   1.3474197927672071E-002   2.8451801507874297E-002
  -4.2087296837551386E-002   1.3176988211390767E-002   2.8691652817912472E-002
  -3.9210238092785246E-002   1.3178167073091628E-002   2.9463901452678770E-002
  -3.6333179348019218E-002   1.3477734512775230E-002   3.0768547412172831E-002
  -9.0359301150448990E-002   0.0000000000000000        4.9839279150220392E-002
  -9.3959206337251647E-002   5.4035067662887206E-003   5.3212764340933708E-002
  -9.7559111524054318E-002   1.0669633456093269E-002   5.4968007913982452E-002
 -0.10115901671085700        1.5798380069413625E-002   5.5105009869366658E-002
 -0.10475892189765965        2.0789746606249819E-002   5.3623770207086294E-002
 -0.10329139569137405        0.0000000000000000        5.8666500670012535E-002
 -0.10682810586133433        1.0883928294654538E-002   5.2121890965691045E-002
 -0.11036481603129458        1.9171220708511225E-002   4.7321912912718929E-002
 -0.11390152620125488        2.4861877241570064E-002   4.4266566511096138E-002
 -0.11743823637121513        2.7955897893831055E-002   4.2955851760822693E-002
 -0.12645601378319984        0.0000000000000000        7.4203771620327319E-002
 -0.12656665566730382        1.6364349823020354E-002   5.5281811216657373E-002
 -0.12667729755140780        2.7672807960929184E-002   4.1467355733350690E-002
 -0.12678793943551178        3.3925374413726499E-002   3.2760405170407250E-002
 -0.12689858131961576        3.5122049181412297E-002   2.9160959527827091E-002
 -0.15985315542592637        0.0000000000000000        9.6451092001164751E-002
 -0.15317485575516016        2.1844771351386176E-002   6.2692525093832677E-002
 -0.14649655608439391        3.6174395213347157E-002   3.7404336375877770E-002
 -0.13981825641362772        4.2988871585882923E-002   2.0586525847299992E-002
 -0.13313995674286147        4.2288200468993550E-002   1.2239093508099420E-002
 -0.20348282061955364        0.0000000000000000       0.12540846181252485     
 -0.18665270612490328        2.7325192879751988E-002   7.4354032597216985E-002
 -0.16982259163025296        4.4675982465765103E-002   3.5132854840300161E-002
 -0.15299247713560263        5.2052368758039369E-002   7.7449285417744013E-003
 -0.13616236264095227        4.9454351756574769E-002  -7.8097462983602872E-003
 -0.10475892189765965        2.0789746606249819E-002   5.3623770207086294E-002
 -0.10210383763801766        2.4930786620969664E-002   4.5642784158723693E-002
  -9.9448753378375637E-002   2.7508553667940961E-002   3.9350273117531885E-002
  -9.6793669118733633E-002   2.8523047747163809E-002   3.4746237083510864E-002
  -9.4138584859091601E-002   2.7974268858638109E-002   3.1830676056660671E-002
 -0.11743823637121513        2.7955897893831055E-002   4.2955851760822693E-002
 -0.11348229764946302        2.9427746927756931E-002   3.6700724530743842E-002
 -0.10952635892771095        3.0251888605810476E-002   3.1358831217714378E-002
 -0.10557042020595885        3.0428322927991636E-002   2.6930171821734305E-002
 -0.10161448148420675        2.9957049894300480E-002   2.3414746342803622E-002
 -0.12689858131961576        3.5122049181412297E-002   2.9160959527827091E-002
 -0.12241702922587497        3.3924707234544223E-002   2.5547256727908158E-002
 -0.11793547713213418        3.2995223543679973E-002   2.2071546754917140E-002
 -0.11345392503839340        3.2333598108819479E-002   1.8733829608854186E-002
 -0.10897237294465259        3.1939830929962831E-002   1.5534105289719212E-002
 -0.13313995674286147        4.2288200468993550E-002   1.2239093508099420E-002
 -0.12890803236725340        3.8421667541331514E-002   1.2182380750216553E-002
 -0.12467610799164536        3.5738558481549443E-002   1.1488419729140179E-002
 -0.12044418361603727        3.4238873289647337E-002   1.0157210444870498E-002
 -0.11621225924042923        3.3922611965625217E-002   8.1887528974072723E-003
 -0.13616236264095227        4.9454351756574769E-002  -7.8097462983602872E-003
 -0.13295530707359834        4.2918627848118798E-002  -3.3939034023308910E-003
 -0.12974825150624442        3.8481893419418940E-002  -3.9054985961649302E-004
 -0.12654119593889054        3.6144148470475167E-002   1.2003143297832954E-003
 -0.12333414037153659        3.5905393001287589E-002   1.3786891658681133E-003
  -9.4138584859091601E-002   2.7974268858638109E-002   3.1830676056660671E-002
  -9.1753858254640497E-002   2.6781175380006236E-002   3.1261340743387780E-002
  -8.9369131650189365E-002   2.5862725688910716E-002   3.0774999402737240E-002
  -8.6984405045738206E-002   2.5218919785351276E-002   3.0371652034708908E-002
  -8.4599678441287102E-002   2.4849757669328246E-002   3.0051298639303017E-002
 -0.10161448148420675        2.9957049894300480E-002   2.3414746342803622E-002
  -9.9133667378090665E-002   2.9187402706579664E-002   2.3139311140917253E-002
  -9.6652853271974620E-002   2.8468714566671927E-002   2.2973056969738413E-002
  -9.4172039165858548E-002   2.7800985474577346E-002   2.2915983829267135E-002
  -9.1691225059742476E-002   2.7184215430295797E-002   2.2968091719503411E-002
 -0.10897237294465259        3.1939830929962831E-002   1.5534105289719212E-002
 -0.10636928427878636        3.1593630033153047E-002   1.5328885459496146E-002
 -0.10376619561292014        3.1074703444433183E-002   1.5259033718065990E-002
 -0.10116310694705388        3.0383051163803347E-002   1.5324550065428514E-002
  -9.8560018281187656E-002   2.9518673191263341E-002   1.5525434501583810E-002
 -0.11621225924042923        3.3922611965625217E-002   8.1887528974072723E-003
 -0.11346070895672761        3.3999857359726451E-002   7.8300636991245932E-003
 -0.11070915867302596        3.3680692322194443E-002   7.6329296477197850E-003
 -0.10795760838932436        3.2965116853029303E-002   7.5973507431930359E-003
 -0.10520605810562271        3.1853130952230885E-002   7.7233269855441983E-003
 -0.12333414037153659        3.5905393001287589E-002   1.3786891658681133E-003
 -0.12040794141191435        3.6406084686299897E-002   6.4284585980237119E-004
 -0.11748174245229213        3.6286681199955637E-002   9.4744758699881471E-005
 -0.11455554349266989        3.5547182542255321E-002  -2.6561413743937147E-004
 -0.11162934453304768        3.4187588713198491E-002  -4.3823082861543794E-004
  -8.4599678441287102E-002   2.4849757669328246E-002   3.0051298639303017E-002
  -8.2207518773644905E-002   2.4543520621013865E-002   2.9307562447846061E-002
  -7.9815359106002681E-002   2.4088489920580634E-002   2.8864238662058318E-002
  -7.7423199438360457E-002   2.3484665568028716E-002   2.8721327281939771E-002
  -7.5031039770718261E-002   2.2732047563357838E-002   2.8878828307490501E-002
  -9.1691225059742476E-002   2.7184215430295797E-002   2.2968091719503411E-002
  -8.9029417958549351E-002   2.6569769023634428E-002   2.2318791240592502E-002
  -8.6367610857356281E-002   2.5909010844400431E-002   2.1908373223114078E-002
  -8.3705803756163183E-002   2.5201940892593606E-002   2.1736837667068229E-002
  -8.1043996654970071E-002   2.4448559168214201E-002   2.1804184572454713E-002
  -9.8560018281187656E-002   2.9518673191263341E-002   1.5525434501583810E-002
  -9.5690093690680392E-002   2.8596017426254991E-002   1.5073051614764976E-002
  -9.2820169100173128E-002   2.7729531768220170E-002   1.4798021245141972E-002
  -8.9950244509665850E-002   2.6919216217158603E-002   1.4700343392714900E-002
  -8.7080319919158614E-002   2.6165070773070426E-002   1.4780018057483538E-002
 -0.10520605810562271        3.1853130952230885E-002   7.7233269855441983E-003
 -0.10218954597003796        3.0622265828875651E-002   7.5703435703635370E-003
  -9.9173033834453250E-002   2.9550052692039731E-002   7.5331827281420356E-003
  -9.6156521698868513E-002   2.8636491541723520E-002   7.6118444588797237E-003
  -9.3140009563283749E-002   2.7881582377926775E-002   7.8063287625764859E-003
 -0.11162934453304768        3.4187588713198491E-002  -4.3823082861543794E-004
 -0.10852777479662212        3.2648514231496201E-002  -1.8933289261180430E-004
 -0.10542620506019665        3.1370573615859668E-002   1.1385767211435915E-004
 -0.10232463532377110        3.0353766866288424E-002   4.7134086556310795E-004
  -9.9223065587345616E-002   2.9598093982783069E-002   8.8311668773394247E-004
  -7.5031039770718261E-002   2.2732047563357838E-002   2.8878828307490501E-002
  -7.2750543919095551E-002   2.1923371103825154E-002   2.8741522771350003E-002
  -7.0470048067472812E-002   2.1151371386687434E-002   2.8735440716597171E-002
  -6.8189552215850102E-002   2.0416048411944845E-002   2.8860582143232158E-002
  -6.5909056364227392E-002   1.9717402179597054E-002   2.9116947051255060E-002
  -8.1043996654970071E-002   2.4448559168214201E-002   2.1804184572454713E-002
  -7.8627113550109831E-002   2.3672532978884137E-002   2.1667526220760555E-002
  -7.6210230445249577E-002   2.2897529632225674E-002   2.1672418894153743E-002
  -7.3793347340389226E-002   2.2123549128238770E-002   2.1818862592634134E-002
  -7.1376464235529055E-002   2.1350591466923419E-002   2.2106857316201933E-002
  -8.7080319919158614E-002   2.6165070773070426E-002   1.4780018057483538E-002
  -8.4516722017361282E-002   2.5421694853943085E-002   1.4608352990512261E-002
  -8.1953124115563908E-002   2.4643687877763915E-002   1.4588566492327745E-002
  -7.9389526213766617E-002   2.3831049844532638E-002   1.4720658562930172E-002
  -7.6825928311969202E-002   2.2983780754249616E-002   1.5004629202319153E-002
  -9.3140009563283749E-002   2.7881582377926775E-002   7.8063287625764859E-003
  -9.0419369320849902E-002   2.7170856729001967E-002   7.5640030806046789E-003
  -8.7698729078415999E-002   2.6389846123301877E-002   7.4838835111192756E-003
  -8.4978088835982110E-002   2.5538550560826590E-002   7.5659700541200348E-003
  -8.2257448593548194E-002   2.4616970041575897E-002   7.8102627096072047E-003
  -9.9223065587345616E-002   2.9598093982783069E-002   8.8311668773394247E-004
  -9.6335055460575691E-002   2.8920018604060960E-002   5.3447649103827155E-004
  -9.3447045333805712E-002   2.8136004368840242E-002   3.5836995052822285E-004
  -9.0559035207035760E-002   2.7246051277120462E-002   3.5479706620420923E-004
  -8.7671025080265808E-002   2.6250159328902067E-002   5.2375783806579701E-004
  -6.5909056364227392E-002   1.9717402179597054E-002   2.9116947051255060E-002
  -6.3355726640823243E-002   1.9034713892689181E-002   2.8798852836443345E-002
  -6.0802396917419094E-002   1.8347264754265472E-002   2.8707978947951546E-002
  -5.8249067194014945E-002   1.7655054764326345E-002   2.8844325385779829E-002
  -5.5695737470610795E-002   1.6958083922871292E-002   2.9207892149928028E-002
  -7.1376464235529055E-002   2.1350591466923419E-002   2.2106857316201933E-002
  -6.8604280581938334E-002   2.0581758161889716E-002   2.1799573009306059E-002
  -6.5832096928347711E-002   1.9820150726747643E-002   2.1702776236463134E-002
  -6.3059913274757073E-002   1.9065769161497437E-002   2.1816466997673083E-002
  -6.0287729621166450E-002   1.8318613466138833E-002   2.2140645292936245E-002
  -7.6825928311969202E-002   2.2983780754249616E-002   1.5004629202319153E-002
  -7.3851623520459153E-002   2.2128802431090167E-002   1.4720141524746572E-002
  -7.0877318728949090E-002   2.1293036699229807E-002   1.4629408588959891E-002
  -6.7903013937439000E-002   2.0476483558668691E-002   1.4732430394959129E-002
  -6.4928709145928895E-002   1.9679143009406458E-002   1.5029206942744303E-002
  -8.2257448593548194E-002   2.4616970041575897E-002   7.8102627096072047E-003
  -7.9097755456385629E-002   2.3675846700290992E-002   7.5605583827650993E-003
  -7.5938062319223107E-002   2.2765922671712003E-002   7.4878760054422327E-003
  -7.2778369182060570E-002   2.1887197955839922E-002   7.5922155776378510E-003
  -6.9618676044898006E-002   2.1039672552674069E-002   7.8735770993526404E-003
  -8.7671025080265808E-002   2.6250159328902067E-002   5.2375783806579701E-004
  -8.4342676389717819E-002   2.5222890969491263E-002   3.2082358336166239E-004
  -8.1014327699169830E-002   2.4238808644194282E-002   2.7817848590958039E-004
  -7.7685979008621869E-002   2.3297912353011326E-002   3.9582254570948855E-004
  -7.4357630318073853E-002   2.2400202095941513E-002   6.7375576276096361E-004
  -5.5695737470610795E-002   1.6958083922871292E-002   2.9207892149928028E-002
  -5.3732156684728971E-002   1.6253052491153330E-002   2.8928463566911644E-002
  -5.1768575898847147E-002   1.5536660730424659E-002   2.8758063268012085E-002
  -4.9804995112965378E-002   1.4808908640685420E-002   2.8696691253229822E-002
  -4.7841414327083498E-002   1.4069796221935715E-002   2.8744347522564273E-002
  -6.0287729621166450E-002   1.8318613466138833E-002   2.2140645292936245E-002
  -5.8190806433594131E-002   1.7575130732523814E-002   2.1830923315578954E-002
  -5.6093883246021777E-002   1.6831768052504359E-002   2.1678857857485495E-002
  -5.3996960058449464E-002   1.6088525426080205E-002   2.1684448918656146E-002
  -5.1900036870877103E-002   1.5345402853251700E-002   2.1847696499090852E-002
  -6.4928709145928895E-002   1.9679143009406458E-002   1.5029206942744303E-002
  -6.2649815321519073E-002   1.8897208973894492E-002   1.4700671953652295E-002
  -6.0370921497109251E-002   1.8126875374583996E-002   1.4578421718971175E-002
  -5.8092027672699428E-002   1.7368142211475153E-002   1.4662456238701046E-002
  -5.5813133848289551E-002   1.6621009484567961E-002   1.4952775512841660E-002
  -6.9618676044898006E-002   2.1039672552674069E-002   7.8735770993526404E-003
  -6.7109183348503756E-002   2.0219287215265294E-002   7.5377094811319573E-003
  -6.4599690652109576E-002   1.9421982696663721E-002   7.4567548524686143E-003
  -6.2090197955715368E-002   1.8647758996869910E-002   7.6307132133636201E-003
  -5.9580705259321132E-002   1.7896616115883751E-002   8.0595845638164604E-003
  -7.4357630318073853E-002   2.2400202095941513E-002   6.7375576276096361E-004
  -7.1568910514548278E-002   2.1541365456635764E-002   3.4203589801740097E-004
  -6.8780190711022704E-002   2.0717090018743500E-002   3.1385725797833386E-004
  -6.5991470907497074E-002   1.9927375782264681E-002   5.8921984264471983E-004
  -6.3202751103971555E-002   1.9172222747199985E-002   1.1681236520155736E-003
  -4.7841414327083498E-002   1.4069796221935715E-002   2.8744347522564273E-002
  -4.4964355582317483E-002   1.3474197927672071E-002   2.8451801507874297E-002
  -4.2087296837551386E-002   1.3176988211390767E-002   2.8691652817912472E-002
  -3.9210238092785246E-002   1.3178167073091628E-002   2.9463901452678770E-002
  -3.6333179348019218E-002   1.3477734512775230E-002   3.0768547412172831E-002
  -5.1900036870877103E-002   1.5345402853251700E-002   2.1847696499090852E-002
  -4.8631393387161700E-002   1.4640403881957309E-002   2.1747121328730912E-002
  -4.5362749903446339E-002   1.4011532060135556E-002   2.1897318311541319E-002
  -4.2094106419730819E-002   1.3458787387787038E-002   2.2298287447522380E-002
  -3.8825462936015520E-002   1.2982169864911075E-002   2.2950028736674288E-002
  -5.5813133848289551E-002   1.6621009484567961E-002   1.4952775512841660E-002
  -5.2434530797182397E-002   1.5806609836242741E-002   1.4821909758301874E-002
  -4.9055927746075166E-002   1.4846075908880638E-002   1.4660190985375202E-002
  -4.5677324694967908E-002   1.3739407702482120E-002   1.4467619194061747E-002
  -4.2298721643860768E-002   1.2486605217046809E-002   1.4244194384361031E-002
  -5.9580705259321132E-002   1.7896616115883751E-002   8.0595845638164604E-003
  -5.6373767812379558E-002   1.6972815790527909E-002   7.6761667965874053E-003
  -5.3166830365437998E-002   1.5680619757625962E-002   6.9802708394142432E-003
  -4.9959892918496417E-002   1.4020028017177366E-002   5.9718966922961397E-003
  -4.6752955471554877E-002   1.1991040569182931E-002   4.6510443552342379E-003
  -6.3202751103971555E-002   1.9172222747199985E-002   1.1681236520155736E-003
  -6.0449104432753087E-002   1.8139021744813300E-002   3.0989244358747836E-004
  -5.7695457761534785E-002   1.6515163606370675E-002  -1.1424421263420137E-003
  -5.4941811090316234E-002   1.4300648331872653E-002  -3.1888800577737492E-003
  -5.2188164419098015E-002   1.1495475921318388E-002  -5.8294213507075199E-003
 </DataArray>
 </PointData>
 </Piece>
 <Piece  NumberOfPoints="          1600 "  NumberOfCells="         1024 ">
 <Points>
 <DataArray  type="Float64" NumberOfComponents="3"  format="ascii" >
  0.50000000000000000        0.0000000000000000        0.0000000000000000     
  0.53125000000000000        0.0000000000000000        0.0000000000000000     
  0.56250000000000000        0.0000000000000000        0.0000000000000000     
  0.59375000000000000        0.0000000000000000        0.0000000000000000     
  0.62500000000000000        0.0000000000000000        0.0000000000000000     
  0.50000000000000000        3.1250000000000000E-002   0.0000000000000000     
  0.53125000000000000        3.1250000000000000E-002   0.0000000000000000     
  0.56250000000000000        3.1250000000000000E-002   0.0000000000000000     
  0.59375000000000000        3.1250000000000000E-002   0.0000000000000000     
  0.62500000000000000        3.1250000000000000E-002   0.0000000000000000     
  0.50000000000000000        6.2500000000000000E-002   0.0000000000000000     
  0.53125000000000000        6.2500000000000000E-002   0.0000000000000000     
  0.56250000000000000        6.2500000000000000E-002   0.0000000000000000     
  0.59375000000000000        6.2500000000000000E-002   0.0000000000000000     
  0.62500000000000000        6.2500000000000000E-002   0.0000000000000000     
  0.50000000000000000        9.3750000000000000E-002   0.0000000000000000     
  0.53125000000000000        9.3750000000000000E-002   0.0000000000000000     
  0.56250000000000000        9.3750000000000000E-002   0.0000000000000000     
  0.59375000000000000        9.3750000000000000E-002   0.0000000000000000     
  0.62500000000000000        9.3750000000000000E-002   0.0000000000000000     
  0.50000000000000000       0.12500000000000000        0.0000000000000000     
  0.53125000000000000       0.12500000000000000        0.0000000000000000     
  0.56250000000000000       0.12500000000000000        0.0000000000000000     
  0.59375000000000000       0.12500000000000000        0.0000000000000000     
  0.62500000000000000       0.12500000000000000        0.0000000000000000     
  0.62500000000000000        0.0000000000000000        0.0000000000000000     
  0.65625000000000000        0.0000000000000000        0.0000000000000000     
  0.68750000000000000        0.0000000000000000        0.0000000000000000     
  0.71875000000000000        0.0000000000000000        0.0000000000000000     
  0.75000000000000000        0.0000000000000000        0.0000000000000000     
  0.62500000000000000        3.1250000000000000E-002   0.0000000000000000     
  0.65625000000000000        3.1250000000000000E-002   0.0000000000000000     
  0.68750000000000000        3.1250000000000000E-002   0.0000000000000000     
  0.71875000000000000        3.1250000000000000E-002   0.0000000000000000     
  0.75000000000000000        3.1250000000000000E-002   0.0000000000000000     
  0.62500000000000000        6.2500000000000000E-002   0.0000000000000000     
  0.65625000000000000        6.2500000000000000E-002   0.0000000000000000     
  0.68750000000000000        6.2500000000000000E-002   0.0000000000000000     
  0.71875000000000000        6.2500000000000000E-002   0.0000000000000000     
  0.75000000000000000        6.2500000000000000E-002   0.0000000000000000     
  0.62500000000000000        9.3750000000000000E-002   0.0000000000000000     
  0.65625000000000000        9.3750000000000000E-002   0.0000000000000000     
  0.68750000000000000        9.3750000000000000E-002   0.0000000000000000     
  0.71875000000000000        9.3750000000000000E-002   0.0000000000000000     
  0.75000000000000000        9.3750000000000000E-002   0.0000000000000000     
  0.62500000000000000       0.12500000000000000        0.0000000000000000     
  0.65625000000000000       0.12500000000000000        0.0000000000000000     
  0.68750000000000000       0.12500000000000000        0.0000000000000000     
  0.71875000000000000       0.12500000000000000        0.0000000000000000     
  0.75000000000000000       0.12500000000000000        0.0000000000000000     
  0.75000000000000000        0.0000000000000000        0.0000000000000000     
  0.78125000000000000        0.0000000000000000        0.0000000000000000     
  0.81250000000000000        0.0000000000000000        0.0000000000000000     
  0.84375000000000000        0.0000000000000000        0.0000000000000000     
  0.87500000000000000        0.0000000000000000        0.0000000000000000     
  0.75000000000000000        3.1250000000000000E-002   0.0000000000000000     
  0.78125000000000000        3.1250000000000000E-002   0.0000000000000000     
  0.81250000000000000        3.1250000000000000E-002   0.0000000000000000     
  0.84375000000000000        3.1250000000000000E-002   0.0000000000000000     
  0.87500000000000000        3.1250000000000000E-002   0.0000000000000000     
  0.75000000000000000        6.2500000000000000E-002   0.0000000000000000     
  0.78125000000000000        6.2500000000000000E-002   0.0000000000000000     
  0.81250000000000000        6.2500000000000000E-002   0.0000000000000000     
  0.84375000000000000        6.2500000000000000E-002   0.0000000000000000     
  0.87500000000000000        6.2500000000000000E-002   0.0000000000000000     
  0.75000000000000000        9.3750000000000000E-002   0.0000000000000000     
  0.78125000000000000        9.3750000000000000E-002   0.0000000000000000     
  0.81250000000000000        9.3750000000000000E-002   0.0000000000000000     
  0.84375000000000000        9.3750000000000000E-002   0.0000000000000000     
  0.87500000000000000        9.3750000000000000E-002   0.0000000000000000     
  0.75000000000000000       0.12500000000000000        0.0000000000000000     
  0.78125000000000000       0.12500000000000000        0.0000000000000000     
  0.81250000000000000       0.12500000000000000        0.0000000000000000     
  0.84375000000000000       0.12500000000000000        0.0000000000000000     
  0.87500000000000000       0.12500000000000000        0.0000000000000000     
  0.87500000000000000        0.0000000000000000        0.0000000000000000     
  0.90625000000000000        0.0000000000000000        0.0000000000000000     
  0.93750000000000000        0.0000000000000000        0.0000000000000000     
  0.96875000000000000        0.0000000000000000        0.0000000000000000     
   1.0000000000000000        0.0000000000000000        0.0000000000000000     
  0.87500000000000000        3.1250000000000000E-002   0.0000000000000000     
  0.90625000000000000        3.1250000000000000E-002   0.0000000000000000     
  0.93750000000000000        3.1250000000000000E-002   0.0000000000000000     
  0.96875000000000000        3.1250000000000000E-002   0.0000000000000000     
   1.0000000000000000        3.1250000000000000E-002   0.0000000000000000     
  0.87500000000000000        6.2500000000000000E-002   0.0000000000000000     
  0.90625000000000000        6.2500000000000000E-002   0.0000000000000000     
  0.93750000000000000        6.2500000000000000E-002   0.0000000000000000     
  0.96875000000000000        6.2500000000000000E-002   0.0000000000000000     
   1.0000000000000000        6.2500000000000000E-002   0.0000000000000000     
  0.87500000000000000        9.3750000000000000E-002   0.0000000000000000     
  0.90625000000000000        9.3750000000000000E-002   0.0000000000000000     
  0.93750000000000000        9.3750000000000000E-002   0.0000000000000000     
  0.96875000000000000        9.3750000000000000E-002   0.0000000000000000     
   1.0000000000000000        9.3750000000000000E-002   0.0000000000000000     
  0.87500000000000000       0.12500000000000000        0.0000000000000000     
  0.90625000000000000       0.12500000000000000        0.0000000000000000     
  0.93750000000000000       0.12500000000000000        0.0000000000000000     
  0.96875000000000000       0.12500000000000000        0.0000000000000000     
   1.0000000000000000       0.12500000000000000        0.0000000000000000     
   1.0000000000000000        0.0000000000000000        0.0000000000000000     
   1.0312500000000000        0.0000000000000000        0.0000000000000000     
   1.0625000000000000        0.0000000000000000        0.0000000000000000     
   1.0937500000000000        0.0000000000000000        0.0000000000000000     
   1.1250000000000000        0.0000000000000000        0.0000000000000000     
   1.0000000000000000        3.1250000000000000E-002   0.0000000000000000     
   1.0312500000000000        3.1250000000000000E-002   0.0000000000000000     
   1.0625000000000000        3.1250000000000000E-002   0.0000000000000000     
   1.0937500000000000        3.1250000000000000E-002   0.0000000000000000     
   1.1250000000000000        3.1250000000000000E-002   0.0000000000000000     
   1.0000000000000000        6.2500000000000000E-002   0.0000000000000000     
   1.0312500000000000        6.2500000000000000E-002   0.0000000000000000     
   1.0625000000000000        6.2500000000000000E-002   0.0000000000000000     
   1.0937500000000000        6.2500000000000000E-002   0.0000000000000000     
   1.1250000000000000        6.2500000000000000E-002   0.0000000000000000     
   1.0000000000000000        9.3750000000000000E-002   0.0000000000000000     
   1.0312500000000000        9.3750000000000000E-002   0.0000000000000000     
   1.0625000000000000        9.3750000000000000E-002   0.0000000000000000     
   1.0937500000000000        9.3750000000000000E-002   0.0000000000000000     
   1.1250000000000000        9.3750000000000000E-002   0.0000000000000000     
   1.0000000000000000       0.12500000000000000        0.0000000000000000     
   1.0312500000000000       0.12500000000000000        0.0000000000000000     
   1.0625000000000000       0.12500000000000000        0.0000000000000000     
   1.0937500000000000       0.12500000000000000        0.0000000000000000     
   1.1250000000000000       0.12500000000000000        0.0000000000000000     
   1.1250000000000000        0.0000000000000000        0.0000000000000000     
   1.1562500000000000        0.0000000000000000        0.0000000000000000     
   1.1875000000000000        0.0000000000000000        0.0000000000000000     
   1.2187500000000000        0.0000000000000000        0.0000000000000000     
   1.2500000000000000        0.0000000000000000        0.0000000000000000     
   1.1250000000000000        3.1250000000000000E-002   0.0000000000000000     
   1.1562500000000000        3.1250000000000000E-002   0.0000000000000000     
   1.1875000000000000        3.1250000000000000E-002   0.0000000000000000     
   1.2187500000000000        3.1250000000000000E-002   0.0000000000000000     
   1.2500000000000000        3.1250000000000000E-002   0.0000000000000000     
   1.1250000000000000        6.2500000000000000E-002   0.0000000000000000     
   1.1562500000000000        6.2500000000000000E-002   0.0000000000000000     
   1.1875000000000000        6.2500000000000000E-002   0.0000000000000000     
   1.2187500000000000        6.2500000000000000E-002   0.0000000000000000     
   1.2500000000000000        6.2500000000000000E-002   0.0000000000000000     
   1.1250000000000000        9.3750000000000000E-002   0.0000000000000000     
   1.1562500000000000        9.3750000000000000E-002   0.0000000000000000     
   1.1875000000000000        9.3750000000000000E-002   0.0000000000000000     
   1.2187500000000000        9.3750000000000000E-002   0.0000000000000000     
   1.2500000000000000        9.3750000000000000E-002   0.0000000000000000     
   1.1250000000000000       0.12500000000000000        0.0000000000000000     
   1.1562500000000000       0.12500000000000000        0.0000000000000000     
   1.1875000000000000       0.12500000000000000        0.0000000000000000     
   1.2187500000000000       0.12500000000000000        0.0000000000000000     
   1.2500000000000000       0.12500000000000000        0.0000000000000000     
   1.2500000000000000        0.0000000000000000        0.0000000000000000     
   1.2812500000000000        0.0000000000000000        0.0000000000000000     
   1.3125000000000000        0.0000000000000000        0.0000000000000000     
   1.3437500000000000        0.0000000000000000        0.0000000000000000     
   1.3750000000000000        0.0000000000000000        0.0000000000000000     
   1.2500000000000000        3.1250000000000000E-002   0.0000000000000000     
   1.2812500000000000        3.1250000000000000E-002   0.0000000000000000     
   1.3125000000000000        3.1250000000000000E-002   0.0000000000000000     
   1.3437500000000000        3.1250000000000000E-002   0.0000000000000000     
   1.3750000000000000        3.1250000000000000E-002   0.0000000000000000     
   1.2500000000000000        6.2500000000000000E-002   0.0000000000000000     
   1.2812500000000000        6.2500000000000000E-002   0.0000000000000000     
   1.3125000000000000        6.2500000000000000E-002   0.0000000000000000     
   1.3437500000000000        6.2500000000000000E-002   0.0000000000000000     
   1.3750000000000000        6.2500000000000000E-002   0.0000000000000000     
   1.2500000000000000        9.3750000000000000E-002   0.0000000000000000     
   1.2812500000000000        9.3750000000000000E-002   0.0000000000000000     
   1.3125000000000000        9.3750000000000000E-002   0.0000000000000000     
   1.3437500000000000        9.3750000000000000E-002   0.0000000000000000     
   1.3750000000000000        9.3750000000000000E-002   0.0000000000000000     
   1.2500000000000000       0.12500000000000000        0.0000000000000000     
   1.2812500000000000       0.12500000000000000        0.0000000000000000     
   1.3125000000000000       0.12500000000000000        0.0000000000000000     
   1.3437500000000000       0.12500000000000000        0.0000000000000000     
   1.3750000000000000       0.12500000000000000        0.0000000000000000     
   1.3750000000000000        0.0000000000000000        0.0000000000000000     
   1.4062500000000000        0.0000000000000000        0.0000000000000000     
   1.4375000000000000        0.0000000000000000        0.0000000000000000     
   1.4687500000000000        0.0000000000000000        0.0000000000000000     
   1.5000000000000000        0.0000000000000000        0.0000000000000000     
   1.3750000000000000        3.1250000000000000E-002   0.0000000000000000     
   1.4062500000000000        3.1250000000000000E-002   0.0000000000000000     
   1.4375000000000000        3.1250000000000000E-002   0.0000000000000000     
   1.4687500000000000        3.1250000000000000E-002   0.0000000000000000     
   1.5000000000000000        3.1250000000000000E-002   0.0000000000000000     
   1.3750000000000000        6.2500000000000000E-002   0.0000000000000000     
   1.4062500000000000        6.2500000000000000E-002   0.0000000000000000     
   1.4375000000000000        6.2500000000000000E-002   0.0000000000000000     
   1.4687500000000000        6.2500000000000000E-002   0.0000000000000000     
   1.5000000000000000        6.2500000000000000E-002   0.0000000000000000     
   1.3750000000000000        9.3750000000000000E-002   0.0000000000000000     
   1.4062500000000000        9.3750000000000000E-002   0.0000000000000000     
   1.4375000000000000        9.3750000000000000E-002   0.0000000000000000     
   1.4687500000000000        9.3750000000000000E-002   0.0000000000000000     
   1.5000000000000000        9.3750000000000000E-002   0.0000000000000000     
   1.3750000000000000       0.12500000000000000        0.0000000000000000     
   1.4062500000000000       0.12500000000000000        0.0000000000000000     
   1.4375000000000000       0.12500000000000000        0.0000000000000000     
   1.4687500000000000       0.12500000000000000        0.0000000000000000     
   1.5000000000000000       0.12500000000000000        0.0000000000000000     
  0.50000000000000000       0.12500000000000000        0.0000000000000000     
  0.53125000000000000       0.12500000000000000        0.0000000000000000     
  0.56250000000000000       0.12500000000000000        0.0000000000000000     
  0.59375000000000000       0.12500000000000000        0.0000000000000000     
  0.62500000000000000       0.12500000000000000        0.0000000000000000     
  0.50000000000000000       0.15625000000000000        0.0000000000000000     
  0.53125000000000000       0.15625000000000000        0.0000000000000000     
  0.56250000000000000       0.15625000000000000        0.0000000000000000     
  0.59375000000000000       0.15625000000000000        0.0000000000000000     
  0.62500000000000000       0.15625000000000000        0.0000000000000000     
  0.50000000000000000       0.18750000000000000        0.0000000000000000     
  0.53125000000000000       0.18750000000000000        0.0000000000000000     
  0.56250000000000000       0.18750000000000000        0.0000000000000000     
  0.59375000000000000       0.18750000000000000        0.0000000000000000     
  0.62500000000000000       0.18750000000000000        0.0000000000000000     
  0.50000000000000000       0.21875000000000000        0.0000000000000000     
  0.53125000000000000       0.21875000000000000        0.0000000000000000     
  0.56250000000000000       0.21875000000000000        0.0000000000000000     
  0.59375000000000000       0.21875000000000000        0.0000000000000000     
  0.62500000000000000       0.21875000000000000        0.0000000000000000     
  0.50000000000000000       0.25000000000000000        0.0000000000000000     
  0.53125000000000000       0.25000000000000000        0.0000000000000000     
  0.56250000000000000       0.25000000000000000        0.0000000000000000     
  0.59375000000000000       0.25000000000000000        0.0000000000000000     
  0.62500000000000000       0.25000000000000000        0.0000000000000000     
  0.62500000000000000       0.12500000000000000        0.0000000000000000     
  0.65625000000000000       0.12500000000000000        0.0000000000000000     
  0.68750000000000000       0.12500000000000000        0.0000000000000000     
  0.71875000000000000       0.12500000000000000        0.0000000000000000     
  0.75000000000000000       0.12500000000000000        0.0000000000000000     
  0.62500000000000000       0.15625000000000000        0.0000000000000000     
  0.65625000000000000       0.15625000000000000        0.0000000000000000     
  0.68750000000000000       0.15625000000000000        0.0000000000000000     
  0.71875000000000000       0.15625000000000000        0.0000000000000000     
  0.75000000000000000       0.15625000000000000        0.0000000000000000     
  0.62500000000000000       0.18750000000000000        0.0000000000000000     
  0.65625000000000000       0.18750000000000000        0.0000000000000000     
  0.68750000000000000       0.18750000000000000        0.0000000000000000     
  0.71875000000000000       0.18750000000000000        0.0000000000000000     
  0.75000000000000000       0.18750000000000000        0.0000000000000000     
  0.62500000000000000       0.21875000000000000        0.0000000000000000     
  0.65625000000000000       0.21875000000000000        0.0000000000000000     
  0.68750000000000000       0.21875000000000000        0.0000000000000000     
  0.71875000000000000       0.21875000000000000        0.0000000000000000     
  0.75000000000000000       0.21875000000000000        0.0000000000000000     
  0.62500000000000000       0.25000000000000000        0.0000000000000000     
  0.65625000000000000       0.25000000000000000        0.0000000000000000     
  0.68750000000000000       0.25000000000000000        0.0000000000000000     
  0.71875000000000000       0.25000000000000000        0.0000000000000000     
  0.75000000000000000       0.25000000000000000        0.0000000000000000     
  0.75000000000000000       0.12500000000000000        0.0000000000000000     
  0.78125000000000000       0.12500000000000000        0.0000000000000000     
  0.81250000000000000       0.12500000000000000        0.0000000000000000     
  0.84375000000000000       0.12500000000000000        0.0000000000000000     
  0.87500000000000000       0.12500000000000000        0.0000000000000000     
  0.75000000000000000       0.15625000000000000        0.0000000000000000     
  0.78125000000000000       0.15625000000000000        0.0000000000000000     
  0.81250000000000000       0.15625000000000000        0.0000000000000000     
  0.84375000000000000       0.15625000000000000        0.0000000000000000     
  0.87500000000000000       0.15625000000000000        0.0000000000000000     
  0.75000000000000000       0.18750000000000000        0.0000000000000000     
  0.78125000000000000       0.18750000000000000        0.0000000000000000     
  0.81250000000000000       0.18750000000000000        0.0000000000000000     
  0.84375000000000000       0.18750000000000000        0.0000000000000000     
  0.87500000000000000       0.18750000000000000        0.0000000000000000     
  0.75000000000000000       0.21875000000000000        0.0000000000000000     
  0.78125000000000000       0.21875000000000000        0.0000000000000000     
  0.81250000000000000       0.21875000000000000        0.0000000000000000     
  0.84375000000000000       0.21875000000000000        0.0000000000000000     
  0.87500000000000000       0.21875000000000000        0.0000000000000000     
  0.75000000000000000       0.25000000000000000        0.0000000000000000     
  0.78125000000000000       0.25000000000000000        0.0000000000000000     
  0.81250000000000000       0.25000000000000000        0.0000000000000000     
  0.84375000000000000       0.25000000000000000        0.0000000000000000     
  0.87500000000000000       0.25000000000000000        0.0000000000000000     
  0.87500000000000000       0.12500000000000000        0.0000000000000000     
  0.90625000000000000       0.12500000000000000        0.0000000000000000     
  0.93750000000000000       0.12500000000000000        0.0000000000000000     
  0.96875000000000000       0.12500000000000000        0.0000000000000000     
   1.0000000000000000       0.12500000000000000        0.0000000000000000     
  0.87500000000000000       0.15625000000000000        0.0000000000000000     
  0.90625000000000000       0.15625000000000000        0.0000000000000000     
  0.93750000000000000       0.15625000000000000        0.0000000000000000     
  0.96875000000000000       0.15625000000000000        0.0000000000000000     
   1.0000000000000000       0.15625000000000000        0.0000000000000000     
  0.87500000000000000       0.18750000000000000        0.0000000000000000     
  0.90625000000000000       0.18750000000000000        0.0000000000000000     
  0.93750000000000000       0.18750000000000000        0.0000000000000000     
  0.96875000000000000       0.18750000000000000        0.0000000000000000     
   1.0000000000000000       0.18750000000000000        0.0000000000000000     
  0.87500000000000000       0.21875000000000000        0.0000000000000000     
  0.90625000000000000       0.21875000000000000        0.0000000000000000     
  0.93750000000000000       0.21875000000000000        0.0000000000000000     
  0.96875000000000000       0.21875000000000000        0.0000000000000000     
   1.0000000000000000       0.21875000000000000        0.0000000000000000     
  0.87500000000000000       0.25000000000000000        0.0000000000000000     
  0.90625000000000000       0.25000000000000000        0.0000000000000000     
  0.93750000000000000       0.25000000000000000        0.0000000000000000     
  0.96875000000000000       0.25000000000000000        0.0000000000000000     
   1.0000000000000000       0.25000000000000000        0.0000000000000000     
   1.0000000000000000       0.12500000000000000        0.0000000000000000     
   1.0312500000000000       0.12500000000000000        0.0000000000000000     
   1.0625000000000000       0.12500000000000000        0.0000000000000000     
   1.0937500000000000       0.12500000000000000        0.0000000000000000     
   1.1250000000000000       0.12500000000000000        0.0000000000000000     
   1.0000000000000000       0.15625000000000000        0.0000000000000000     
   1.0312500000000000       0.15625000000000000        0.0000000000000000     
   1.0625000000000000       0.15625000000000000        0.0000000000000000     
   1.0937500000000000       0.15625000000000000        0.0000000000000000     
   1.1250000000000000       0.15625000000000000        0.0000000000000000     
   1.0000000000000000       0.18750000000000000        0.0000000000000000     
   1.0312500000000000       0.18750000000000000        0.0000000000000000     
   1.0625000000000000       0.18750000000000000        0.0000000000000000     
   1.0937500000000000       0.18750000000000000        0.0000000000000000     
   1.1250000000000000       0.18750000000000000        0.0000000000000000     
   1.0000000000000000       0.21875000000000000        0.0000000000000000     
   1.0312500000000000       0.21875000000000000        0.0000000000000000     
   1.0625000000000000       0.21875000000000000        0.0000000000000000     
   1.0937500000000000       0.21875000000000000        0.0000000000000000     
   1.1250000000000000       0.21875000000000000        0.0000000000000000     
   1.0000000000000000       0.25000000000000000        0.0000000000000000     
   1.0312500000000000       0.25000000000000000        0.0000000000000000     
   1.0625000000000000       0.25000000000000000        0.0000000000000000     
   1.0937500000000000       0.25000000000000000        0.0000000000000000     
   1.1250000000000000       0.25000000000000000        0.0000000000000000     
   1.1250000000000000       0.12500000000000000        0.0000000000000000     
   1.1562500000000000       0.12500000000000000        0.0000000000000000     
   1.1875000000000000       0.12500000000000000        0.0000000000000000     
   1.2187500000000000       0.12500000000000000        0.0000000000000000     
   1.2500000000000000       0.12500000000000000        0.0000000000000000     
   1.1250000000000000       0.15625000000000000        0.0000000000000000     
   1.1562500000000000       0.15625000000000000        0.0000000000000000     
   1.1875000000000000       0.15625000000000000        0.0000000000000000     
   1.2187500000000000       0.15625000000000000        0.0000000000000000     
   1.2500000000000000       0.15625000000000000        0.0000000000000000     
   1.1250000000000000       0.18750000000000000        0.0000000000000000     
   1.1562500000000000       0.18750000000000000        0.0000000000000000     
   1.1875000000000000       0.18750000000000000        0.0000000000000000     
   1.2187500000000000       0.18750000000000000        0.0000000000000000     
   1.2500000000000000       0.18750000000000000        0.0000000000000000     
   1.1250000000000000       0.21875000000000000        0.0000000000000000     
   1.1562500000000000       0.21875000000000000        0.0000000000000000     
   1.1875000000000000       0.21875000000000000        0.0000000000000000     
   1.2187500000000000       0.21875000000000000        0.0000000000000000     
   1.2500000000000000       0.21875000000000000        0.0000000000000000     
   1.1250000000000000       0.25000000000000000        0.0000000000000000     
   1.1562500000000000       0.25000000000000000        0.0000000000000000     
   1.1875000000000000       0.25000000000000000        0.0000000000000000     
   1.2187500000000000       0.25000000000000000        0.0000000000000000     
   1.2500000000000000       0.25000000000000000        0.0000000000000000     
   1.2500000000000000       0.12500000000000000        0.0000000000000000     
   1.2812500000000000       0.12500000000000000        0.0000000000000000     
   1.3125000000000000       0.12500000000000000        0.0000000000000000     
   1.3437500000000000       0.12500000000000000        0.0000000000000000     
   1.3750000000000000       0.12500000000000000        0.0000000000000000     
   1.2500000000000000       0.15625000000000000        0.0000000000000000     
   1.2812500000000000       0.15625000000000000        0.0000000000000000     
   1.3125000000000000       0.15625000000000000        0.0000000000000000     
   1.3437500000000000       0.15625000000000000        0.0000000000000000     
   1.3750000000000000       0.15625000000000000        0.0000000000000000     
   1.2500000000000000       0.18750000000000000        0.0000000000000000     
   1.2812500000000000       0.18750000000000000        0.0000000000000000     
   1.3125000000000000       0.18750000000000000        0.0000000000000000     
   1.3437500000000000       0.18750000000000000        0.0000000000000000     
   1.3750000000000000       0.18750000000000000        0.0000000000000000     
   1.2500000000000000       0.21875000000000000        0.0000000000000000     
   1.2812500000000000       0.21875000000000000        0.0000000000000000     
   1.3125000000000000       0.21875000000000000        0.0000000000000000     
   1.3437500000000000       0.21875000000000000        0.0000000000000000     
   1.3750000000000000       0.21875000000000000        0.0000000000000000     
   1.2500000000000000       0.25000000000000000        0.0000000000000000     
   1.2812500000000000       0.25000000000000000        0.0000000000000000     
   1.3125000000000000       0.25000000000000000        0.0000000000000000     
   1.3437500000000000       0.25000000000000000        0.0000000000000000     
   1.3750000000000000       0.25000000000000000        0.0000000000000000     
   1.3750000000000000       0.12500000000000000        0.0000000000000000     
   1.4062500000000000       0.12500000000000000        0.0000000000000000     
   1.4375000000000000       0.12500000000000000        0.0000000000000000     
   1.4687500000000000       0.12500000000000000        0.0000000000000000     
   1.5000000000000000       0.12500000000000000        0.0000000000000000     
   1.3750000000000000       0.15625000000000000        0.0000000000000000     
   1.4062500000000000       0.15625000000000000        0.0000000000000000     
   1.4375000000000000       0.15625000000000000        0.0000000000000000     
   1.4687500000000000       0.15625000000000000        0.0000000000000000     
   1.5000000000000000       0.15625000000000000        0.0000000000000000     
   1.3750000000000000       0.18750000000000000        0.0000000000000000     
   1.4062500000000000       0.18750000000000000        0.0000000000000000     
   1.4375000000000000       0.18750000000000000        0.0000000000000000     
   1.4687500000000000       0.18750000000000000        0.0000000000000000     
   1.5000000000000000       0.18750000000000000        0.0000000000000000     
   1.3750000000000000       0.21875000000000000        0.0000000000000000     
   1.4062500000000000       0.21875000000000000        0.0000000000000000     
   1.4375000000000000       0.21875000000000000        0.0000000000000000     
   1.4687500000000000       0.21875000000000000        0.0000000000000000     
   1.5000000000000000       0.21875000000000000        0.0000000000000000     
   1.3750000000000000       0.25000000000000000        0.0000000000000000     
   1.4062500000000000       0.25000000000000000        0.0000000000000000     
   1.4375000000000000       0.25000000000000000        0.0000000000000000     
   1.4687500000000000       0.25000000000000000        0.0000000000000000     
   1.5000000000000000       0.25000000000000000        0.0000000000000000     
  0.50000000000000000       0.25000000000000000        0.0000000000000000     
  0.53125000000000000       0.25000000000000000        0.0000000000000000     
  0.56250000000000000       0.25000000000000000        0.0000000000000000     
  0.59375000000000000       0.25000000000000000        0.0000000000000000     
  0.62500000000000000       0.25000000000000000        0.0000000000000000     
  0.50000000000000000       0.28125000000000000        0.0000000000000000     
  0.53125000000000000       0.28125000000000000        0.0000000000000000     
  0.56250000000000000       0.28125000000000000        0.0000000000000000     
  0.59375000000000000       0.28125000000000000        0.0000000000000000     
  0.62500000000000000       0.28125000000000000        0.0000000000000000     
  0.50000000000000000       0.31250000000000000        0.0000000000000000     
  0.53125000000000000       0.31250000000000000        0.0000000000000000     
  0.56250000000000000       0.31250000000000000        0.0000000000000000     
  0.59375000000000000       0.31250000000000000        0.0000000000000000     
  0.62500000000000000       0.31250000000000000        0.0000000000000000     
  0.50000000000000000       0.34375000000000000        0.0000000000000000     
  0.53125000000000000       0.34375000000000000        0.0000000000000000     
  0.56250000000000000       0.34375000000000000        0.0000000000000000     
  0.59375000000000000       0.34375000000000000        0.0000000000000000     
  0.62500000000000000       0.34375000000000000        0.0000000000000000     
  0.50000000000000000       0.37500000000000000        0.0000000000000000     
  0.53125000000000000       0.37500000000000000        0.0000000000000000     
  0.56250000000000000       0.37500000000000000        0.0000000000000000     
  0.59375000000000000       0.37500000000000000        0.0000000000000000     
  0.62500000000000000       0.37500000000000000        0.0000000000000000     
  0.62500000000000000       0.25000000000000000        0.0000000000000000     
  0.65625000000000000       0.25000000000000000        0.0000000000000000     
  0.68750000000000000       0.25000000000000000        0.0000000000000000     
  0.71875000000000000       0.25000000000000000        0.0000000000000000     
  0.75000000000000000       0.25000000000000000        0.0000000000000000     
  0.62500000000000000       0.28125000000000000        0.0000000000000000     
  0.65625000000000000       0.28125000000000000        0.0000000000000000     
  0.68750000000000000       0.28125000000000000        0.0000000000000000     
  0.71875000000000000       0.28125000000000000        0.0000000000000000     
  0.75000000000000000       0.28125000000000000        0.0000000000000000     
  0.62500000000000000       0.31250000000000000        0.0000000000000000     
  0.65625000000000000       0.31250000000000000        0.0000000000000000     
  0.68750000000000000       0.31250000000000000        0.0000000000000000     
  0.71875000000000000       0.31250000000000000        0.0000000000000000     
  0.75000000000000000       0.31250000000000000        0.0000000000000000     
  0.62500000000000000       0.34375000000000000        0.0000000000000000     
  0.65625000000000000       0.34375000000000000        0.0000000000000000     
  0.68750000000000000       0.34375000000000000        0.0000000000000000     
  0.71875000000000000       0.34375000000000000        0.0000000000000000     
  0.75000000000000000       0.34375000000000000        0.0000000000000000     
  0.62500000000000000       0.37500000000000000        0.0000000000000000     
  0.65625000000000000       0.37500000000000000        0.0000000000000000     
  0.68750000000000000       0.37500000000000000        0.0000000000000000     
  0.71875000000000000       0.37500000000000000        0.0000000000000000     
  0.75000000000000000       0.37500000000000000        0.0000000000000000     
  0.75000000000000000       0.25000000000000000        0.0000000000000000     
  0.78125000000000000       0.25000000000000000        0.0000000000000000     
  0.81250000000000000       0.25000000000000000        0.0000000000000000     
  0.84375000000000000       0.25000000000000000        0.0000000000000000     
  0.87500000000000000       0.25000000000000000        0.0000000000000000     
  0.75000000000000000       0.28125000000000000        0.0000000000000000     
  0.78125000000000000       0.28125000000000000        0.0000000000000000     
  0.81250000000000000       0.28125000000000000        0.0000000000000000     
  0.84375000000000000       0.28125000000000000        0.0000000000000000     
  0.87500000000000000       0.28125000000000000        0.0000000000000000     
  0.75000000000000000       0.31250000000000000        0.0000000000000000     
  0.78125000000000000       0.31250000000000000        0.0000000000000000     
  0.81250000000000000       0.31250000000000000        0.0000000000000000     
  0.84375000000000000       0.31250000000000000        0.0000000000000000     
  0.87500000000000000       0.31250000000000000        0.0000000000000000     
  0.75000000000000000       0.34375000000000000        0.0000000000000000     
  0.78125000000000000       0.34375000000000000        0.0000000000000000     
  0.81250000000000000       0.34375000000000000        0.0000000000000000     
  0.84375000000000000       0.34375000000000000        0.0000000000000000     
  0.87500000000000000       0.34375000000000000        0.0000000000000000     
  0.75000000000000000       0.37500000000000000        0.0000000000000000     
  0.78125000000000000       0.37500000000000000        0.0000000000000000     
  0.81250000000000000       0.37500000000000000        0.0000000000000000     
  0.84375000000000000       0.37500000000000000        0.0000000000000000     
  0.87500000000000000       0.37500000000000000        0.0000000000000000     
  0.87500000000000000       0.25000000000000000        0.0000000000000000     
  0.90625000000000000       0.25000000000000000        0.0000000000000000     
  0.93750000000000000       0.25000000000000000        0.0000000000000000     
  0.96875000000000000       0.25000000000000000        0.0000000000000000     
   1.0000000000000000       0.25000000000000000        0.0000000000000000     
  0.87500000000000000       0.28125000000000000        0.0000000000000000     
  0.90625000000000000       0.28125000000000000        0.0000000000000000     
  0.93750000000000000       0.28125000000000000        0.0000000000000000     
  0.96875000000000000       0.28125000000000000        0.0000000000000000     
   1.0000000000000000       0.28125000000000000        0.0000000000000000     
  0.87500000000000000       0.31250000000000000        0.0000000000000000     
  0.90625000000000000       0.31250000000000000        0.0000000000000000     
  0.93750000000000000       0.31250000000000000        0.0000000000000000     
  0.96875000000000000       0.31250000000000000        0.0000000000000000     
   1.0000000000000000       0.31250000000000000        0.0000000000000000     
  0.87500000000000000       0.34375000000000000        0.0000000000000000     
  0.90625000000000000       0.34375000000000000        0.0000000000000000     
  0.93750000000000000       0.34375000000000000        0.0000000000000000     
  0.96875000000000000       0.34375000000000000        0.0000000000000000     
   1.0000000000000000       0.34375000000000000        0.0000000000000000     
  0.87500000000000000       0.37500000000000000        0.0000000000000000     
  0.90625000000000000       0.37500000000000000        0.0000000000000000     
  0.93750000000000000       0.37500000000000000        0.0000000000000000     
  0.96875000000000000       0.37500000000000000        0.0000000000000000     
   1.0000000000000000       0.37500000000000000        0.0000000000000000     
   1.0000000000000000       0.25000000000000000        0.0000000000000000     
   1.0312500000000000       0.25000000000000000        0.0000000000000000     
   1.0625000000000000       0.25000000000000000        0.0000000000000000     
   1.0937500000000000       0.25000000000000000        0.0000000000000000     
   1.1250000000000000       0.25000000000000000        0.0000000000000000     
   1.0000000000000000       0.28125000000000000        0.0000000000000000     
   1.0312500000000000       0.28125000000000000        0.0000000000000000     
   1.0625000000000000       0.28125000000000000        0.0000000000000000     
   1.0937500000000000       0.28125000000000000        0.0000000000000000     
   1.1250000000000000       0.28125000000000000        0.0000000000000000     
   1.0000000000000000       0.31250000000000000        0.0000000000000000     
   1.0312500000000000       0.31250000000000000        0.0000000000000000     
   1.0625000000000000       0.31250000000000000        0.0000000000000000     
   1.0937500000000000       0.31250000000000000        0.0000000000000000     
   1.1250000000000000       0.31250000000000000        0.0000000000000000     
   1.0000000000000000       0.34375000000000000        0.0000000000000000     
   1.0312500000000000       0.34375000000000000        0.0000000000000000     
   1.0625000000000000       0.34375000000000000        0.0000000000000000     
   1.0937500000000000       0.34375000000000000        0.0000000000000000     
   1.1250000000000000       0.34375000000000000        0.0000000000000000     
   1.0000000000000000       0.37500000000000000        0.0000000000000000     
   1.0312500000000000       0.37500000000000000        0.0000000000000000     
   1.0625000000000000       0.37500000000000000        0.0000000000000000     
   1.0937500000000000       0.37500000000000000        0.0000000000000000     
   1.1250000000000000       0.37500000000000000        0.0000000000000000     
   1.1250000000000000       0.25000000000000000        0.0000000000000000     
   1.1562500000000000       0.25000000000000000        0.0000000000000000     
   1.1875000000000000       0.25000000000000000        0.0000000000000000     
   1.2187500000000000       0.25000000000000000        0.0000000000000000     
   1.2500000000000000       0.25000000000000000        0.0000000000000000     
   1.1250000000000000       0.28125000000000000        0.0000000000000000     
   1.1562500000000000       0.28125000000000000        0.0000000000000000     
   1.1875000000000000       0.28125000000000000        0.0000000000000000     
   1.2187500000000000       0.28125000000000000        0.0000000000000000     
   1.2500000000000000       0.28125000000000000        0.0000000000000000     
   1.1250000000000000       0.31250000000000000        0.0000000000000000     
   1.1562500000000000       0.31250000000000000        0.0000000000000000     
   1.1875000000000000       0.31250000000000000        0.0000000000000000     
   1.2187500000000000       0.31250000000000000        0.0000000000000000     
   1.2500000000000000       0.31250000000000000        0.0000000000000000     
   1.1250000000000000       0.34375000000000000        0.0000000000000000     
   1.1562500000000000       0.34375000000000000        0.0000000000000000     
   1.1875000000000000       0.34375000000000000        0.0000000000000000     
   1.2187500000000000       0.34375000000000000        0.0000000000000000     
   1.2500000000000000       0.34375000000000000        0.0000000000000000     
   1.1250000000000000       0.37500000000000000        0.0000000000000000     
   1.1562500000000000       0.37500000000000000        0.0000000000000000     
   1.1875000000000000       0.37500000000000000        0.0000000000000000     
   1.2187500000000000       0.37500000000000000        0.0000000000000000     
   1.2500000000000000       0.37500000000000000        0.0000000000000000     
   1.2500000000000000       0.25000000000000000        0.0000000000000000     
   1.2812500000000000       0.25000000000000000        0.0000000000000000     
   1.3125000000000000       0.25000000000000000        0.0000000000000000     
   1.3437500000000000       0.25000000000000000        0.0000000000000000     
   1.3750000000000000       0.25000000000000000        0.0000000000000000     
   1.2500000000000000       0.28125000000000000        0.0000000000000000     
   1.2812500000000000       0.28125000000000000        0.0000000000000000     
   1.3125000000000000       0.28125000000000000        0.0000000000000000     
   1.3437500000000000       0.28125000000000000        0.0000000000000000     
   1.3750000000000000       0.28125000000000000        0.0000000000000000     
   1.2500000000000000       0.31250000000000000        0.0000000000000000     
   1.2812500000000000       0.31250000000000000        0.0000000000000000     
   1.3125000000000000       0.31250000000000000        0.0000000000000000     
   1.3437500000000000       0.31250000000000000        0.0000000000000000     
   1.3750000000000000       0.31250000000000000        0.0000000000000000     
   1.2500000000000000       0.34375000000000000        0.0000000000000000     
   1.2812500000000000       0.34375000000000000        0.0000000000000000     
   1.3125000000000000       0.34375000000000000        0.0000000000000000     
   1.3437500000000000       0.34375000000000000        0.0000000000000000     
   1.3750000000000000       0.34375000000000000        0.0000000000000000     
   1.2500000000000000       0.37500000000000000        0.0000000000000000     
   1.2812500000000000       0.37500000000000000        0.0000000000000000     
   1.3125000000000000       0.37500000000000000        0.0000000000000000     
   1.3437500000000000       0.37500000000000000        0.0000000000000000     
   1.3750000000000000       0.37500000000000000        0.0000000000000000     
   1.3750000000000000       0.25000000000000000        0.0000000000000000     
   1.4062500000000000       0.25000000000000000        0.0000000000000000     
   1.4375000000000000       0.25000000000000000        0.0000000000000000     
   1.4687500000000000       0.25000000000000000        0.0000000000000000     
   1.5000000000000000       0.25000000000000000        0.0000000000000000     
   1.3750000000000000       0.28125000000000000        0.0000000000000000     
   1.4062500000000000       0.28125000000000000        0.0000000000000000     
   1.4375000000000000       0.28125000000000000        0.0000000000000000     
   1.4687500000000000       0.28125000000000000        0.0000000000000000     
   1.5000000000000000       0.28125000000000000        0.0000000000000000     
   1.3750000000000000       0.31250000000000000        0.0000000000000000     
   1.4062500000000000       0.31250000000000000        0.0000000000000000     
   1.4375000000000000       0.31250000000000000        0.0000000000000000     
   1.4687500000000000       0.31250000000000000        0.0000000000000000     
   1.5000000000000000       0.31250000000000000        0.0000000000000000     
   1.3750000000000000       0.34375000000000000        0.0000000000000000     
   1.4062500000000000       0.34375000000000000        0.0000000000000000     
   1.4375000000000000       0.34375000000000000        0.0000000000000000     
   1.4687500000000000       0.34375000000000000        0.0000000000000000     
   1.5000000000000000       0.34375000000000000        0.0000000000000000     
   1.3750000000000000       0.37500000000000000        0.0000000000000000     
   1.4062500000000000       0.37500000000000000        0.0000000000000000     
   1.4375000000000000       0.37500000000000000        0.0000000000000000     
   1.4687500000000000       0.37500000000000000        0.0000000000000000     
   1.5000000000000000       0.37500000000000000        0.0000000000000000     
  0.50000000000000000       0.37500000000000000        0.0000000000000000     
  0.53125000000000000       0.37500000000000000        0.0000000000000000     
  0.56250000000000000       0.37500000000000000        0.0000000000000000     
  0.59375000000000000       0.37500000000000000        0.0000000000000000     
  0.62500000000000000       0.37500000000000000        0.0000000000000000     
  0.50000000000000000       0.40625000000000000        0.0000000000000000     
  0.53125000000000000       0.40625000000000000        0.0000000000000000     
  0.56250000000000000       0.40625000000000000        0.0000000000000000     
  0.59375000000000000       0.40625000000000000        0.0000000000000000     
  0.62500000000000000       0.40625000000000000        0.0000000000000000     
  0.50000000000000000       0.43750000000000000        0.0000000000000000     
  0.53125000000000000       0.43750000000000000        0.0000000000000000     
  0.56250000000000000       0.43750000000000000        0.0000000000000000     
  0.59375000000000000       0.43750000000000000        0.0000000000000000     
  0.62500000000000000       0.43750000000000000        0.0000000000000000     
  0.50000000000000000       0.46875000000000000        0.0000000000000000     
  0.53125000000000000       0.46875000000000000        0.0000000000000000     
  0.56250000000000000       0.46875000000000000        0.0000000000000000     
  0.59375000000000000       0.46875000000000000        0.0000000000000000     
  0.62500000000000000       0.46875000000000000        0.0000000000000000     
  0.50000000000000000       0.50000000000000000        0.0000000000000000     
  0.53125000000000000       0.50000000000000000        0.0000000000000000     
  0.56250000000000000       0.50000000000000000        0.0000000000000000     
  0.59375000000000000       0.50000000000000000        0.0000000000000000     
  0.62500000000000000       0.50000000000000000        0.0000000000000000     
  0.62500000000000000       0.37500000000000000        0.0000000000000000     
  0.65625000000000000       0.37500000000000000        0.0000000000000000     
  0.68750000000000000       0.37500000000000000        0.0000000000000000     
  0.71875000000000000       0.37500000000000000        0.0000000000000000     
  0.75000000000000000       0.37500000000000000        0.0000000000000000     
  0.62500000000000000       0.40625000000000000        0.0000000000000000     
  0.65625000000000000       0.40625000000000000        0.0000000000000000     
  0.68750000000000000       0.40625000000000000        0.0000000000000000     
  0.71875000000000000       0.40625000000000000        0.0000000000000000     
  0.75000000000000000       0.40625000000000000        0.0000000000000000     
  0.62500000000000000       0.43750000000000000        0.0000000000000000     
  0.65625000000000000       0.43750000000000000        0.0000000000000000     
  0.68750000000000000       0.43750000000000000        0.0000000000000000     
  0.71875000000000000       0.43750000000000000        0.0000000000000000     
  0.75000000000000000       0.43750000000000000        0.0000000000000000     
  0.62500000000000000       0.46875000000000000        0.0000000000000000     
  0.65625000000000000       0.46875000000000000        0.0000000000000000     
  0.68750000000000000       0.46875000000000000        0.0000000000000000     
  0.71875000000000000       0.46875000000000000        0.0000000000000000     
  0.75000000000000000       0.46875000000000000        0.0000000000000000     
  0.62500000000000000       0.50000000000000000        0.0000000000000000     
  0.65625000000000000       0.50000000000000000        0.0000000000000000     
  0.68750000000000000       0.50000000000000000        0.0000000000000000     
  0.71875000000000000       0.50000000000000000        0.0000000000000000     
  0.75000000000000000       0.50000000000000000        0.0000000000000000     
  0.75000000000000000       0.37500000000000000        0.0000000000000000     
  0.78125000000000000       0.37500000000000000        0.0000000000000000     
  0.81250000000000000       0.37500000000000000        0.0000000000000000     
  0.84375000000000000       0.37500000000000000        0.0000000000000000     
  0.87500000000000000       0.37500000000000000        0.0000000000000000     
  0.75000000000000000       0.40625000000000000        0.0000000000000000     
  0.78125000000000000       0.40625000000000000        0.0000000000000000     
  0.81250000000000000       0.40625000000000000        0.0000000000000000     
  0.84375000000000000       0.40625000000000000        0.0000000000000000     
  0.87500000000000000       0.40625000000000000        0.0000000000000000     
  0.75000000000000000       0.43750000000000000        0.0000000000000000     
  0.78125000000000000       0.43750000000000000        0.0000000000000000     
  0.81250000000000000       0.43750000000000000        0.0000000000000000     
  0.84375000000000000       0.43750000000000000        0.0000000000000000     
  0.87500000000000000       0.43750000000000000        0.0000000000000000     
  0.75000000000000000       0.46875000000000000        0.0000000000000000     
  0.78125000000000000       0.46875000000000000        0.0000000000000000     
  0.81250000000000000       0.46875000000000000        0.0000000000000000     
  0.84375000000000000       0.46875000000000000        0.0000000000000000     
  0.87500000000000000       0.46875000000000000        0.0000000000000000     
  0.75000000000000000       0.50000000000000000        0.0000000000000000     
  0.78125000000000000       0.50000000000000000        0.0000000000000000     
  0.81250000000000000       0.50000000000000000        0.0000000000000000     
  0.84375000000000000       0.50000000000000000        0.0000000000000000     
  0.87500000000000000       0.50000000000000000        0.0000000000000000     
  0.87500000000000000       0.37500000000000000        0.0000000000000000     
  0.90625000000000000       0.37500000000000000        0.0000000000000000     
  0.93750000000000000       0.37500000000000000        0.0000000000000000     
  0.96875000000000000       0.37500000000000000        0.0000000000000000     
   1.0000000000000000       0.37500000000000000        0.0000000000000000     
  0.87500000000000000       0.40625000000000000        0.0000000000000000     
  0.90625000000000000       0.40625000000000000        0.0000000000000000     
  0.93750000000000000       0.40625000000000000        0.0000000000000000     
  0.96875000000000000       0.40625000000000000        0.0000000000000000     
   1.0000000000000000       0.40625000000000000        0.0000000000000000     
  0.87500000000000000       0.43750000000000000        0.0000000000000000     
  0.90625000000000000       0.43750000000000000        0.0000000000000000     
  0.93750000000000000       0.43750000000000000        0.0000000000000000     
  0.96875000000000000       0.43750000000000000        0.0000000000000000     
   1.0000000000000000       0.43750000000000000        0.0000000000000000     
  0.87500000000000000       0.46875000000000000        0.0000000000000000     
  0.90625000000000000       0.46875000000000000        0.0000000000000000     
  0.93750000000000000       0.46875000000000000        0.0000000000000000     
  0.96875000000000000       0.46875000000000000        0.0000000000000000     
   1.0000000000000000       0.46875000000000000        0.0000000000000000     
  0.87500000000000000       0.50000000000000000        0.0000000000000000     
  0.90625000000000000       0.50000000000000000        0.0000000000000000     
  0.93750000000000000       0.50000000000000000        0.0000000000000000     
  0.96875000000000000       0.50000000000000000        0.0000000000000000     
   1.0000000000000000       0.50000000000000000        0.0000000000000000     
   1.0000000000000000       0.37500000000000000        0.0000000000000000     
   1.0312500000000000       0.37500000000000000        0.0000000000000000     
   1.0625000000000000       0.37500000000000000        0.0000000000000000     
   1.0937500000000000       0.37500000000000000        0.0000000000000000     
   1.1250000000000000       0.37500000000000000        0.0000000000000000     
   1.0000000000000000       0.40625000000000000        0.0000000000000000     
   1.0312500000000000       0.40625000000000000        0.0000000000000000     
   1.0625000000000000       0.40625000000000000        0.0000000000000000     
   1.0937500000000000       0.40625000000000000        0.0000000000000000     
   1.1250000000000000       0.40625000000000000        0.0000000000000000     
   1.0000000000000000       0.43750000000000000        0.0000000000000000     
   1.0312500000000000       0.43750000000000000        0.0000000000000000     
   1.0625000000000000       0.43750000000000000        0.0000000000000000     
   1.0937500000000000       0.43750000000000000        0.0000000000000000     
   1.1250000000000000       0.43750000000000000        0.0000000000000000     
   1.0000000000000000       0.46875000000000000        0.0000000000000000     
   1.0312500000000000       0.46875000000000000        0.0000000000000000     
   1.0625000000000000       0.46875000000000000        0.0000000000000000     
   1.0937500000000000       0.46875000000000000        0.0000000000000000     
   1.1250000000000000       0.46875000000000000        0.0000000000000000     
   1.0000000000000000       0.50000000000000000        0.0000000000000000     
   1.0312500000000000       0.50000000000000000        0.0000000000000000     
   1.0625000000000000       0.50000000000000000        0.0000000000000000     
   1.0937500000000000       0.50000000000000000        0.0000000000000000     
   1.1250000000000000       0.50000000000000000        0.0000000000000000     
   1.1250000000000000       0.37500000000000000        0.0000000000000000     
   1.1562500000000000       0.37500000000000000        0.0000000000000000     
   1.1875000000000000       0.37500000000000000        0.0000000000000000     
   1.2187500000000000       0.37500000000000000        0.0000000000000000     
   1.2500000000000000       0.37500000000000000        0.0000000000000000     
   1.1250000000000000       0.40625000000000000        0.0000000000000000     
   1.1562500000000000       0.40625000000000000        0.0000000000000000     
   1.1875000000000000       0.40625000000000000        0.0000000000000000     
   1.2187500000000000       0.40625000000000000        0.0000000000000000     
   1.2500000000000000       0.40625000000000000        0.0000000000000000     
   1.1250000000000000       0.43750000000000000        0.0000000000000000     
   1.1562500000000000       0.43750000000000000        0.0000000000000000     
   1.1875000000000000       0.43750000000000000        0.0000000000000000     
   1.2187500000000000       0.43750000000000000        0.0000000000000000     
   1.2500000000000000       0.43750000000000000        0.0000000000000000     
   1.1250000000000000       0.46875000000000000        0.0000000000000000     
   1.1562500000000000       0.46875000000000000        0.0000000000000000     
   1.1875000000000000       0.46875000000000000        0.0000000000000000     
   1.2187500000000000       0.46875000000000000        0.0000000000000000     
   1.2500000000000000       0.46875000000000000        0.0000000000000000     
   1.1250000000000000       0.50000000000000000        0.0000000000000000     
   1.1562500000000000       0.50000000000000000        0.0000000000000000     
   1.1875000000000000       0.50000000000000000        0.0000000000000000     
   1.2187500000000000       0.50000000000000000        0.0000000000000000     
   1.2500000000000000       0.50000000000000000        0.0000000000000000     
   1.2500000000000000       0.37500000000000000        0.0000000000000000     
   1.2812500000000000       0.37500000000000000        0.0000000000000000     
   1.3125000000000000       0.37500000000000000        0.0000000000000000     
   1.3437500000000000       0.37500000000000000        0.0000000000000000     
   1.3750000000000000       0.37500000000000000        0.0000000000000000     
   1.2500000000000000       0.40625000000000000        0.0000000000000000     
   1.2812500000000000       0.40625000000000000        0.0000000000000000     
   1.3125000000000000       0.40625000000000000        0.0000000000000000     
   1.3437500000000000       0.40625000000000000        0.0000000000000000     
   1.3750000000000000       0.40625000000000000        0.0000000000000000     
   1.2500000000000000       0.43750000000000000        0.0000000000000000     
   1.2812500000000000       0.43750000000000000        0.0000000000000000     
   1.3125000000000000       0.43750000000000000        0.0000000000000000     
   1.3437500000000000       0.43750000000000000        0.0000000000000000     
   1.3750000000000000       0.43750000000000000        0.0000000000000000     
   1.2500000000000000       0.46875000000000000        0.0000000000000000     
   1.2812500000000000       0.46875000000000000        0.0000000000000000     
   1.3125000000000000       0.46875000000000000        0.0000000000000000     
   1.3437500000000000       0.46875000000000000        0.0000000000000000     
   1.3750000000000000       0.46875000000000000        0.0000000000000000     
   1.2500000000000000       0.50000000000000000        0.0000000000000000     
   1.2812500000000000       0.50000000000000000        0.0000000000000000     
   1.3125000000000000       0.50000000000000000        0.0000000000000000     
   1.3437500000000000       0.50000000000000000        0.0000000000000000     
   1.3750000000000000       0.50000000000000000        0.0000000000000000     
   1.3750000000000000       0.37500000000000000        0.0000000000000000     
   1.4062500000000000       0.37500000000000000        0.0000000000000000     
   1.4375000000000000       0.37500000000000000        0.0000000000000000     
   1.4687500000000000       0.37500000000000000        0.0000000000000000     
   1.5000000000000000       0.37500000000000000        0.0000000000000000     
   1.3750000000000000       0.40625000000000000        0.0000000000000000     
   1.4062500000000000       0.40625000000000000        0.0000000000000000     
   1.4375000000000000       0.40625000000000000        0.0000000000000000     
   1.4687500000000000       0.40625000000000000        0.0000000000000000     
   1.5000000000000000       0.40625000000000000        0.0000000000000000     
   1.3750000000000000       0.43750000000000000        0.0000000000000000     
   1.4062500000000000       0.43750000000000000        0.0000000000000000     
   1.4375000000000000       0.43750000000000000        0.0000000000000000     
   1.4687500000000000       0.43750000000000000        0.0000000000000000     
   1.5000000000000000       0.43750000000000000        0.0000000000000000     
   1.3750000000000000       0.46875000000000000        0.0000000000000000     
   1.4062500000000000       0.46875000000000000        0.0000000000000000     
   1.4375000000000000       0.46875000000000000        0.0000000000000000     
   1.4687500000000000       0.46875000000000000        0.0000000000000000     
   1.5000000000000000       0.46875000000000000        0.0000000000000000     
   1.3750000000000000       0.50000000000000000        0.0000000000000000     
   1.4062500000000000       0.50000000000000000        0.0000000000000000     
   1.4375000000000000       0.50000000000000000        0.0000000000000000     
   1.4687500000000000       0.50000000000000000        0.0000000000000000     
   1.5000000000000000       0.50000000000000000        0.0000000000000000     
  0.50000000000000000       0.50000000000000000        0.0000000000000000     
  0.53125000000000000       0.50000000000000000        0.0000000000000000     
  0.56250000000000000       0.50000000000000000        0.0000000000000000     
  0.59375000000000000       0.50000000000000000        0.0000000000000000     
  0.62500000000000000       0.50000000000000000        0.0000000000000000     
  0.50000000000000000       0.53125000000000000        0.0000000000000000     
  0.53125000000000000       0.53125000000000000        0.0000000000000000     
  0.56250000000000000       0.53125000000000000        0.0000000000000000     
  0.59375000000000000       0.53125000000000000        0.0000000000000000     
  0.62500000000000000       0.53125000000000000        0.0000000000000000     
  0.50000000000000000       0.56250000000000000        0.0000000000000000     
  0.53125000000000000       0.56250000000000000        0.0000000000000000     
  0.56250000000000000       0.56250000000000000        0.0000000000000000     
  0.59375000000000000       0.56250000000000000        0.0000000000000000     
  0.62500000000000000       0.56250000000000000        0.0000000000000000     
  0.50000000000000000       0.59375000000000000        0.0000000000000000     
  0.53125000000000000       0.59375000000000000        0.0000000000000000     
  0.56250000000000000       0.59375000000000000        0.0000000000000000     
  0.59375000000000000       0.59375000000000000        0.0000000000000000     
  0.62500000000000000       0.59375000000000000        0.0000000000000000     
  0.50000000000000000       0.62500000000000000        0.0000000000000000     
  0.53125000000000000       0.62500000000000000        0.0000000000000000     
  0.56250000000000000       0.62500000000000000        0.0000000000000000     
  0.59375000000000000       0.62500000000000000        0.0000000000000000     
  0.62500000000000000       0.62500000000000000        0.0000000000000000     
  0.62500000000000000       0.50000000000000000        0.0000000000000000     
  0.65625000000000000       0.50000000000000000        0.0000000000000000     
  0.68750000000000000       0.50000000000000000        0.0000000000000000     
  0.71875000000000000       0.50000000000000000        0.0000000000000000     
  0.75000000000000000       0.50000000000000000        0.0000000000000000     
  0.62500000000000000       0.53125000000000000        0.0000000000000000     
  0.65625000000000000       0.53125000000000000        0.0000000000000000     
  0.68750000000000000       0.53125000000000000        0.0000000000000000     
  0.71875000000000000       0.53125000000000000        0.0000000000000000     
  0.75000000000000000       0.53125000000000000        0.0000000000000000     
  0.62500000000000000       0.56250000000000000        0.0000000000000000     
  0.65625000000000000       0.56250000000000000        0.0000000000000000     
  0.68750000000000000       0.56250000000000000        0.0000000000000000     
  0.71875000000000000       0.56250000000000000        0.0000000000000000     
  0.75000000000000000       0.56250000000000000        0.0000000000000000     
  0.62500000000000000       0.59375000000000000        0.0000000000000000     
  0.65625000000000000       0.59375000000000000        0.0000000000000000     
  0.68750000000000000       0.59375000000000000        0.0000000000000000     
  0.71875000000000000       0.59375000000000000        0.0000000000000000     
  0.75000000000000000       0.59375000000000000        0.0000000000000000     
  0.62500000000000000       0.62500000000000000        0.0000000000000000     
  0.65625000000000000       0.62500000000000000        0.0000000000000000     
  0.68750000000000000       0.62500000000000000        0.0000000000000000     
  0.71875000000000000       0.62500000000000000        0.0000000000000000     
  0.75000000000000000       0.62500000000000000        0.0000000000000000     
  0.75000000000000000       0.50000000000000000        0.0000000000000000     
  0.78125000000000000       0.50000000000000000        0.0000000000000000     
  0.81250000000000000       0.50000000000000000        0.0000000000000000     
  0.84375000000000000       0.50000000000000000        0.0000000000000000     
  0.87500000000000000       0.50000000000000000        0.0000000000000000     
  0.75000000000000000       0.53125000000000000        0.0000000000000000     
  0.78125000000000000       0.53125000000000000        0.0000000000000000     
  0.81250000000000000       0.53125000000000000        0.0000000000000000     
  0.84375000000000000       0.53125000000000000        0.0000000000000000     
  0.87500000000000000       0.53125000000000000        0.0000000000000000     
  0.75000000000000000       0.56250000000000000        0.0000000000000000     
  0.78125000000000000       0.56250000000000000        0.0000000000000000     
  0.81250000000000000       0.56250000000000000        0.0000000000000000     
  0.84375000000000000       0.56250000000000000        0.0000000000000000     
  0.87500000000000000       0.56250000000000000        0.0000000000000000     
  0.75000000000000000       0.59375000000000000        0.0000000000000000     
  0.78125000000000000       0.59375000000000000        0.0000000000000000     
  0.81250000000000000       0.59375000000000000        0.0000000000000000     
  0.84375000000000000       0.59375000000000000        0.0000000000000000     
  0.87500000000000000       0.59375000000000000        0.0000000000000000     
  0.75000000000000000       0.62500000000000000        0.0000000000000000     
  0.78125000000000000       0.62500000000000000        0.0000000000000000     
  0.81250000000000000       0.62500000000000000        0.0000000000000000     
  0.84375000000000000       0.62500000000000000        0.0000000000000000     
  0.87500000000000000       0.62500000000000000        0.0000000000000000     
  0.87500000000000000       0.50000000000000000        0.0000000000000000     
  0.90625000000000000       0.50000000000000000        0.0000000000000000     
  0.93750000000000000       0.50000000000000000        0.0000000000000000     
  0.96875000000000000       0.50000000000000000        0.0000000000000000     
   1.0000000000000000       0.50000000000000000        0.0000000000000000     
  0.87500000000000000       0.53125000000000000        0.0000000000000000     
  0.90625000000000000       0.53125000000000000        0.0000000000000000     
  0.93750000000000000       0.53125000000000000        0.0000000000000000     
  0.96875000000000000       0.53125000000000000        0.0000000000000000     
   1.0000000000000000       0.53125000000000000        0.0000000000000000     
  0.87500000000000000       0.56250000000000000        0.0000000000000000     
  0.90625000000000000       0.56250000000000000        0.0000000000000000     
  0.93750000000000000       0.56250000000000000        0.0000000000000000     
  0.96875000000000000       0.56250000000000000        0.0000000000000000     
   1.0000000000000000       0.56250000000000000        0.0000000000000000     
  0.87500000000000000       0.59375000000000000        0.0000000000000000     
  0.90625000000000000       0.59375000000000000        0.0000000000000000     
  0.93750000000000000       0.59375000000000000        0.0000000000000000     
  0.96875000000000000       0.59375000000000000        0.0000000000000000     
   1.0000000000000000       0.59375000000000000        0.0000000000000000     
  0.87500000000000000       0.62500000000000000        0.0000000000000000     
  0.90625000000000000       0.62500000000000000        0.0000000000000000     
  0.93750000000000000       0.62500000000000000        0.0000000000000000     
  0.96875000000000000       0.62500000000000000        0.0000000000000000     
   1.0000000000000000       0.62500000000000000        0.0000000000000000     
   1.0000000000000000       0.50000000000000000        0.0000000000000000     
   1.0312500000000000       0.50000000000000000        0.0000000000000000     
   1.0625000000000000       0.50000000000000000        0.0000000000000000     
   1.0937500000000000       0.50000000000000000        0.0000000000000000     
   1.1250000000000000       0.50000000000000000        0.0000000000000000     
   1.0000000000000000       0.53125000000000000        0.0000000000000000     
   1.0312500000000000       0.53125000000000000        0.0000000000000000     
   1.0625000000000000       0.53125000000000000        0.0000000000000000     
   1.0937500000000000       0.53125000000000000        0.0000000000000000     
   1.1250000000000000       0.53125000000000000        0.0000000000000000     
   1.0000000000000000       0.56250000000000000        0.0000000000000000     
   1.0312500000000000       0.56250000000000000        0.0000000000000000     
   1.0625000000000000       0.56250000000000000        0.0000000000000000     
   1.0937500000000000       0.56250000000000000        0.0000000000000000     
   1.1250000000000000       0.56250000000000000        0.0000000000000000     
   1.0000000000000000       0.59375000000000000        0.0000000000000000     
   1.0312500000000000       0.59375000000000000        0.0000000000000000     
   1.0625000000000000       0.59375000000000000        0.0000000000000000     
   1.0937500000000000       0.59375000000000000        0.0000000000000000     
   1.1250000000000000       0.59375000000000000        0.0000000000000000     
   1.0000000000000000       0.62500000000000000        0.0000000000000000     
   1.0312500000000000       0.62500000000000000        0.0000000000000000     
   1.0625000000000000       0.62500000000000000        0.0000000000000000     
   1.0937500000000000       0.62500000000000000        0.0000000000000000     
   1.1250000000000000       0.62500000000000000        0.0000000000000000     
   1.1250000000000000       0.50000000000000000        0.0000000000000000     
   1.1562500000000000       0.50000000000000000        0.0000000000000000     
   1.1875000000000000       0.50000000000000000        0.0000000000000000     
   1.2187500000000000       0.50000000000000000        0.0000000000000000     
   1.2500000000000000       0.50000000000000000        0.0000000000000000     
   1.1250000000000000       0.53125000000000000        0.0000000000000000     
   1.1562500000000000       0.53125000000000000        0.0000000000000000     
   1.1875000000000000       0.53125000000000000        0.0000000000000000     
   1.2187500000000000       0.53125000000000000        0.0000000000000000     
   1.2500000000000000       0.53125000000000000        0.0000000000000000     
   1.1250000000000000       0.56250000000000000        0.0000000000000000     
   1.1562500000000000       0.56250000000000000        0.0000000000000000     
   1.1875000000000000       0.56250000000000000        0.0000000000000000     
   1.2187500000000000       0.56250000000000000        0.0000000000000000     
   1.2500000000000000       0.56250000000000000        0.0000000000000000     
   1.1250000000000000       0.59375000000000000        0.0000000000000000     
   1.1562500000000000       0.59375000000000000        0.0000000000000000     
   1.1875000000000000       0.59375000000000000        0.0000000000000000     
   1.2187500000000000       0.59375000000000000        0.0000000000000000     
   1.2500000000000000       0.59375000000000000        0.0000000000000000     
   1.1250000000000000       0.62500000000000000        0.0000000000000000     
   1.1562500000000000       0.62500000000000000        0.0000000000000000     
   1.1875000000000000       0.62500000000000000        0.0000000000000000     
   1.2187500000000000       0.62500000000000000        0.0000000000000000     
   1.2500000000000000       0.62500000000000000        0.0000000000000000     
   1.2500000000000000       0.50000000000000000        0.0000000000000000     
   1.2812500000000000       0.50000000000000000        0.0000000000000000     
   1.3125000000000000       0.50000000000000000        0.0000000000000000     
   1.3437500000000000       0.50000000000000000        0.0000000000000000     
   1.3750000000000000       0.50000000000000000        0.0000000000000000     
   1.2500000000000000       0.53125000000000000        0.0000000000000000     
   1.2812500000000000       0.53125000000000000        0.0000000000000000     
   1.3125000000000000       0.53125000000000000        0.0000000000000000     
   1.3437500000000000       0.53125000000000000        0.0000000000000000     
   1.3750000000000000       0.53125000000000000        0.0000000000000000     
   1.2500000000000000       0.56250000000000000        0.0000000000000000     
   1.2812500000000000       0.56250000000000000        0.0000000000000000     
   1.3125000000000000       0.56250000000000000        0.0000000000000000     
   1.3437500000000000       0.56250000000000000        0.0000000000000000     
   1.3750000000000000       0.56250000000000000        0.0000000000000000     
   1.2500000000000000       0.59375000000000000        0.0000000000000000     
   1.2812500000000000       0.59375000000000000        0.0000000000000000     
   1.3125000000000000       0.59375000000000000        0.0000000000000000     
   1.3437500000000000       0.59375000000000000        0.0000000000000000     
   1.3750000000000000       0.59375000000000000        0.0000000000000000     
   1.2500000000000000       0.62500000000000000        0.0000000000000000     
   1.2812500000000000       0.62500000000000000        0.0000000000000000     
   1.3125000000000000       0.62500000000000000        0.0000000000000000     
   1.3437500000000000       0.62500000000000000        0.0000000000000000     
   1.3750000000000000       0.62500000000000000        0.0000000000000000     
   1.3750000000000000       0.50000000000000000        0.0000000000000000     
   1.4062500000000000       0.50000000000000000        0.0000000000000000     
   1.4375000000000000       0.50000000000000000        0.0000000000000000     
   1.4687500000000000       0.50000000000000000        0.0000000000000000     
   1.5000000000000000       0.50000000000000000        0.0000000000000000     
   1.3750000000000000       0.53125000000000000        0.0000000000000000     
   1.4062500000000000       0.53125000000000000        0.0000000000000000     
   1.4375000000000000       0.53125000000000000        0.0000000000000000     
   1.4687500000000000       0.53125000000000000        0.0000000000000000     
   1.5000000000000000       0.53125000000000000        0.0000000000000000     
   1.3750000000000000       0.56250000000000000        0.0000000000000000     
   1.4062500000000000       0.56250000000000000        0.0000000000000000     
   1.4375000000000000       0.56250000000000000        0.0000000000000000     
   1.4687500000000000       0.56250000000000000        0.0000000000000000     
   1.5000000000000000       0.56250000000000000        0.0000000000000000     
   1.3750000000000000       0.59375000000000000        0.0000000000000000     
   1.4062500000000000       0.59375000000000000        0.0000000000000000     
   1.4375000000000000       0.59375000000000000        0.0000000000000000     
   1.4687500000000000       0.59375000000000000        0.0000000000000000     
   1.5000000000000000       0.59375000000000000        0.0000000000000000     
   1.3750000000000000       0.62500000000000000        0.0000000000000000     
   1.4062500000000000       0.62500000000000000        0.0000000000000000     
   1.4375000000000000       0.62500000000000000        0.0000000000000000     
   1.4687500000000000       0.62500000000000000        0.0000000000000000     
   1.5000000000000000       0.62500000000000000        0.0000000000000000     
  0.50000000000000000       0.62500000000000000        0.0000000000000000     
  0.53125000000000000       0.62500000000000000        0.0000000000000000     
  0.56250000000000000       0.62500000000000000        0.0000000000000000     
  0.59375000000000000       0.62500000000000000        0.0000000000000000     
  0.62500000000000000       0.62500000000000000        0.0000000000000000     
  0.50000000000000000       0.65625000000000000        0.0000000000000000     
  0.53125000000000000       0.65625000000000000        0.0000000000000000     
  0.56250000000000000       0.65625000000000000        0.0000000000000000     
  0.59375000000000000       0.65625000000000000        0.0000000000000000     
  0.62500000000000000       0.65625000000000000        0.0000000000000000     
  0.50000000000000000       0.68750000000000000        0.0000000000000000     
  0.53125000000000000       0.68750000000000000        0.0000000000000000     
  0.56250000000000000       0.68750000000000000        0.0000000000000000     
  0.59375000000000000       0.68750000000000000        0.0000000000000000     
  0.62500000000000000       0.68750000000000000        0.0000000000000000     
  0.50000000000000000       0.71875000000000000        0.0000000000000000     
  0.53125000000000000       0.71875000000000000        0.0000000000000000     
  0.56250000000000000       0.71875000000000000        0.0000000000000000     
  0.59375000000000000       0.71875000000000000        0.0000000000000000     
  0.62500000000000000       0.71875000000000000        0.0000000000000000     
  0.50000000000000000       0.75000000000000000        0.0000000000000000     
  0.53125000000000000       0.75000000000000000        0.0000000000000000     
  0.56250000000000000       0.75000000000000000        0.0000000000000000     
  0.59375000000000000       0.75000000000000000        0.0000000000000000     
  0.62500000000000000       0.75000000000000000        0.0000000000000000     
  0.62500000000000000       0.62500000000000000        0.0000000000000000     
  0.65625000000000000       0.62500000000000000        0.0000000000000000     
  0.68750000000000000       0.62500000000000000        0.0000000000000000     
  0.71875000000000000       0.62500000000000000        0.0000000000000000     
  0.75000000000000000       0.62500000000000000        0.0000000000000000     
  0.62500000000000000       0.65625000000000000        0.0000000000000000     
  0.65625000000000000       0.65625000000000000        0.0000000000000000     
  0.68750000000000000       0.65625000000000000        0.0000000000000000     
  0.71875000000000000       0.65625000000000000        0.0000000000000000     
  0.75000000000000000       0.65625000000000000        0.0000000000000000     
  0.62500000000000000       0.68750000000000000        0.0000000000000000     
  0.65625000000000000       0.68750000000000000        0.0000000000000000     
  0.68750000000000000       0.68750000000000000        0.0000000000000000     
  0.71875000000000000       0.68750000000000000        0.0000000000000000     
  0.75000000000000000       0.68750000000000000        0.0000000000000000     
  0.62500000000000000       0.71875000000000000        0.0000000000000000     
  0.65625000000000000       0.71875000000000000        0.0000000000000000     
  0.68750000000000000       0.71875000000000000        0.0000000000000000     
  0.71875000000000000       0.71875000000000000        0.0000000000000000     
  0.75000000000000000       0.71875000000000000        0.0000000000000000     
  0.62500000000000000       0.75000000000000000        0.0000000000000000     
  0.65625000000000000       0.75000000000000000        0.0000000000000000     
  0.68750000000000000       0.75000000000000000        0.0000000000000000     
  0.71875000000000000       0.75000000000000000        0.0000000000000000     
  0.75000000000000000       0.75000000000000000        0.0000000000000000     
  0.75000000000000000       0.62500000000000000        0.0000000000000000     
  0.78125000000000000       0.62500000000000000        0.0000000000000000     
  0.81250000000000000       0.62500000000000000        0.0000000000000000     
  0.84375000000000000       0.62500000000000000        0.0000000000000000     
  0.87500000000000000       0.62500000000000000        0.0000000000000000     
  0.75000000000000000       0.65625000000000000        0.0000000000000000     
  0.78125000000000000       0.65625000000000000        0.0000000000000000     
  0.81250000000000000       0.65625000000000000        0.0000000000000000     
  0.84375000000000000       0.65625000000000000        0.0000000000000000     
  0.87500000000000000       0.65625000000000000        0.0000000000000000     
  0.75000000000000000       0.68750000000000000        0.0000000000000000     
  0.78125000000000000       0.68750000000000000        0.0000000000000000     
  0.81250000000000000       0.68750000000000000        0.0000000000000000     
  0.84375000000000000       0.68750000000000000        0.0000000000000000     
  0.87500000000000000       0.68750000000000000        0.0000000000000000     
  0.75000000000000000       0.71875000000000000        0.0000000000000000     
  0.78125000000000000       0.71875000000000000        0.0000000000000000     
  0.81250000000000000       0.71875000000000000        0.0000000000000000     
  0.84375000000000000       0.71875000000000000        0.0000000000000000     
  0.87500000000000000       0.71875000000000000        0.0000000000000000     
  0.75000000000000000       0.75000000000000000        0.0000000000000000     
  0.78125000000000000       0.75000000000000000        0.0000000000000000     
  0.81250000000000000       0.75000000000000000        0.0000000000000000     
  0.84375000000000000       0.75000000000000000        0.0000000000000000     
  0.87500000000000000       0.75000000000000000        0.0000000000000000     
  0.87500000000000000       0.62500000000000000        0.0000000000000000     
  0.90625000000000000       0.62500000000000000        0.0000000000000000     
  0.93750000000000000       0.62500000000000000        0.0000000000000000     
  0.96875000000000000       0.62500000000000000        0.0000000000000000     
   1.0000000000000000       0.62500000000000000        0.0000000000000000     
  0.87500000000000000       0.65625000000000000        0.0000000000000000     
  0.90625000000000000       0.65625000000000000        0.0000000000000000     
  0.93750000000000000       0.65625000000000000        0.0000000000000000     
  0.96875000000000000       0.65625000000000000        0.0000000000000000     
   1.0000000000000000       0.65625000000000000        0.0000000000000000     
  0.87500000000000000       0.68750000000000000        0.0000000000000000     
  0.90625000000000000       0.68750000000000000        0.0000000000000000     
  0.93750000000000000       0.68750000000000000        0.0000000000000000     
  0.96875000000000000       0.68750000000000000        0.0000000000000000     
   1.0000000000000000       0.68750000000000000        0.0000000000000000     
  0.87500000000000000       0.71875000000000000        0.0000000000000000     
  0.90625000000000000       0.71875000000000000        0.0000000000000000     
  0.93750000000000000       0.71875000000000000        0.0000000000000000     
  0.96875000000000000       0.71875000000000000        0.0000000000000000     
   1.0000000000000000       0.71875000000000000        0.0000000000000000     
  0.87500000000000000       0.75000000000000000        0.0000000000000000     
  0.90625000000000000       0.75000000000000000        0.0000000000000000     
  0.93750000000000000       0.75000000000000000        0.0000000000000000     
  0.96875000000000000       0.75000000000000000        0.0000000000000000     
   1.0000000000000000       0.75000000000000000        0.0000000000000000     
   1.0000000000000000       0.62500000000000000        0.0000000000000000     
   1.0312500000000000       0.62500000000000000        0.0000000000000000     
   1.0625000000000000       0.62500000000000000        0.0000000000000000     
   1.0937500000000000       0.62500000000000000        0.0000000000000000     
   1.1250000000000000       0.62500000000000000        0.0000000000000000     
   1.0000000000000000       0.65625000000000000        0.0000000000000000     
   1.0312500000000000       0.65625000000000000        0.0000000000000000     
   1.0625000000000000       0.65625000000000000        0.0000000000000000     
   1.0937500000000000       0.65625000000000000        0.0000000000000000     
   1.1250000000000000       0.65625000000000000        0.0000000000000000     
   1.0000000000000000       0.68750000000000000        0.0000000000000000     
   1.0312500000000000       0.68750000000000000        0.0000000000000000     
   1.0625000000000000       0.68750000000000000        0.0000000000000000     
   1.0937500000000000       0.68750000000000000        0.0000000000000000     
   1.1250000000000000       0.68750000000000000        0.0000000000000000     
   1.0000000000000000       0.71875000000000000        0.0000000000000000     
   1.0312500000000000       0.71875000000000000        0.0000000000000000     
   1.0625000000000000       0.71875000000000000        0.0000000000000000     
   1.0937500000000000       0.71875000000000000        0.0000000000000000     
   1.1250000000000000       0.71875000000000000        0.0000000000000000     
   1.0000000000000000       0.75000000000000000        0.0000000000000000     
   1.0312500000000000       0.75000000000000000        0.0000000000000000     
   1.0625000000000000       0.75000000000000000        0.0000000000000000     
   1.0937500000000000       0.75000000000000000        0.0000000000000000     
   1.1250000000000000       0.75000000000000000        0.0000000000000000     
   1.1250000000000000       0.62500000000000000        0.0000000000000000     
   1.1562500000000000       0.62500000000000000        0.0000000000000000     
   1.1875000000000000       0.62500000000000000        0.0000000000000000     
   1.2187500000000000       0.62500000000000000        0.0000000000000000     
   1.2500000000000000       0.62500000000000000        0.0000000000000000     
   1.1250000000000000       0.65625000000000000        0.0000000000000000     
   1.1562500000000000       0.65625000000000000        0.0000000000000000     
   1.1875000000000000       0.65625000000000000        0.0000000000000000     
   1.2187500000000000       0.65625000000000000        0.0000000000000000     
   1.2500000000000000       0.65625000000000000        0.0000000000000000     
   1.1250000000000000       0.68750000000000000        0.0000000000000000     
   1.1562500000000000       0.68750000000000000        0.0000000000000000     
   1.1875000000000000       0.68750000000000000        0.0000000000000000     
   1.2187500000000000       0.68750000000000000        0.0000000000000000     
   1.2500000000000000       0.68750000000000000        0.0000000000000000     
   1.1250000000000000       0.71875000000000000        0.0000000000000000     
   1.1562500000000000       0.71875000000000000        0.0000000000000000     
   1.1875000000000000       0.71875000000000000        0.0000000000000000     
   1.2187500000000000       0.71875000000000000        0.0000000000000000     
   1.2500000000000000       0.71875000000000000        0.0000000000000000     
   1.1250000000000000       0.75000000000000000        0.0000000000000000     
   1.1562500000000000       0.75000000000000000        0.0000000000000000     
   1.1875000000000000       0.75000000000000000        0.0000000000000000     
   1.2187500000000000       0.75000000000000000        0.0000000000000000     
   1.2500000000000000       0.75000000000000000        0.0000000000000000     
   1.2500000000000000       0.62500000000000000        0.0000000000000000     
   1.2812500000000000       0.62500000000000000        0.0000000000000000     
   1.3125000000000000       0.62500000000000000        0.0000000000000000     
   1.3437500000000000       0.62500000000000000        0.0000000000000000     
   1.3750000000000000       0.62500000000000000        0.0000000000000000     
   1.2500000000000000       0.65625000000000000        0.0000000000000000     
   1.2812500000000000       0.65625000000000000        0.0000000000000000     
   1.3125000000000000       0.65625000000000000        0.0000000000000000     
   1.3437500000000000       0.65625000000000000        0.0000000000000000     
   1.3750000000000000       0.65625000000000000        0.0000000000000000     
   1.2500000000000000       0.68750000000000000        0.0000000000000000     
   1.2812500000000000       0.68750000000000000        0.0000000000000000     
   1.3125000000000000       0.68750000000000000        0.0000000000000000     
   1.3437500000000000       0.68750000000000000        0.0000000000000000     
   1.3750000000000000       0.68750000000000000        0.0000000000000000     
   1.2500000000000000       0.71875000000000000        0.0000000000000000     
   1.2812500000000000       0.71875000000000000        0.0000000000000000     
   1.3125000000000000       0.71875000000000000        0.0000000000000000     
   1.3437500000000000       0.71875000000000000        0.0000000000000000     
   1.3750000000000000       0.71875000000000000        0.0000000000000000     
   1.2500000000000000       0.75000000000000000        0.0000000000000000     
   1.2812500000000000       0.75000000000000000        0.0000000000000000     
   1.3125000000000000       0.75000000000000000        0.0000000000000000     
   1.3437500000000000       0.75000000000000000        0.0000000000000000     
   1.3750000000000000       0.75000000000000000        0.0000000000000000     
   1.3750000000000000       0.62500000000000000        0.0000000000000000     
   1.4062500000000000       0.62500000000000000        0.0000000000000000     
   1.4375000000000000       0.62500000000000000        0.0000000000000000     
   1.4687500000000000       0.62500000000000000        0.0000000000000000     
   1.5000000000000000       0.62500000000000000        0.0000000000000000     
   1.3750000000000000       0.65625000000000000        0.0000000000000000     
   1.4062500000000000       0.65625000000000000        0.0000000000000000     
   1.4375000000000000       0.65625000000000000        0.0000000000000000     
   1.4687500000000000       0.65625000000000000        0.0000000000000000     
   1.5000000000000000       0.65625000000000000        0.0000000000000000     
   1.3750000000000000       0.68750000000000000        0.0000000000000000     
   1.4062500000000000       0.68750000000000000        0.0000000000000000     
   1.4375000000000000       0.68750000000000000        0.0000000000000000     
   1.4687500000000000       0.68750000000000000        0.0000000000000000     
   1.5000000000000000       0.68750000000000000        0.0000000000000000     
   1.3750000000000000       0.71875000000000000        0.0000000000000000     
   1.4062500000000000       0.71875000000000000        0.0000000000000000     
   1.4375000000000000       0.71875000000000000        0.0000000000000000     
   1.4687500000000000       0.71875000000000000        0.0000000000000000     
   1.5000000000000000       0.71875000000000000        0.0000000000000000     
   1.3750000000000000       0.75000000000000000        0.0000000000000000     
   1.4062500000000000       0.75000000000000000        0.0000000000000000     
   1.4375000000000000       0.75000000000000000        0.0000000000000000     
   1.4687500000000000       0.75000000000000000        0.0000000000000000     
   1.5000000000000000       0.75000000000000000        0.0000000000000000     
  0.50000000000000000       0.75000000000000000        0.0000000000000000     
  0.53125000000000000       0.75000000000000000        0.0000000000000000     
  0.56250000000000000       0.75000000000000000        0.0000000000000000     
  0.59375000000000000       0.75000000000000000        0.0000000000000000     
  0.62500000000000000       0.75000000000000000        0.0000000000000000     
  0.50000000000000000       0.78125000000000000        0.0000000000000000     
  0.53125000000000000       0.78125000000000000        0.0000000000000000     
  0.56250000000000000       0.78125000000000000        0.0000000000000000     
  0.59375000000000000       0.78125000000000000        0.0000000000000000     
  0.62500000000000000       0.78125000000000000        0.0000000000000000     
  0.50000000000000000       0.81250000000000000        0.0000000000000000     
  0.53125000000000000       0.81250000000000000        0.0000000000000000     
  0.56250000000000000       0.81250000000000000        0.0000000000000000     
  0.59375000000000000       0.81250000000000000        0.0000000000000000     
  0.62500000000000000       0.81250000000000000        0.0000000000000000     
  0.50000000000000000       0.84375000000000000        0.0000000000000000     
  0.53125000000000000       0.84375000000000000        0.0000000000000000     
  0.56250000000000000       0.84375000000000000        0.0000000000000000     
  0.59375000000000000       0.84375000000000000        0.0000000000000000     
  0.62500000000000000       0.84375000000000000        0.0000000000000000     
  0.50000000000000000       0.87500000000000000        0.0000000000000000     
  0.53125000000000000       0.87500000000000000        0.0000000000000000     
  0.56250000000000000       0.87500000000000000        0.0000000000000000     
  0.59375000000000000       0.87500000000000000        0.0000000000000000     
  0.62500000000000000       0.87500000000000000        0.0000000000000000     
  0.62500000000000000       0.75000000000000000        0.0000000000000000     
  0.65625000000000000       0.75000000000000000        0.0000000000000000     
  0.68750000000000000       0.75000000000000000        0.0000000000000000     
  0.71875000000000000       0.75000000000000000        0.0000000000000000     
  0.75000000000000000       0.75000000000000000        0.0000000000000000     
  0.62500000000000000       0.78125000000000000        0.0000000000000000     
  0.65625000000000000       0.78125000000000000        0.0000000000000000     
  0.68750000000000000       0.78125000000000000        0.0000000000000000     
  0.71875000000000000       0.78125000000000000        0.0000000000000000     
  0.75000000000000000       0.78125000000000000        0.0000000000000000     
  0.62500000000000000       0.81250000000000000        0.0000000000000000     
  0.65625000000000000       0.81250000000000000        0.0000000000000000     
  0.68750000000000000       0.81250000000000000        0.0000000000000000     
  0.71875000000000000       0.81250000000000000        0.0000000000000000     
  0.75000000000000000       0.81250000000000000        0.0000000000000000     
  0.62500000000000000       0.84375000000000000        0.0000000000000000     
  0.65625000000000000       0.84375000000000000        0.0000000000000000     
  0.68750000000000000       0.84375000000000000        0.0000000000000000     
  0.71875000000000000       0.84375000000000000        0.0000000000000000     
  0.75000000000000000       0.84375000000000000        0.0000000000000000     
  0.62500000000000000       0.87500000000000000        0.0000000000000000     
  0.65625000000000000       0.87500000000000000        0.0000000000000000     
  0.68750000000000000       0.87500000000000000        0.0000000000000000     
  0.71875000000000000       0.87500000000000000        0.0000000000000000     
  0.75000000000000000       0.87500000000000000        0.0000000000000000     
  0.75000000000000000       0.75000000000000000        0.0000000000000000     
  0.78125000000000000       0.75000000000000000        0.0000000000000000     
  0.81250000000000000       0.75000000000000000        0.0000000000000000     
  0.84375000000000000       0.75000000000000000        0.0000000000000000     
  0.87500000000000000       0.75000000000000000        0.0000000000000000     
  0.75000000000000000       0.78125000000000000        0.0000000000000000     
  0.78125000000000000       0.78125000000000000        0.0000000000000000     
  0.81250000000000000       0.78125000000000000        0.0000000000000000     
  0.84375000000000000       0.78125000000000000        0.0000000000000000     
  0.87500000000000000       0.78125000000000000        0.0000000000000000     
  0.75000000000000000       0.81250000000000000        0.0000000000000000     
  0.78125000000000000       0.81250000000000000        0.0000000000000000     
  0.81250000000000000       0.81250000000000000        0.0000000000000000     
  0.84375000000000000       0.81250000000000000        0.0000000000000000     
  0.87500000000000000       0.81250000000000000        0.0000000000000000     
  0.75000000000000000       0.84375000000000000        0.0000000000000000     
  0.78125000000000000       0.84375000000000000        0.0000000000000000     
  0.81250000000000000       0.84375000000000000        0.0000000000000000     
  0.84375000000000000       0.84375000000000000        0.0000000000000000     
  0.87500000000000000       0.84375000000000000        0.0000000000000000     
  0.75000000000000000       0.87500000000000000        0.0000000000000000     
  0.78125000000000000       0.87500000000000000        0.0000000000000000     
  0.81250000000000000       0.87500000000000000        0.0000000000000000     
  0.84375000000000000       0.87500000000000000        0.0000000000000000     
  0.87500000000000000       0.87500000000000000        0.0000000000000000     
  0.87500000000000000       0.75000000000000000        0.0000000000000000     
  0.90625000000000000       0.75000000000000000        0.0000000000000000     
  0.93750000000000000       0.75000000000000000        0.0000000000000000     
  0.96875000000000000       0.75000000000000000        0.0000000000000000     
   1.0000000000000000       0.75000000000000000        0.0000000000000000     
  0.87500000000000000       0.78125000000000000        0.0000000000000000     
  0.90625000000000000       0.78125000000000000        0.0000000000000000     
  0.93750000000000000       0.78125000000000000        0.0000000000000000     
  0.96875000000000000       0.78125000000000000        0.0000000000000000     
   1.0000000000000000       0.78125000000000000        0.0000000000000000     
  0.87500000000000000       0.81250000000000000        0.0000000000000000     
  0.90625000000000000       0.81250000000000000        0.0000000000000000     
  0.93750000000000000       0.81250000000000000        0.0000000000000000     
  0.96875000000000000       0.81250000000000000        0.0000000000000000     
   1.0000000000000000       0.81250000000000000        0.0000000000000000     
  0.87500000000000000       0.84375000000000000        0.0000000000000000     
  0.90625000000000000       0.84375000000000000        0.0000000000000000     
  0.93750000000000000       0.84375000000000000        0.0000000000000000     
  0.96875000000000000       0.84375000000000000        0.0000000000000000     
   1.0000000000000000       0.84375000000000000        0.0000000000000000     
  0.87500000000000000       0.87500000000000000        0.0000000000000000     
  0.90625000000000000       0.87500000000000000        0.0000000000000000     
  0.93750000000000000       0.87500000000000000        0.0000000000000000     
  0.96875000000000000       0.87500000000000000        0.0000000000000000     
   1.0000000000000000       0.87500000000000000        0.0000000000000000     
   1.0000000000000000       0.75000000000000000        0.0000000000000000     
   1.0312500000000000       0.75000000000000000        0.0000000000000000     
   1.0625000000000000       0.75000000000000000        0.0000000000000000     
   1.0937500000000000       0.75000000000000000        0.0000000000000000     
   1.1250000000000000       0.75000000000000000        0.0000000000000000     
   1.0000000000000000       0.78125000000000000        0.0000000000000000     
   1.0312500000000000       0.78125000000000000        0.0000000000000000     
   1.0625000000000000       0.78125000000000000        0.0000000000000000     
   1.0937500000000000       0.78125000000000000        0.0000000000000000     
   1.1250000000000000       0.78125000000000000        0.0000000000000000     
   1.0000000000000000       0.81250000000000000        0.0000000000000000     
   1.0312500000000000       0.81250000000000000        0.0000000000000000     
   1.0625000000000000       0.81250000000000000        0.0000000000000000     
   1.0937500000000000       0.81250000000000000        0.0000000000000000     
   1.1250000000000000       0.81250000000000000        0.0000000000000000     
   1.0000000000000000       0.84375000000000000        0.0000000000000000     
   1.0312500000000000       0.84375000000000000        0.0000000000000000     
   1.0625000000000000       0.84375000000000000        0.0000000000000000     
   1.0937500000000000       0.84375000000000000        0.0000000000000000     
   1.1250000000000000       0.84375000000000000        0.0000000000000000     
   1.0000000000000000       0.87500000000000000        0.0000000000000000     
   1.0312500000000000       0.87500000000000000        0.0000000000000000     
   1.0625000000000000       0.87500000000000000        0.0000000000000000     
   1.0937500000000000       0.87500000000000000        0.0000000000000000     
   1.1250000000000000       0.87500000000000000        0.0000000000000000     
   1.1250000000000000       0.75000000000000000        0.0000000000000000     
   1.1562500000000000       0.75000000000000000        0.0000000000000000     
   1.1875000000000000       0.75000000000000000        0.0000000000000000     
   1.2187500000000000       0.75000000000000000        0.0000000000000000     
   1.2500000000000000       0.75000000000000000        0.0000000000000000     
   1.1250000000000000       0.78125000000000000        0.0000000000000000     
   1.1562500000000000       0.78125000000000000        0.0000000000000000     
   1.1875000000000000       0.78125000000000000        0.0000000000000000     
   1.2187500000000000       0.78125000000000000        0.0000000000000000     
   1.2500000000000000       0.78125000000000000        0.0000000000000000     
   1.1250000000000000       0.81250000000000000        0.0000000000000000     
   1.1562500000000000       0.81250000000000000        0.0000000000000000     
   1.1875000000000000       0.81250000000000000        0.0000000000000000     
   1.2187500000000000       0.81250000000000000        0.0000000000000000     
   1.2500000000000000       0.81250000000000000        0.0000000000000000     
   1.1250000000000000       0.84375000000000000        0.0000000000000000     
   1.1562500000000000       0.84375000000000000        0.0000000000000000     
   1.1875000000000000       0.84375000000000000        0.0000000000000000     
   1.2187500000000000       0.84375000000000000        0.0000000000000000     
   1.2500000000000000       0.84375000000000000        0.0000000000000000     
   1.1250000000000000       0.87500000000000000        0.0000000000000000     
   1.1562500000000000       0.87500000000000000        0.0000000000000000     
   1.1875000000000000       0.87500000000000000        0.0000000000000000     
   1.2187500000000000       0.87500000000000000        0.0000000000000000     
   1.2500000000000000       0.87500000000000000        0.0000000000000000     
   1.2500000000000000       0.75000000000000000        0.0000000000000000     
   1.2812500000000000       0.75000000000000000        0.0000000000000000     
   1.3125000000000000       0.75000000000000000        0.0000000000000000     
   1.3437500000000000       0.75000000000000000        0.0000000000000000     
   1.3750000000000000       0.75000000000000000        0.0000000000000000     
   1.2500000000000000       0.78125000000000000        0.0000000000000000     
   1.2812500000000000       0.78125000000000000        0.0000000000000000     
   1.3125000000000000       0.78125000000000000        0.0000000000000000     
   1.3437500000000000       0.78125000000000000        0.0000000000000000     
   1.3750000000000000       0.78125000000000000        0.0000000000000000     
   1.2500000000000000       0.81250000000000000        0.0000000000000000     
   1.2812500000000000       0.81250000000000000        0.0000000000000000     
   1.3125000000000000       0.81250000000000000        0.0000000000000000     
   1.3437500000000000       0.81250000000000000        0.0000000000000000     
   1.3750000000000000       0.81250000000000000        0.0000000000000000     
   1.2500000000000000       0.84375000000000000        0.0000000000000000     
   1.2812500000000000       0.84375000000000000        0.0000000000000000     
   1.3125000000000000       0.84375000000000000        0.0000000000000000     
   1.3437500000000000       0.84375000000000000        0.0000000000000000     
   1.3750000000000000       0.84375000000000000        0.0000000000000000     
   1.2500000000000000       0.87500000000000000        0.0000000000000000     
   1.2812500000000000       0.87500000000000000        0.0000000000000000     
   1.3125000000000000       0.87500000000000000        0.0000000000000000     
   1.3437500000000000       0.87500000000000000        0.0000000000000000     
   1.3750000000000000       0.87500000000000000        0.0000000000000000     
   1.3750000000000000       0.75000000000000000        0.0000000000000000     
   1.4062500000000000       0.75000000000000000        0.0000000000000000     
   1.4375000000000000       0.75000000000000000        0.0000000000000000     
   1.4687500000000000       0.75000000000000000        0.0000000000000000     
   1.5000000000000000       0.75000000000000000        0.0000000000000000     
   1.3750000000000000       0.78125000000000000        0.0000000000000000     
   1.4062500000000000       0.78125000000000000        0.0000000000000000     
   1.4375000000000000       0.78125000000000000        0.0000000000000000     
   1.4687500000000000       0.78125000000000000        0.0000000000000000     
   1.5000000000000000       0.78125000000000000        0.0000000000000000     
   1.3750000000000000       0.81250000000000000        0.0000000000000000     
   1.4062500000000000       0.81250000000000000        0.0000000000000000     
   1.4375000000000000       0.81250000000000000        0.0000000000000000     
   1.4687500000000000       0.81250000000000000        0.0000000000000000     
   1.5000000000000000       0.81250000000000000        0.0000000000000000     
   1.3750000000000000       0.84375000000000000        0.0000000000000000     
   1.4062500000000000       0.84375000000000000        0.0000000000000000     
   1.4375000000000000       0.84375000000000000        0.0000000000000000     
   1.4687500000000000       0.84375000000000000        0.0000000000000000     
   1.5000000000000000       0.84375000000000000        0.0000000000000000     
   1.3750000000000000       0.87500000000000000        0.0000000000000000     
   1.4062500000000000       0.87500000000000000        0.0000000000000000     
   1.4375000000000000       0.87500000000000000        0.0000000000000000     
   1.4687500000000000       0.87500000000000000        0.0000000000000000     
   1.5000000000000000       0.87500000000000000        0.0000000000000000     
  0.50000000000000000       0.87500000000000000        0.0000000000000000     
  0.53125000000000000       0.87500000000000000        0.0000000000000000     
  0.56250000000000000       0.87500000000000000        0.0000000000000000     
  0.59375000000000000       0.87500000000000000        0.0000000000000000     
  0.62500000000000000       0.87500000000000000        0.0000000000000000     
  0.50000000000000000       0.90625000000000000        0.0000000000000000     
  0.53125000000000000       0.90625000000000000        0.0000000000000000     
  0.56250000000000000       0.90625000000000000        0.0000000000000000     
  0.59375000000000000       0.90625000000000000        0.0000000000000000     
  0.62500000000000000       0.90625000000000000        0.0000000000000000     
  0.50000000000000000       0.93750000000000000        0.0000000000000000     
  0.53125000000000000       0.93750000000000000        0.0000000000000000     
  0.56250000000000000       0.93750000000000000        0.0000000000000000     
  0.59375000000000000       0.93750000000000000        0.0000000000000000     
  0.62500000000000000       0.93750000000000000        0.0000000000000000     
  0.50000000000000000       0.96875000000000000        0.0000000000000000     
  0.53125000000000000       0.96875000000000000        0.0000000000000000     
  0.56250000000000000       0.96875000000000000        0.0000000000000000     
  0.59375000000000000       0.96875000000000000        0.0000000000000000     
  0.62500000000000000       0.96875000000000000        0.0000000000000000     
  0.50000000000000000        1.0000000000000000        0.0000000000000000     
  0.53125000000000000        1.0000000000000000        0.0000000000000000     
  0.56250000000000000        1.0000000000000000        0.0000000000000000     
  0.59375000000000000        1.0000000000000000        0.0000000000000000     
  0.62500000000000000        1.0000000000000000        0.0000000000000000     
  0.62500000000000000       0.87500000000000000        0.0000000000000000     
  0.65625000000000000       0.87500000000000000        0.0000000000000000     
  0.68750000000000000       0.87500000000000000        0.0000000000000000     
  0.71875000000000000       0.87500000000000000        0.0000000000000000     
  0.75000000000000000       0.87500000000000000        0.0000000000000000     
  0.62500000000000000       0.90625000000000000        0.0000000000000000     
  0.65625000000000000       0.90625000000000000        0.0000000000000000     
  0.68750000000000000       0.90625000000000000        0.0000000000000000     
  0.71875000000000000       0.90625000000000000        0.0000000000000000     
  0.75000000000000000       0.90625000000000000        0.0000000000000000     
  0.62500000000000000       0.93750000000000000        0.0000000000000000     
  0.65625000000000000       0.93750000000000000        0.0000000000000000     
  0.68750000000000000       0.93750000000000000        0.0000000000000000     
  0.71875000000000000       0.93750000000000000        0.0000000000000000     
  0.75000000000000000       0.93750000000000000        0.0000000000000000     
  0.62500000000000000       0.96875000000000000        0.0000000000000000     
  0.65625000000000000       0.96875000000000000        0.0000000000000000     
  0.68750000000000000       0.96875000000000000        0.0000000000000000     
  0.71875000000000000       0.96875000000000000        0.0000000000000000     
  0.75000000000000000       0.96875000000000000        0.0000000000000000     
  0.62500000000000000        1.0000000000000000        0.0000000000000000     
  0.65625000000000000        1.0000000000000000        0.0000000000000000     
  0.68750000000000000        1.0000000000000000        0.0000000000000000     
  0.71875000000000000        1.0000000000000000        0.0000000000000000     
  0.75000000000000000        1.0000000000000000        0.0000000000000000     
  0.75000000000000000       0.87500000000000000        0.0000000000000000     
  0.78125000000000000       0.87500000000000000        0.0000000000000000     
  0.81250000000000000       0.87500000000000000        0.0000000000000000     
  0.84375000000000000       0.87500000000000000        0.0000000000000000     
  0.87500000000000000       0.87500000000000000        0.0000000000000000     
  0.75000000000000000       0.90625000000000000        0.0000000000000000     
  0.78125000000000000       0.90625000000000000        0.0000000000000000     
  0.81250000000000000       0.90625000000000000        0.0000000000000000     
  0.84375000000000000       0.90625000000000000        0.0000000000000000     
  0.87500000000000000       0.90625000000000000        0.0000000000000000     
  0.75000000000000000       0.93750000000000000        0.0000000000000000     
  0.78125000000000000       0.93750000000000000        0.0000000000000000     
  0.81250000000000000       0.93750000000000000        0.0000000000000000     
  0.84375000000000000       0.93750000000000000        0.0000000000000000     
  0.87500000000000000       0.93750000000000000        0.0000000000000000     
  0.75000000000000000       0.96875000000000000        0.0000000000000000     
  0.78125000000000000       0.96875000000000000        0.0000000000000000     
  0.81250000000000000       0.96875000000000000        0.0000000000000000     
  0.84375000000000000       0.96875000000000000        0.0000000000000000     
  0.87500000000000000       0.96875000000000000        0.0000000000000000     
  0.75000000000000000        1.0000000000000000        0.0000000000000000     
  0.78125000000000000        1.0000000000000000        0.0000000000000000     
  0.81250000000000000        1.0000000000000000        0.0000000000000000     
  0.84375000000000000        1.0000000000000000        0.0000000000000000     
  0.87500000000000000        1.0000000000000000        0.0000000000000000     
  0.87500000000000000       0.87500000000000000        0.0000000000000000     
  0.90625000000000000       0.87500000000000000        0.0000000000000000     
  0.93750000000000000       0.87500000000000000        0.0000000000000000     
  0.96875000000000000       0.87500000000000000        0.0000000000000000     
   1.0000000000000000       0.87500000000000000        0.0000000000000000     
  0.87500000000000000       0.90625000000000000        0.0000000000000000     
  0.90625000000000000       0.90625000000000000        0.0000000000000000     
  0.93750000000000000       0.90625000000000000        0.0000000000000000     
  0.96875000000000000       0.90625000000000000        0.0000000000000000     
   1.0000000000000000       0.90625000000000000        0.0000000000000000     
  0.87500000000000000       0.93750000000000000        0.0000000000000000     
  0.90625000000000000       0.93750000000000000        0.0000000000000000     
  0.93750000000000000       0.93750000000000000        0.0000000000000000     
  0.96875000000000000       0.93750000000000000        0.0000000000000000     
   1.0000000000000000       0.93750000000000000        0.0000000000000000     
  0.87500000000000000       0.96875000000000000        0.0000000000000000     
  0.90625000000000000       0.96875000000000000        0.0000000000000000     
  0.93750000000000000       0.96875000000000000        0.0000000000000000     
  0.96875000000000000       0.96875000000000000        0.0000000000000000     
   1.0000000000000000       0.96875000000000000        0.0000000000000000     
  0.87500000000000000        1.0000000000000000        0.0000000000000000     
  0.90625000000000000        1.0000000000000000        0.0000000000000000     
  0.93750000000000000        1.0000000000000000        0.0000000000000000     
  0.96875000000000000        1.0000000000000000        0.0000000000000000     
   1.0000000000000000        1.0000000000000000        0.0000000000000000     
   1.0000000000000000       0.87500000000000000        0.0000000000000000     
   1.0312500000000000       0.87500000000000000        0.0000000000000000     
   1.0625000000000000       0.87500000000000000        0.0000000000000000     
   1.0937500000000000       0.87500000000000000        0.0000000000000000     
   1.1250000000000000       0.87500000000000000        0.0000000000000000     
   1.0000000000000000       0.90625000000000000        0.0000000000000000     
   1.0312500000000000       0.90625000000000000        0.0000000000000000     
   1.0625000000000000       0.90625000000000000        0.0000000000000000     
   1.0937500000000000       0.90625000000000000        0.0000000000000000     
   1.1250000000000000       0.90625000000000000        0.0000000000000000     
   1.0000000000000000       0.93750000000000000        0.0000000000000000     
   1.0312500000000000       0.93750000000000000        0.0000000000000000     
   1.0625000000000000       0.93750000000000000        0.0000000000000000     
   1.0937500000000000       0.93750000000000000        0.0000000000000000     
   1.1250000000000000       0.93750000000000000        0.0000000000000000     
   1.0000000000000000       0.96875000000000000        0.0000000000000000     
   1.0312500000000000       0.96875000000000000        0.0000000000000000     
   1.0625000000000000       0.96875000000000000        0.0000000000000000     
   1.0937500000000000       0.96875000000000000        0.0000000000000000     
   1.1250000000000000       0.96875000000000000        0.0000000000000000     
   1.0000000000000000        1.0000000000000000        0.0000000000000000     
   1.0312500000000000        1.0000000000000000        0.0000000000000000     
   1.0625000000000000        1.0000000000000000        0.0000000000000000     
   1.0937500000000000        1.0000000000000000        0.0000000000000000     
   1.1250000000000000        1.0000000000000000        0.0000000000000000     
   1.1250000000000000       0.87500000000000000        0.0000000000000000     
   1.1562500000000000       0.87500000000000000        0.0000000000000000     
   1.1875000000000000       0.87500000000000000        0.0000000000000000     
   1.2187500000000000       0.87500000000000000        0.0000000000000000     
   1.2500000000000000       0.87500000000000000        0.0000000000000000     
   1.1250000000000000       0.90625000000000000        0.0000000000000000     
   1.1562500000000000       0.90625000000000000        0.0000000000000000     
   1.1875000000000000       0.90625000000000000        0.0000000000000000     
   1.2187500000000000       0.90625000000000000        0.0000000000000000     
   1.2500000000000000       0.90625000000000000        0.0000000000000000     
   1.1250000000000000       0.93750000000000000        0.0000000000000000     
   1.1562500000000000       0.93750000000000000        0.0000000000000000     
   1.1875000000000000       0.93750000000000000        0.0000000000000000     
   1.2187500000000000       0.93750000000000000        0.0000000000000000     
   1.2500000000000000       0.93750000000000000        0.0000000000000000     
   1.1250000000000000       0.96875000000000000        0.0000000000000000     
   1.1562500000000000       0.96875000000000000        0.0000000000000000     
   1.1875000000000000       0.96875000000000000        0.0000000000000000     
   1.2187500000000000       0.96875000000000000        0.0000000000000000     
   1.2500000000000000       0.96875000000000000        0.0000000000000000     
   1.1250000000000000        1.0000000000000000        0.0000000000000000     
   1.1562500000000000        1.0000000000000000        0.0000000000000000     
   1.1875000000000000        1.0000000000000000        0.0000000000000000     
   1.2187500000000000        1.0000000000000000        0.0000000000000000     
   1.2500000000000000        1.0000000000000000        0.0000000000000000     
   1.2500000000000000       0.87500000000000000        0.0000000000000000     
   1.2812500000000000       0.87500000000000000        0.0000000000000000     
   1.3125000000000000       0.87500000000000000        0.0000000000000000     
   1.3437500000000000       0.87500000000000000        0.0000000000000000     
   1.3750000000000000       0.87500000000000000        0.0000000000000000     
   1.2500000000000000       0.90625000000000000        0.0000000000000000     
   1.2812500000000000       0.90625000000000000        0.0000000000000000     
   1.3125000000000000       0.90625000000000000        0.0000000000000000     
   1.3437500000000000       0.90625000000000000        0.0000000000000000     
   1.3750000000000000       0.90625000000000000        0.0000000000000000     
   1.2500000000000000       0.93750000000000000        0.0000000000000000     
   1.2812500000000000       0.93750000000000000        0.0000000000000000     
   1.3125000000000000       0.93750000000000000        0.0000000000000000     
   1.3437500000000000       0.93750000000000000        0.0000000000000000     
   1.3750000000000000       0.93750000000000000        0.0000000000000000     
   1.2500000000000000       0.96875000000000000        0.0000000000000000     
   1.2812500000000000       0.96875000000000000        0.0000000000000000     
   1.3125000000000000       0.96875000000000000        0.0000000000000000     
   1.3437500000000000       0.96875000000000000        0.0000000000000000     
   1.3750000000000000       0.96875000000000000        0.0000000000000000     
   1.2500000000000000        1.0000000000000000        0.0000000000000000     
   1.2812500000000000        1.0000000000000000        0.0000000000000000     
   1.3125000000000000        1.0000000000000000        0.0000000000000000     
   1.3437500000000000        1.0000000000000000        0.0000000000000000     
   1.3750000000000000        1.0000000000000000        0.0000000000000000     
   1.3750000000000000       0.87500000000000000        0.0000000000000000     
   1.4062500000000000       0.87500000000000000        0.0000000000000000     
   1.4375000000000000       0.87500000000000000        0.0000000000000000     
   1.4687500000000000       0.87500000000000000        0.0000000000000000     
   1.5000000000000000       0.87500000000000000        0.0000000000000000     
   1.3750000000000000       0.90625000000000000        0.0000000000000000     
   1.4062500000000000       0.90625000000000000        0.0000000000000000     
   1.4375000000000000       0.90625000000000000        0.0000000000000000     
   1.4687500000000000       0.90625000000000000        0.0000000000000000     
   1.5000000000000000       0.90625000000000000        0.0000000000000000     
   1.3750000000000000       0.93750000000000000        0.0000000000000000     
   1.4062500000000000       0.93750000000000000        0.0000000000000000     
   1.4375000000000000       0.93750000000000000        0.0000000000000000     
   1.4687500000000000       0.93750000000000000        0.0000000000000000     
   1.5000000000000000       0.93750000000000000        0.0000000000000000     
   1.3750000000000000       0.96875000000000000        0.0000000000000000     
   1.4062500000000000       0.96875000000000000        0.0000000000000000     
   1.4375000000000000       0.96875000000000000        0.0000000000000000     
   1.4687500000000000       0.96875000000000000        0.0000000000000000     
   1.5000000000000000       0.96875000000000000        0.0000000000000000     
   1.3750000000000000        1.0000000000000000        0.0000000000000000     
   1.4062500000000000        1.0000000000000000        0.0000000000000000     
   1.4375000000000000        1.0000000000000000        0.0000000000000000     
   1.4687500000000000        1.0000000000000000        0.0000000000000000     
   1.5000000000000000        1.0000000000000000        0.0000000000000000     
 </DataArray>
 </Points>
 <Cells>
 <DataArray  type="Int32"  Name="connectivity"  format="ascii">
           0           1           6           5
           1           2           7           6
           2           3           8           7
           3           4           9           8
           5           6          11          10
           6           7          12          11
           7           8          13          12
           8           9          14          13
          10          11          16          15
          11          12          17          16
          12          13          18          17
          13          14          19          18
          15          16          21          20
          16          17          22          21
          17          18          23          22
          18          19          24          23
          25          26          31          30
          26          27          32          31
          27          28          33          32
          28          29          34          33
          30          31          36          35
          31          32          37          36
          32          33          38          37
          33          34          39          38
          35          36          41          40
          36          37          42          41
          37          38          43          42
          38          39          44          43
          40          41          46          45
          41          42          47          46
          42          43          48          47
          43          44          49          48
          50          51          56          55
          51          52          57          56
          52          53          58          57
          53          54          59          58
          55          56          61          60
          56          57          62          61
          57          58          63          62
          58          59          64          63
          60          61          66          65
          61          62          67          66
          62          63          68          67
          63          64          69          68
          65          66          71          70
          66          67          72          71
          67          68          73          72
          68          69          74          73
          75          76          81          80
          76          77          82          81
          77          78          83          82
          78          79          84          83
          80          81          86          85
          81          82          87          86
          82          83          88          87
          83          84          89          88
          85          86          91          90
          86          87          92          91
          87          88          93          92
          88          89          94          93
          90          91          96          95
          91          92          97          96
          92          93          98          97
          93          94          99          98
         100         101         106         105
         101         102         107         106
         102         103         108         107
         103         104         109         108
         105         106         111         110
         106         107         112         111
         107         108         113         112
         108         109         114         113
         110         111         116         115
         111         112         117         116
         112         113         118         117
         113         114         119         118
         115         116         121         120
         116         117         122         121
         117         118         123         122
         118         119         124         123
         125         126         131         130
         126         127         132         131
         127         128         133         132
         128         129         134         133
         130         131         136         135
         131         132         137         136
         132         133         138         137
         133         134         139         138
         135         136         141         140
         136         137         142         141
         137         138         143         142
         138         139         144         143
         140         141         146         145
         141         142         147         146
         142         143         148         147
         143         144         149         148
         150         151         156         155
         151         152         157         156
         152         153         158         157
         153         154         159         158
         155         156         161         160
         156         157         162         161
         157         158         163         162
         158         159         164         163
         160         161         166         165
         161         162         167         166
         162         163         168         167
         163         164         169         168
         165         166         171         170
         166         167         172         171
         167         168         173         172
         168         169         174         173
         175         176         181         180
         176         177         182         181
         177         178         183         182
         178         179         184         183
         180         181         186         185
         181         182         187         186
         182         183         188         187
         183         184         189         188
         185         186         191         190
         186         187         192         191
         187         188         193         192
         188         189         194         193
         190         191         196         195
         191         192         197         196
         192         193         198         197
         193         194         199         198
         200         201         206         205
         201         202         207         206
         202         203         208         207
         203         204         209         208
         205         206         211         210
         206         207         212         211
         207         208         213         212
         208         209         214         213
         210         211         216         215
         211         212         217         216
         212         213         218         217
         213         214         219         218
         215         216         221         220
         216         217         222         221
         217         218         223         222
         218         219         224         223
         225         226         231         230
         226         227         232         231
         227         228         233         232
         228         229         234         233
         230         231         236         235
         231         232         237         236
         232         233         238         237
         233         234         239         238
         235         236         241         240
         236         237         242         241
         237         238         243         242
         238         239         244         243
         240         241         246         245
         241         242         247         246
         242         243         248         247
         243         244         249         248
         250         251         256         255
         251         252         257         256
         252         253         258         257
         253         254         259         258
         255         256         261         260
         256         257         262         261
         257         258         263         262
         258         259         264         263
         260         261         266         265
         261         262         267         266
         262         263         268         267
         263         264         269         268
         265         266         271         270
         266         267         272         271
         267         268         273         272
         268         269         274         273
         275         276         281         280
         276         277         282         281
         277         278         283         282
         278         279         284         283
         280         281         286         285
         281         282         287         286
         282         283         288         287
         283         284         289         288
         285         286         291         290
         286         287         292         291
         287         288         293         292
         288         289         294         293
         290         291         296         295
         291         292         297         296
         292         293         298         297
         293         294         299         298
         300         301         306         305
         301         302         307         306
         302         303         308         307
         303         304         309         308
         305         306         311         310
         306         307         312         311
         307         308         313         312
         308         309         314         313
         310         311         316         315
         311         312         317         316
         312         313         318         317
         313         314         319         318
         315         316         321         320
         316         317         322         321
         317         318         323         322
         318         319         324         323
         325         326         331         330
         326         327         332         331
         327         328         333         332
         328         329         334         333
         330         331         336         335
         331         332         337         336
         332         333         338         337
         333         334         339         338
         335         336         341         340
         336         337         342         341
         337         338         343         342
         338         339         344         343
         340         341         346         345
         341         342         347         346
         342         343         348         347
         343         344         349         348
         350         351         356         355
         351         352         357         356
         352         353         358         357
         353         354         359         358
         355         356         361         360
         356         357         362         361
         357         358         363         362
         358         359         364         363
         360         361         366         365
         361         362         367         366
         362         363         368         367
         363         364         369         368
         365         366         371         370
         366         367         372         371
         367         368         373         372
         368         369         374         373
         375         376         381         380
         376         377         382         381
         377         378         383         382
         378         379         384         383
         380         381         386         385
         381         382         387         386
         382         383         388         387
         383         384         389         388
         385         386         391         390
         386         387         392         391
         387         388         393         392
         388         389         394         393
         390         391         396         395
         391         392         397         396
         392         393         398         397
         393         394         399         398
         400         401         406         405
         401         402         407         406
         402         403         408         407
         403         404         409         408
         405         406         411         410
         406         407         412         411
         407         408         413         412
         408         409         414         413
         410         411         416         415
         411         412         417         416
         412         413         418         417
         413         414         419         418
         415         416         421         420
         416         417         422         421
         417         418         423         422
         418         419         424         423
         425         426         431         430
         426         427         432         431
         427         428         433         432
         428         429         434         433
         430         431         436         435
         431         432         437         436
         432         433         438         437
         433         434         439         438
         435         436         441         440
         436         437         442         441
         437         438         443         442
         438         439         444         443
         440         441         446         445
         441         442         447         446
         442         443         448         447
         443         444         449         448
         450         451         456         455
         451         452         457         456
         452         453         458         457
         453         454         459         458
         455         456         461         460
         456         457         462         461
         457         458         463         462
         458         459         464         463
         460         461         466         465
         461         462         467         466
         462         463         468         467
         463         464         469         468
         465         466         471         470
         466         467         472         471
         467         468         473         472
         468         469         474         473
         475         476         481         480
         476         477         482         481
         477         478         483         482
         478         479         484         483
         480         481         486         485
         481         482         487         486
         482         483         488         487
         483         484         489         488
         485         486         491         490
         486         487         492         491
         487         488         493         492
         488         489         494         493
         490         491         496         495
         491         492         497         496
         492         493         498         497
         493         494         499         498
         500         501         506         505
         501         502         507         506
         502         503         508         507
         503         504         509         508
         505         506         511         510
         506         507         512         511
         507         508         513         512
         508         509         514         513
         510         511         516         515
         511         512         517         516
         512         513         518         517
         513         514         519         518
         515         516         521         520
         516         517         522         521
         517         518         523         522
         518         519         524         523
         525         526         531         530
         526         527         532         531
         527         528         533         532
         528         529         534         533
         530         531         536         535
         531         532         537         536
         532         533         538         537
         533         534         539         538
         535         536         541         540
         536         537         542         541
         537         538         543         542
         538         539         544         543
         540         541         546         545
         541         542         547         546
         542         543         548         547
         543         544         549         548
         550         551         556         555
         551         552         557         556
         552         553         558         557
         553         554         559         558
         555         556         561         560
         556         557         562         561
         557         558         563         562
         558         559         564         563
         560         561         566         565
         561         562         567         566
         562         563         568         567
         563         564         569         568
         565         566         571         570
         566         567         572         571
         567         568         573         572
         568         569         574         573
         575         576         581         580
         576         577         582         581
         577         578         583         582
         578         579         584         583
         580         581         586         585
         581         582         587         586
         582         583         588         587
         583         584         589         588
         585         586         591         590
         586         587         592         591
         587         588         593         592
         588         589         594         593
         590         591         596         595
         591         592         597         596
         592         593         598         597
         593         594         599         598
         600         601         606         605
         601         602         607         606
         602         603         608         607
         603         604         609         608
         605         606         611         610
         606         607         612         611
         607         608         613         612
         608         609         614         613
         610         611         616         615
         611         612         617         616
         612         613         618         617
         613         614         619         618
         615         616         621         620
         616         617         622         621
         617         618         623         622
         618         619         624         623
         625         626         631         630
         626         627         632         631
         627         628         633         632
         628         629         634         633
         630         631         636         635
         631         632         637         636
         632         633         638         637
         633         634         639         638
         635         636         641         640
         636         637         642         641
         637         638         643         642
         638         639         644         643
         640         641         646         645
         641         642         647         646
         642         643         648         647
         643         644         649         648
         650         651         656         655
         651         652         657         656
         652         653         658         657
         653         654         659         658
         655         656         661         660
         656         657         662         661
         657         658         663         662
         658         659         664         663
         660         661         666         665
         661         662         667         666
         662         663         668         667
         663         664         669         668
         665         666         671         670
         666         667         672         671
         667         668         673         672
         668         669         674         673
         675         676         681         680
         676         677         682         681
         677         678         683         682
         678         679         684         683
         680         681         686         685
         681         682         687         686
         682         683         688         687
         683         684         689         688
         685         686         691         690
         686         687         692         691
         687         688         693         692
         688         689         694         693
         690         691         696         695
         691         692         697         696
         692         693         698         697
         693         694         699         698
         700         701         706         705
         701         702         707         706
         702         703         708         707
         703         704         709         708
         705         706         711         710
         706         707         712         711
         707         708         713         712
         708         709         714         713
         710         711         716         715
         711         712         717         716
         712         713         718         717
         713         714         719         718
         715         716         721         720
         716         717         722         721
         717         718         723         722
         718         719         724         723
         725         726         731         730
         726         727         732         731
         727         728         733         732
         728         729         734         733
         730         731         736         735
         731         732         737         736
         732         733         738         737
         733         734         739         738
         735         736         741         740
         736         737         742         741
         737         738         743         742
         738         739         744         743
         740         741         746         745
         741         742         747         746
         742         743         748         747
         743         744         749         748
         750         751         756         755
         751         752         757         756
         752         753         758         757
         753         754         759         758
         755         756         761         760
         756         757         762         761
         757         758         763         762
         758         759         764         763
         760         761         766         765
         761         762         767         766
         762         763         768         767
         763         764         769         768
         765         766         771         770
         766         767         772         771
         767         768         773         772
         768         769         774         773
         775         776         781         780
         776         777         782         781
         777         778         783         782
         778         779         784         783
         780         781         786         785
         781         782         787         786
         782         783         788         787
         783         784         789         788
         785         786         791         790
         786         787         792         791
         787         788         793         792
         788         789         794         793
         790         791         796         795
         791         792         797         796
         792         793         798         797
         793         794         799         798
         800         801         806         805
         801         802         807         806
         802         803         808         807
         803         804         809         808
         805         806         811         810
         806         807         812         811
         807         808         813         812
         808         809         814         813
         810         811         816         815
         811         812         817         816
         812         813         818         817
         813         814         819         818
         815         816         821         820
         816         817         822         821
         817         818         823         822
         818         819         824         823
         825         826         831         830
         826         827         832         831
         827         828         833         832
         828         829         834         833
         830         831         836         835
         831         832         837         836
         832         833         838         837
         833         834         839         838
         835         836         841         840
         836         837         842         841
         837         838         843         842
         838         839         844         843
         840         841         846         845
         841         842         847         846
         842         843         848         847
         843         844         849         848
         850         851         856         855
         851         852         857         856
         852         853         858         857
         853         854         859         858
         855         856         861         860
         856         857         862         861
         857         858         863         862
         858         859         864         863
         860         861         866         865
         861         862         867         866
         862         863         868         867
         863         864         869         868
         865         866         871         870
         866         867         872         871
         867         868         873         872
         868         869         874         873
         875         876         881         880
         876         877         882         881
         877         878         883         882
         878         879         884         883
         880         881         886         885
         881         882         887         886
         882         883         888         887
         883         884         889         888
         885         886         891         890
         886         887         892         891
         887         888         893         892
         888         889         894         893
         890         891         896         895
         891         892         897         896
         892         893         898         897
         893         894         899         898
         900         901         906         905
         901         902         907         906
         902         903         908         907
         903         904         909         908
         905         906         911         910
         906         907         912         911
         907         908         913         912
         908         909         914         913
         910         911         916         915
         911         912         917         916
         912         913         918         917
         913         914         919         918
         915         916         921         920
         916         917         922         921
         917         918         923         922
         918         919         924         923
         925         926         931         930
         926         927         932         931
         927         928         933         932
         928         929         934         933
         930         931         936         935
         931         932         937         936
         932         933         938         937
         933         934         939         938
         935         936         941         940
         936         937         942         941
         937         938         943         942
         938         939         944         943
         940         941         946         945
         941         942         947         946
         942         943         948         947
         943         944         949         948
         950         951         956         955
         951         952         957         956
         952         953         958         957
         953         954         959         958
         955         956         961         960
         956         957         962         961
         957         958         963         962
         958         959         964         963
         960         961         966         965
         961         962         967         966
         962         963         968         967
         963         964         969         968
         965         966         971         970
         966         967         972         971
         967         968         973         972
         968         969         974         973
         975         976         981         980
         976         977         982         981
         977         978         983         982
         978         979         984         983
         980         981         986         985
         981         982         987         986
         982         983         988         987
         983         984         989         988
         985         986         991         990
         986         987         992         991
         987         988         993         992
         988         989         994         993
         990         991         996         995
         991         992         997         996
         992         993         998         997
         993         994         999         998
        1000        1001        1006        1005
        1001        1002        1007        1006
        1002        1003        1008        1007
        1003        1004        1009        1008
        1005        1006        1011        1010
        1006        1007        1012        1011
        1007        1008        1013        1012
        1008        1009        1014        1013
        1010        1011        1016        1015
        1011        1012        1017        1016
        1012        1013        1018        1017
        1013        1014        1019        1018
        1015        1016        1021        1020
        1016        1017        1022        1021
        1017        1018        1023        1022
        1018        1019        1024        1023
        1025        1026        1031        1030
        1026        1027        1032        1031
        1027        1028        1033        1032
        1028        1029        1034        1033
        1030        1031        1036        1035
        1031        1032        1037        1036
        1032        1033        1038        1037
        1033        1034        1039        1038
        1035        1036        1041        1040
        1036        1037        1042        1041
        1037        1038        1043        1042
        1038        1039        1044        1043
        1040        1041        1046        1045
        1041        1042        1047        1046
        1042        1043        1048        1047
        1043        1044        1049        1048
        1050        1051        1056        1055
        1051        1052        1057        1056
        1052        1053        1058        1057
        1053        1054        1059        1058
        1055        1056        1061        1060
        1056        1057        1062        1061
        1057        1058        1063        1062
        1058        1059        1064        1063
        1060        1061        1066        1065
        1061        1062        1067        1066
        1062        1063        1068        1067
        1063        1064        1069        1068
        1065        1066        1071        1070
        1066        1067        1072        1071
        1067        1068        1073        1072
        1068        1069        1074        1073
        1075        1076        1081        1080
        1076        1077        1082        1081
        1077        1078        1083        1082
        1078        1079        1084        1083
        1080        1081        1086        1085
        1081        1082        1087        1086
        1082        1083        1088        1087
        1083        1084        1089        1088
        1085        1086        1091        1090
        1086        1087        1092        1091
        1087        1088        1093        1092
        1088        1089        1094        1093
        1090        1091        1096        1095
        1091        1092        1097        1096
        1092        1093        1098        1097
        1093        1094        1099        1098
        1100        1101        1106        1105
        1101        1102        1107        1106
        1102        1103        1108        1107
        1103        1104        1109        1108
        1105        1106        1111        1110
        1106        1107        1112        1111
        1107        1108        1113        1112
        1108        1109        1114        1113
        1110        1111        1116        1115
        1111        1112        1117        1116
        1112        1113        1118        1117
        1113        1114        1119        1118
        1115        1116        1121        1120
        1116        1117        1122        1121
        1117        1118        1123        1122
        1118        1119        1124        1123
        1125        1126        1131        1130
        1126        1127        1132        1131
        1127        1128        1133        1132
        1128        1129        1134        1133
        1130        1131        1136        1135
        1131        1132        1137        1136
        1132        1133        1138        1137
        1133        1134        1139        1138
        1135        1136        1141        1140
        1136        1137        1142        1141
        1137        1138        1143        1142
        1138        1139        1144        1143
        1140        1141        1146        1145
        1141        1142        1147        1146
        1142        1143        1148        1147
        1143        1144        1149        1148
        1150        1151        1156        1155
        1151        1152        1157        1156
        1152        1153        1158        1157
        1153        1154        1159        1158
        1155        1156        1161        1160
        1156        1157        1162        1161
        1157        1158        1163        1162
        1158        1159        1164        1163
        1160        1161        1166        1165
        1161        1162        1167        1166
        1162        1163        1168        1167
        1163        1164        1169        1168
        1165        1166        1171        1170
        1166        1167        1172        1171
        1167        1168        1173        1172
        1168        1169        1174        1173
        1175        1176        1181        1180
        1176        1177        1182        1181
        1177        1178        1183        1182
        1178        1179        1184        1183
        1180        1181        1186        1185
        1181        1182        1187        1186
        1182        1183        1188        1187
        1183        1184        1189        1188
        1185        1186        1191        1190
        1186        1187        1192        1191
        1187        1188        1193        1192
        1188        1189        1194        1193
        1190        1191        1196        1195
        1191        1192        1197        1196
        1192        1193        1198        1197
        1193        1194        1199        1198
        1200        1201        1206        1205
        1201        1202        1207        1206
        1202        1203        1208        1207
        1203        1204        1209        1208
        1205        1206        1211        1210
        1206        1207        1212        1211
        1207        1208        1213        1212
        1208        1209        1214        1213
        1210        1211        1216        1215
        1211        1212        1217        1216
        1212        1213        1218        1217
        1213        1214        1219        1218
        1215        1216        1221        1220
        1216        1217        1222        1221
        1217        1218        1223        1222
        1218        1219        1224        1223
        1225        1226        1231        1230
        1226        1227        1232        1231
        1227        1228        1233        1232
        1228        1229        1234        1233
        1230        1231        1236        1235
        1231        1232        1237        1236
        1232        1233        1238        1237
        1233        1234        1239        1238
        1235        1236        1241        1240
        1236        1237        1242        1241
        1237        1238        1243        1242
        1238        1239        1244        1243
        1240        1241        1246        1245
        1241        1242        1247        1246
        1242        1243        1248        1247
        1243        1244        1249        1248
        1250        1251        1256        1255
        1251        1252        1257        1256
        1252        1253        1258        1257
        1253        1254        1259        1258
        1255        1256        1261        1260
        1256        1257        1262        1261
        1257        1258        1263        1262
        1258        1259        1264        1263
        1260        1261        1266        1265
        1261        1262        1267        1266
        1262        1263        1268        1267
        1263        1264        1269        1268
        1265        1266        1271        1270
        1266        1267        1272        1271
        1267        1268        1273        1272
        1268        1269        1274        1273
        1275        1276        1281        1280
        1276        1277        1282        1281
        1277        1278        1283        1282
        1278        1279        1284        1283
        1280        1281        1286        1285
        1281        1282        1287        1286
        1282        1283        1288        1287
        1283        1284        1289        1288
        1285        1286        1291        1290
        1286        1287        1292        1291
        1287        1288        1293        1292
        1288        1289        1294        1293
        1290        1291        1296        1295
        1291        1292        1297        1296
        1292        1293        1298        1297
        1293        1294        1299        1298
        1300        1301        1306        1305
        1301        1302        1307        1306
        1302        1303        1308        1307
        1303        1304        1309        1308
        1305        1306        1311        1310
        1306        1307        1312        1311
        1307        1308        1313        1312
        1308        1309        1314        1313
        1310        1311        1316        1315
        1311        1312        1317        1316
        1312        1313        1318        1317
        1313        1314        1319        1318
        1315        1316        1321        1320
        1316        1317        1322        1321
        1317        1318        1323        1322
        1318        1319        1324        1323
        1325        1326        1331        1330
        1326        1327        1332        1331
        1327        1328        1333        1332
        1328        1329        1334        1333
        1330        1331        1336        1335
        1331        1332        1337        1336
        1332        1333        1338        1337
        1333        1334        1339        1338
        1335        1336        1341        1340
        1336        1337        1342        1341
        1337        1338        1343        1342
        1338        1339        1344        1343
        1340        1341        1346        1345
        1341        1342        1347        1346
        1342        1343        1348        1347
        1343        1344        1349        1348
        1350        1351        1356        1355
        1351        1352        1357        1356
        1352        1353        1358        1357
        1353        1354        1359        1358
        1355        1356        1361        1360
        1356        1357        1362        1361
        1357        1358        1363        1362
        1358        1359        1364        1363
        1360        1361        1366        1365
        1361        1362        1367        1366
        1362        1363        1368        1367
        1363        1364        1369        1368
        1365        1366        1371        1370
        1366        1367        1372        1371
        1367        1368        1373        1372
        1368        1369        1374        1373
        1375        1376        1381        1380
        1376        1377        1382        1381
        1377        1378        1383        1382
        1378        1379        1384        1383
        1380        1381        1386        1385
        1381        1382        1387        1386
        1382        1383        1388        1387
        1383        1384        1389        1388
        1385        1386        1391        1390
        1386        1387        1392        1391
        1387        1388        1393        1392
        1388        1389        1394        1393
        1390        1391        1396        1395
        1391        1392        1397        1396
        1392        1393        1398        1397
        1393        1394        1399        1398
        1400        1401        1406        1405
        1401        1402        1407        1406
        1402        1403        1408        1407
        1403        1404        1409        1408
        1405        1406        1411        1410
        1406        1407        1412        1411
        1407        1408        1413        1412
        1408        1409        1414        1413
        1410        1411        1416        1415
        1411        1412        1417        1416
        1412        1413        1418        1417
        1413        1414        1419        1418
        1415        1416        1421        1420
        1416        1417        1422        1421
        1417        1418        1423        1422
        1418        1419        1424        1423
        1425        1426        1431        1430
        1426        1427        1432        1431
        1427        1428        1433        1432
        1428        1429        1434        1433
        1430        1431        1436        1435
        1431        1432        1437        1436
        1432        1433        1438        1437
        1433        1434        1439        1438
        1435        1436        1441        1440
        1436        1437        1442        1441
        1437        1438        1443        1442
        1438        1439        1444        1443
        1440        1441        1446        1445
        1441        1442        1447        1446
        1442        1443        1448        1447
        1443        1444        1449        1448
        1450        1451        1456        1455
        1451        1452        1457        1456
        1452        1453        1458        1457
        1453        1454        1459        1458
        1455        1456        1461        1460
        1456        1457        1462        1461
        1457        1458        1463        1462
        1458        1459        1464        1463
        1460        1461        1466        1465
        1461        1462        1467        1466
        1462        1463        1468        1467
        1463        1464        1469        1468
        1465        1466        1471        1470
        1466        1467        1472        1471
        1467        1468        1473        1472
        1468        1469        1474        1473
        1475        1476        1481        1480
        1476        1477        1482        1481
        1477        1478        1483        1482
        1478        1479        1484        1483
        1480        1481        1486        1485
        1481        1482        1487        1486
        1482        1483        1488        1487
        1483        1484        1489        1488
        1485        1486        1491        1490
        1486        1487        1492        1491
        1487        1488        1493        1492
        1488        1489        1494        1493
        1490        1491        1496        1495
        1491        1492        1497        1496
        1492        1493        1498        1497
        1493        1494        1499        1498
        1500        1501        1506        1505
        1501        1502        1507        1506
        1502        1503        1508        1507
        1503        1504        1509        1508
        1505        1506        1511        1510
        1506        1507        1512        1511
        1507        1508        1513        1512
        1508        1509        1514        1513
        1510        1511        1516        1515
        1511        1512        1517        1516
        1512        1513        1518        1517
        1513        1514        1519        1518
        1515        1516        1521        1520
        1516        1517        1522        1521
        1517        1518        1523        1522
        1518        1519        1524        1523
        1525        1526        1531        1530
        1526        1527        1532        1531
        1527        1528        1533        1532
        1528        1529        1534        1533
        1530        1531        1536        1535
        1531        1532        1537        1536
        1532        1533        1538        1537
        1533        1534        1539        1538
        1535        1536        1541        1540
        1536        1537        1542        1541
        1537        1538        1543        1542
        1538        1539        1544        1543
        1540        1541        1546        1545
        1541        1542        1547        1546
        1542        1543        1548        1547
        1543        1544        1549        1548
        1550        1551        1556        1555
        1551        1552        1557        1556
        1552        1553        1558        1557
        1553        1554        1559        1558
        1555        1556        1561        1560
        1556        1557        1562        1561
        1557        1558        1563        1562
        1558        1559        1564        1563
        1560        1561        1566        1565
        1561        1562        1567        1566
        1562        1563        1568        1567
        1563        1564        1569        1568
        1565        1566        1571        1570
        1566        1567        1572        1571
        1567        1568        1573        1572
        1568        1569        1574        1573
        1575        1576        1581        1580
        1576        1577        1582        1581
        1577        1578        1583        1582
        1578        1579        1584        1583
        1580        1581        1586        1585
        1581        1582        1587        1586
        1582        1583        1588        1587
        1583        1584        1589        1588
        1585        1586        1591        1590
        1586        1587        1592        1591
        1587        1588        1593        1592
        1588        1589        1594        1593
        1590        1591        1596        1595
        1591        1592        1597        1596
        1592        1593        1598        1597
        1593        1594        1599        1598
 </DataArray>
 <DataArray  type="Int32"  Name="offsets"  format="ascii"> 
           4
           8
          12
          16
          20
          24
          28
          32
          36
          40
          44
          48
          52
          56
          60
          64
          68
          72
          76
          80
          84
          88
          92
          96
         100
         104
         108
         112
         116
         120
         124
         128
         132
         136
         140
         144
         148
         152
         156
         160
         164
         168
         172
         176
         180
         184
         188
         192
         196
         200
         204
         208
         212
         216
         220
         224
         228
         232
         236
         240
         244
         248
         252
         256
         260
         264
         268
         272
         276
         280
         284
         288
         292
         296
         300
         304
         308
         312
         316
         320
         324
         328
         332
         336
         340
         344
         348
         352
         356
         360
         364
         368
         372
         376
         380
         384
         388
         392
         396
         400
         404
         408
         412
         416
         420
         424
         428
         432
         436
         440
         444
         448
         452
         456
         460
         464
         468
         472
         476
         480
         484
         488
         492
         496
         500
         504
         508
         512
         516
         520
         524
         528
         532
         536
         540
         544
         548
         552
         556
         560
         564
         568
         572
         576
         580
         584
         588
         592
         596
         600
         604
         608
         612
         616
         620
         624
         628
         632
         636
         640
         644
         648
         652
         656
         660
         664
         668
         672
         676
         680
         684
         688
         692
         696
         700
         704
         708
         712
         716
         720
         724
         728
         732
         736
         740
         744
         748
         752
         756
         760
         764
         768
         772
         776
         780
         784
         788
         792
         796
         800
         804
         808
         812
         816
         820
         824
         828
         832
         836
         840
         844
         848
         852
         856
         860
         864
         868
         872
         876
         880
         884
         888
         892
         896
         900
         904
         908
         912
         916
         920
         924
         928
         932
         936
         940
         944
         948
         952
         956
         960
         964
         968
         972
         976
         980
         984
         988
         992
         996
        1000
        1004
        1008
        1012
        1016
        1020
        1024
        1028
        1032
        1036
        1040
        1044
        1048
        1052
        1056
        1060
        1064
        1068
        1072
        1076
        1080
        1084
        1088
        1092
        1096
        1100
        1104
        1108
        1112
        1116
        1120
        1124
        1128
        1132
        1136
        1140
        1144
        1148
        1152
        1156
        1160
        1164
        1168
        1172
        1176
        1180
        1184
        1188
        1192
        1196
        1200
        1204
        1208
        1212
        1216
        1220
        1224
        1228
        1232
        1236
        1240
        1244
        1248
        1252
        1256
        1260
        1264
        1268
        1272
        1276
        1280
        1284
        1288
        1292
        1296
        1300
        1304
        1308
        1312
        1316
        1320
        1324
        1328
        1332
        1336
        1340
        1344
        1348
        1352
        1356
        1360
        1364
        1368
        1372
        1376
        1380
        1384
        1388
        1392
        1396
        1400
        1404
        1408
        1412
        1416
        1420
        1424
        1428
        1432
        1436
        1440
        1444
        1448
        1452
        1456
        1460
        1464
        1468
        1472
        1476
        1480
        1484
        1488
        1492
        1496
        1500
        1504
        1508
        1512
        1516
        1520
        1524
        1528
        1532
        1536
        1540
        1544
        1548
        1552
        1556
        1560
        1564
        1568
        1572
        1576
        1580
        1584
        1588
        1592
        1596
        1600
        1604
        1608
        1612
        1616
        1620
        1624
        1628
        1632
        1636
        1640
        1644
        1648
        1652
        1656
        1660
        1664
        1668
        1672
        1676
        1680
        1684
        1688
        1692
        1696
        1700
        1704
        1708
        1712
        1716
        1720
        1724
        1728
        1732
        1736
        1740
        1744
        1748
        1752
        1756
        1760
        1764
        1768
        1772
        1776
        1780
        1784
        1788
        1792
        1796
        1800
        1804
        1808
        1812
        1816
        1820
        1824
        1828
        1832
        1836
        1840
        1844
        1848
        1852
        1856
        1860
        1864
        1868
        1872
        1876
        1880
        1884
        1888
        1892
        1896
        1900
        1904
        1908
        1912
        1916
        1920
        1924
        1928
        1932
        1936
        1940
        1944
        1948
        1952
        1956
        1960
        1964
        1968
        1972
        1976
        1980
        1984
        1988
        1992
        1996
        2000
        2004
        2008
        2012
        2016
        2020
        2024
        2028
        2032
        2036
        2040
        2044
        2048
        2052
        2056
        2060
        2064
        2068
        2072
        2076
        2080
        2084
        2088
        2092
        2096
        2100
        2104
        2108
        2112
        2116
        2120
        2124
        2128
        2132
        2136
        2140
        2144
        2148
        2152
        2156
        2160
        2164
        2168
        2172
        2176
        2180
        2184
        2188
        2192
        2196
        2200
        2204
        2208
        2212
        2216
        2220
        2224
        2228
        2232
        2236
        2240
        2244
        2248
        2252
        2256
        2260
        2264
        2268
        2272
        2276
        2280
        2284
        2288
        2292
        2296
        2300
        2304
        2308
        2312
        2316
        2320
        2324
        2328
        2332
        2336
        2340
        2344
        2348
        2352
        2356
        2360
        2364
        2368
        2372
        2376
        2380
        2384
        2388
        2392
        2396
        2400
        2404
        2408
        2412
        2416
        2420
        2424
        2428
        2432
        2436
        2440
        2444
        2448
        2452
        2456
        2460
        2464
        2468
        2472
        2476
        2480
        2484
        2488
        2492
        2496
        2500
        2504
        2508
        2512
        2516
        2520
        2524
        2528
        2532
        2536
        2540
        2544
        2548
        2552
        2556
        2560
        2564
        2568
        2572
        2576
        2580
        2584
        2588
        2592
        2596
        2600
        2604
        2608
        2612
        2616
        2620
        2624
        2628
        2632
        2636
        2640
        2644
        2648
        2652
        2656
        2660
        2664
        2668
        2672
        2676
        2680
        2684
        2688
        2692
        2696
        2700
        2704
        2708
        2712
        2716
        2720
        2724
        2728
        2732
        2736
        2740
        2744
        2748
        2752
        2756
        2760
        2764
        2768
        2772
        2776
        2780
        2784
        2788
        2792
        2796
        2800
        2804
        2808
        2812
        2816
        2820
        2824
        2828
        2832
        2836
        2840
        2844
        2848
        2852
        2856
        2860
        2864
        2868
        2872
        2876
        2880
        2884
        2888
        2892
        2896
        2900
        2904
        2908
        2912
        2916
        2920
        2924
        2928
        2932
        2936
        2940
        2944
        2948
        2952
        2956
        2960
        2964
        2968
        2972
        2976
        2980
        2984
        2988
        2992
        2996
        3000
        3004
        3008
        3012
        3016
        3020
        3024
        3028
        3032
        3036
        3040
        3044
        3048
        3052
        3056
        3060
        3064
        3068
        3072
        3076
        3080
        3084
        3088
        3092
        3096
        3100
        3104
        3108
        3112
        3116
        3120
        3124
        3128
        3132
        3136
        3140
        3144
        3148
        3152
        3156
        3160
        3164
        3168
        3172
        3176
        3180
        3184
        3188
        3192
        3196
        3200
        3204
        3208
        3212
        3216
        3220
        3224
        3228
        3232
        3236
        3240
        3244
        3248
        3252
        3256
        3260
        3264
        3268
        3272
        3276
        3280
        3284
        3288
        3292
        3296
        3300
        3304
        3308
        3312
        3316
        3320
        3324
        3328
        3332
        3336
        3340
        3344
        3348
        3352
        3356
        3360
        3364
        3368
        3372
        3376
        3380
        3384
        3388
        3392
        3396
        3400
        3404
        3408
        3412
        3416
        3420
        3424
        3428
        3432
        3436
        3440
        3444
        3448
        3452
        3456
        3460
        3464
        3468
        3472
        3476
        3480
        3484
        3488
        3492
        3496
        3500
        3504
        3508
        3512
        3516
        3520
        3524
        3528
        3532
        3536
        3540
        3544
        3548
        3552
        3556
        3560
        3564
        3568
        3572
        3576
        3580
        3584
        3588
        3592
        3596
        3600
        3604
        3608
        3612
        3616
        3620
        3624
        3628
        3632
        3636
        3640
        3644
        3648
        3652
        3656
        3660
        3664
        3668
        3672
        3676
        3680
        3684
        3688
        3692
        3696
        3700
        3704
        3708
        3712
        3716
        3720
        3724
        3728
        3732
        3736
        3740
        3744
        3748
        3752
        3756
        3760
        3764
        3768
        3772
        3776
        3780
        3784
        3788
        3792
        3796
        3800
        3804
        3808
        3812
        3816
        3820
        3824
        3828
        3832
        3836
        3840
        3844
        3848
        3852
        3856
        3860
        3864
        3868
        3872
        3876
        3880
        3884
        3888
        3892
        3896
        3900
        3904
        3908
        3912
        3916
        3920
        3924
        3928
        3932
        3936
        3940
        3944
        3948
        3952
        3956
        3960
        3964
        3968
        3972
        3976
        3980
        3984
        3988
        3992
        3996
        4000
        4004
        4008
        4012
        4016
        4020
        4024
        4028
        4032
        4036
        4040
        4044
        4048
        4052
        4056
        4060
        4064
        4068
        4072
        4076
        4080
        4084
        4088
        4092
        4096
 </DataArray>
 <DataArray  type="UInt8"  Name="types"  format="ascii">
 9
 9
 9
 9
 9
 9
 9
 9
 9
 9
 9
 9
 9
 9
 9
 9
 9
 9
 9
 9
 9
 9
 9
 9
 9
 9
 9
 9
 9
 9
 9
 9
 9
 9
 9
 9
 9
 9
 9
 9
 9
 9
 9
 9
 9
 9
 9
 9
 9
 9
 9
 9
 9
 9
 9
 9
 9
 9
 9
 9
 9
 9
 9
 9
 9
 9
 9
 9
 9
 9
 9
 9
 9
 9
 9
 9
 9
 9
 9
 9
 9
 9
 9
 9
 9
 9
 9
 9
 9
 9
 9
 9
 9
 9
 9
 9
 9
 9
 9
 9
 9
 9
 9
 9
 9
 9
 9
 9
 9
 9
 9
 9
 9
 9
 9
 9
 9
 9
 9
 9
 9
 9
 9
 9
 9
 9
 9
 9
 9
 9
 9
 9
 9
 9
 9
 9
 9
 9
 9
 9
 9
 9
 9
 9
 9
 9
 9
 9
 9
 9
 9
 9
 9
 9
 9
 9
 9
 9
 9
 9
 9
 9
 9
 9
 9
 9
 9
 9
 9
 9
 9
 9
 9
 9
 9
 9
 9
 9
 9
 9
 9
 9
 9
 9
 9
 9
 9
 9
 9
 9
 9
 9
 9
 9
 9
 9
 9
 9
 9
 9
 9
 9
 9
 9
 9
 9
 9
 9
 9
 9
 9
 9
 9
 9
 9
 9
 9
 9
 9
 9
 9
 9
 9
 9
 9
 9
 9
 9
 9
 9
 9
 9
 9
 9
 9
 9
 9
 9
 9
 9
 9
 9
 9
 9
 9
 9
 9
 9
 9
 9
 9
 9
 9
 9
 9
 9
 9
 9
 9
 9
 9
 9
 9
 9
 9
 9
 9
 9
 9
 9
 9
 9
 9
 9
 9
 9
 9
 9
 9
 9
 9
 9
 9
 9
 9
 9
 9
 9
 9
 9
 9
 9
 9
 9
 9
 9
 9
 9
 9
 9
 9
 9
 9
 9
 9
 9
 9
 9
 9
 9
 9
 9
 9
 9
 9
 9
 9
 9
 9
 9
 9
 9
 9
 9
 9
 9
 9
 9
 9
 9
 9
 9
 9
 9
 9
 9
 9
 9
 9
 9
 9
 9
 9
 9
 9
 9
 9
 9
 9
 9
 9
 9
 9
 9
 9
 9
 9
 9
 9
 9
 9
 9
 9
 9
 9
 9
 9
 9
 9
 9
 9
 9
 9
 9
 9
 9
 9
 9
 9
 9
 9
 9
 9
 9
 9
 9
 9
 9
 9
 9
 9
 9
 9
 9
 9
 9
 9
 9
 9
 9
 9
 9
 9
 9
 9
 9
 9
 9
 9
 9
 9
 9
 9
 9
 9
 9
 9
 9
 9
 9
 9
 9
 9
 9
 9
 9
 9
 9
 9
 9
 9
 9
 9
 9
 9
 9
 9
 9
 9
 9
 9
 9
 9
 9
 9
 9
 9
 9
 9
 9
 9
 9
 9
 9
 9
 9
 9
 9
 9
 9
 9
 9
 9
 9
 9
 9
 9
 9
 9
 9
 9
 9
 9
 9
 9
 9
 9
 9
 9
 9
 9
 9
 9
 9
 9
 9
 9
 9
 9
 9
 9
 9
 9
 9
 9
 9
 9
 9
 9
 9
 9
 9
 9
 9
 9
 9
 9
 9
 9
 9
 9
 9
 9
 9
 9
 9
 9
 9
 9
 9
 9
 9
 9
 9
 9
 9
 9
 9
 9
 9
 9
 9
 9
 9
 9
 9
 9
 9
 9
 9
 9
 9
 9
 9
 9
 9
 9
 9
 9
 9
 9
 9
 9
 9
 9
 9
 9
 9
 9
 9
 9
 9
 9
 9
 9
 9
 9
 9
 9
 9
 9
 9
 9
 9
 9
 9
 9
 9
 9
 9
 9
 9
 9
 9
 9
 9
 9
 9
 9
 9
 9
 9
 9
 9
 9
 9
 9
 9
 9
 9
 9
 9
 9
 9
 9
 9
 9
 9
 9
 9
 9
 9
 9
 9
 9
 9
 9
 9
 9
 9
 9
 9
 9
 9
 9
 9
 9
 9
 9
 9
 9
 9
 9
 9
 9
 9
 9
 9
 9
 9
 9
 9
 9
 9
 9
 9
 9
 9
 9
 9
 9
 9
 9
 9
 9
 9
 9
 9
 9
 9
 9
 9
 9
 9
 9
 9
 9
 9
 9
 9
 9
 9
 9
 9
 9
 9
 9
 9
 9
 9
 9
 9
 9
 9
 9
 9
 9
 9
 9
 9
 9
 9
 9
 9
 9
 9
 9
 9
 9
 9
 9
 9
 9
 9
 9
 9
 9
 9
 9
 9
 9
 9
 9
 9
 9
 9
 9
 9
 9
 9
 9
 9
 9
 9
 9
 9
 9
 9
 9
 9
 9
 9
 9
 9
 9
 9
 9
 9
 9
 9
 9
 9
 9
 9
 9
 9
 9
 9
 9
 9
 9
 9
 9
 9
 9
 9
 9
 9
 9
 9
 9
 9
 9
 9
 9
 9
 9
 9
 9
 9
 9
 9
 9
 9
 9
 9
 9
 9
 9
 9
 9
 9
 9
 9
 9
 9
 9
 9
 9
 9
 9
 9
 9
 9
 9
 9
 9
 9
 9
 9
 9
 9
 9
 9
 9
 9
 9
 9
 9
 9
 9
 9
 9
 9
 9
 9
 9
 9
 9
 9
 9
 9
 9
 9
 9
 9
 9
 9
 9
 9
 9
 9
 9
 9
 9
 9
 9
 9
 9
 9
 9
 9
 9
 9
 9
 9
 9
 9
 9
 9
 9
 9
 9
 9
 9
 9
 9
 9
 9
 9
 9
 9
 9
 9
 9
 9
 9
 9
 9
 9
 9
 9
 9
 9
 9
 9
 9
 9
 9
 9
 9
 9
 9
 9
 9
 9
 9
 9
 9
 9
 9
 9
 9
 9
 9
 9
 9
 9
 9
 9
 9
 9
 9
 9
 9
 9
 9
 9
 9
 9
 9
 9
 9
 9
 9
 9
 9
 9
 9
 9
 9
 9
 9
 9
 9
 9
 9
 9
 9
 9
 9
 9
 9
 9
 9
 9
 9
 9
 9
 9
 9
 9
 9
 9
 9
 9
 9
 9
 9
 9
 9
 9
 9
 9
 9
 9
 9
 9
 9
 9
 9
 9
 9
 9
 9
 9
 9
 9
 9
 9
 9
 9
 9
 9
 9
 9
 9
 9
 9
 9
 9
 9
 9
 9
 9
 9
 9
 9
 9
 9
 9
 9
 9
 9
 9
 9
 9
 9
 9
 9
 9
 9
 9
 9
 9
 9
 9
 9
 9
 9
 9
 9
 9
 9
 9
 9
 9
 9
 9
 9
 9
 9
 9
 9
 </DataArray>
 </Cells> 
 <PointData>
 <DataArray  type="Float64" Name="disp" NumberOfComponents="3" format="ascii">
   6.5251712097355419E-002   6.2727985154856156E-002   0.0000000000000000     
   6.8367201496653776E-002   6.8155972113130237E-002   0.0000000000000000     
   7.1363370364836726E-002   7.3749035985177222E-002   0.0000000000000000     
   7.4240218701904295E-002   7.9507176770997140E-002   0.0000000000000000     
   7.6997746507856457E-002   8.5430394470589990E-002   0.0000000000000000     
   6.0126775953230349E-002   6.1885138257393169E-002   0.0000000000000000     
   6.3026745549371571E-002   6.7300925402687117E-002   0.0000000000000000     
   6.5821420396134159E-002   7.2896063429211080E-002   0.0000000000000000     
   6.8510800493518098E-002   7.8670552336965113E-002   0.0000000000000000     
   7.1094885841523375E-002   8.4624392125949160E-002   0.0000000000000000     
   5.5170373523771632E-002   6.1069297034776718E-002   0.0000000000000000     
   5.7867904309225476E-002   6.6490060022606712E-002   0.0000000000000000     
   6.0470257376556369E-002   7.2097869701162470E-002   0.0000000000000000     
   6.2977432725764268E-002   7.7892726070443993E-002   0.0000000000000000     
   6.5389430356849243E-002   8.3874629130451267E-002   0.0000000000000000     
   5.0382504808979295E-002   6.0280461487006810E-002   0.0000000000000000     
   5.2890677776215485E-002   6.5723375972889075E-002   0.0000000000000000     
   5.5309881306103335E-002   7.1354454801031419E-002   0.0000000000000000     
   5.7640115398642847E-002   7.7173697971433836E-002   0.0000000000000000     
   5.9881380053834012E-002   8.3181105484096324E-002   0.0000000000000000     
   4.5763169808853296E-002   5.9518631614083439E-002   0.0000000000000000     
   4.8095065950341596E-002   6.5000873253534167E-002   0.0000000000000000     
   5.0340292184775093E-002   7.0665818728817872E-002   0.0000000000000000     
   5.2498848512153799E-002   7.6513468039934585E-002   0.0000000000000000     
   5.4570734932477702E-002   8.2543821186884289E-002   0.0000000000000000     
   7.6997746507856457E-002   8.5430394470589990E-002   0.0000000000000000     
   7.9653460098910139E-002   9.1516654712407206E-002   0.0000000000000000     
   8.2224865791282242E-002   9.7763923124900232E-002   0.0000000000000000     
   8.4711963584972794E-002  0.10417219970806910        0.0000000000000000     
   8.7114753479981752E-002  0.11074148446191376        0.0000000000000000     
   7.1094885841523375E-002   8.4624392125949160E-002   0.0000000000000000     
   7.3586977984873958E-002   9.0746879743442060E-002   0.0000000000000000     
   7.6000378468293786E-002   9.7027312136722610E-002   0.0000000000000000     
   7.8335087291782846E-002  0.10346568930579080        0.0000000000000000     
   8.0591104455341150E-002  0.11006201125064663        0.0000000000000000     
   6.5389430356849243E-002   8.3874629130451267E-002   0.0000000000000000     
   6.7717204429702332E-002   9.0028151456465227E-002   0.0000000000000000     
   6.9971709104214699E-002   9.6337865623766825E-002   0.0000000000000000     
   7.2152944380386344E-002  0.10280377163235604        0.0000000000000000     
   7.4260910258217211E-002  0.10942586948223289        0.0000000000000000     
   5.9881380053834012E-002   8.3181105484096324E-002   0.0000000000000000     
   6.2044139433395255E-002   8.9360469851476734E-002   0.0000000000000000     
   6.4138857699044982E-002   9.5695583586032890E-002   0.0000000000000000     
   6.6165534850783234E-002  0.10218644668776485        0.0000000000000000     
   6.8124170888609975E-002  0.10883305915667253        0.0000000000000000     
   5.4570734932477702E-002   8.2543821186884289E-002   0.0000000000000000     
   5.6567782995952699E-002   8.8743834928476525E-002   0.0000000000000000     
   5.8501824252784641E-002   9.5100466023520819E-002   0.0000000000000000     
   6.0372858702973528E-002  0.10161371447201714        0.0000000000000000     
   6.2180886346519366E-002  0.10828358027396555        0.0000000000000000     
   8.7114753479981752E-002  0.11074148446191376        0.0000000000000000     
   8.9424385972377646E-002  0.11745753464140635        0.0000000000000000     
   9.1632011558228990E-002  0.12430610750151901        0.0000000000000000     
   9.3737630237535757E-002  0.13128720304225169        0.0000000000000000     
   9.5741242010297961E-002  0.13840082126360442        0.0000000000000000     
   8.0591104455341150E-002  0.11006201125064663        0.0000000000000000     
   8.2759239920193517E-002  0.11680394520498545        0.0000000000000000     
   8.4830303647564775E-002  0.12367915840250251        0.0000000000000000     
   8.6804295637454898E-002  0.13068765084319789        0.0000000000000000     
   8.8681215889863926E-002  0.13782942252707153        0.0000000000000000     
   7.4260910258217211E-002  0.10942586948223289        0.0000000000000000     
   7.6286365724309163E-002  0.11619293277223892        0.0000000000000000     
   7.8220069765263966E-002  0.12309373510121564        0.0000000000000000     
   8.0062022381081607E-002  0.13012827646916303        0.0000000000000000     
   8.1812223571762099E-002  0.13729655687608119        0.0000000000000000     
   6.8124170888609975E-002  0.10883305915667253        0.0000000000000000     
   7.0005763384724612E-002  0.11562449734316678        0.0000000000000000     
   7.1801309911326577E-002  0.12254983759765838        0.0000000000000000     
   7.3510810468415871E-002  0.12960907992014725        0.0000000000000000     
   7.5134265055992439E-002  0.13680222431063352        0.0000000000000000     
   6.2180886346519366E-002  0.10828358027396555        0.0000000000000000     
   6.3917432901439836E-002  0.11509863891776906        0.0000000000000000     
   6.5574024085752580E-002  0.12204746589183067        0.0000000000000000     
   6.7150659899457635E-002  0.12913006119615048        0.0000000000000000     
   6.8647340342554986E-002  0.13634642483072840        0.0000000000000000     
   9.5741242010297961E-002  0.13840082126360442        0.0000000000000000     
   9.7648355511504747E-002  0.14563581411513260        0.0000000000000000     
   9.9464479376145304E-002  0.15298103354639153        0.0000000000000000     
  0.10118961360421964       0.16043647955738127        0.0000000000000000     
  0.10282375819572775       0.16800215214810185        0.0000000000000000     
   8.8681215889863926E-002  0.13782942252707153        0.0000000000000000     
   9.0467310835013873E-002  0.14509253944664111        0.0000000000000000     
   9.2168826903126805E-002  0.15246506759442430        0.0000000000000000     
   9.3785764094202723E-002  0.15994700697042114        0.0000000000000000     
   9.5318122408241626E-002  0.16753835757463159        0.0000000000000000     
   8.1812223571762099E-002  0.13729655687608119        0.0000000000000000     
   8.3477076809979456E-002  0.14458619832947803        0.0000000000000000     
   8.5062985568407704E-002  0.15198482283686154        0.0000000000000000     
   8.6569949847046829E-002  0.15949243039823177        0.0000000000000000     
   8.7997969645896859E-002  0.16710902101358863        0.0000000000000000     
   7.5134265055992439E-002  0.13680222431063352        0.0000000000000000     
   7.6677653436401427E-002  0.14411679076364339        0.0000000000000000     
   7.8146955371987958E-002  0.15154029927370330        0.0000000000000000     
   7.9542170862751949E-002  0.15907274984081324        0.0000000000000000     
   8.0863299908693453E-002  0.16671414246497310        0.0000000000000000     
   6.8647340342554986E-002  0.13634642483072840        0.0000000000000000     
   7.0069040714279884E-002  0.14368431674913718        0.0000000000000000     
   7.1420736313867583E-002  0.15113149690494954        0.0000000000000000     
   7.2702427141318096E-002  0.15868796529816542        0.0000000000000000     
   7.3914113196631395E-002  0.16635372192878489        0.0000000000000000     
  0.10282375819572775       0.16800215214810185        0.0000000000000000     
  0.10436960469286266       0.17566767949304624        0.0000000000000000     
  0.10582984463781742       0.18342268976670750        0.0000000000000000     
  0.10720447803059202       0.19126718296908568        0.0000000000000000     
  0.10849350487118650       0.19920115910018066        0.0000000000000000     
   9.5318122408241626E-002  0.16753835757463159        0.0000000000000000     
   9.6766138174522523E-002  0.17522942990788717        0.0000000000000000     
   9.8130047722324407E-002  0.18301053447101948        0.0000000000000000     
   9.9409851051647291E-002  0.19088167126402841        0.0000000000000000     
  0.10060554816249116       0.19884284028691407        0.0000000000000000     
   8.7997969645896859E-002  0.16710902101358863        0.0000000000000000     
   8.9345592442249114E-002  0.17482521642316229        0.0000000000000000     
   9.0611365713394856E-002  0.18263163836718260        0.0000000000000000     
   9.1795289459334101E-002  0.19052828684564965        0.0000000000000000     
   9.2897363680066902E-002  0.19851516185856347        0.0000000000000000     
   8.0863299908693453E-002  0.16671414246497310        0.0000000000000000     
   8.2107967496042406E-002  0.17445503903887150        0.0000000000000000     
   8.3273798611028765E-002  0.18228600145519694        0.0000000000000000     
   8.4360793253652505E-002  0.19020702971394945        0.0000000000000000     
   8.5368951423913680E-002  0.19821812381512899        0.0000000000000000     
   7.3914113196631395E-002  0.16635372192878489        0.0000000000000000     
   7.5053263335902440E-002  0.17411889775501493        0.0000000000000000     
   7.6117346415226134E-002  0.18197362373506254        0.0000000000000000     
   7.7106362434602504E-002  0.18991789986892776        0.0000000000000000     
   7.8020311394031497E-002  0.19795172615661052        0.0000000000000000     
  0.10849350487118650       0.19920115910018066        0.0000000000000000     
  0.10970196737473024       0.20722073031849270        0.0000000000000000     
  0.11083490775635264       0.21532200878252203        0.0000000000000000     
  0.11189232601605374       0.22350499449226863        0.0000000000000000     
  0.11287422215383350       0.23176968744773246        0.0000000000000000     
  0.10060554816249116       0.19884284028691407        0.0000000000000000     
  0.10172261220358356       0.20688781615947782        0.0000000000000000     
  0.10276651632365195       0.21501037350152119        0.0000000000000000     
  0.10373726052269638       0.22321051231304423        0.0000000000000000     
  0.10463484480071678       0.23148823259404688        0.0000000000000000     
   9.2897363680066902E-002  0.19851516185856347        0.0000000000000000     
   9.3922522720398846E-002  0.20658472093821190        0.0000000000000000     
   9.4875700925135656E-002  0.21472942161688285        0.0000000000000000     
   9.5756898294277290E-002  0.22294926389457628        0.0000000000000000     
   9.6566114827823762E-002  0.23124424777129227        0.0000000000000000     
   8.5368951423913680E-002  0.19821812381512899        0.0000000000000000     
   8.6301698925176112E-002  0.20631144465469498        0.0000000000000000     
   8.7162461560803720E-002  0.21447915312860694        0.0000000000000000     
   8.7951239330796516E-002  0.22272124923686476        0.0000000000000000     
   8.8668032235154459E-002  0.23103773297946859        0.0000000000000000     
   7.8020311394031497E-002  0.19795172615661052        0.0000000000000000     
   7.8860140817915356E-002  0.20606798730892703        0.0000000000000000     
   7.9626798230656187E-002  0.21425956803669344        0.0000000000000000     
   8.0320283632254019E-002  0.22252646833990972        0.0000000000000000     
   8.0940597022708852E-002  0.23086868821857590        0.0000000000000000     
  0.11287422215383350       0.23176968744773246        0.0000000000000000     
  0.11380885538841831       0.24013266326085497        0.0000000000000000     
  0.11472448493853452       0.24861049754357756        0.0000000000000000     
  0.11562111080418215       0.25720319029590027        0.0000000000000000     
  0.11649873298536118       0.26591074151782301        0.0000000000000000     
  0.10463484480071678       0.23148823259404688        0.0000000000000000     
  0.10546427345900386       0.23986697424253683        0.0000000000000000     
  0.10623055079884818       0.24837017715652185        0.0000000000000000     
  0.10693367682024979       0.25699784133600184        0.0000000000000000     
  0.10757365152320866       0.26574996678097695        0.0000000000000000     
   9.6566114827823762E-002  0.23124424777129227        0.0000000000000000     
   9.7294117201323860E-002  0.23964077115611163        0.0000000000000000     
   9.7931672090326313E-002  0.24816523195811543        0.0000000000000000     
   9.8478779494831095E-002  0.25681763017730364        0.0000000000000000     
   9.8935439414838233E-002  0.26559796581367617        0.0000000000000000     
   8.8668032235154459E-002  0.23103773297946859        0.0000000000000000     
   8.9298386615378325E-002  0.23945405400157943        0.0000000000000000     
   8.9827848812968861E-002  0.24799566194835837        0.0000000000000000     
   9.0256418827926038E-002  0.25666255681980549        0.0000000000000000     
   9.0584096660249885E-002  0.26545473861592062        0.0000000000000000     
   8.0940597022708852E-002  0.23086868821857590        0.0000000000000000     
   8.1477081701167284E-002  0.23930682277894016        0.0000000000000000     
   8.1919080966775887E-002  0.24786146712725066        0.0000000000000000     
   8.2266594819534675E-002  0.25653262126350734        0.0000000000000000     
   8.2519623259443620E-002  0.26532028518771034        0.0000000000000000     
  0.11649873298536118       0.26591074151782301        0.0000000000000000     
  0.11729769098683426       0.27489774169238834        0.0000000000000000     
  0.11795832431336403       0.28432878130263883        0.0000000000000000     
  0.11848063296495048       0.29420386034857432        0.0000000000000000     
  0.11886461694159366       0.30452297883019491        0.0000000000000000     
  0.10757365152320866       0.26574996678097695        0.0000000000000000     
  0.10813151313150422       0.27475871488126713        0.0000000000000000     
  0.10858829986891588       0.28415624702669234        0.0000000000000000     
  0.10894401173544366       0.29394256321725259        0.0000000000000000     
  0.10919864873108751       0.30411766345294788        0.0000000000000000     
   9.8935439414838233E-002  0.26559796581367617        0.0000000000000000     
   9.9312697605591235E-002  0.27460456087663399        0.0000000000000000     
   9.9621599822333651E-002  0.28393573737557792        0.0000000000000000     
   9.9862146065065410E-002  0.29359149531050799        0.0000000000000000     
  0.10003433633378658       0.30357183468142418        0.0000000000000000     
   9.0584096660249885E-002  0.26545473861592062        0.0000000000000000     
   9.0841244409095315E-002  0.27443527967848902        0.0000000000000000     
   9.1058224173617280E-002  0.28366725234929568        0.0000000000000000     
   9.1235035953815768E-002  0.29315065662834072        0.0000000000000000     
   9.1371679749690807E-002  0.30288549251562397        0.0000000000000000     
   8.2519623259443620E-002  0.26532028518771034        0.0000000000000000     
   8.2717153542016461E-002  0.27425087128683212        0.0000000000000000     
   8.2898172922766827E-002  0.28335079194784552        0.0000000000000000     
   8.3062681401694746E-002  0.29262004717075057        0.0000000000000000     
   8.3210678978800218E-002  0.30205863695554702        0.0000000000000000     
   4.5763169808853296E-002   5.9518631614083439E-002   0.0000000000000000     
   4.8095065950341596E-002   6.5000873253534167E-002   0.0000000000000000     
   5.0340292184775093E-002   7.0665818728817872E-002   0.0000000000000000     
   5.2498848512153799E-002   7.6513468039934585E-002   0.0000000000000000     
   5.4570734932477702E-002   8.2543821186884289E-002   0.0000000000000000     
   4.1312347732626757E-002   5.8811059321028647E-002   0.0000000000000000     
   4.3468709214290149E-002   6.4333913194173253E-002   0.0000000000000000     
   4.5540375365730898E-002   7.0032834304078931E-002   0.0000000000000000     
   4.7527346186949010E-002   7.5907822650745652E-002   0.0000000000000000     
   4.9429621677944499E-002   8.1958878234173485E-002   0.0000000000000000     
   3.7030017789532722E-002   5.8184996512864434E-002   0.0000000000000000     
   3.8999247950747468E-002   6.3733857124437604E-002   0.0000000000000000     
   4.0889016202130007E-002   6.9456374346371641E-002   0.0000000000000000     
   4.2699322543680376E-002   7.5352548178666462E-002   0.0000000000000000     
   4.4430166975398554E-002   8.1422378621322136E-002   0.0000000000000000     
   3.2916179979571206E-002   5.7640443189590829E-002   0.0000000000000000     
   3.4686682159713565E-002   6.3200705044327246E-002   0.0000000000000000     
   3.6386214693972463E-002   6.8936438855695975E-002   0.0000000000000000     
   3.8014777582347899E-002   7.4847644623696974E-002   0.0000000000000000     
   3.9572370824839873E-002   8.0934322348330270E-002   0.0000000000000000     
   2.8970834302742204E-002   5.7177399351207817E-002   0.0000000000000000     
   3.0531011841188435E-002   6.2734456953842166E-002   0.0000000000000000     
   3.2031970841258216E-002   6.8473027832051961E-002   0.0000000000000000     
   3.3473711302951570E-002   7.4393111985837201E-002   0.0000000000000000     
   3.4856233226268463E-002   8.0494709415197915E-002   0.0000000000000000     
   5.4570734932477702E-002   8.2543821186884289E-002   0.0000000000000000     
   5.6567782995952699E-002   8.8743834928476525E-002   0.0000000000000000     
   5.8501824252784641E-002   9.5100466023520819E-002   0.0000000000000000     
   6.0372858702973528E-002  0.10161371447201714        0.0000000000000000     
   6.2180886346519366E-002  0.10828358027396555        0.0000000000000000     
   4.9429621677944499E-002   8.1958878234173485E-002   0.0000000000000000     
   5.1260539959004342E-002   8.8176901485803177E-002   0.0000000000000000     
   5.3033439150415536E-002   9.4552792837075586E-002   0.0000000000000000     
   5.4748319252178081E-002  0.10108655228799067        0.0000000000000000     
   5.6405180264291969E-002  0.10777817983854847        0.0000000000000000     
   4.4430166975398554E-002   8.1422378621322136E-002   0.0000000000000000     
   4.6094815164179848E-002   8.7658324321795197E-002   0.0000000000000000     
   4.7706532776919587E-002   9.4052843927542165E-002   0.0000000000000000     
   4.9265319813617744E-002  0.10060593743856305        0.0000000000000000     
   5.0771176274274341E-002  0.10731760485485785        0.0000000000000000     
   3.9572370824839873E-002   8.0934322348330270E-002   0.0000000000000000     
   4.1070608611479230E-002   8.7188103436452585E-002   0.0000000000000000     
   4.2521105132296774E-002   9.3600619294920584E-002   0.0000000000000000     
   4.3923860387292527E-002  0.10017186992373429        0.0000000000000000     
   4.5278874376466452E-002  0.10690185532289367        0.0000000000000000     
   3.4856233226268463E-002   8.0494709415197915E-002   0.0000000000000000     
   3.6187920300902461E-002   8.6766238829775355E-002   0.0000000000000000     
   3.7477156216547104E-002   9.3196118939210842E-002   0.0000000000000000     
   3.8723940973202399E-002   9.9784349743504364E-002   0.0000000000000000     
   3.9928274570868331E-002  0.10653093124265593        0.0000000000000000     
   6.2180886346519366E-002  0.10828358027396555        0.0000000000000000     
   6.3917432901439836E-002  0.11509863891776906        0.0000000000000000     
   6.5574024085752580E-002  0.12204746589183067        0.0000000000000000     
   6.7150659899457635E-002  0.12913006119615048        0.0000000000000000     
   6.8647340342554986E-002  0.13634642483072840        0.0000000000000000     
   5.6405180264291969E-002  0.10777817983854847        0.0000000000000000     
   5.7996181930947785E-002  0.11461554479939172        0.0000000000000000     
   5.9513483996336068E-002  0.12158651648116307        0.0000000000000000     
   6.0957086460456826E-002  0.12869109488386254        0.0000000000000000     
   6.2326989323310045E-002  0.13592928000749016        0.0000000000000000     
   5.0771176274274341E-002  0.10731760485485785        0.0000000000000000     
   5.2216818129741424E-002  0.11417540229138076        0.0000000000000000     
   5.3594961350871058E-002  0.12116688586308592        0.0000000000000000     
   5.4905605937663235E-002  0.12829205556997336        0.0000000000000000     
   5.6148751890117948E-002  0.13555091141204306        0.0000000000000000     
   4.5278874376466452E-002  0.10690185532289367        0.0000000000000000     
   4.6579341497820753E-002  0.11377821139373620        0.0000000000000000     
   4.7818456149357556E-002  0.12078857403759925        0.0000000000000000     
   4.8996218331076868E-002  0.12793294325448290        0.0000000000000000     
   5.0112628042978682E-002  0.13521131904438705        0.0000000000000000     
   3.9928274570868331E-002  0.10653093124265593        0.0000000000000000     
   4.1083752035185758E-002  0.11342397210645801        0.0000000000000000     
   4.2183968391795570E-002  0.12045158100470309        0.0000000000000000     
   4.3228923640697733E-002  0.12761375793739116        0.0000000000000000     
   4.4218617781892268E-002  0.13491050290452219        0.0000000000000000     
   6.8647340342554986E-002  0.13634642483072840        0.0000000000000000     
   7.0069040714279884E-002  0.14368431674913718        0.0000000000000000     
   7.1420736313867583E-002  0.15113149690494954        0.0000000000000000     
   7.2702427141318096E-002  0.15868796529816542        0.0000000000000000     
   7.3914113196631395E-002  0.16635372192878489        0.0000000000000000     
   6.2326989323310045E-002  0.13592928000749016        0.0000000000000000     
   6.3627011702523426E-002  0.14328915184987653        0.0000000000000000     
   6.4860972715724621E-002  0.15075879040885229        0.0000000000000000     
   6.6028872362913646E-002  0.15833819568441743        0.0000000000000000     
   6.7130710644090485E-002  0.16602736767657195        0.0000000000000000     
   5.6148751890117948E-002  0.13555091141204306        0.0000000000000000     
   5.7327339460040726E-002  0.14293167162977860        0.0000000000000000     
   5.8444308899237088E-002  0.15042255446366368        0.0000000000000000     
   5.9499660207707028E-002  0.15802355991369818        0.0000000000000000     
   6.0493393385450539E-002  0.16573468797988219        0.0000000000000000     
   5.0112628042978682E-002  0.13521131904438705        0.0000000000000000     
   5.1170023986831806E-002  0.14261187608884343        0.0000000000000000     
   5.2170744864404969E-002  0.15012278906938364        0.0000000000000000     
   5.3114790675698229E-002  0.15774405798600771        0.0000000000000000     
   5.4002161420711542E-002  0.16547568283871558        0.0000000000000000     
   4.4218617781892268E-002  0.13491050290452219        0.0000000000000000     
   4.5155065282896638E-002  0.14232976522707100        0.0000000000000000     
   4.6040280611228279E-002  0.14985949422601227        0.0000000000000000     
   4.6874263766887247E-002  0.15749968990134597        0.0000000000000000     
   4.7657014749873494E-002  0.16525035225307216        0.0000000000000000     
   7.3914113196631395E-002  0.16635372192878489        0.0000000000000000     
   7.5053263335902440E-002  0.17411889775501493        0.0000000000000000     
   7.6117346415226134E-002  0.18197362373506254        0.0000000000000000     
   7.7106362434602504E-002  0.18991789986892776        0.0000000000000000     
   7.8020311394031497E-002  0.19795172615661052        0.0000000000000000     
   6.7130710644090485E-002  0.16602736767657195        0.0000000000000000     
   6.8164134466145485E-002  0.17381591086094328        0.0000000000000000     
   6.9126790735968904E-002  0.18169342971315877        0.0000000000000000     
   7.0018679453560800E-002  0.18965992423321842        0.0000000000000000     
   7.0839800618921131E-002  0.19771539442112232        0.0000000000000000     
   6.0493393385450539E-002  0.16573468797988219        0.0000000000000000     
   6.1423235391087821E-002  0.17354519664600729        0.0000000000000000     
   6.2286913183239041E-002  0.18144434389586495        0.0000000000000000     
   6.3084426761904219E-002  0.18943212972945542        0.0000000000000000     
   6.3815776127083321E-002  0.19750855414677851        0.0000000000000000     
   5.4002161420711542E-002  0.16547568283871558        0.0000000000000000     
   5.4830566110729465E-002  0.17330675511020691        0.0000000000000000     
   5.5597713757036517E-002  0.18122636628318131        0.0000000000000000     
   5.6303604359632720E-002  0.18923451635763866        0.0000000000000000     
   5.6948237918518059E-002  0.19733120533357906        0.0000000000000000     
   4.7657014749873494E-002  0.16525035225307216        0.0000000000000000     
   4.8386126625070400E-002  0.17310058625354224        0.0000000000000000     
   4.9059192457361345E-002  0.18103949687510762        0.0000000000000000     
   4.9676212246746329E-002  0.18906708411776821        0.0000000000000000     
   5.0237185993225339E-002  0.19718334798152407        0.0000000000000000     
   7.8020311394031497E-002  0.19795172615661052        0.0000000000000000     
   7.8860140817915356E-002  0.20606798730892703        0.0000000000000000     
   7.9626798230656187E-002  0.21425956803669344        0.0000000000000000     
   8.0320283632254019E-002  0.22252646833990972        0.0000000000000000     
   8.0940597022708852E-002  0.23086868821857590        0.0000000000000000     
   7.0839800618921131E-002  0.19771539442112232        0.0000000000000000     
   7.1588677640386122E-002  0.20585356191937440        0.0000000000000000     
   7.2263833926291932E-002  0.21406814837047883        0.0000000000000000     
   7.2865269476638600E-002  0.22235915377443558        0.0000000000000000     
   7.3392984291426100E-002  0.23072657813124464        0.0000000000000000     
   6.3815776127083321E-002  0.19750855414677851        0.0000000000000000     
   6.4478138634358015E-002  0.20566738150450345        0.0000000000000000     
   6.5068691639309922E-002  0.21390237615929955        0.0000000000000000     
   6.5587435141939043E-002  0.22221353811116676        0.0000000000000000     
   6.6034369142245392E-002  0.23060086736010518        0.0000000000000000     
   5.6948237918518059E-002  0.19733120533357906        0.0000000000000000     
   5.7528523799831026E-002  0.20550944606431421        0.0000000000000000     
   5.8041371369710111E-002  0.21376225140315563        0.0000000000000000     
   5.8486780628155342E-002  0.22208962135010346        0.0000000000000000     
   5.8864751575166692E-002  0.23049155590515755        0.0000000000000000     
   5.0237185993225339E-002  0.19718334798152407        0.0000000000000000     
   5.0739833136805156E-002  0.20537975559880658        0.0000000000000000     
   5.1181873117492539E-002  0.21364777410204702        0.0000000000000000     
   5.1563305935287497E-002  0.22198740349124546        0.0000000000000000     
   5.1884131590190029E-002  0.23039864376640184        0.0000000000000000     
   8.0940597022708852E-002  0.23086868821857590        0.0000000000000000     
   8.1477081701167284E-002  0.23930682277894016        0.0000000000000000     
   8.1919080966775887E-002  0.24786146712725066        0.0000000000000000     
   8.2266594819534675E-002  0.25653262126350734        0.0000000000000000     
   8.2519623259443620E-002  0.26532028518771034        0.0000000000000000     
   7.3392984291426100E-002  0.23072657813124464        0.0000000000000000     
   7.3843721093177009E-002  0.23918410173000171        0.0000000000000000     
   7.4214222604413904E-002  0.24774540485980262        0.0000000000000000     
   7.4504488825136758E-002  0.25641048752064732        0.0000000000000000     
   7.4714519755345571E-002  0.26517934971253582        0.0000000000000000     
   6.6034369142245392E-002  0.23060086736010518        0.0000000000000000     
   6.6411823425893884E-002  0.23907091509657205        0.0000000000000000     
   6.6722127778549467E-002  0.24763023251102473        0.0000000000000000     
   6.6965282200212112E-002  0.25627881960346333        0.0000000000000000     
   6.7141286690881846E-002  0.26501667637388771        0.0000000000000000     
   5.8864751575166692E-002  0.23049155590515755        0.0000000000000000     
   5.9181388699317862E-002  0.23896726287865111        0.0000000000000000     
   5.9442796489182548E-002  0.24751595008091706        0.0000000000000000     
   5.9648974944760756E-002  0.25613761751195535        0.0000000000000000     
   5.9799924066052459E-002  0.26483226517176600        0.0000000000000000     
   5.1884131590190029E-002  0.23039864376640184        0.0000000000000000     
   5.2152416913448976E-002  0.23887314507623891        0.0000000000000000     
   5.2376228736313202E-002  0.24740255756947940        0.0000000000000000     
   5.2555567058782678E-002  0.25598688124612329        0.0000000000000000     
   5.2690431880857425E-002  0.26462611610617071        0.0000000000000000     
   8.2519623259443620E-002  0.26532028518771034        0.0000000000000000     
   8.2717153542016461E-002  0.27425087128683212        0.0000000000000000     
   8.2898172922766827E-002  0.28335079194784552        0.0000000000000000     
   8.3062681401694746E-002  0.29262004717075057        0.0000000000000000     
   8.3210678978800218E-002  0.30205863695554702        0.0000000000000000     
   7.4714519755345571E-002  0.26517934971253582        0.0000000000000000     
   7.4885253771736729E-002  0.27404565108358958        0.0000000000000000     
   7.5057629251006591E-002  0.28300305128193010        0.0000000000000000     
   7.5231646193155158E-002  0.29205155030755747        0.0000000000000000     
   7.5407304598182429E-002  0.30119114816047160        0.0000000000000000     
   6.7141286690881846E-002  0.26501667637388771        0.0000000000000000     
   6.7290373865638270E-002  0.27381393445068741        0.0000000000000000     
   6.7452776339560955E-002  0.28264072546225200        0.0000000000000000     
   6.7628494112649901E-002  0.29149704940858134        0.0000000000000000     
   6.7817527184905121E-002  0.30038290628967562        0.0000000000000000     
   5.9799924066052459E-002  0.26483226517176600        0.0000000000000000     
   5.9932513823721056E-002  0.27355572138812567        0.0000000000000000     
   6.0083614188429869E-002  0.28226381448881110        0.0000000000000000     
   6.0253225160178947E-002  0.29095654447382230        0.0000000000000000     
   6.0441346738968241E-002  0.29963391134315909        0.0000000000000000     
   5.2690431880857425E-002  0.26462611610617071        0.0000000000000000     
   5.2811673645985109E-002  0.27327101189590447        0.0000000000000000     
   5.2950142797613398E-002  0.28187231836160759        0.0000000000000000     
   5.3105839335742304E-002  0.29043003550328017        0.0000000000000000     
   5.3278763260371814E-002  0.29894416332092205        0.0000000000000000     
   2.8970834302742204E-002   5.7177399351207817E-002   0.0000000000000000     
   3.0531011841188435E-002   6.2734456953842166E-002   0.0000000000000000     
   3.2031970841258216E-002   6.8473027832051961E-002   0.0000000000000000     
   3.3473711302951570E-002   7.4393111985837201E-002   0.0000000000000000     
   3.4856233226268463E-002   8.0494709415197915E-002   0.0000000000000000     
   2.5134540489247102E-002   5.6769886294964426E-002   0.0000000000000000     
   2.6484473063786283E-002   6.2321701895706252E-002   0.0000000000000000     
   2.7787109648753527E-002   6.8061381999741752E-002   0.0000000000000000     
   2.9042450244148834E-002   7.3988926607070932E-002   0.0000000000000000     
   3.0250494849972200E-002   8.0104335717693764E-002   0.0000000000000000     
   2.1347858269287284E-002   5.6391925318109687E-002   0.0000000000000000     
   2.2499301896121322E-002   6.1949028912643415E-002   0.0000000000000000     
   2.3612456121224611E-002   6.7696742083067474E-002   0.0000000000000000     
   2.4687320944597167E-002   7.3635064829381883E-002   0.0000000000000000     
   2.5723896366238966E-002   7.9763997151586621E-002   0.0000000000000000     
   1.7610787642862755E-002   5.6043516420643598E-002   0.0000000000000000     
   1.8575498338193542E-002   6.1616438004653655E-002   0.0000000000000000     
   1.9508010258671469E-002   6.7379108082029140E-002   0.0000000000000000     
   2.0408323404296550E-002   7.3331526652770082E-002   0.0000000000000000     
   2.1276437775068772E-002   7.9473693716876431E-002   0.0000000000000000     
   1.3923328609973508E-002   5.5724659602566159E-002   0.0000000000000000     
   1.4713062390002946E-002   6.1323929171736978E-002   0.0000000000000000     
   1.5473772061094109E-002   6.7108479996626752E-002   0.0000000000000000     
   1.6205457623246999E-002   7.3078312077235516E-002   0.0000000000000000     
   1.6908119076461611E-002   7.9233425413563249E-002   0.0000000000000000     
   3.4856233226268463E-002   8.0494709415197915E-002   0.0000000000000000     
   3.6187920300902461E-002   8.6766238829775355E-002   0.0000000000000000     
   3.7477156216547104E-002   9.3196118939210842E-002   0.0000000000000000     
   3.8723940973202399E-002   9.9784349743504364E-002   0.0000000000000000     
   3.9928274570868331E-002  0.10653093124265593        0.0000000000000000     
   3.0250494849972200E-002   8.0104335717693764E-002   0.0000000000000000     
   3.1416263591543502E-002   8.6392552591140995E-002   0.0000000000000000     
   3.2544776594182617E-002   9.2838520486943230E-002   0.0000000000000000     
   3.3636033857889568E-002   9.9442239405100538E-002   0.0000000000000000     
   3.4690035382664318E-002  0.10620370934561289        0.0000000000000000     
   2.5723896366238966E-002   7.9763997151586621E-002   0.0000000000000000     
   2.6725151842496287E-002   8.6066866809926923E-002   0.0000000000000000     
   2.7694056829715361E-002   9.2527001564648048E-002   0.0000000000000000     
   2.8630611327896197E-002   9.9144401415749983E-002   0.0000000000000000     
   2.9534815337038799E-002  0.10591906636323277        0.0000000000000000     
   2.1276437775068772E-002   7.9473693716876431E-002   0.0000000000000000     
   2.2114585053760804E-002   8.5789181486133195E-002   0.0000000000000000     
   2.2924996923145317E-002   9.2261562172325298E-002   0.0000000000000000     
   2.3707673383222300E-002   9.8890835775452740E-002   0.0000000000000000     
   2.4462614433991770E-002  0.10567700229551555        0.0000000000000000     
   1.6908119076461611E-002   7.9233425413563249E-002   0.0000000000000000     
   1.7584563225337069E-002   8.5559496619759784E-002   0.0000000000000000     
   1.8237596874472493E-002   9.2042202309974980E-002   0.0000000000000000     
   1.8867220023867880E-002   9.8681542484208795E-002   0.0000000000000000     
   1.9473432673523233E-002  0.10547751714246126        0.0000000000000000     
   3.9928274570868331E-002  0.10653093124265593        0.0000000000000000     
   4.1083752035185758E-002  0.11342397210645801        0.0000000000000000     
   4.2183968391795570E-002  0.12045158100470309        0.0000000000000000     
   4.3228923640697733E-002  0.12761375793739116        0.0000000000000000     
   4.4218617781892268E-002  0.13491050290452219        0.0000000000000000     
   3.4690035382664318E-002  0.10620370934561289        0.0000000000000000     
   3.5700864392677889E-002  0.11311164734883072        0.0000000000000000     
   3.6662604112101260E-002  0.12015477045510453        0.0000000000000000     
   3.7575254540934452E-002  0.12733307866443427        0.0000000000000000     
   3.8438815679177431E-002  0.13464657197681998        0.0000000000000000     
   2.9534815337038799E-002  0.10591906636323277        0.0000000000000000     
   3.0401493221138547E-002  0.11284020004013884        0.0000000000000000     
   3.1225469344190820E-002  0.11989700607951072        0.0000000000000000     
   3.2006743706195620E-002  0.12708948448134841        0.0000000000000000     
   3.2745316307152939E-002  0.13441763524565195        0.0000000000000000     
   2.4462614433991770E-002  0.10567700229551555        0.0000000000000000     
   2.5185638520567738E-002  0.11260963018038231        0.0000000000000000     
   2.5872564088064227E-002  0.11967828787792166        0.0000000000000000     
   2.6523391136481243E-002  0.12688297538813356        0.0000000000000000     
   2.7138119665818784E-002  0.13422369271101803        0.0000000000000000     
   1.9473432673523233E-002  0.10547751714246126        0.0000000000000000     
   2.0053300290965467E-002  0.11241993776956118        0.0000000000000000     
   2.0603888343721496E-002  0.11949861585033733        0.0000000000000000     
   2.1125196831791329E-002  0.12671355138478968        0.0000000000000000     
   2.1617225755174961E-002  0.13406474437291835        0.0000000000000000     
   4.4218617781892268E-002  0.13491050290452219        0.0000000000000000     
   4.5155065282896638E-002  0.14232976522707100        0.0000000000000000     
   4.6040280611228279E-002  0.14985949422601227        0.0000000000000000     
   4.6874263766887247E-002  0.15749968990134597        0.0000000000000000     
   4.7657014749873494E-002  0.16525035225307216        0.0000000000000000     
   3.8438815679177431E-002  0.13464657197681998        0.0000000000000000     
   3.9255118596454017E-002  0.14208294423310805        0.0000000000000000     
   4.0025994362387997E-002  0.14962988927414494        0.0000000000000000     
   4.0751442976979337E-002  0.15728740709993067        0.0000000000000000     
   4.1431464440228064E-002  0.16505549771046524        0.0000000000000000     
   3.2745316307152939E-002  0.13441763524565195        0.0000000000000000     
   3.3442839175722758E-002  0.14186901829560147        0.0000000000000000     
   3.4100964340565025E-002  0.14943119355437731        0.0000000000000000     
   3.4719691801679761E-002  0.15710416102197952        0.0000000000000000     
   3.5299021559066932E-002  0.16488792069840796        0.0000000000000000     
   2.7138119665818784E-002  0.13422369271101803        0.0000000000000000     
   2.7718227020702837E-002  0.14168798741455130        0.0000000000000000     
   2.8265190545759409E-002  0.14926340706670943        0.0000000000000000     
   2.8779010240988497E-002  0.15694995166749248        0.0000000000000000     
   2.9259686106390102E-002  0.16474762121690043        0.0000000000000000     
   2.1617225755174961E-002  0.13406474437291835        0.0000000000000000     
   2.2081282131394275E-002  0.14153985158995744        0.0000000000000000     
   2.2518672977971142E-002  0.14912652981114116        0.0000000000000000     
   2.2929398294905572E-002  0.15682477903646957        0.0000000000000000     
   2.3313458082197567E-002  0.16463459926594265        0.0000000000000000     
   4.7657014749873494E-002  0.16525035225307216        0.0000000000000000     
   4.8386126625070400E-002  0.17310058625354224        0.0000000000000000     
   4.9059192457361345E-002  0.18103949687510762        0.0000000000000000     
   4.9676212246746329E-002  0.18906708411776821        0.0000000000000000     
   5.0237185993225339E-002  0.19718334798152407        0.0000000000000000     
   4.1431464440228064E-002  0.16505549771046524        0.0000000000000000     
   4.2063545587392129E-002  0.17292327538525215        0.0000000000000000     
   4.2645173253729469E-002  0.18087985440379509        0.0000000000000000     
   4.3176347439240099E-002  0.18892523476609405        0.0000000000000000     
   4.3657068143924012E-002  0.19705941647214900        0.0000000000000000     
   3.5299021559066932E-002  0.16488792069840796        0.0000000000000000     
   3.5836451650976112E-002  0.17277140781457551        0.0000000000000000     
   3.6329480115656836E-002  0.18074355760139488        0.0000000000000000     
   3.6778106953109096E-002  0.18880437005886616        0.0000000000000000     
   3.7182332163332901E-002  0.19695384518698927        0.0000000000000000     
   2.9259686106390102E-002  0.16474762121690043        0.0000000000000000     
   2.9704844815822366E-002  0.17264498354151231        0.0000000000000000     
   3.0112113043143436E-002  0.18063060646790699        0.0000000000000000     
   3.0481490788353327E-002  0.18870448999608461        0.0000000000000000     
   3.0812978051452028E-002  0.19686663412604496        0.0000000000000000     
   2.3313458082197567E-002  0.16463459926594265        0.0000000000000000     
   2.3668725081930884E-002  0.17254400256606256        0.0000000000000000     
   2.3993072036189285E-002  0.18054100100333142        0.0000000000000000     
   2.4286498944972781E-002  0.18862559457774927        0.0000000000000000     
   2.4549005808281364E-002  0.19679778328931605        0.0000000000000000     
   5.0237185993225339E-002  0.19718334798152407        0.0000000000000000     
   5.0739833136805156E-002  0.20537975559880658        0.0000000000000000     
   5.1181873117492539E-002  0.21364777410204702        0.0000000000000000     
   5.1563305935287497E-002  0.22198740349124546        0.0000000000000000     
   5.1884131590190029E-002  0.23039864376640184        0.0000000000000000     
   4.3657068143924012E-002  0.19705941647214900        0.0000000000000000     
   4.4086261984609770E-002  0.20527200293296133        0.0000000000000000     
   4.4462855578125959E-002  0.21355259755953240        0.0000000000000000     
   4.4786848924472572E-002  0.22190120035186225        0.0000000000000000     
   4.5058242023649608E-002  0.23031781130995080        0.0000000000000000     
   3.7182332163332901E-002  0.19695384518698927        0.0000000000000000     
   3.7542005682574257E-002  0.20517988089175909        0.0000000000000000     
   3.7856977447079165E-002  0.21347037507917038        0.0000000000000000     
   3.8127247456847618E-002  0.22182532774922314        0.0000000000000000     
   3.8352815711879623E-002  0.23024473890191738        0.0000000000000000     
   3.0812978051452028E-002  0.19686663412604496        0.0000000000000000     
   3.1107064230698599E-002  0.20510338947519988        0.0000000000000000     
   3.1364238724352136E-002  0.21340110666096099        0.0000000000000000     
   3.1584501532412629E-002  0.22175978568332821        0.0000000000000000     
   3.1767852654880080E-002  0.23017942654230159        0.0000000000000000     
   2.4549005808281364E-002  0.19679778328931605        0.0000000000000000     
   2.4781437628982807E-002  0.20504252868328371        0.0000000000000000     
   2.4984639409944893E-002  0.21334479230490414        0.0000000000000000     
   2.5158611151167617E-002  0.22170457415417735        0.0000000000000000     
   2.5303352852650986E-002  0.23012187423110336        0.0000000000000000     
   5.1884131590190029E-002  0.23039864376640184        0.0000000000000000     
   5.2152416913448976E-002  0.23887314507623891        0.0000000000000000     
   5.2376228736313202E-002  0.24740255756947940        0.0000000000000000     
   5.2555567058782678E-002  0.25598688124612329        0.0000000000000000     
   5.2690431880857425E-002  0.26462611610617071        0.0000000000000000     
   4.5058242023649608E-002  0.23031781130995080        0.0000000000000000     
   4.5285783697073020E-002  0.23878713044072111        0.0000000000000000     
   4.5478222766158788E-002  0.24729385775109614        0.0000000000000000     
   4.5635559230906904E-002  0.25583799324107587        0.0000000000000000     
   4.5757793091317368E-002  0.26441953691066034        0.0000000000000000     
   3.8352815711879623E-002  0.23024473890191738        0.0000000000000000     
   3.8542364678975788E-002  0.23870778772348339        0.0000000000000000     
   3.8704576824936741E-002  0.24719365340015137        0.0000000000000000     
   3.8839452149762477E-002  0.25570233593192138        0.0000000000000000     
   3.8946990653452987E-002  0.26423383531879341        0.0000000000000000     
   3.1767852654880080E-002  0.23017942654230159        0.0000000000000000     
   3.1922159859157292E-002  0.23863511692452569        0.0000000000000000     
   3.2055290912647048E-002  0.24710194451664516        0.0000000000000000     
   3.2167245815349375E-002  0.25557990931865993        0.0000000000000000     
   3.2258024567264260E-002  0.26406901133056992        0.0000000000000000     
   2.5303352852650986E-002  0.23012187423110336        0.0000000000000000     
   2.5425169237617513E-002  0.23856911804384809        0.0000000000000000     
   2.5530365029289723E-002  0.24701873110057737        0.0000000000000000     
   2.5618940227667621E-002  0.25547071340129129        0.0000000000000000     
   2.5690894832751200E-002  0.26392506494598988        0.0000000000000000     
   5.2690431880857425E-002  0.26462611610617071        0.0000000000000000     
   5.2811673645985109E-002  0.27327101189590447        0.0000000000000000     
   5.2950142797613398E-002  0.28187231836160759        0.0000000000000000     
   5.3105839335742304E-002  0.29043003550328017        0.0000000000000000     
   5.3278763260371814E-002  0.29894416332092205        0.0000000000000000     
   4.5757793091317368E-002  0.26441953691066034        0.0000000000000000     
   4.5869098780620392E-002  0.27298852120992656        0.0000000000000000     
   4.5993650732046185E-002  0.28149497858895139        0.0000000000000000     
   4.6131448945594740E-002  0.28993890904773501        0.0000000000000000     
   4.6282493421266065E-002  0.29832031258627717        0.0000000000000000     
   3.8946990653452987E-002  0.26423383531879341        0.0000000000000000     
   3.9046034675816930E-002  0.27273696456609475        0.0000000000000000     
   3.9155426556662952E-002  0.28116053667915242        0.0000000000000000     
   3.9275166295991044E-002  0.28950455165796662        0.0000000000000000     
   3.9405253893801229E-002  0.29776900950253721        0.0000000000000000     
   3.2258024567264260E-002  0.26406901133056992        0.0000000000000000     
   3.2342481331574705E-002  0.27251634196440899        0.0000000000000000     
   3.2435470271463686E-002  0.28086899263221066        0.0000000000000000     
   3.2536991386931211E-002  0.28912696333397508        0.0000000000000000     
   3.2647044677977299E-002  0.29729025406970211        0.0000000000000000     
   2.5690894832751200E-002  0.26392506494598988        0.0000000000000000     
   2.5758438747893707E-002  0.27232665340486939        0.0000000000000000     
   2.5833781876448390E-002  0.28062034644812622        0.0000000000000000     
   2.5916924218415245E-002  0.28880614407576038        0.0000000000000000     
   2.6007865773794280E-002  0.29688404628777193        0.0000000000000000     
   1.3923328609973508E-002   5.5724659602566159E-002   0.0000000000000000     
   1.4713062390002946E-002   6.1323929171736978E-002   0.0000000000000000     
   1.5473772061094109E-002   6.7108479996626752E-002   0.0000000000000000     
   1.6205457623246999E-002   7.3078312077235516E-002   0.0000000000000000     
   1.6908119076461611E-002   7.9233425413563249E-002   0.0000000000000000     
   1.0313022429775817E-002   5.5475973331902857E-002   0.0000000000000000     
   1.0925891900470788E-002   6.1098644480505435E-002   0.0000000000000000     
   1.1512819714580968E-002   6.6901938744561490E-002   0.0000000000000000     
   1.2073805872106352E-002   7.2885856124071030E-002   0.0000000000000000     
   1.2608850373046944E-002   7.9050396619034041E-002   0.0000000000000000     
   6.8074103614259420E-003   5.5338076076679177E-002   0.0000000000000000     
   7.2278847185183190E-003   6.0967725997571144E-002   0.0000000000000000     
   7.6282314052204935E-003   6.6776565243534564E-002   0.0000000000000000     
   8.0084504215324655E-003   7.2764593814569428E-002   0.0000000000000000     
   8.3685417674542340E-003   7.8931811710675787E-002   0.0000000000000000     
   3.4064924049238875E-003   5.5310967836895118E-002   0.0000000000000000     
   3.6190408441455412E-003   6.0931173722934051E-002   0.0000000000000000     
   3.8200071330126910E-003   6.6732359493545931E-002   0.0000000000000000     
   4.0093912715253371E-003   7.2714525148730752E-002   0.0000000000000000     
   4.1871932596834784E-003   7.8877670688488513E-002   0.0000000000000000     
   1.1026856026965202E-004   5.5394648612550682E-002   0.0000000000000000     
   9.9360277352452796E-005   6.0988987656594190E-002   0.0000000000000000     
   8.8146897957558238E-005   6.6769321494595621E-002   0.0000000000000000     
   7.6628422084967101E-005   7.2735650126554960E-002   0.0000000000000000     
   6.4804849734680743E-005   7.8887973552472207E-002   0.0000000000000000     
   1.6908119076461611E-002   7.9233425413563249E-002   0.0000000000000000     
   1.7584563225337069E-002   8.5559496619759784E-002   0.0000000000000000     
   1.8237596874472493E-002   9.2042202309974980E-002   0.0000000000000000     
   1.8867220023867880E-002   9.8681542484208795E-002   0.0000000000000000     
   1.9473432673523233E-002  0.10547751714246126        0.0000000000000000     
   1.2608850373046944E-002   7.9050396619034041E-002   0.0000000000000000     
   1.3121576139734628E-002   8.5383627906792936E-002   0.0000000000000000     
   1.3615606094501288E-002   9.1873617664690141E-002   0.0000000000000000     
   1.4090940237346921E-002   9.8520365892725684E-002   0.0000000000000000     
   1.4547578568271536E-002  0.10532387259089954        0.0000000000000000     
   8.3685417674542340E-003   7.8931811710675787E-002   0.0000000000000000     
   8.7121135794630319E-003   8.5267391043218857E-002   0.0000000000000000     
   9.0427739940361004E-003   9.1760503923563927E-002   0.0000000000000000     
   9.3605230111734328E-003   9.8411150351710969E-002   0.0000000000000000     
   9.6653606308750358E-003  0.10521933032766004        0.0000000000000000     
   4.1871932596834784E-003   7.8877670688488513E-002   0.0000000000000000     
   4.3561755445222870E-003   8.5210786029037575E-002   0.0000000000000000     
   4.5191005730769312E-003   9.1702861086596282E-002   0.0000000000000000     
   4.6759683453474130E-003   9.8353895861164678E-002   0.0000000000000000     
   4.8267788613337312E-003  0.10516389035274272        0.0000000000000000     
   6.4804849734680743E-005   7.8887973552472207E-002   0.0000000000000000     
   5.3762034912388469E-005   8.5213812864249075E-002   0.0000000000000000     
   4.4585831623781050E-005   9.1700689153787263E-002   0.0000000000000000     
   3.7276239868859991E-005   9.8348602421086770E-002   0.0000000000000000     
   3.1833259647623922E-005  0.10515755266614761        0.0000000000000000     
   1.9473432673523233E-002  0.10547751714246126        0.0000000000000000     
   2.0053300290965467E-002  0.11241993776956118        0.0000000000000000     
   2.0603888343721496E-002  0.11949861585033733        0.0000000000000000     
   2.1125196831791329E-002  0.12671355138478968        0.0000000000000000     
   2.1617225755174961E-002  0.13406474437291835        0.0000000000000000     
   1.4547578568271536E-002  0.10532387259089954        0.0000000000000000     
   1.4983762286869380E-002  0.11227396338429101        0.0000000000000000     
   1.5397732592734715E-002  0.11936046389797937        0.0000000000000000     
   1.5789489485867537E-002  0.12658337413196463        0.0000000000000000     
   1.6159032966267844E-002  0.13394269408624682        0.0000000000000000     
   9.6653606308750358E-003  0.10521933032766004        0.0000000000000000     
   9.9563082628171349E-003  0.11217454760118740        0.0000000000000000     
   1.0232387316675962E-002  0.11926630592206944        0.0000000000000000     
   1.0493597792451516E-002  0.12649460529030612        0.0000000000000000     
   1.0739939690143800E-002  0.13385944570589750        0.0000000000000000     
   4.8267788613337312E-003  0.10516389035274272        0.0000000000000000     
   4.9709382188087275E-003  0.11212169042025036        0.0000000000000000     
   5.1078525155452423E-003  0.11921614192260750        0.0000000000000000     
   5.2375217515432757E-003  0.12644724485981418        0.0000000000000000     
   5.3599459268028294E-003  0.13381499923187037        0.0000000000000000     
   3.1833259647623922E-005  0.10515755266614761        0.0000000000000000     
   2.7652154844160252E-005  0.11211539184147984        0.0000000000000000     
   2.4128189342557038E-005  0.11920997189959356        0.0000000000000000     
   2.1261363142813575E-005  0.12644129284048874        0.0000000000000000     
   1.9051676244930676E-005  0.13380935466416546        0.0000000000000000     
   2.1617225755174961E-002  0.13406474437291835        0.0000000000000000     
   2.2081282131394275E-002  0.14153985158995744        0.0000000000000000     
   2.2518672977971142E-002  0.14912652981114116        0.0000000000000000     
   2.2929398294905572E-002  0.15682477903646957        0.0000000000000000     
   2.3313458082197567E-002  0.16463459926594265        0.0000000000000000     
   1.6159032966267844E-002  0.13394269408624682        0.0000000000000000     
   1.6507438017584451E-002  0.14142618880983227        0.0000000000000000     
   1.6835779623466159E-002  0.14902162335172742        0.0000000000000000     
   1.7144057783912973E-002  0.15672899771193224        0.0000000000000000     
   1.7432272498924890E-002  0.16454831189044680        0.0000000000000000     
   1.0739939690143800E-002  0.13385944570589750        0.0000000000000000     
   1.0972128189060775E-002  0.14134857706218820        0.0000000000000000     
   1.1190878468510405E-002  0.14894974925252305        0.0000000000000000     
   1.1396190528492695E-002  0.15666296227690199        0.0000000000000000     
   1.1588064369007634E-002  0.16448821613532497        0.0000000000000000     
   5.3599459268028294E-003  0.13381499923187037        0.0000000000000000     
   5.4753526458232483E-003  0.14130701634702528        0.0000000000000000     
   5.5839695131038843E-003  0.14891090751352803        0.0000000000000000     
   5.6857965286447338E-003  0.15662667273137873        0.0000000000000000     
   5.7808336924457986E-003  0.16445431200057728        0.0000000000000000     
   1.9051676244930676E-005  0.13380935466416546        0.0000000000000000     
   1.7111387871869815E-005  0.14130150666434341        0.0000000000000000     
   1.5052757246590293E-005  0.14890509813474243        0.0000000000000000     
   1.2875784369095040E-005  0.15662012907536252        0.0000000000000000     
   1.0580469239382644E-005  0.16444659948620363        0.0000000000000000     
   2.3313458082197567E-002  0.16463459926594265        0.0000000000000000     
   2.3668725081930884E-002  0.17254400256606256        0.0000000000000000     
   2.3993072036189285E-002  0.18054100100333142        0.0000000000000000     
   2.4286498944972781E-002  0.18862559457774927        0.0000000000000000     
   2.4549005808281364E-002  0.19679778328931605        0.0000000000000000     
   1.7432272498924890E-002  0.16454831189044680        0.0000000000000000     
   1.7698676322563240E-002  0.17246710345792210        0.0000000000000000     
   1.7941521808889350E-002  0.18047290998500931        0.0000000000000000     
   1.8160808957903216E-002  0.18856573147170852        0.0000000000000000     
   1.8356537769604844E-002  0.19674556791801956        0.0000000000000000     
   1.1588064369007634E-002  0.16448821613532497        0.0000000000000000     
   1.1765282410981010E-002  0.17241292478678677        0.0000000000000000     
   1.1926627075338592E-002  0.18042450219028197        0.0000000000000000     
   1.2072098362080386E-002  0.18852294834581054        0.0000000000000000     
   1.2201696271206389E-002  0.19670826325337254        0.0000000000000000     
   5.7808336924457986E-003  0.16445431200057728        0.0000000000000000     
   5.8685433471841898E-003  0.17238146655265651        0.0000000000000000     
   5.9483878355370201E-003  0.18039577761914918        0.0000000000000000     
   6.0203671575042869E-003  0.18849724520005540        0.0000000000000000     
   6.0844813130859921E-003  0.19668586929537504        0.0000000000000000     
   1.0580469239382644E-005  0.16444659948620363        0.0000000000000000     
   8.4591311727850310E-006  0.17237272875553136        0.0000000000000000     
   6.8040894846297870E-006  0.18038673627161117        0.0000000000000000     
   5.6153441749216826E-006  0.18848862203444305        0.0000000000000000     
   4.8928952436572484E-006  0.19667838604402704        0.0000000000000000     
   2.4549005808281364E-002  0.19679778328931605        0.0000000000000000     
   2.4781437628982807E-002  0.20504252868328371        0.0000000000000000     
   2.4984639409944893E-002  0.21334479230490414        0.0000000000000000     
   2.5158611151167617E-002  0.22170457415417735        0.0000000000000000     
   2.5303352852650986E-002  0.23012187423110336        0.0000000000000000     
   1.8356537769604844E-002  0.19674556791801956        0.0000000000000000     
   1.8529647092820654E-002  0.20499616373488402        0.0000000000000000     
   1.8681075776377062E-002  0.21330126333324353        0.0000000000000000     
   1.8810823820274065E-002  0.22166086671309793        0.0000000000000000     
   1.8918891224511666E-002  0.23007497387444734        0.0000000000000000     
   1.2201696271206389E-002  0.19670826325337254        0.0000000000000000     
   1.2316213837605913E-002  0.20496315984887448        0.0000000000000000     
   1.2416444096168266E-002  0.21327035106822262        0.0000000000000000     
   1.2502387046893449E-002  0.22162983691141711        0.0000000000000000     
   1.2574042689781467E-002  0.23004161737845796        0.0000000000000000     
   6.0844813130859921E-003  0.19668586929537504        0.0000000000000000     
   6.1411378633385852E-003  0.20494351702525485        0.0000000000000000     
   6.1907443693185139E-003  0.21325205550984150        0.0000000000000000     
   6.2333008310257792E-003  0.22161148474913497        0.0000000000000000     
   6.2688072484603802E-003  0.23002180474313527        0.0000000000000000     
   4.8928952436572484E-006  0.19667838604402704        0.0000000000000000     
   4.4191700186723987E-006  0.20493723526402530        0.0000000000000000     
   3.9765958278042404E-006  0.21324637665810015        0.0000000000000000     
   3.5651726710494937E-006  0.22160581022625145        0.0000000000000000     
   3.1849005484099746E-006  0.23001553596847929        0.0000000000000000     
   2.5303352852650986E-002  0.23012187423110336        0.0000000000000000     
   2.5425169237617513E-002  0.23856911804384809        0.0000000000000000     
   2.5530365029289723E-002  0.24701873110057737        0.0000000000000000     
   2.5618940227667621E-002  0.25547071340129129        0.0000000000000000     
   2.5690894832751200E-002  0.26392506494598988        0.0000000000000000     
   1.8918891224511666E-002  0.23007497387444734        0.0000000000000000     
   1.9009737107723461E-002  0.23851432384028504        0.0000000000000000     
   1.9087820588543029E-002  0.24694965563360446        0.0000000000000000     
   1.9153141666970377E-002  0.25538096925440568        0.0000000000000000     
   1.9205700343005495E-002  0.26380826470268853        0.0000000000000000     
   1.2574042689781467E-002  0.23004161737845796        0.0000000000000000     
   1.2634207762842126E-002  0.23847526707267111        0.0000000000000000     
   1.2685679004085248E-002  0.24690036059738268        0.0000000000000000     
   1.2728456413510827E-002  0.25531689795259277        0.0000000000000000     
   1.2762539991118866E-002  0.26372487913830117        0.0000000000000000     
   6.2688072484603802E-003  0.23002180474313527        0.0000000000000000     
   6.2985812029735149E-003  0.23845194774100636        0.0000000000000000     
   6.3239402759163801E-003  0.24687084599191211        0.0000000000000000     
   6.3448844672889760E-003  0.25527849949585263        0.0000000000000000     
   6.3614137770913026E-003  0.26367490825282780        0.0000000000000000     
   3.1849005484099746E-006  0.23001553596847929        0.0000000000000000     
   2.8574281176240238E-006  0.23844436584529072        0.0000000000000000     
   2.6044040364261870E-006  0.24686111181719270        0.0000000000000000     
   2.4258283048223461E-006  0.25526577388418525        0.0000000000000000     
   2.3217009228076492E-006  0.26365835204626842        0.0000000000000000     
   2.5690894832751200E-002  0.26392506494598988        0.0000000000000000     
   2.5758438747893707E-002  0.27232665340486939        0.0000000000000000     
   2.5833781876448390E-002  0.28062034644812622        0.0000000000000000     
   2.5916924218415245E-002  0.28880614407576038        0.0000000000000000     
   2.6007865773794280E-002  0.29688404628777193        0.0000000000000000     
   1.9205700343005495E-002  0.26380826470268853        0.0000000000000000     
   1.9255461525316681E-002  0.27217423757234682        0.0000000000000000     
   1.9312390122572191E-002  0.28042158345727430        0.0000000000000000     
   1.9376486134772032E-002  0.28855030235747087        0.0000000000000000     
   1.9447749561916212E-002  0.29656039427293651        0.0000000000000000     
   1.2762539991118866E-002  0.26372487913830117        0.0000000000000000     
   1.2795104264386332E-002  0.27206543315171222        0.0000000000000000     
   1.2833323760790202E-002  0.28027968899002997        0.0000000000000000     
   1.2877198480330469E-002  0.28836764665325448        0.0000000000000000     
   1.2926728423007135E-002  0.29632930614138570        0.0000000000000000     
   6.3614137770913026E-003  0.26367490825282780        0.0000000000000000     
   6.3773669651026807E-003  0.27200024014296548        0.0000000000000000     
   6.3965827911024297E-003  0.28019466304639329        0.0000000000000000     
   6.4190612550905548E-003  0.28825817696311129        0.0000000000000000     
   6.4448023570670499E-003  0.29619078189311954        0.0000000000000000     
   2.3217009228076492E-006  0.26365835204626842        0.0000000000000000     
   2.2496274657147607E-006  0.27197865854610659        0.0000000000000000     
   2.1672135088753692E-006  0.28016650562636425        0.0000000000000000     
   2.0744590522895560E-006  0.28822189328704134        0.0000000000000000     
   1.9713640959572939E-006  0.29614482152813792        0.0000000000000000     
   1.1026856026965202E-004   5.5394648612550682E-002   0.0000000000000000     
   9.9360277352452796E-005   6.0988987656594190E-002   0.0000000000000000     
   8.8146897957558238E-005   6.6769321494595621E-002   0.0000000000000000     
   7.6628422084967101E-005   7.2735650126554960E-002   0.0000000000000000     
   6.4804849734680743E-005   7.8887973552472207E-002   0.0000000000000000     
  -3.2017130941518245E-003   5.5525457672515835E-002   0.0000000000000000     
  -3.4342999047943653E-003   6.1093913355719787E-002   0.0000000000000000     
  -3.6559167374532859E-003   6.6853269380526908E-002   0.0000000000000000     
  -3.8665635921285883E-003   7.2803525746937200E-002   0.0000000000000000     
  -4.0662404688202704E-003   7.8944682454950676E-002   0.0000000000000000     
  -6.6499044799555995E-003   5.5639734285660547E-002   0.0000000000000000     
  -7.0850826252283339E-003   6.1198696377479038E-002   0.0000000000000000     
  -7.5007512107282247E-003   6.6950021285183098E-002   0.0000000000000000     
  -7.8969102364552773E-003   7.2893709008772650E-002   0.0000000000000000     
  -8.2735597024094863E-003   7.9029759548247730E-002   0.0000000000000000     
  -1.0234305597141675E-002   5.5737478451984818E-002   0.0000000000000000     
  -1.0852987883949453E-002   6.1303336721871972E-002   0.0000000000000000     
  -1.1446356521867262E-002   6.7059577208564120E-002   0.0000000000000000     
  -1.2014411510895096E-002   7.3006199912061268E-002   0.0000000000000000     
  -1.2557152851032965E-002   7.9143204832363395E-002   0.0000000000000000     
  -1.3954916445710053E-002   5.5818690171488661E-002   0.0000000000000000     
  -1.4738015680957726E-002   6.1407834388898588E-002   0.0000000000000000     
  -1.5492732670870389E-002   6.7181937150670057E-002   0.0000000000000000     
  -1.6219067415448051E-002   7.3140998456803066E-002   0.0000000000000000     
  -1.6917019914690704E-002   7.9285018307297617E-002   0.0000000000000000     
   6.4804849734680743E-005   7.8887973552472207E-002   0.0000000000000000     
   5.3762034912388469E-005   8.5213812864249075E-002   0.0000000000000000     
   4.4585831623781050E-005   9.1700689153787263E-002   0.0000000000000000     
   3.7276239868859991E-005   9.8348602421086770E-002   0.0000000000000000     
   3.1833259647623922E-005  0.10515755266614761        0.0000000000000000     
  -4.0662404688202704E-003   7.8944682454950676E-002   0.0000000000000000     
  -4.2556809440050282E-003   8.5262642390591489E-002   0.0000000000000000     
  -4.4356185941595528E-003   9.1743308439883792E-002   0.0000000000000000     
  -4.6060534192838487E-003   9.8386680602827625E-002   0.0000000000000000     
  -4.7669854193779114E-003  0.10519275887942295        0.0000000000000000     
  -8.2735597024094863E-003   7.9029759548247730E-002   0.0000000000000000     
  -8.6327073868683272E-003   8.5343445449802963E-002   0.0000000000000000     
  -8.9763610681092773E-003   9.1820039259632905E-002   0.0000000000000000     
  -9.3045207461323349E-003   9.8459540977737570E-002   0.0000000000000000     
  -9.6171864209375017E-003  0.10526195060411700        0.0000000000000000     
  -1.2557152851032965E-002   7.9143204832363395E-002   0.0000000000000000     
  -1.3077317293677511E-002   8.5456222041883509E-002   0.0000000000000000     
  -1.3577641590225389E-002   9.1930881613034587E-002   0.0000000000000000     
  -1.4058125740676603E-002   9.8567183545816672E-002   0.0000000000000000     
  -1.4518769745031145E-002  0.10536512784022975        0.0000000000000000     
  -1.6917019914690704E-002   7.9285018307297617E-002   0.0000000000000000     
  -1.7589510664432578E-002   8.5600972166833086E-002   0.0000000000000000     
  -1.8239460160507891E-002   9.2075835500088840E-002   0.0000000000000000     
  -1.8866868402916646E-002   9.8709608307064864E-002   0.0000000000000000     
  -1.9471735391658838E-002  0.10550229058776117        0.0000000000000000     
   3.1833259647623922E-005  0.10515755266614761        0.0000000000000000     
   2.7652154844160252E-005  0.11211539184147984        0.0000000000000000     
   2.4128189342557038E-005  0.11920997189959356        0.0000000000000000     
   2.1261363142813575E-005  0.12644129284048874        0.0000000000000000     
   1.9051676244930676E-005  0.13380935466416546        0.0000000000000000     
  -4.7669854193779114E-003  0.10519275887942295        0.0000000000000000     
  -4.9189314581621997E-003  0.11214857441728072        0.0000000000000000     
  -5.0624083993571637E-003  0.11924115836401186        0.0000000000000000     
  -5.1974162429628068E-003  0.12647051071961635        0.0000000000000000     
  -5.3239549889791266E-003  0.13383663148409425        0.0000000000000000     
  -9.6171864209375017E-003  0.10526195060411700        0.0000000000000000     
  -9.9141941492959847E-003  0.11221416070005777        0.0000000000000000     
  -1.0195379987978988E-002  0.11930306382684655        0.0000000000000000     
  -1.0460743936986519E-002  0.12652865998448337        0.0000000000000000     
  -1.0710285996318574E-002  0.13389094917296818        0.0000000000000000     
  -1.4518769745031145E-002  0.10536512784022975        0.0000000000000000     
  -1.4958135918557191E-002  0.11231215068981101        0.0000000000000000     
  -1.5374786576522921E-002  0.11939568828809770        0.0000000000000000     
  -1.5768721718928326E-002  0.12661574063508982        0.0000000000000000     
  -1.6139941345773411E-002  0.13397230773078733        0.0000000000000000     
  -1.9471735391658838E-002  0.10550229058776117        0.0000000000000000     
  -2.0050756765945827E-002  0.11244254438654043        0.0000000000000000     
  -2.0600628164988952E-002  0.11951903174776526        0.0000000000000000     
  -2.1121349588788221E-002  0.12673175267143569        0.0000000000000000     
  -2.1612921037343635E-002  0.13408070715755169        0.0000000000000000     
   1.9051676244930676E-005  0.13380935466416546        0.0000000000000000     
   1.7111387871869815E-005  0.14130150666434341        0.0000000000000000     
   1.5052757246590293E-005  0.14890509813474243        0.0000000000000000     
   1.2875784369095040E-005  0.15662012907536252        0.0000000000000000     
   1.0580469239382644E-005  0.16444659948620363        0.0000000000000000     
  -5.3239549889791266E-003  0.13383663148409425        0.0000000000000000     
  -5.4429749213676173E-003  0.14132664614105994        0.0000000000000000     
  -5.5554263240897737E-003  0.14892768017412800        0.0000000000000000     
  -5.6613091971455913E-003  0.15663973358329830        0.0000000000000000     
  -5.7606235405350745E-003  0.16446280636857091        0.0000000000000000     
  -1.0710285996318574E-002  0.13389094917296818        0.0000000000000000     
  -1.0945285618469464E-002  0.14137703290409220        0.0000000000000000     
  -1.1167022255933504E-002  0.14897401268964647        0.0000000000000000     
  -1.1375495908710691E-002  0.15668188852963105        0.0000000000000000     
  -1.1570706576801031E-002  0.16450066042404593        0.0000000000000000     
  -1.6139941345773411E-002  0.13397230773078733        0.0000000000000000     
  -1.6489820703433668E-002  0.14145266695344014        0.0000000000000000     
  -1.6819735038284604E-002  0.14904409568129792        0.0000000000000000     
  -1.7129684350326208E-002  0.15674659391436077        0.0000000000000000     
  -1.7419668639558482E-002  0.16456016165262860        0.0000000000000000     
  -2.1612921037343635E-002  0.13408070715755169        0.0000000000000000     
  -2.2076580176260237E-002  0.14155354828910377        0.0000000000000000     
  -2.2513564671143071E-002  0.14913792914908230        0.0000000000000000     
  -2.2923874521992141E-002  0.15683384973748743        0.0000000000000000     
  -2.3307509728807435E-002  0.16464131005431903        0.0000000000000000     
   1.0580469239382644E-005  0.16444659948620363        0.0000000000000000     
   8.4591311727850310E-006  0.17237272875553136        0.0000000000000000     
   6.8040894846297870E-006  0.18038673627161117        0.0000000000000000     
   5.6153441749216826E-006  0.18848862203444305        0.0000000000000000     
   4.8928952436572484E-006  0.19667838604402704        0.0000000000000000     
  -5.7606235405350745E-003  0.16446280636857091        0.0000000000000000     
  -5.8522918970582028E-003  0.17238569039039831        0.0000000000000000     
  -5.9352368095149603E-003  0.18039717750923287        0.0000000000000000     
  -6.0094582779053477E-003  0.18849726772507464        0.0000000000000000     
  -6.0749563022293642E-003  0.19668596103792363        0.0000000000000000     
  -1.1570706576801031E-002  0.16450066042404593        0.0000000000000000     
  -1.1751031397513764E-002  0.17241933045224431        0.0000000000000000     
  -1.1914847508158136E-002  0.18042690069357942        0.0000000000000000     
  -1.2062154908734158E-002  0.18852337114805132        0.0000000000000000     
  -1.2192953599241819E-002  0.19670874181565995        0.0000000000000000     
  -1.7419668639558482E-002  0.16456016165262860        0.0000000000000000     
  -1.7687759370193890E-002  0.17247364894106934        0.0000000000000000     
  -1.7932028006444896E-002  0.18047590582465084        0.0000000000000000     
  -1.8152474548311502E-002  0.18856693230337301        0.0000000000000000     
  -1.8349098995793702E-002  0.19674672837723597        0.0000000000000000     
  -2.3307509728807435E-002  0.16464131005431903        0.0000000000000000     
  -2.3662475815098602E-002  0.17254864585687349        0.0000000000000000     
  -2.3986778304375247E-002  0.18054419290244708        0.0000000000000000     
  -2.4280417196637389E-002  0.18862795119103987        0.0000000000000000     
  -2.4543392491885020E-002  0.19679992072265179        0.0000000000000000     
   4.8928952436572484E-006  0.19667838604402704        0.0000000000000000     
   4.4191700186723987E-006  0.20493723526402530        0.0000000000000000     
   3.9765958278042404E-006  0.21324637665810015        0.0000000000000000     
   3.5651726710494937E-006  0.22160581022625145        0.0000000000000000     
   3.1849005484099746E-006  0.23001553596847929        0.0000000000000000     
  -6.0749563022293642E-003  0.19668596103792363        0.0000000000000000     
  -6.1325346719959747E-003  0.20494425151736617        0.0000000000000000     
  -6.1829971767141433E-003  0.21325313323298867        0.0000000000000000     
  -6.2263438163838751E-003  0.22161260618479114        0.0000000000000000     
  -6.2625745910051649E-003  0.23002267037277355        0.0000000000000000     
  -1.2192953599241819E-002  0.19670874181565995        0.0000000000000000     
  -1.2308316092347506E-002  0.20496450273745781        0.0000000000000000     
  -1.2409314900717611E-002  0.21327214395449737        0.0000000000000000     
  -1.2495950024352128E-002  0.22163166546677865        0.0000000000000000     
  -1.2568221463251065E-002  0.23004306727430168        0.0000000000000000     
  -1.8349098995793702E-002  0.19674672837723597        0.0000000000000000     
  -1.8522925091035921E-002  0.20499798892430021        0.0000000000000000     
  -1.8674976576182598E-002  0.21330340882262622        0.0000000000000000     
  -1.8805253451233715E-002  0.22166298807221402        0.0000000000000000     
  -1.8913755716189286E-002  0.23007672667306356        0.0000000000000000     
  -2.4543392491885020E-002  0.19679992072265179        0.0000000000000000     
  -2.4776361668061225E-002  0.20504471007789338        0.0000000000000000     
  -2.4979982203109093E-002  0.21334692783737519        0.0000000000000000     
  -2.5154254097028636E-002  0.22170657400109714        0.0000000000000000     
  -2.5299177349819839E-002  0.23012364856905931        0.0000000000000000     
   3.1849005484099746E-006  0.23001553596847929        0.0000000000000000     
   2.8574281176240238E-006  0.23844436584529072        0.0000000000000000     
   2.6044040364261870E-006  0.24686111181719270        0.0000000000000000     
   2.4258283048223461E-006  0.25526577388418525        0.0000000000000000     
   2.3217009228076492E-006  0.26365835204626842        0.0000000000000000     
  -6.2625745910051649E-003  0.23002267037277355        0.0000000000000000     
  -6.2929706616703870E-003  0.23845247482681795        0.0000000000000000     
  -6.3188131894719125E-003  0.24687116857680644        0.0000000000000000     
  -6.3401021744097386E-003  0.25527875162273894        0.0000000000000000     
  -6.3568376164838654E-003  0.26367522396461551        0.0000000000000000     
  -1.2568221463251065E-002  0.23004306727430168        0.0000000000000000     
  -1.2628910166335354E-002  0.23847622812688204        0.0000000000000000     
  -1.2680797082525933E-002  0.24690102677433554        0.0000000000000000     
  -1.2723882211822805E-002  0.25531746321666204        0.0000000000000000     
  -1.2758165554225966E-002  0.26372553745386168        0.0000000000000000     
  -1.8913755716189286E-002  0.23007672667306356        0.0000000000000000     
  -1.9004961085877271E-002  0.23851562574548291        0.0000000000000000     
  -1.9083347275125631E-002  0.24695068640977991        0.0000000000000000     
  -1.9148914283934379E-002  0.25538190866595462        0.0000000000000000     
  -1.9201662112303494E-002  0.26380929251400692        0.0000000000000000     
  -2.5299177349819839E-002  0.23012364856905931        0.0000000000000000     
  -2.5421123420296152E-002  0.23857066768262053        0.0000000000000000     
  -2.5526463767271024E-002  0.24702014748313958        0.0000000000000000     
  -2.5615198390744460E-002  0.25547208797061649        0.0000000000000000     
  -2.5687327290716443E-002  0.26392648914505124        0.0000000000000000     
   2.3217009228076492E-006  0.26365835204626842        0.0000000000000000     
   2.2496274657147607E-006  0.27197865854610659        0.0000000000000000     
   2.1672135088753692E-006  0.28016650562636425        0.0000000000000000     
   2.0744590522895560E-006  0.28822189328704134        0.0000000000000000     
   1.9713640959572939E-006  0.29614482152813792        0.0000000000000000     
  -6.3568376164838654E-003  0.26367522396461551        0.0000000000000000     
  -6.3729366530965083E-003  0.27200067350514534        0.0000000000000000     
  -6.3923164216498664E-003  0.28019518814703748        0.0000000000000000     
  -6.4149769221439456E-003  0.28825876789029198        0.0000000000000000     
  -6.4409181545787442E-003  0.29619141273490890        0.0000000000000000     
  -1.2758165554225966E-002  0.26372553745386168        0.0000000000000000     
  -1.2790880781155927E-002  0.27206627016409130        0.0000000000000000     
  -1.2829261564033200E-002  0.28028068202550754        0.0000000000000000     
  -1.2873307902857773E-002  0.28836877303811059        0.0000000000000000     
  -1.2923019797629656E-002  0.29633054320190033        0.0000000000000000     
  -1.9201662112303494E-002  0.26380929251400692        0.0000000000000000     
  -1.9251582756712550E-002  0.27217544852294440        0.0000000000000000     
  -1.9308668213641120E-002  0.28042298726177456        0.0000000000000000     
  -1.9372918483089193E-002  0.28855190873049708        0.0000000000000000     
  -1.9444333565056773E-002  0.29656221292911222        0.0000000000000000     
  -2.5687327290716443E-002  0.26392648914505124        0.0000000000000000     
  -2.5755042579766373E-002  0.27232820858170487        0.0000000000000000     
  -2.5830536370473629E-002  0.28062210385583830        0.0000000000000000     
  -2.5913808662838201E-002  0.28880817496745159        0.0000000000000000     
  -2.6004859456860100E-002  0.29688642191654457        0.0000000000000000     
  -1.3954916445710053E-002   5.5818690171488661E-002   0.0000000000000000     
  -1.4738015680957726E-002   6.1407834388898588E-002   0.0000000000000000     
  -1.5492732670870389E-002   6.7181937150670057E-002   0.0000000000000000     
  -1.6219067415448051E-002   7.3140998456803066E-002   0.0000000000000000     
  -1.6917019914690704E-002   7.9285018307297617E-002   0.0000000000000000     
  -1.7740119482838261E-002   5.5954402817256298E-002   0.0000000000000000     
  -1.8687645473519504E-002   6.1565423074610118E-002   0.0000000000000000     
  -1.9603496593913639E-002   6.7355937436523766E-002   0.0000000000000000     
  -2.0487672844020668E-002   7.3325945902997264E-002   0.0000000000000000     
  -2.1340174223840595E-002   7.9475448474030624E-002   0.0000000000000000     
  -2.1518297165703821E-002   5.6215649762371984E-002   0.0000000000000000     
  -2.2649356718901135E-002   6.1829336475057818E-002   0.0000000000000000     
  -2.3742265227173022E-002   6.7620414391148201E-002   0.0000000000000000     
  -2.4797022690519484E-002   7.3588883510643133E-002   0.0000000000000000     
  -2.5813629108940521E-002   7.9734743833542621E-002   0.0000000000000000     
  -2.5289449494306750E-002   5.6602431006835714E-002   0.0000000000000000     
  -2.6623149417102632E-002   6.2199574590241696E-002   0.0000000000000000     
  -2.7909038570648550E-002   6.7975368014543333E-002   0.0000000000000000     
  -2.9147116954944496E-002   7.3929811279740604E-002   0.0000000000000000     
  -3.0337384569990473E-002   8.0062904385833578E-002   0.0000000000000000     
  -2.9053576468647032E-002   5.7114746550647494E-002   0.0000000000000000     
  -3.0609023568123991E-002   6.2676137420161732E-002   0.0000000000000000     
  -3.2103816624340219E-002   6.8420798306709149E-002   0.0000000000000000     
  -3.3537955637295704E-002   7.4348729210289732E-002   0.0000000000000000     
  -3.4911440606990460E-002   8.0459930130903509E-002   0.0000000000000000     
  -1.6917019914690704E-002   7.9285018307297617E-002   0.0000000000000000     
  -1.7589510664432578E-002   8.5600972166833086E-002   0.0000000000000000     
  -1.8239460160507891E-002   9.2075835500088840E-002   0.0000000000000000     
  -1.8866868402916646E-002   9.8709608307064864E-002   0.0000000000000000     
  -1.9471735391658838E-002  0.10550229058776117        0.0000000000000000     
  -2.1340174223840595E-002   7.9475448474030624E-002   0.0000000000000000     
  -2.2164283062818726E-002   8.5792755538375065E-002   0.0000000000000000     
  -2.2963281690400364E-002   9.2266177484781803E-002   0.0000000000000000     
  -2.3737170106585506E-002   9.8895714313250838E-002   0.0000000000000000     
  -2.4485948311374160E-002  0.10568136602378221        0.0000000000000000     
  -2.5813629108940521E-002   7.9734743833542621E-002   0.0000000000000000     
  -2.6796630052521146E-002   8.6046631870232773E-002   0.0000000000000000     
  -2.7750571091346377E-002   9.2513184131099671E-002   0.0000000000000000     
  -2.8675452225416214E-002   9.9134400616143287E-002   0.0000000000000000     
  -2.9571273454730658E-002  0.10591028132536369        0.0000000000000000     
  -3.0337384569990473E-002   8.0062904385833578E-002   0.0000000000000000     
  -3.1486551633539840E-002   8.6362601162406169E-002   0.0000000000000000     
  -3.2601328363345936E-002   9.2816855439042389E-002   0.0000000000000000     
  -3.3681714759408753E-002   9.9425667215742211E-002   0.0000000000000000     
  -3.4727710821728340E-002  0.10618903649250563        0.0000000000000000     
  -3.4911440606990460E-002   8.0459930130903509E-002   0.0000000000000000     
  -3.6234047805874796E-002   8.6740663414895308E-002   0.0000000000000000     
  -3.7515553506399034E-002   9.3177191408609999E-002   0.0000000000000000     
  -3.8755957708563181E-002   9.9769514112047555E-002   0.0000000000000000     
  -3.9955260412367216E-002  0.10651763152520805        0.0000000000000000     
  -1.9471735391658838E-002  0.10550229058776117        0.0000000000000000     
  -2.0050756765945827E-002  0.11244254438654043        0.0000000000000000     
  -2.0600628164988952E-002  0.11951903174776526        0.0000000000000000     
  -2.1121349588788221E-002  0.12673175267143569        0.0000000000000000     
  -2.1612921037343635E-002  0.13408070715755169        0.0000000000000000     
  -2.4485948311374160E-002  0.10568136602378221        0.0000000000000000     
  -2.5204472529880020E-002  0.11261302077662502        0.0000000000000000     
  -2.5887598987216789E-002  0.11968056673202845        0.0000000000000000     
  -2.6535327683384478E-002  0.12688400388999249        0.0000000000000000     
  -2.7147658618383079E-002  0.13422333225051716        0.0000000000000000     
  -2.9571273454730658E-002  0.10591028132536369        0.0000000000000000     
  -3.0431699048777901E-002  0.11283125884644377        0.0000000000000000     
  -3.1250393277046130E-002  0.11988776576706646        0.0000000000000000     
  -3.2027356139535348E-002  0.12707980208723177        0.0000000000000000     
  -3.2762587636245559E-002  0.13440736780693974        0.0000000000000000     
  -3.4727710821728340E-002  0.10618903649250563        0.0000000000000000     
  -3.5732436322639470E-002  0.11309725859599666        0.0000000000000000     
  -3.6689011034476970E-002  0.12014062885287931        0.0000000000000000     
  -3.7597434957240848E-002  0.12731914726315355        0.0000000000000000     
  -3.8457708090931075E-002  0.13463281382681938        0.0000000000000000     
  -3.9955260412367216E-002  0.10651763152520805        0.0000000000000000     
  -4.1106684351464737E-002  0.11341102002528373        0.0000000000000000     
  -4.2203452259509312E-002  0.12043915598946697        0.0000000000000000     
  -4.3245564136500950E-002  0.12760203941775777        0.0000000000000000     
  -4.4233019982439635E-002  0.13489967031015612        0.0000000000000000     
  -2.1612921037343635E-002  0.13408070715755169        0.0000000000000000     
  -2.2076580176260237E-002  0.14155354828910377        0.0000000000000000     
  -2.2513564671143071E-002  0.14913792914908230        0.0000000000000000     
  -2.2923874521992141E-002  0.15683384973748743        0.0000000000000000     
  -2.3307509728807435E-002  0.16464131005431903        0.0000000000000000     
  -2.7147658618383079E-002  0.13422333225051716        0.0000000000000000     
  -2.7725667177276824E-002  0.14168658995321862        0.0000000000000000     
  -2.8270428745129972E-002  0.14926181513771311        0.0000000000000000     
  -2.8781943321942498E-002  0.15694900780400062        0.0000000000000000     
  -2.9260210907714419E-002  0.16474816795208108        0.0000000000000000     
  -3.2762587636245559E-002  0.13440736780693974        0.0000000000000000     
  -3.3457184846811108E-002  0.14185870498792033        0.0000000000000000     
  -3.4112244850866363E-002  0.14942205569190373        0.0000000000000000     
  -3.4727767648411303E-002  0.15709741991888976        0.0000000000000000     
  -3.5303753239445963E-002  0.16488479766887862        0.0000000000000000     
  -3.8457708090931075E-002  0.13463281382681938        0.0000000000000000     
  -3.9271133184863069E-002  0.14206989339320888        0.0000000000000000     
  -4.0039012988352239E-002  0.14961865081165407        0.0000000000000000     
  -4.0761347501398558E-002  0.15727908608215505        0.0000000000000000     
  -4.1438136724002060E-002  0.16505119920471170        0.0000000000000000     
  -4.4233019982439635E-002  0.13489967031015612        0.0000000000000000     
  -4.5167512191432745E-002  0.14232015516908422        0.0000000000000000     
  -4.6050733157587620E-002  0.14985160049696428        0.0000000000000000     
  -4.6882682880904275E-002  0.15749400629379631        0.0000000000000000     
  -4.7663361361382703E-002  0.16524737255958025        0.0000000000000000     
  -2.3307509728807435E-002  0.16464131005431903        0.0000000000000000     
  -2.3662475815098602E-002  0.17254864585687349        0.0000000000000000     
  -2.3986778304375247E-002  0.18054419290244708        0.0000000000000000     
  -2.4280417196637389E-002  0.18862795119103987        0.0000000000000000     
  -2.4543392491885020E-002  0.19679992072265179        0.0000000000000000     
  -2.9260210907714419E-002  0.16474816795208108        0.0000000000000000     
  -2.9703264499606592E-002  0.17264711604146915        0.0000000000000000     
  -3.0109137094779876E-002  0.18063367253167945        0.0000000000000000     
  -3.0477828693234277E-002  0.18870783742271188        0.0000000000000000     
  -3.0809339294969786E-002  0.19686961071456655        0.0000000000000000     
  -3.5303753239445963E-002  0.16488479766887862        0.0000000000000000     
  -3.5838209191096586E-002  0.17277185433666883        0.0000000000000000     
  -3.6329143070489477E-002  0.18074625531705907        0.0000000000000000     
  -3.6776554877624622E-002  0.18880800061004929        0.0000000000000000     
  -3.7180444612502021E-002  0.19695709021563959        0.0000000000000000     
  -4.1438136724002060E-002  0.16505119920471170        0.0000000000000000     
  -4.2067309889568590E-002  0.17292286074247251        0.0000000000000000     
  -4.2646796231504032E-002  0.18088194125858600        0.0000000000000000     
  -4.3176595749808422E-002  0.18892844075305210        0.0000000000000000     
  -4.3656708444481725E-002  0.19706235922587084        0.0000000000000000     
  -4.7663361361382703E-002  0.16524737255958025        0.0000000000000000     
  -4.8390566595022583E-002  0.17310013525888021        0.0000000000000000     
  -4.9062096577823573E-002  0.18104073035626023        0.0000000000000000     
  -4.9677951309785674E-002  0.18906915785172027        0.0000000000000000     
  -5.0238130790908893E-002  0.19718541774526033        0.0000000000000000     
  -2.4543392491885020E-002  0.19679992072265179        0.0000000000000000     
  -2.4776361668061225E-002  0.20504471007789338        0.0000000000000000     
  -2.4979982203109093E-002  0.21334692783737519        0.0000000000000000     
  -2.5154254097028636E-002  0.22170657400109714        0.0000000000000000     
  -2.5299177349819839E-002  0.23012364856905931        0.0000000000000000     
  -3.0809339294969786E-002  0.19686961071456655        0.0000000000000000     
  -3.1103740882694166E-002  0.20510576211090142        0.0000000000000000     
  -3.1361105439115182E-002  0.21340306131537445        0.0000000000000000     
  -3.1581432964232825E-002  0.22176150832798566        0.0000000000000000     
  -3.1764723458047109E-002  0.23018110314873508        0.0000000000000000     
  -3.7180444612502021E-002  0.19695709021563959        0.0000000000000000     
  -3.7540177794205508E-002  0.20518224093598836        0.0000000000000000     
  -3.7855119941818928E-002  0.21347216957325424        0.0000000000000000     
  -3.8125271055342247E-002  0.22182687612743709        0.0000000000000000     
  -3.8350631134775492E-002  0.23024636059853701        0.0000000000000000     
  -4.3656708444481725E-002  0.19706235922587084        0.0000000000000000     
  -4.4085672402595248E-002  0.20527414655315424        0.0000000000000000     
  -4.4462025711220300E-002  0.21355425261101446        0.0000000000000000     
  -4.4785768370356895E-002  0.22190267739945138        0.0000000000000000     
  -4.5056900380005011E-002  0.23031942091846511        0.0000000000000000     
  -5.0238130790908893E-002  0.19718541774526033        0.0000000000000000     
  -5.0740224707863400E-002  0.20538147896239911        0.0000000000000000     
  -5.1181822747319347E-002  0.21364931042865523        0.0000000000000000     
  -5.1562924909276761E-002  0.22198891214402863        0.0000000000000000     
  -5.1883531193735635E-002  0.23040028410851943        0.0000000000000000     
  -2.5299177349819839E-002  0.23012364856905931        0.0000000000000000     
  -2.5421123420296152E-002  0.23857066768262053        0.0000000000000000     
  -2.5526463767271024E-002  0.24702014748313958        0.0000000000000000     
  -2.5615198390744460E-002  0.25547208797061649        0.0000000000000000     
  -2.5687327290716443E-002  0.26392648914505124        0.0000000000000000     
  -3.1764723458047109E-002  0.23018110314873508        0.0000000000000000     
  -3.1918946297138762E-002  0.23863683571613320        0.0000000000000000     
  -3.2052070858088526E-002  0.24710369596869064        0.0000000000000000     
  -3.2164097140896401E-002  0.25558168390640729        0.0000000000000000     
  -3.2255025145562388E-002  0.26407079952928314        0.0000000000000000     
  -3.8350631134775492E-002  0.23024636059853701        0.0000000000000000     
  -3.8539978843951876E-002  0.23870961162385923        0.0000000000000000     
  -3.8702092846704554E-002  0.24719561784070901        0.0000000000000000     
  -3.8836973143033554E-002  0.25570437924908640        0.0000000000000000     
  -3.8944619732938876E-002  0.26423589584899126        0.0000000000000000     
  -4.5056900380005011E-002  0.23031942091846511        0.0000000000000000     
  -4.5284221060735465E-002  0.23878899540579857        0.0000000000000000     
  -4.5476529733119109E-002  0.24729591309919483        0.0000000000000000     
  -4.5633826397155935E-002  0.25584017399865377        0.0000000000000000     
  -4.5756111052845931E-002  0.26442177810417550        0.0000000000000000     
  -5.1883531193735635E-002  0.23040028410851943        0.0000000000000000     
  -5.2151672947489569E-002  0.23887498706195126        0.0000000000000000     
  -5.2375381517332203E-002  0.24740458174414801        0.0000000000000000     
  -5.2554656903263525E-002  0.25598906815510958        0.0000000000000000     
  -5.2689499105283533E-002  0.26462844629483595        0.0000000000000000     
  -2.5687327290716443E-002  0.26392648914505124        0.0000000000000000     
  -2.5755042579766373E-002  0.27232820858170487        0.0000000000000000     
  -2.5830536370473629E-002  0.28062210385583830        0.0000000000000000     
  -2.5913808662838201E-002  0.28880817496745159        0.0000000000000000     
  -2.6004859456860100E-002  0.29688642191654457        0.0000000000000000     
  -3.2255025145562388E-002  0.26407079952928314        0.0000000000000000     
  -3.2339653311613509E-002  0.27251820464300880        0.0000000000000000     
  -3.2432780078576771E-002  0.28087106105327464        0.0000000000000000     
  -3.2534405446452176E-002  0.28912936876008066        0.0000000000000000     
  -3.2644529415239723E-002  0.29729312776342681        0.0000000000000000     
  -3.8944619732938876E-002  0.26423589584899126        0.0000000000000000     
  -3.9043808013550056E-002  0.27273909100949262        0.0000000000000000     
  -3.9153313381996589E-002  0.28116288809965928        0.0000000000000000     
  -3.9273135838278475E-002  0.28950728711949125        0.0000000000000000     
  -3.9403275382395749E-002  0.29777228806898848        0.0000000000000000     
  -4.5756111052845931E-002  0.26442177810417550        0.0000000000000000     
  -4.5867506685576008E-002  0.27299086768115632        0.0000000000000000     
  -4.5992136280733072E-002  0.28149758499499217        0.0000000000000000     
  -4.6129999838317122E-002  0.28994193004568325        0.0000000000000000     
  -4.6281097358328145E-002  0.29832390283322946        0.0000000000000000     
  -5.2689499105283533E-002  0.26462844629483595        0.0000000000000000     
  -5.2810749327691392E-002  0.27327353465799969        0.0000000000000000     
  -5.2949248774786246E-002  0.28187515173927330        0.0000000000000000     
  -5.3104997446568096E-002  0.29043329753865671        0.0000000000000000     
  -5.3277995343036941E-002  0.29894797205614998        0.0000000000000000     
  -2.9053576468647032E-002   5.7114746550647494E-002   0.0000000000000000     
  -3.0609023568123991E-002   6.2676137420161732E-002   0.0000000000000000     
  -3.2103816624340219E-002   6.8420798306709149E-002   0.0000000000000000     
  -3.3537955637295704E-002   7.4348729210289732E-002   0.0000000000000000     
  -3.4911440606990460E-002   8.0459930130903509E-002   0.0000000000000000     
  -3.2917812771713156E-002   5.7696333968928849E-002   0.0000000000000000     
  -3.4695145482361488E-002   6.3219322835410860E-002   0.0000000000000000     
  -3.6399473845378283E-002   6.8929971953929692E-002   0.0000000000000000     
  -3.8030797860763542E-002   7.4828281324485352E-002   0.0000000000000000     
  -3.9589117528517251E-002   8.0914250947077812E-002   0.0000000000000000     
  -3.6989293086493610E-002   5.8290930836801293E-002   0.0000000000000000     
  -3.8969681470211397E-002   6.3789428706581969E-002   0.0000000000000000     
  -4.0868884690893004E-002   6.9476155642488963E-002   0.0000000000000000     
  -4.2686902748538431E-002   7.5351111644522253E-002   0.0000000000000000     
  -4.4423735643147652E-002   8.1414296712681869E-002   0.0000000000000000     
  -4.1268017412988391E-002   5.8898537154264831E-002   0.0000000000000000     
  -4.3432631531673725E-002   6.4386455033675086E-002   0.0000000000000000     
  -4.5512049160884388E-002   7.0059349372386961E-002   0.0000000000000000     
  -4.7506270300620365E-002   7.5917220170400493E-002   0.0000000000000000     
  -4.9415294950881657E-002   8.1960067427715666E-002   0.0000000000000000     
  -4.5753985751197504E-002   5.9519152921319471E-002   0.0000000000000000     
  -4.8083995666748480E-002   6.5010401816690155E-002   0.0000000000000000     
  -5.0328967255352436E-002   7.0679553143623675E-002   0.0000000000000000     
  -5.2488900517009350E-002   7.6526606902120042E-002   0.0000000000000000     
  -5.4563795451719244E-002   8.2551563092179259E-002   0.0000000000000000     
  -3.4911440606990460E-002   8.0459930130903509E-002   0.0000000000000000     
  -3.6234047805874796E-002   8.6740663414895308E-002   0.0000000000000000     
  -3.7515553506399034E-002   9.3177191408609999E-002   0.0000000000000000     
  -3.8755957708563181E-002   9.9769514112047555E-002   0.0000000000000000     
  -3.9955260412367216E-002  0.10651763152520805        0.0000000000000000     
  -3.9589117528517251E-002   8.0914250947077812E-002   0.0000000000000000     
  -4.1086898374803747E-002   8.7172762020725769E-002   0.0000000000000000     
  -4.2536605925787285E-002   9.3588695744447878E-002   0.0000000000000000     
  -4.3938240181467879E-002  0.10016205211824424        0.0000000000000000     
  -4.5291801141845528E-002  0.10689283114211473        0.0000000000000000     
  -4.4423735643147652E-002   8.1414296712681869E-002   0.0000000000000000     
  -4.6092883145604391E-002   8.7650840372923144E-002   0.0000000000000000     
  -4.7707845026792275E-002   9.4045872151201526E-002   0.0000000000000000     
  -4.9268621286711320E-002  0.10059939204751697        0.0000000000000000     
  -5.0775211925361538E-002  0.10731140006186954        0.0000000000000000     
  -4.9415294950881657E-002   8.1960067427715666E-002   0.0000000000000000     
  -5.1252002118276720E-002   8.8174898471487489E-002   0.0000000000000000     
  -5.3029270809414004E-002   9.4548720628870861E-002   0.0000000000000000     
  -5.4747101024293511E-002  0.10108153389986588        0.0000000000000000     
  -5.6405492762915239E-002  0.10777333828447246        0.0000000000000000     
  -5.4563795451719244E-002   8.2551563092179259E-002   0.0000000000000000     
  -5.6564255292820741E-002   8.8744936316418749E-002   0.0000000000000000     
  -5.8500883273652465E-002   9.5097241177455938E-002   0.0000000000000000     
  -6.0373679394214438E-002  0.10160847767529085        0.0000000000000000     
  -6.2182643654506639E-002  0.10827864580992350        0.0000000000000000     
  -3.9955260412367216E-002  0.10651763152520805        0.0000000000000000     
  -4.1106684351464737E-002  0.11341102002528373        0.0000000000000000     
  -4.2203452259509312E-002  0.12043915598946697        0.0000000000000000     
  -4.3245564136500950E-002  0.12760203941775777        0.0000000000000000     
  -4.4233019982439635E-002  0.13489967031015612        0.0000000000000000     
  -4.5291801141845528E-002  0.10689283114211473        0.0000000000000000     
  -4.6590748502734314E-002  0.11376950574001998        0.0000000000000000     
  -4.7828541959948262E-002  0.12078054883592056        0.0000000000000000     
  -4.9005181513487421E-002  0.12792596042981644        0.0000000000000000     
  -5.0120667163351749E-002  0.13520574052170761        0.0000000000000000     
  -5.0775211925361538E-002  0.10731140006186954        0.0000000000000000     
  -5.2220934143928789E-002  0.11416967834592050        0.0000000000000000     
  -5.3599105143598925E-002  0.12116200905133113        0.0000000000000000     
  -5.4909724924371968E-002  0.12828839217810151        0.0000000000000000     
  -5.6152793486247909E-002  0.13554882772623156        0.0000000000000000     
  -5.6405492762915239E-002  0.10777333828447246        0.0000000000000000     
  -5.7997241275048184E-002  0.11461153784298522        0.0000000000000000     
  -5.9515141810461303E-002  0.12158353663569872        0.0000000000000000     
  -6.0959194369154632E-002  0.12868933466261301        0.0000000000000000     
  -6.2329398951128122E-002  0.13592893192372796        0.0000000000000000     
  -6.2182643654506639E-002  0.10827864580992350        0.0000000000000000     
  -6.3919669896092490E-002  0.11509508423121420        0.0000000000000000     
  -6.5576651960535387E-002  0.12204513158902333        0.0000000000000000     
  -6.7153589847835357E-002  0.12912878788335086        0.0000000000000000     
  -6.8650483557992401E-002  0.13634605311419684        0.0000000000000000     
  -4.4233019982439635E-002  0.13489967031015612        0.0000000000000000     
  -4.5167512191432745E-002  0.14232015516908422        0.0000000000000000     
  -4.6050733157587620E-002  0.14985160049696428        0.0000000000000000     
  -4.6882682880904275E-002  0.15749400629379631        0.0000000000000000     
  -4.7663361361382703E-002  0.16524737255958025        0.0000000000000000     
  -5.0120667163351749E-002  0.13520574052170761        0.0000000000000000     
  -5.1177260629681476E-002  0.14260777987068721        0.0000000000000000     
  -5.2177223632616780E-002  0.15011996923584831        0.0000000000000000     
  -5.3120556172157704E-002  0.15774230861719088        0.0000000000000000     
  -5.4007258248304213E-002  0.16547479801471493        0.0000000000000000     
  -5.6152793486247909E-002  0.13554882772623156        0.0000000000000000     
  -5.7331317262770631E-002  0.14293105705315870        0.0000000000000000     
  -5.8448302687484029E-002  0.15042282151632019        0.0000000000000000     
  -5.9503749760388101E-002  0.15802412111571607        0.0000000000000000     
  -6.0497658481482849E-002  0.16573495585134632        0.0000000000000000     
  -6.2329398951128122E-002  0.13592893192372796        0.0000000000000000     
  -6.3629682090700246E-002  0.14328998671649865        0.0000000000000000     
  -6.4863970322189352E-002  0.15076015733837994        0.0000000000000000     
  -6.6032263645595474E-002  0.15833944378937179        0.0000000000000000     
  -6.7134562060918640E-002  0.16602784606947429        0.0000000000000000     
  -6.8650483557992401E-002  0.13634605311419684        0.0000000000000000     
  -7.0072355113470278E-002  0.14368456886070707        0.0000000000000000     
  -7.1424226536732763E-002  0.15113197670202752        0.0000000000000000     
  -7.2706097827779842E-002  0.15868827663815815        0.0000000000000000     
  -7.3917968986611543E-002  0.16635346866909900        0.0000000000000000     
  -4.7663361361382703E-002  0.16524737255958025        0.0000000000000000     
  -4.8390566595022583E-002  0.17310013525888021        0.0000000000000000     
  -4.9062096577823573E-002  0.18104073035626023        0.0000000000000000     
  -4.9677951309785674E-002  0.18906915785172027        0.0000000000000000     
  -5.0238130790908893E-002  0.19718541774526033        0.0000000000000000     
  -5.4007258248304213E-002  0.16547479801471493        0.0000000000000000     
  -5.4834983850229960E-002  0.17330656264888447        0.0000000000000000     
  -5.5601386967108590E-002  0.18122672774016346        0.0000000000000000     
  -5.6306467598940119E-002  0.18923529328855185        0.0000000000000000     
  -5.6950225745724524E-002  0.19733225929404974        0.0000000000000000     
  -6.0497658481482849E-002  0.16573495585134632        0.0000000000000000     
  -6.1427566197962087E-002  0.17354502767547778        0.0000000000000000     
  -6.2291010257019615E-002  0.18144403854037733        0.0000000000000000     
  -6.3087990658655460E-002  0.18943198844604497        0.0000000000000000     
  -6.3818507402869609E-002  0.19750887739248074        0.0000000000000000     
  -6.7134562060918640E-002  0.16602784606947429        0.0000000000000000     
  -6.8168313638218944E-002  0.17381553033866010        0.0000000000000000     
  -6.9130966447556660E-002  0.18169266275690185        0.0000000000000000     
  -7.0022520488931705E-002  0.18965924332419959        0.0000000000000000     
  -7.0842975762344135E-002  0.19771527204055325        0.0000000000000000     
  -7.3917968986611543E-002  0.16635346866909900        0.0000000000000000     
  -7.5057226171000579E-002  0.17411807063843146        0.0000000000000000     
  -7.6121255538719693E-002  0.18197260038973700        0.0000000000000000     
  -7.7110057089768869E-002  0.18991705792301561        0.0000000000000000     
  -7.8023630824148121E-002  0.19795144323826733        0.0000000000000000     
  -5.0238130790908893E-002  0.19718541774526033        0.0000000000000000     
  -5.0740224707863400E-002  0.20538147896239911        0.0000000000000000     
  -5.1181822747319347E-002  0.21364931042865523        0.0000000000000000     
  -5.1562924909276761E-002  0.22198891214402863        0.0000000000000000     
  -5.1883531193735635E-002  0.23040028410851943        0.0000000000000000     
  -5.6950225745724524E-002  0.19733225929404974        0.0000000000000000     
  -5.7529711480124167E-002  0.20551069427293434        0.0000000000000000     
  -5.8041974874801380E-002  0.21376366674148289        0.0000000000000000     
  -5.8487015929756199E-002  0.22209117669969547        0.0000000000000000     
  -5.8864834644988581E-002  0.23049322414757198        0.0000000000000000     
  -6.3818507402869609E-002  0.19750887739248074        0.0000000000000000     
  -6.4480009489491785E-002  0.20566824859397145        0.0000000000000000     
  -6.5069945918351746E-002  0.21390364526480410        0.0000000000000000     
  -6.5588316689449519E-002  0.22221506740497862        0.0000000000000000     
  -6.6035121802785063E-002  0.23060251501449502        0.0000000000000000     
  -7.0842975762344135E-002  0.19771527204055325        0.0000000000000000     
  -7.1591118735966269E-002  0.20585414192551046        0.0000000000000000     
  -7.2265735877970486E-002  0.21406924599861873        0.0000000000000000     
  -7.2866827188356714E-002  0.22236058425987806        0.0000000000000000     
  -7.3394392667125039E-002  0.23072815670928842        0.0000000000000000     
  -7.8023630824148121E-002  0.19795144323826733        0.0000000000000000     
  -7.8863039219547612E-002  0.20606837426755134        0.0000000000000000     
  -7.9629344753657516E-002  0.21426046894292686        0.0000000000000000     
  -8.0322547426477819E-002  0.22252772726439377        0.0000000000000000     
  -8.0942647238008564E-002  0.23087014923195226        0.0000000000000000     
  -5.1883531193735635E-002  0.23040028410851943        0.0000000000000000     
  -5.2151672947489569E-002  0.23887498706195126        0.0000000000000000     
  -5.2375381517332203E-002  0.24740458174414801        0.0000000000000000     
  -5.2554656903263525E-002  0.25598906815510958        0.0000000000000000     
  -5.2689499105283533E-002  0.26462844629483595        0.0000000000000000     
  -5.8864834644988581E-002  0.23049322414757198        0.0000000000000000     
  -5.9181421553875485E-002  0.23896904956023707        0.0000000000000000     
  -5.9442767189793855E-002  0.24751789341281533        0.0000000000000000     
  -5.9648871552743676E-002  0.25613975570530662        0.0000000000000000     
  -5.9799734642724950E-002  0.26483463643771110        0.0000000000000000     
  -6.6035121802785063E-002  0.23060251501449502        0.0000000000000000     
  -6.6412553929554516E-002  0.23907264586857579        0.0000000000000000     
  -6.6722805740954072E-002  0.24763211774244345        0.0000000000000000     
  -6.6965877236983717E-002  0.25628093063609808        0.0000000000000000     
  -6.7141768417643438E-002  0.26501908454953943        0.0000000000000000     
  -7.3394392667125039E-002  0.23072815670928842        0.0000000000000000     
  -7.3845070074526661E-002  0.23918577598696739        0.0000000000000000     
  -7.4215497170812883E-002  0.24774725473303247        0.0000000000000000     
  -7.4505673955983648E-002  0.25641259294748364        0.0000000000000000     
  -7.4715600430038984E-002  0.26518179063032099        0.0000000000000000     
  -8.0942647238008564E-002  0.23087014923195226        0.0000000000000000     
  -8.1478969988791936E-002  0.23930843991541181        0.0000000000000000     
  -8.1920841479370232E-002  0.24786330438458232        0.0000000000000000     
  -8.2268261709743468E-002  0.25653474263946363        0.0000000000000000     
  -8.2521230679911600E-002  0.26532275468005578        0.0000000000000000     
  -5.2689499105283533E-002  0.26462844629483595        0.0000000000000000     
  -5.2810749327691392E-002  0.27327353465799969        0.0000000000000000     
  -5.2949248774786246E-002  0.28187515173927330        0.0000000000000000     
  -5.3104997446568096E-002  0.29043329753865671        0.0000000000000000     
  -5.3277995343036941E-002  0.29894797205614998        0.0000000000000000     
  -5.9799734642724950E-002  0.26483463643771110        0.0000000000000000     
  -5.9932258778805605E-002  0.27355838122867360        0.0000000000000000     
  -6.0083346280053559E-002  0.28226683569683919        0.0000000000000000     
  -6.0252997146468812E-002  0.29095999984220794        0.0000000000000000     
  -6.0441211378051349E-002  0.29963787366477956        0.0000000000000000     
  -6.7141768417643438E-002  0.26501908454953943        0.0000000000000000     
  -6.7290757877828067E-002  0.27381669668182862        0.0000000000000000     
  -6.7453124212432491E-002  0.28264388423202647        0.0000000000000000     
  -6.7628867421456670E-002  0.29150064720013291        0.0000000000000000     
  -6.7817987504900604E-002  0.30038698558614807        0.0000000000000000     
  -7.4715600430038984E-002  0.26518179063032099        0.0000000000000000     
  -7.4886246624758818E-002  0.27404848101746471        0.0000000000000000     
  -7.5058582571923035E-002  0.28300629734483507        0.0000000000000000     
  -7.5232608271531665E-002  0.29205523961243196        0.0000000000000000     
  -7.5408323723584691E-002  0.30119530782025544        0.0000000000000000     
  -8.2521230679911600E-002  0.26532275468005578        0.0000000000000000     
  -8.2718725019597789E-002  0.27425373423558180        0.0000000000000000     
  -8.2899721358525191E-002  0.28335407503526483        0.0000000000000000     
  -8.3064219696693808E-002  0.29262377707910486        0.0000000000000000     
  -8.3212220034103612E-002  0.30206284036710179        0.0000000000000000     
  -4.5753985751197504E-002   5.9519152921319471E-002   0.0000000000000000     
  -4.8083995666748480E-002   6.5010401816690155E-002   0.0000000000000000     
  -5.0328967255352436E-002   7.0679553143623675E-002   0.0000000000000000     
  -5.2488900517009350E-002   7.6526606902120042E-002   0.0000000000000000     
  -5.4563795451719244E-002   8.2551563092179259E-002   0.0000000000000000     
  -5.0411420728599603E-002   6.0200868738904241E-002   0.0000000000000000     
  -5.2909512223980631E-002   6.5688770956818285E-002   0.0000000000000000     
  -5.5321393879478604E-002   7.1349557931795593E-002   0.0000000000000000     
  -5.7647065695093522E-002   7.7183229663836159E-002   0.0000000000000000     
  -5.9886527670825376E-002   8.3189786152940010E-002   0.0000000000000000     
  -5.5204544972673353E-002   6.0991775207958177E-002   0.0000000000000000     
  -5.7894919551915183E-002   6.6449064355250539E-002   0.0000000000000000     
  -6.0491083938444414E-002   7.2082154712499166E-002   0.0000000000000000     
  -6.2993038132261009E-002   7.7891046279704113E-002   0.0000000000000000     
  -6.5400782133365004E-002   8.3875739056865295E-002   0.0000000000000000     
  -6.0133358483418761E-002   6.1891872328481298E-002   0.0000000000000000     
  -6.3040217650552122E-002   6.7291282011986892E-002   0.0000000000000000     
  -6.5838037432249835E-002   7.2877343485734450E-002   0.0000000000000000     
  -6.8526817828511818E-002   7.8650056749723848E-002   0.0000000000000000     
  -7.1106558839338113E-002   8.4609421803955184E-002   0.0000000000000000     
  -6.5197861260835821E-002   6.2901160100473585E-002   0.0000000000000000     
  -6.8345406519891488E-002   6.8215423927027397E-002   0.0000000000000000     
  -7.1362254360894856E-002   7.3735124251501333E-002   0.0000000000000000     
  -7.4248404783845950E-002   7.9460261073895408E-002   0.0000000000000000     
  -7.7003857788744745E-002   8.5390834394209608E-002   0.0000000000000000     
  -5.4563795451719244E-002   8.2551563092179259E-002   0.0000000000000000     
  -5.6564255292820741E-002   8.8744936316418749E-002   0.0000000000000000     
  -5.8500883273652465E-002   9.5097241177455938E-002   0.0000000000000000     
  -6.0373679394214438E-002  0.10160847767529085        0.0000000000000000     
  -6.2182643654506639E-002  0.10827864580992350        0.0000000000000000     
  -5.9886527670825376E-002   8.3189786152940010E-002   0.0000000000000000     
  -6.2048939925359328E-002   8.9361920361072045E-002   0.0000000000000000     
  -6.4143462577380544E-002   9.5692325250197344E-002   0.0000000000000000     
  -6.6170095626888983E-002  0.10218100082031582        0.0000000000000000     
  -6.8128839073884701E-002  0.10882794707142757        0.0000000000000000     
  -6.5400782133365004E-002   8.3875739056865295E-002   0.0000000000000000     
  -6.7725353272015371E-002   9.0026817058802555E-002   0.0000000000000000     
  -6.9977788878471045E-002   9.6334864300335707E-002   0.0000000000000000     
  -7.2158088952732055E-002  0.10279988078146469        0.0000000000000000     
  -7.4266253494798401E-002  0.10942186650218956        0.0000000000000000     
  -7.1106558839338113E-002   8.4609421803955184E-002   0.0000000000000000     
  -7.3593495332788819E-002   9.0739626409610266E-002   0.0000000000000000     
  -7.6003862176923995E-002   9.7024858327871041E-002   0.0000000000000000     
  -7.8337659371743654E-002  0.10346511755873741        0.0000000000000000     
  -8.0594886917247768E-002  0.11006040410220946        0.0000000000000000     
  -7.7003857788744745E-002   8.5390834394209608E-002   0.0000000000000000     
  -7.9653366107679729E-002   9.1500348413495164E-002   0.0000000000000000     
  -8.2221682472739394E-002   9.7762307332803305E-002   0.0000000000000000     
  -8.4708806883923737E-002  0.10417671115213403        0.0000000000000000     
  -8.7114739341232761E-002  0.11074355987148732        0.0000000000000000     
  -6.2182643654506639E-002  0.10827864580992350        0.0000000000000000     
  -6.3919669896092490E-002  0.11509508423121420        0.0000000000000000     
  -6.5576651960535387E-002  0.12204513158902333        0.0000000000000000     
  -6.7153589847835357E-002  0.12912878788335086        0.0000000000000000     
  -6.8650483557992401E-002  0.13634605311419684        0.0000000000000000     
  -6.8128839073884701E-002  0.10882794707142757        0.0000000000000000     
  -7.0010577567483301E-002  0.11562080497923377        0.0000000000000000     
  -7.1806195756800431E-002  0.12254721551943572        0.0000000000000000     
  -7.3515693641836077E-002  0.12960717869203336        0.0000000000000000     
  -7.5139071222590254E-002  0.13680069449702681        0.0000000000000000     
  -7.4266253494798401E-002  0.10942186650218956        0.0000000000000000     
  -7.6292321849642214E-002  0.11618918755567022        0.0000000000000000     
  -7.8226333362235612E-002  0.12309021003506662        0.0000000000000000     
  -8.0068288032578622E-002  0.13012493394037877        0.0000000000000000     
  -8.1818185860671203E-002  0.13729335927160669        0.0000000000000000     
  -8.0594886917247768E-002  0.11006040410220946        0.0000000000000000     
  -8.2764902742569257E-002  0.11680023196052355        0.0000000000000000     
  -8.4837064776840998E-002  0.12367411513591609        0.0000000000000000     
  -8.6811373020062990E-002  0.13068205362838700        0.0000000000000000     
  -8.8687827472235262E-002  0.13782404743793636        0.0000000000000000     
  -8.7114739341232761E-002  0.11074355987148732        0.0000000000000000     
  -8.9428320246264376E-002  0.11745393819379379        0.0000000000000000     
  -9.1638390000616521E-002  0.12429893082198405        0.0000000000000000     
  -9.3744948604289197E-002  0.13127853775605811        0.0000000000000000     
  -9.5747996057282403E-002  0.13839275899601591        0.0000000000000000     
  -6.8650483557992401E-002  0.13634605311419684        0.0000000000000000     
  -7.0072355113470278E-002  0.14368456886070707        0.0000000000000000     
  -7.1424226536732763E-002  0.15113197670202752        0.0000000000000000     
  -7.2706097827779842E-002  0.15868827663815815        0.0000000000000000     
  -7.3917968986611543E-002  0.16635346866909900        0.0000000000000000     
  -7.5139071222590254E-002  0.13680069449702681        0.0000000000000000     
  -7.6682326311229176E-002  0.14411542626959256        0.0000000000000000     
  -7.8151456719919021E-002  0.15153903734490728        0.0000000000000000     
  -7.9546462448659830E-002  0.15907152772297087        0.0000000000000000     
  -8.0867343497451574E-002  0.16671289740378345        0.0000000000000000     
  -8.1818185860671203E-002  0.13729335927160669        0.0000000000000000     
  -8.3482585664125336E-002  0.14458318172696377        0.0000000000000000     
  -8.5068046260552976E-002  0.15198209700466345        0.0000000000000000     
  -8.6574567649954096E-002  0.15949010510470576        0.0000000000000000     
  -8.8002149832328722E-002  0.16710720602709073        0.0000000000000000     
  -8.8687827472235262E-002  0.13782404743793636        0.0000000000000000     
  -9.0473133172158771E-002  0.14508783523282051        0.0000000000000000     
  -9.2173995158634572E-002  0.15246115568129603        0.0000000000000000     
  -9.3790413431662639E-002  0.15994400878336279        0.0000000000000000     
  -9.5322387991242957E-002  0.16753639453902083        0.0000000000000000     
  -9.5747996057282403E-002  0.13839275899601591        0.0000000000000000     
  -9.7653968835329508E-002  0.14562938678716306        0.0000000000000000     
  -9.9469303414163851E-002  0.15297621337480510        0.0000000000000000     
 -0.10119399979378545       0.16043323875894197        0.0000000000000000     
 -0.10282805797419431       0.16800046293957377        0.0000000000000000     
  -7.3917968986611543E-002  0.16635346866909900        0.0000000000000000     
  -7.5057226171000579E-002  0.17411807063843146        0.0000000000000000     
  -7.6121255538719693E-002  0.18197260038973700        0.0000000000000000     
  -7.7110057089768869E-002  0.18991705792301561        0.0000000000000000     
  -7.8023630824148121E-002  0.19795144323826733        0.0000000000000000     
  -8.0867343497451574E-002  0.16671289740378345        0.0000000000000000     
  -8.2111768565487644E-002  0.17445381555226200        0.0000000000000000     
  -8.3277406351961361E-002  0.18228495133332362        0.0000000000000000     
  -8.4364256856872752E-002  0.19020630474696834        0.0000000000000000     
  -8.5372320080221817E-002  0.19821787579319616        0.0000000000000000     
  -8.8002149832328722E-002  0.16710720602709073        0.0000000000000000     
  -8.9349405590860798E-002  0.17482393205762181        0.0000000000000000     
  -9.0614947708734295E-002  0.18263081548210250        0.0000000000000000     
  -9.1798776185949199E-002  0.19052785630053284        0.0000000000000000     
  -9.2900891022505538E-002  0.19851505451291288        0.0000000000000000     
  -9.5322387991242957E-002  0.16753639453902083        0.0000000000000000     
  -9.6770137247120094E-002  0.17522842015451082        0.0000000000000000     
  -9.8133879609038480E-002  0.18301019283607364        0.0000000000000000     
  -9.9413615076998224E-002  0.19088171258370917        0.0000000000000000     
 -0.10060934365099924       0.19884297939741744        0.0000000000000000     
 -0.10282805797419431       0.16800046293957377        0.0000000000000000     
 -0.10437396353426545       0.17566727984292918        0.0000000000000000     
 -0.10583420205287396       0.18342308339523700        0.0000000000000000     
 -0.10720877353001979       0.19126787359649722        0.0000000000000000     
 -0.10849767796570295       0.19920165044670990        0.0000000000000000     
  -7.8023630824148121E-002  0.19795144323826733        0.0000000000000000     
  -7.8863039219547612E-002  0.20606837426755134        0.0000000000000000     
  -7.9629344753657516E-002  0.21426046894292686        0.0000000000000000     
  -8.0322547426477819E-002  0.22252772726439377        0.0000000000000000     
  -8.0942647238008564E-002  0.23087014923195226        0.0000000000000000     
  -8.5372320080221817E-002  0.19821787579319616        0.0000000000000000     
  -8.6304968817694977E-002  0.20631170886721623        0.0000000000000000     
  -8.7165575864978626E-002  0.21447984836423786        0.0000000000000000     
  -8.7954141222072749E-002  0.22272229428426094        0.0000000000000000     
  -8.8670664888977374E-002  0.23103904662728550        0.0000000000000000     
  -9.2900891022505538E-002  0.19851505451291288        0.0000000000000000     
  -9.3926105407867555E-002  0.20658490897162740        0.0000000000000000     
  -9.4879232531499519E-002  0.21472991852906129        0.0000000000000000     
  -9.5760272393401430E-002  0.22295008318521459        0.0000000000000000     
  -9.6569224993573316E-002  0.23124540294008716        0.0000000000000000     
 -0.10060934365099924       0.19884297939741744        0.0000000000000000     
 -0.10172644899006535       0.20688797458078467        0.0000000000000000     
 -0.10277031475322021       0.21501067943739710        0.0000000000000000     
 -0.10374094094046388       0.22321109396725464        0.0000000000000000     
 -0.10463832755179635       0.23148921817035736        0.0000000000000000     
 -0.10849767796570295       0.19920165044670990        0.0000000000000000     
 -0.10970599956428831       0.20722090569468818        0.0000000000000000     
 -0.11083882253014067       0.21532213108924528        0.0000000000000000     
 -0.11189614686326008       0.22350532663038122        0.0000000000000000     
 -0.11287797256364646       0.23177049231809593        0.0000000000000000     
  -8.0942647238008564E-002  0.23087014923195226        0.0000000000000000     
  -8.1478969988791936E-002  0.23930843991541181        0.0000000000000000     
  -8.1920841479370232E-002  0.24786330438458232        0.0000000000000000     
  -8.2268261709743468E-002  0.25653474263946363        0.0000000000000000     
  -8.2521230679911600E-002  0.26532275468005578        0.0000000000000000     
  -8.8670664888977374E-002  0.23103904662728550        0.0000000000000000     
  -8.9300762312772314E-002  0.23945561261890569        0.0000000000000000     
  -8.9830048940537366E-002  0.24799749948471575        0.0000000000000000     
  -9.0258524772272572E-002  0.25666470722471563        0.0000000000000000     
  -9.0586189807977863E-002  0.26545723583890529        0.0000000000000000     
  -9.6569224993573316E-002  0.23124540294008716        0.0000000000000000     
  -9.7296955686889744E-002  0.23964226906244540        0.0000000000000000     
  -9.7934329828225433E-002  0.24816707282105552        0.0000000000000000     
  -9.8481347417580287E-002  0.25681981421591737        0.0000000000000000     
  -9.8938008454954415E-002  0.26560049324703111        0.0000000000000000     
 -0.10463832755179635       0.23148921817035736        0.0000000000000000     
 -0.10546755011114430       0.23986840924603112        0.0000000000000000     
 -0.10623368414243439       0.24837202439360159        0.0000000000000000     
 -0.10693672964566672       0.25700006361306899        0.0000000000000000     
 -0.10757668662084122       0.26575252690443318        0.0000000000000000     
 -0.11287797256364646       0.23177049231809593        0.0000000000000000     
 -0.11381254558553588       0.24013403316966253        0.0000000000000000     
 -0.11472811188316433       0.24861235420235400        0.0000000000000000     
 -0.11562467145653180       0.25720545541617035        0.0000000000000000     
 -0.11650222430563825       0.26591333681111162        0.0000000000000000     
  -8.2521230679911600E-002  0.26532275468005578        0.0000000000000000     
  -8.2718725019597789E-002  0.27425373423558180        0.0000000000000000     
  -8.2899721358525191E-002  0.28335407503526483        0.0000000000000000     
  -8.3064219696693808E-002  0.29262377707910486        0.0000000000000000     
  -8.3212220034103612E-002  0.30206284036710179        0.0000000000000000     
  -9.0586189807977863E-002  0.26545723583890529        0.0000000000000000     
  -9.0843355321977834E-002  0.27443815759826173        0.0000000000000000     
  -9.1060332588596943E-002  0.28367054477376186        0.0000000000000000     
  -9.1237121607835189E-002  0.29315439736540566        0.0000000000000000     
  -9.1373722379692601E-002  0.30288971537319320        0.0000000000000000     
  -9.8938008454954415E-002  0.26560049324703111        0.0000000000000000     
  -9.9315299791531711E-002  0.27460745236758610        0.0000000000000000     
  -9.9624208278496246E-002  0.28393903403077192        0.0000000000000000     
  -9.9864733915847978E-002  0.29359523823658851        0.0000000000000000     
 -0.10003687670358691       0.30357606498503592        0.0000000000000000     
 -0.10757668662084122       0.26575252690443318        0.0000000000000000     
 -0.10813455842825946       0.27476161854355496        0.0000000000000000     
 -0.10859134842822311       0.28415954280629496        0.0000000000000000     
 -0.10894705662073213       0.29394629969265340        0.0000000000000000     
 -0.10920168300578653       0.30412188920263000        0.0000000000000000     
 -0.11650222430563825       0.26591333681111162        0.0000000000000000     
 -0.11730113123216107       0.27490065612616832        0.0000000000000000     
 -0.11796175303777753       0.28433207110033115        0.0000000000000000     
 -0.11848408972248767       0.29420758173360018        0.0000000000000000     
 -0.11886814128629145       0.30452718802597528        0.0000000000000000     
 </DataArray>
 <DataArray  type="Float64" Name="stress" NumberOfComponents="3" format="ascii">
   6157175724.4276257        202961226.34667063        100612061.48629802     
   5892264624.6399412        83575626.192955017        58532022.875288874     
   5638470354.2458792        1246124.0179383755        28252715.570579264     
   5395792913.2454100       -44027280.178394318        9774139.5721845794     
   5164232301.6385517       -52244586.396046877        3096294.8800843209     
   5704749896.0569077        119084373.54081845        210788247.05503306     
   5480303278.1504383        44815376.542557478        188908794.23616830     
   5262809732.5103378       -6276712.9010603428        175943610.82989243     
   5052269259.1366425       -34191894.790029764        171892696.83621499     
   4848681858.0293341       -38930169.124374151        176756052.25511107     
   5284047041.3166599        44724412.824094057        336076851.94456118     
   5091817871.3093491        13097908.786694527        329540268.26941776     
   4902378016.4412127       -9230878.1201257706        329031492.11314929     
   4715727476.7122517       -22261947.896352291        334550523.47577280     
   4531866252.1224642       -25995300.541997433        346097362.35726613     
   4895067160.2068720       -20118655.803482294        476477876.15486473     
   4726808404.1167021       -11576777.074651003        480426444.97502631     
   4557175206.0384827       -7616371.6392800808        487516359.42036414     
   4386167565.9722281       -8237439.4973678589        497747619.49086541     
   4213785483.9179411       -13439980.648916483        511120225.18653780     
   4537810252.7275553       -75444832.341921091        631991319.68596196     
   4385274876.5724812       -29208681.041455269        641567324.35301256     
   4227201301.3021655       -1433193.4585011005        651398212.75152183     
   4063589526.9165936        7881630.4069428444        661483984.88148999     
   3894439553.4157615       -1264209.4451324940        671824640.74292147     
   5164232301.6385517       -52244586.396046877        3096294.8800843209     
   5010926028.0793381       -23694946.698053598        1423704.8763269340     
   4855265987.4350958       -2991197.2834961414        3970113.5171518102     
   4697252179.7058239        9866661.8476324081        10735520.802557668     
   4536884604.8915253        14878630.695339441        21719926.732538104     
   4848681858.0293341       -38930169.124374151        176756052.25511107     
   4703938443.9431915       -17781592.521326542        172306833.80885577     
   4557670740.9957256       -1713978.7893548012        171933369.33459961     
   4409878749.1869450        9272672.0715715885        175635658.83233970     
   4260562468.5168447        15178360.061424255        183413702.30207953     
   4531866252.1224642       -25995300.541997433        346097362.35726613     
   4395276427.0162992       -12370568.181834936        339839240.06283170     
   4257991791.2725272       -1061871.2803606987        337513627.06781709     
   4120012344.8911428        7930790.1624078751        339120523.37222725     
   3981338087.8721609        14607416.146511078        344659928.97604603     
   4213785483.9179411       -13439980.648916483        511120225.18653780     
   4084939977.2986660       -7461873.6795632839        504020923.63825709     
   3956229138.2655010       -1034874.7565226555        500710886.71681422     
   3827652966.8184352        5841016.1201984882        501190114.42221069     
   3699211462.9574790        13165798.950603724        505458606.75444704     
   3894439553.4157615       -1264209.4451324940        671824640.74292147     
   3772929094.7902961       -3055509.0145025253        664851884.53512084     
   3652382781.9746451       -1632989.2178287506        661525148.28158462     
   3532800614.9688129        3003349.9449024200        661844431.98230517     
   3414182593.7727933        10853508.473678350        665809735.63728750     
   4536884604.8915253        14878630.695339441        21719926.732538104     
   4338283585.3633814        5719434.1534316540        15529506.069120394     
   4140255366.7825842       -1530425.8973102570        12841311.195129681     
   3942799949.1491504       -6870949.4568397999        13655342.110585824     
   3745917332.4630833       -10302136.525155783        17971598.815488178     
   4260562468.5168447        15178360.061424255        183413702.30207953     
   4071896578.2576399        7551179.0765564442        176908395.24457678     
   3883615645.3665490        1207189.3187344074        174189727.47596368     
   3695719669.8435812       -3853609.2120239735        175257698.99624851     
   3508208651.6887407       -7631216.5156779289        180112309.80542299     
   3981338087.8721609        14607416.146511078        344659928.97604603     
   3803419936.8803287        8756033.7181982994        337620584.68202353     
   3625698899.6773787        3561697.2528128624        334652293.17635429     
   3448174976.2633224       -975593.24958157539        335755054.45902491     
   3270848166.6381454       -4855837.7890491486        340928868.53003311     
   3699211462.9574790        13165798.950603724        505458606.75444704     
   3532853661.2314591        9333998.0783755779        497666074.38146818     
   3366505129.7150841        5533097.9049801826        494229008.29628408     
   3200165868.4083624        1763098.4304270744        495147408.49889857     
   3033835877.3112898       -1976000.3452985287        500421274.98930413     
   3414182593.7727933        10853508.473678350        665809735.63728750     
   3260197751.3110199        9285072.1570885181        657044864.34290218     
   3106034335.4796576        7121391.2751971483        652919872.83576870     
   2951692346.2787113        4362465.8280307055        653434761.11588621     
   2797171783.7081780        1008295.8155689240        658589529.18324590     
   3745917332.4630833       -10302136.525155783        17971598.815488178     
   3572247032.2854815       -6869463.0932915211        10084533.544224989     
   3397938106.2469077       -5565542.5313096046        7218224.4599381043     
   3222990554.3473539       -6390374.8392727375        9372671.5626294501     
   3047404376.5868301       -9343960.0171363354        16547874.852303511     
   3508208651.6887407       -7631216.5156779289        180112309.80542299     
   3347051897.2130337       -3515585.0644531250        171458350.45938370     
   3185501587.3369927       -711804.94767701626        167251833.61566356     
   3023557722.0606174        780123.83464717865        167492759.27425680     
   2861220301.3839049        960201.28250181675        172181127.43518323     
   3270848166.6381454       -4855837.7890491486        340928868.53003311     
   3120566918.7653174       -548660.04820203781        331793930.64662117     
   2970137185.9527988        3263567.8936867714        326533121.58087569     
   2819558968.2005749        6580846.0365558863        325146441.33280051     
   2668832265.5086632        9403174.3804582357        327633889.90238154     
   3033835877.3112898       -1976000.3452985287        500421274.98930413     
   2892792096.9423265        2031311.9554767609        491091274.10593551     
   2751844902.0943084        6360575.9927407503        485062088.35557890     
   2610994292.7672343        11011791.766484857        482333717.73824137     
   2470240268.9611101        15984959.276721358        482906162.25390959     
   2797171783.7081780        1008295.8155689240        658589529.18324590     
   2663727431.7440619        4224330.9465601444        649350380.83733118     
   2530624735.7615385        8579219.3495342731        642838733.93977928     
   2397863695.7605858        14072961.024407387        639054588.49058533     
   2265444311.7412310        20705555.971273303        637997944.48975182     
   3047404376.5868301       -9343960.0171363354        16547874.852303511     
   2883086622.4499254       -9187873.1872099638        11329401.547813043     
   2719228908.4073973       -7498319.3760168552        6939595.7501182910     
   2555831234.4592667       -4275298.5835032463        3378457.4592231009     
   2392893600.6055450        481189.19037175179        645986.67513131420     
   2861220301.3839049        960201.28250181675        172181127.43518323     
   2699801030.1020689        1175761.9420112371        165476176.90128109     
   2538617097.7764945        2175785.7890506983        160158436.32689297     
   2377668504.4071755        3960272.8236140013        156227905.71199709     
   2216955249.9941401        6529223.0457775593        153684585.05662546     
   2668832265.5086632        9403174.3804582357        327633889.90238154     
   2511907312.6610537        10156959.543287873        319180310.81125993     
   2354992997.6315789        10946204.099886298        312672484.13234955     
   2198089320.4202456        11770908.050292492        308110409.86563975     
   2041196281.0270369        12631071.394453645        305494088.01114684     
   2470240268.9611101        15984959.276721358        482906162.25390959     
   2319405470.1268854        17755719.616630554        472441803.27773708     
   2168356607.9726701        18812935.556551337        464481739.16648191     
   2017093682.4984503        19156607.096478343        459025969.92013782     
   1865616693.7042484        18786734.236441016        456074495.53871244     
   2265444311.7412310        20705555.971273303        637997944.48975182     
   2122295502.4995530        23972042.162013769        625260654.30071545     
   1978707928.7997522        25775980.159011960        615586201.42929935     
   1834681590.6418247        26117369.962247968        608974585.87550914     
   1690216488.0257638        24996211.571706057        605425807.63932252     
   2392893600.6055450        481189.19037175179        645986.67513131420     
   2249890505.5991325        7145786.1321235895       -6323574.6143778330     
   2103742368.8590059        3326910.6281603575       -11111898.760557830     
   1954449190.3851933       -10975437.321421981       -13718985.763420207     
   1802010970.1776593       -35761257.716742992       -14144835.622961119     
   2216955249.9941401        6529223.0457775593        153684585.05662546     
   2078416190.3225079        12955852.027191281        143294237.64028502     
   1937799211.6969318        12456084.495458603        134211442.09825490     
   1795104314.1174207        5029920.4505989552        126436198.43048130     
   1650331497.5839636       -9322640.1074143648        119968506.63698471     
   2041196281.0270369        12631071.394453645        305494088.01114684     
   1904625013.0643361        18070859.327774644        292927931.04440236     
   1767042948.9274571        20141326.680508375        280795640.68288463     
   1628450088.6164007        18842473.452645242        269097216.92659986     
   1488846432.1311677        14174299.644197464        257832659.77554247     
   1865616693.7042484        18786734.236441016        456074495.53871244     
   1728516973.8246171        22490808.033890843        442577505.59794277     
   1591473580.5505819        26382637.183338881        428640696.99335718     
   1454486513.8821309        30462221.684716702        414264069.72494191     
   1317555773.8192739        34729561.538086832        399447623.79272109     
   1690216488.0257638        24996211.571706057        605425807.63932252     
   1550092072.6033590        26215698.145565033        592242961.30093122     
   1411091106.5663168        31180016.003960609        577746611.02966058     
   1273213589.9146223        39889165.146845341        561936756.82551754     
   1136459522.6482768        52343145.574238360        544813398.68851161     
   1802010970.1776593       -35761257.716742992       -14144835.622961119     
   1771256538.8753500       -16652448.125446200       -8410868.2036710698     
   1748519342.7012963        29180478.560037851       -41500310.950837173     
   1733799381.6554961        101737522.33969796       -113413163.86446455     
   1727096655.7379494        201018683.21353811       -224149426.94455320     
   1650331497.5839636       -9322640.1074143648        119968506.63698471     
   1527706408.8352373       -13904497.903021574        135583892.44819462     
   1409220591.4098926       -4688784.6207007170        124820029.01790501     
   1294874045.3079476        18324499.739636242        87676916.346120983     
   1184666770.5293715        55135355.177845657        24154554.432834849     
   1488846432.1311677        14174299.644197464        257832659.77554247     
   1309905431.4359269       -3431801.8883231282        278805172.87298763     
   1131225738.2591925       -20166878.359161496        285842597.65390396     
   952807352.60096979       -36030929.768294513        278944934.11828220     
   774650274.46126175       -51023956.115706146        258112182.26612192     
   1317555773.8192739        34729561.538086832        399447623.79272109     
   1117853606.6774001        14765639.918580532        421252973.07071465     
   914534783.24916089       -17253802.655481696        441567394.95713663     
   707599303.53456879       -61328766.184045434        460390889.45199132     
   497047167.53361070       -117459250.66717368        477723456.55526710     
   1136459522.6482768        52343145.574238360        544813398.68851161     
   951550934.55966115        40687827.517713904        562927293.04137862     
   759147726.37981820        4050442.4904264212        591994420.92763758     
   559249898.10873771       -57569009.507649958        632014782.34727514     
   351857449.74643779       -144170528.47645783        682988377.30031633     
   1727096655.7379494        201018683.21353811       -224149426.94455320     
   1456576772.9761772        184563660.31144738       -96619663.481115699     
   1153913696.8074293        60964659.386127949        60090597.941081084     
   819107427.23172474       -169778319.56238133        245981357.32202947     
   452157964.24907255       -507665276.53407115        461052614.66173202     
   1184666770.5293715        55135355.177845657        24154554.432834849     
   977611359.27656639        11829824.658773959        155552073.03593096     
   732749460.20693564       -157497331.91637278        312784188.90648973     
   450081073.32052362       -452846114.54749620        495850902.04448038     
   129606198.61726713       -874216523.23472345        704752212.44994903     
   774650274.46126175       -51023956.115706146        258112182.26612192     
   621499618.45657980       -124047909.13002563        386770279.19735837     
   424879180.22524512       -341971136.23319256        537917072.70476842     
   184788959.76724193       -704793637.42522180        711552562.78833163     
  -98771042.917432964       -1212515412.7062175        907676749.44804800     
   497047167.53361070       -117459250.66717368        477723456.55526710     
   388241550.51622629       -223069541.05491528        597034955.00317860     
   230302856.86232594       -492456753.56438768        735489249.33593762     
   23231086.571884811       -925620888.19564331        893086339.55356979     
  -232973760.35505119       -1522561944.9485736        1069826225.6560624     
   351857449.74643779       -144170528.47645783        682988377.30031633     
   277837155.45549458       -285235071.11590499        786346100.45338082     
   149020490.11817253       -608954183.90995967        905500718.80000770     
  -34592546.265528321       -1115327866.8586102        1040452232.3402122     
  -273001953.69560176       -1804356119.9618361        1191200641.0739434     
   4537810252.7275553       -75444832.341921091        631991319.68596196     
   4385274876.5724812       -29208681.041455269        641567324.35301256     
   4227201301.3021655       -1433193.4585011005        651398212.75152183     
   4063589526.9165936        7881630.4069428444        661483984.88148999     
   3894439553.4157615       -1264209.4451324940        671824640.74292147     
   4216961156.7652330       -15201350.140674829        788857288.69202125     
   4059347123.7364521        1468653.1882574558        784968732.35303807     
   3898869792.9758229        8594330.7443540096        783741590.37316930     
   3735529164.4833412        6175682.5276126862        785175862.75241804     
   3569325238.2590108       -5787291.4619567394        789271549.49078059     
   3868206480.3484788        36670457.924242973        933377302.05414164     
   3712389592.2392917        25837053.819632053        919144902.98976040     
   3556384307.7816596        14375661.886865139        909980448.91215467     
   3400190626.9755802        2286282.1259419918        905883939.82131839     
   3243808549.8210526       -10431085.463143706        906855375.71725440     
   3491546223.4772921        80170591.852830648        1065551359.7723212     
   3344402282.0809989        43896520.852667570        1044095836.2631799     
   3199744845.7196708        15910799.969028950        1030114788.3684667     
   3057573914.3932924       -3786570.7980965376        1023608216.0881854     
   2917889488.1018705       -15195591.448694229        1024576119.4223307     
   3086980386.1516738        115299051.64508855        1185379461.8465550     
   2955385193.2615852        55647054.287368178        1159821532.1732924     
   2828951406.7898579        13199744.990845799        1144144608.7421134     
   2707679026.7364888       -12042876.244479537        1138348691.5530236     
   2591568053.1014791       -20080809.418614388        1142433780.6060174     
   3894439553.4157615       -1264209.4451324940        671824640.74292147     
   3772929094.7902961       -3055509.0145025253        664851884.53512084     
   3652382781.9746451       -1632989.2178287506        661525148.28158462     
   3532800614.9688129        3003349.9449024200        661844431.98230517     
   3414182593.7727933        10853508.473678350        665809735.63728750     
   3569325238.2590108       -5787291.4619567394        789271549.49078059     
   3458283207.5252409       -4605220.1565108299        783118807.80157089     
   3347860393.1922364       -1359094.1818366051        780686520.48829162     
   3238056795.2600002        3951086.4620547295        781974687.55094516     
   3128872413.7285275        11325321.775168777        786983308.98952401     
   3243808549.8210526       -10431085.463143706        906855375.71725440     
   3143447616.7551861       -6211842.3500009775        901120230.90273654     
   3043360970.6810346       -1078309.2644762993        899179974.88582027     
   2943548611.5986037        4969513.7934448719        901034607.66650939     
   2844010539.5078840        11931626.823747635        906684129.24480712     
   2917889488.1018705       -15195591.448694229        1024576119.4223307     
   2828422322.4801202       -7875375.5949950218        1018856153.8386154     
   2738884514.4410329       -790634.46575224400        1017005511.4741733     
   2649276063.9846144        6058631.9390523434        1019024192.3290097     
   2559596971.1108632        12672423.619418979        1024912196.4031230     
   2591568053.1014791       -20080809.418614388        1142433780.6060174     
   2513207324.7000456       -9595819.8915084600        1136326576.6092072     
   2434431024.4722328       -496069.78567445278        1134163130.2533522     
   2355239152.4180365        7218440.8988798857        1135943441.5384448     
   2275631708.5374565        13547712.162158012        1141667510.4644887     
   3414182593.7727933        10853508.473678350        665809735.63728750     
   3260197751.3110199        9285072.1570885181        657044864.34290218     
   3106034335.4796576        7121391.2751971483        652919872.83576870     
   2951692346.2787113        4362465.8280307055        653434761.11588621     
   2797171783.7081780        1008295.8155689240        658589529.18324590     
   3128872413.7285275        11325321.775168777        786983308.98952401     
   2986900477.3214254        9762981.8636665344        778235767.72289693     
   2844902527.5276728        8113930.6633298397        774087636.77143371     
   2702878564.3472705        6378168.1741560698        774538916.13514745     
   2560828587.7802081        4555694.3961249590        779589605.81402433     
   2844010539.5078840        11931626.823747635        906684129.24480712     
   2713935882.0923696        10340695.198412895        898131904.65268719     
   2583987771.2731395        9171585.5606954098        894138620.90366232     
   2454166207.0501885        8424297.9105793238        894704277.99772632     
   2324471189.4235253        8098832.2480773926        899828875.93487954     
   2559596971.1108632        12672423.619418979        1024912196.4031230     
   2441303965.6238480        11018212.161314487        1016733275.1322808     
   2323290066.7160563        10294355.967289090        1013072825.2324442     
   2205555274.3874865        10500855.037328243        1013930846.7036207     
   2088099588.6381299        11637709.371414423        1019307339.5458056     
   2275631708.5374565        13547712.162158012        1141667510.4644887     
   2169004727.9158664        11795532.752384901        1134039879.1616707     
   2062809413.8564310        11482241.883133411        1130890249.7577808     
   1957045766.3591452        12607839.554382682        1132218622.2528281     
   1851713785.4240124        15172325.766131282        1138024996.6468022     
   2797171783.7081780        1008295.8155689240        658589529.18324590     
   2663727431.7440619        4224330.9465601444        649350380.83733118     
   2530624735.7615385        8579219.3495342731        642838733.93977928     
   2397863695.7605858        14072961.024407387        639054588.49058533     
   2265444311.7412310        20705555.971273303        637997944.48975182     
   2560828587.7802081        4555694.3961249590        779589605.81402433     
   2435013475.1018991        7964727.9463529587        770883377.39924967     
   2309462429.5431790        12253985.228539824        765273755.04384160     
   2184175451.1040287        17423466.242648482        762760738.74779415     
   2059152539.7844841        23473170.988749027        763344328.51110375     
   2324471189.4235253        8098832.2480773926        899828875.93487954     
   2207339900.6338892        12017239.598388076        891565047.11224186     
   2090395090.1018434        16557241.140658975        886766928.95997143     
   1973636757.8273823        21718836.874876022        885434521.47806275     
   1857064903.8105023        27502026.801040888        887567824.66652822     
   2088099588.6381299        11637709.371414423        1019307339.5458056     
   1980706708.3400393        16381865.902673125        1011395389.9763048     
   1873422717.4375348        21488987.085881472        1007318255.6881745     
   1766247615.9306188        26959072.921054959        1007075936.6814200     
   1659181403.8192871        32792123.408172846        1010668432.9560294     
   1851713785.4240124        15172325.766131282        1138024996.6468022     
   1755113898.2203381        21058606.859196305        1130374405.9914329     
   1658545311.5502541        27049223.064221382        1126927735.2284434     
   1562008025.4137542        33144174.381205320        1127684984.3578339     
   1465502039.8108373        39343460.810120940        1132646153.3795958     
   2265444311.7412310        20705555.971273303        637997944.48975182     
   2122295502.4995530        23972042.162013769        625260654.30071545     
   1978707928.7997522        25775980.159011960        615586201.42929935     
   1834681590.6418247        26117369.962247968        608974585.87550914     
   1690216488.0257638        24996211.571706057        605425807.63932252     
   2059152539.7844841        23473170.988749027        763344328.51110375     
   1924187877.8121705        26503298.696284413        751766433.88512003     
   1788934718.9338627        28571770.050520182        743475744.10636890     
   1653393063.1495566        29678585.051422000        738472259.17486453     
   1517562910.4592566        29823743.699015200        736755979.09060431     
   1857064903.8105023        27502026.801040888        887567824.66652822     
   1730925439.1921895        30488111.050760388        877324637.74774230     
   1604647745.2200227        33013430.787631035        870593023.20581782     
   1478231821.8939903        35077986.011613309        867372981.04076004     
   1351677669.2140987        36681776.722735763        867664511.25258136     
   1659181403.8192871        32792123.408172846        1010668432.9560294     
   1542508186.6396203        35926479.225474119        1001935265.8885926     
   1425847007.6582341        39100962.370360017        996938038.72764850     
   1309197866.8751142        42315572.842808306        995676751.47319770     
   1192560764.2902687        45570310.642851472        998151404.12524307     
   1465502039.8108373        39343460.810120940        1132646153.3795958     
   1358936120.1544662        42818403.220399022        1125598318.3076656     
   1252532506.2485003        46834364.798710465        1122510790.6718593     
   1146291198.0929384        51391345.545029700        1123383570.4721730     
   1040212195.6877829        56489345.459370315        1128216657.7086027     
   1690216488.0257638        24996211.571706057        605425807.63932252     
   1550092072.6033590        26215698.145565033        592242961.30093122     
   1411091106.5663168        31180016.003960609        577746611.02966058     
   1273213589.9146223        39889165.146845341        561936756.82551754     
   1136459522.6482768        52343145.574238360        544813398.68851161     
   1517562910.4592566        29823743.699015200        736755979.09060431     
   1375491761.9801996        28065956.347431540        727662190.44893217     
   1233688903.4208243        27202468.728136241        719071481.98703396     
   1092154334.7811410        27233280.841140807        710983853.70491254     
   950888056.06114662        28158392.686439395        703399305.60255897     
   1351677669.2140987        36681776.722735763        867664511.25258136     
   1212850028.0002017        33503787.542236507        861662094.26436830     
   1073435517.2403400        28369566.541826904        857979341.56856084     
   933434136.93449724        21279113.721494138        856616253.16517258     
   792845887.08268094        12232429.081249803        857572829.05419993     
   1192560764.2902687        45570310.642851472        998151404.12524307     
   1062166870.6633805        42529191.729999363        994242672.74720776     
   930330948.02485383        34681309.445024014        994470189.77422738     
   797052996.37467921        22026663.787891895        998833955.20630372     
   662333015.71286762        4565254.7586375773        1007333969.0434262     
   1040212195.6877829        56489345.459370315        1128216657.7086027     
   923442289.96972811        55142168.910719573        1125403925.8974750     
   804375195.77435732        46137697.437684745        1128544026.6040370     
   683010913.10169375        29475931.040344387        1137636959.8282936     
   559349441.95172477        5156869.7186532021        1152682725.5702488     
   1136459522.6482768        52343145.574238360        544813398.68851161     
   951550934.55966115        40687827.517713904        562927293.04137862     
   759147726.37981820        4050442.4904264212        591994420.92763758     
   559249898.10873771       -57569009.507649958        632014782.34727514     
   351857449.74643779       -144170528.47645783        682988377.30031633     
   950888056.06114662        28158392.686439395        703399305.60255897     
   791700404.33655262        11038746.227579802        721317582.75123823     
   623891706.82229698       -34817719.530155391        749328960.89322865     
   447461963.51837760       -109411004.58676505        787433440.02854025     
   262411174.42479694       -212741108.94224021        835631020.15717077     
   792845887.08268094        12232429.081249803        857572829.05419993     
   656921650.17904139       -11088802.242878407        873981325.68385100     
   511249941.78730685       -66901605.193991989        899622790.76673818     
   355830761.90748417       -155205979.77207369        934497224.30287611     
   190664110.53956720       -276001925.97711921        978604626.29226720     
   662333015.71286762        4565254.7586375773        1007333969.0434262     
   547214672.08712184       -25694817.893670797        1020918521.8392066     
   421222431.27486002       -92201214.501038522        1042875910.5481689     
   284356293.27606654       -194953935.06350946        1073206135.1702975     
   136616258.09074965       -333952979.58105797        1111909195.7056103     
   559349441.95172477        5156869.7186532021        1152682725.5702488     
   462579470.06081450       -32779300.724749476        1162129171.2173307     
   353809175.28494132       -110716547.45135668        1179088320.2375176     
   233038557.62411833       -228654870.46113521        1203560172.6308110     
   100267617.07834169       -386594269.75408715        1235544728.3972096     
   351857449.74643779       -144170528.47645783        682988377.30031633     
   277837155.45549458       -285235071.11590499        786346100.45338082     
   149020490.11817253       -608954183.90995967        905500718.80000770     
  -34592546.265528321       -1115327866.8586102        1040452232.3402122     
  -273001953.69560176       -1804356119.9618361        1191200641.0739434     
   262411174.42479694       -212741108.94224021        835631020.15717077     
   223678359.36803475       -352355854.88849914        885017314.34442854     
   140700633.74808374       -639453636.04538476        945416359.66598904     
   13477997.564947069       -1074034452.4128659        1016828156.1218311     
  -157989549.18136907       -1656098303.9909947        1099252703.7119718     
   190664110.53956720       -276001925.97711921        978604626.29226720     
   173549791.69050035       -418267570.13811564        986329528.74410975     
   122742022.76143801       -672844714.56576359        1000283038.2709802     
   38240803.752384901       -1039733359.2600559        1020465154.8728857     
  -79953865.336668611       -1518933504.2209997        1046875878.5498056     
   136616258.09074965       -333952979.58105797        1111909195.7056103     
   127451452.42288718       -482970216.86476910        1090282743.6524346     
   95144657.158233732       -709127419.47111678        1070100754.6150136     
   39695872.296782792       -1012424587.4001331        1051363228.5933473     
  -38894902.161482513       -1392861720.6518655        1034070165.5874350     
   100267617.07834169       -386594269.75408715        1235544728.3972096     
   85383341.565215319       -546463795.06840694        1196876959.0693910     
   57908536.938476622       -748301750.76142907        1154869508.6980703     
   17843203.198134363       -992108136.83314943        1109522377.2832315     
  -34812659.655831397       -1277882953.2835917        1060835564.8248955     
   3086980386.1516738        115299051.64508855        1185379461.8465550     
   2955385193.2615852        55647054.287368178        1159821532.1732924     
   2828951406.7898579        13199744.990845799        1144144608.7421134     
   2707679026.7364888       -12042876.244479537        1138348691.5530236     
   2591568053.1014791       -20080809.418614388        1142433780.6060174     
   2649514474.2549791        40799270.502289176        1215799630.0560205     
   2549739689.2977238        10910987.238520026        1203613203.5853100     
   2452843733.4511142       -9381198.9897732735        1199154458.3376267     
   2358826606.7151489       -20077288.182579637        1202423394.3129706     
   2267688309.0898314       -21177280.339896083        1213420011.5113428     
   2239928643.2730398       -25336486.366081834        1255327298.5081012     
   2165821909.0513029       -27306762.695100904        1253849368.3809431     
   2092311426.6325047       -27289533.014347196        1257945794.4577522     
   2019397196.0166337       -25284797.323827267        1267616576.7385304     
   1947079217.2036946       -21292555.623531342        1282861715.2232792     
   1858222893.2058434       -83108218.960029960        1303962467.2027948     
   1803631852.5223231       -59006195.513483763        1310530026.5601878     
   1747354486.3340240       -40525257.082884789        1320518617.1024909     
   1689390794.6409390       -27665403.668226123        1333928238.8297081     
   1629740777.4430721       -20426635.269513845        1350758891.7418349     
   1504397224.0533950       -132515927.27955538        1361705136.1401036     
   1463169519.7107849       -84187311.216640770        1373655178.1230488     
   1417972912.5556743       -49088371.195383191        1386872926.2718472     
   1368807402.5880663       -27219107.215785921        1401358380.5865023     
   1315672989.8079646       -18579519.277835429        1417111541.0670078     
   2591568053.1014791       -20080809.418614388        1142433780.6060174     
   2513207324.7000456       -9595819.8915084600        1136326576.6092072     
   2434431024.4722328       -496069.78567445278        1134163130.2533522     
   2355239152.4180365        7218440.8988798857        1135943441.5384448     
   2275631708.5374565        13547712.162158012        1141667510.4644887     
   2267688309.0898314       -21177280.339896083        1213420011.5113428     
   2199001464.5336928       -11696699.694388628        1207907560.9267504     
   2129971045.9539919       -3361365.7940882444        1206124588.4779587     
   2060597053.3507338        3828721.3610231876        1208071094.1649647     
   1990879486.7239099        9873561.7709097862        1213747077.9877656     
   1947079217.2036946       -21292555.623531342        1282861715.2232792     
   1887454029.3352680       -13000052.006897092        1278028015.4875360     
   1827557265.2461023       -5612802.4593900442        1276709514.3824348     
   1767388924.9361968        869193.01897954941        1278906211.9079773     
   1706949008.4055507        6445934.4282197952        1284618108.0641646     
   1629740777.4430721       -20426635.269513845        1350758891.7418349     
   1578565019.1047773       -13505876.829020262        1346687940.2915616     
   1527189682.3485610       -7250379.7815940380        1345917907.9667752     
   1475614767.1744292       -1660144.1272217035        1348448794.7674782     
   1423840273.5823779        3264830.1340846419        1354280600.6936769     
   1315672989.8079646       -18579519.277835429        1417111541.0670078     
   1272334433.8422160       -13214174.160769701        1413887335.3388267     
   1228868297.2613733       -8274097.7606860995        1413749769.2309818     
   1185274580.0654309       -3759290.0775989294        1416698842.7434742     
   1141553282.2543938        330248.88850289583        1422734555.8763020     
   2275631708.5374565        13547712.162158012        1141667510.4644887     
   2169004727.9158664        11795532.752384901        1134039879.1616707     
   2062809413.8564310        11482241.883133411        1130890249.7577808     
   1957045766.3591452        12607839.554382682        1132218622.2528281     
   1851713785.4240124        15172325.766131282        1138024996.6468022     
   1990879486.7239099        9873561.7709097862        1213747077.9877656     
   1896197390.2852068        8438033.4191352129        1206942386.0102456     
   1801864795.4625161        8167510.4540728331        1204774991.2610946     
   1707881702.2558444        9061992.8757289648        1207244893.7403095     
   1614248110.6651802        11121480.684089720        1214352093.4478903     
   1706949008.4055507        6445934.4282197952        1284618108.0641646     
   1624666925.6624069        5463595.9882383347        1278540496.3081119     
   1542652179.5891399        5372379.7811772823        1277259477.1098642     
   1460904770.1857481        6172285.8070399165        1280775050.4694190     
   1379424697.4522324        7863314.0658184290        1289087216.3867791     
   1423840273.5823779        3264830.1340846419        1354280600.6936769     
   1354413334.0474677        2872220.4596955180        1348834210.0552669     
   1285171566.2362957        3096849.8644363284        1348343707.3040998     
   1216114970.1488638        3938718.3483094573        1352809092.4401667     
   1147243545.7851689        5397825.9113100171        1362230365.4634764     
   1141553282.2543938        330248.88850289583        1422734555.8763020     
   1085436615.4403934        663906.83352559805        1417823527.2517107     
   1029422955.4039913        1340920.7038705945        1418027681.8437905     
   973512302.14518952        2361290.4995553493        1423347019.6525464     
   917704655.66398621        3725016.2205624580        1433781540.6779788     
   1851713785.4240124        15172325.766131282        1138024996.6468022     
   1755113898.2203381        21058606.859196305        1130374405.9914329     
   1658545311.5502541        27049223.064221382        1126927735.2284434     
   1562008025.4137542        33144174.381205320        1127684984.3578339     
   1465502039.8108373        39343460.810120940        1132646153.3795958     
   1614248110.6651802        11121480.684089720        1214352093.4478903     
   1528567494.0867200        16253194.015310764        1207787516.3634889     
   1442989903.1576464        21728326.177814007        1205592589.3511469     
   1357515337.8779509        27546877.171585679        1207767312.4108624     
   1272143798.2476432        33708846.996641159        1214311685.5426376     
   1379424697.4522324        7863314.0658184290        1289087216.3867791     
   1305136866.2980747        12382514.074910402        1283692332.1751094     
   1231023785.9091024        17484216.634619713        1282832828.2151809     
   1157085456.2853100        23168421.744931519        1286508704.5069933     
   1083321877.4266980        29435129.405839264        1294719961.0505445     
   1147243545.7851689        5397825.9113100171        1362230365.4634764     
   1084822014.8544061        9446567.0380032063        1358088853.4263008     
   1022646959.8046279        14316894.434649348        1358648451.8205497     
   960718380.63582695        20008808.101219654        1363909160.6462197     
   899036277.34800410        26522308.037711084        1373870979.9033151     
   917704655.66398621        3725016.2205624580        1433781540.6779788     
   867622939.75570941        7445352.9045841694        1430977080.1170611     
   817859424.84422028        12226359.577898145        1433039460.1672504     
   768414110.92950273        18068036.240453571        1439968680.8285463     
   719286998.01155961        24970382.892251074        1451764742.1009455     
   1465502039.8108373        39343460.810120940        1132646153.3795958     
   1358936120.1544662        42818403.220399022        1125598318.3076656     
   1252532506.2485003        46834364.798710465        1122510790.6718593     
   1146291198.0929384        51391345.545029700        1123383570.4721730     
   1040212195.6877829        56489345.459370315        1128216657.7086027     
   1272143798.2476432        33708846.996641159        1214311685.5426376     
   1176216561.0317824        36853666.901436925        1209113250.1792970     
   1080284908.7305450        39983769.854966223        1208214291.3737991     
   984348841.34391701        43099155.857201993        1211614809.1261568     
   888408358.87191117        46199824.908166766        1219314803.4363611     
   1083321877.4266980        29435129.405839264        1294719961.0505445     
   999002377.28486788        32540543.195205569        1291176417.7540305     
   914511741.22186553        35075503.913998812        1292271520.1370926     
   829849969.23768795        37040011.562205434        1298005268.1997387     
   745017061.33233786        38434066.139839351        1308377661.9419553     
   899036277.34800410        26522308.037711084        1373870979.9033151     
   827293568.91371512        29879032.101696074        1371787821.0318730     
   755213003.72246921        32109566.975822628        1374682476.9617383     
   682794581.77425516        33213912.660061061        1382554947.6929154     
   610038303.06907809        33192069.154412746        1395405233.2254000     
   719286998.01155961        24970382.892251074        1451764742.1009455     
   661090135.91833067        28869133.620923758        1450947460.0128205     
   602388696.23234749        31085959.040418833        1455447161.8477380     
   543182678.95361030        31620859.150732189        1465263847.6056914     
   483472084.08212239        30473833.951870665        1480397517.2866862     
   1040212195.6877829        56489345.459370315        1128216657.7086027     
   923442289.96972811        55142168.910719573        1125403925.8974750     
   804375195.77435732        46137697.437684745        1128544026.6040370     
   683010913.10169375        29475931.040344387        1137636959.8282936     
   559349441.95172477        5156869.7186532021        1152682725.5702488     
   888408358.87191117        46199824.908166766        1219314803.4363611     
   786804418.90571082        44161606.906123608        1216745956.8563104     
   682936861.18660104        34577996.394387811        1220049876.3646245     
   576805685.71458387        17448993.372965336        1229226561.9613035     
   468410892.48965693       -7225402.1581707597        1244276013.6463346     
   745017061.33233786        38434066.139839351        1308377661.9419553     
   658350325.89133096        35636178.316422284        1306091866.4381213     
   569453543.42180896        25404800.397953510        1309598770.5933175     
   478326713.92377943        7739932.3844578862        1318898374.4075396     
   384969837.39723349       -17358425.724088117        1333990677.8807826     
   610038303.06907809        33192069.154412746        1395405233.2254000     
   538080010.92659307        29565883.141605139        1393441654.6429043     
   463925242.47999126        18618109.448411524        1397190709.2901077     
   387573997.72927397        348748.07483679056        1406652397.1670053     
   309026276.67444813       -25242200.979110688        1421826718.2735879     
   483472084.08212239        30473833.951870665        1480397517.2866862     
   425993474.01149601        25950721.381690294        1478795321.4706614     
   366351958.36115390        14217923.545785278        1482825692.4549971     
   304547537.13108581       -4724559.5558703691        1492488630.2396965     
   240580210.32130057       -30876727.923255265        1507784134.8247573     
   559349441.95172477        5156869.7186532021        1152682725.5702488     
   462579470.06081450       -32779300.724749476        1162129171.2173307     
   353809175.28494132       -110716547.45135668        1179088320.2375176     
   233038557.62411833       -228654870.46113521        1203560172.6308110     
   100267617.07834169       -386594269.75408715        1235544728.3972096     
   468410892.48965693       -7225402.1581707597        1244276013.6463346     
   390723731.00574273       -41525939.343590304        1242828630.1558716     
   302879243.64182079       -109684229.46236598        1247708635.9304593     
   204877430.39788792       -211700272.51450875        1258916030.9700968     
   96718291.273944795       -347574068.50002176        1276450815.2747896     
   384969837.39723349       -17358425.724088117        1333990677.8807826     
   322978874.58303237       -49039313.172684401        1323799628.4252081     
   252673582.89376265       -108434630.20484829        1318750654.1266305     
   174053962.32943290       -195544376.82054263        1318843754.9850562     
   87120012.890037060       -310368553.01979631        1324078931.0004830     
   309026276.67444813       -25242200.979110688        1421826718.2735879     
   259344900.79266727       -55319422.212094039        1405042166.0253391     
   203192193.04076597       -106967749.67880294        1392214374.8260269     
   140568153.41874731       -180187183.37924254        1383343344.6756711     
   71472781.926603824       -274977723.31342858        1378429075.5742655     
   240580210.32130057       -30876727.923255265        1507784134.8247573     
   199821809.63465044       -60366266.461795881        1486556242.9562590     
   154435074.08282700       -105283587.88425031        1468099798.0286570     
   104420003.66582772       -165628692.19062847        1452414800.0419602     
   49776598.383651808       -241401579.38092309        1439501248.9961522     
   100267617.07834169       -386594269.75408715        1235544728.3972096     
   85383341.565215319       -546463795.06840694        1196876959.0693910     
   57908536.938476622       -748301750.76142907        1154869508.6980703     
   17843203.198134363       -992108136.83314943        1109522377.2832315     
  -34812659.655831397       -1277882953.2835917        1060835564.8248955     
   96718291.273944795       -347574068.50002176        1276450815.2747896     
   79799674.851033121       -488745534.16210163        1222080999.9222879     
   51497839.371716678       -667861063.34551692        1165171051.1475523     
   11812784.836006999       -884920656.05023587        1105720968.9505963     
  -39255488.756094873       -1139924312.2762790        1043730753.3314177     
   87120012.890037060       -310368553.01979631        1324078931.0004830     
   70451477.332428396       -432156632.49711984        1255415598.0233707     
   43607032.775640637       -587864408.63838613        1185011679.2453051     
   6586679.2196736634       -777491881.44358099        1112867174.6663187     
  -40609583.335473180       -1001039050.9127004        1038982084.2863714     
   71472781.926603824       -274977723.31342858        1378429075.5742655     
   57338749.009410650       -376697090.07345027        1296880753.3726258     
   34236117.150242805       -508311786.64005184        1214391392.9913394     
   2164886.3491124809       -669821813.01318264        1130960994.4303932     
  -38874943.393975019       -861227169.19285893        1046589557.6897825     
   49776598.383651808       -241401579.38092309        1439501248.9961522     
   40461489.881960452       -322366906.89114374        1346476465.9700727     
   23385092.495521128       -429203197.35052979        1253310192.3856273     
  -1452593.7756638229       -561910450.75906932        1160002428.2428143     
  -34051568.931596249       -720488667.11675334        1066553173.5416136     
   1504397224.0533950       -132515927.27955538        1361705136.1401036     
   1463169519.7107849       -84187311.216640770        1373655178.1230488     
   1417972912.5556743       -49088371.195383191        1386872926.2718472     
   1368807402.5880663       -27219107.215785921        1401358380.5865023     
   1315672989.8079646       -18579519.277835429        1417111541.0670078     
   1198106943.5168097       -11688101.796460450        1458018806.1061406     
   1152987779.3991024        3941286.6205284595        1455060089.0488653     
   1105940619.6478968        13144022.925852299        1455386210.8401124     
   1056965464.2631946        15920107.119520128        1458997171.4798779     
   1006062313.2449939        12269539.201530755        1465892970.9681604     
   856166754.53816462        98444751.154016614        1541014335.4561892     
   812919366.88154936        83103882.795929968        1525527917.7342021     
   769784890.77043390        68139386.256180614        1515343471.5433946     
   726763326.20482302        53551261.534777850        1510460996.8837726     
   683854673.18471372        39339508.631712168        1510880493.7553339     
   478576657.11746275        197882631.57187831        1610691724.1902637     
   442964282.15812212        153300477.30956835        1585058664.1790564     
   409505725.92328608        115897718.79560755        1566744708.3816960     
   378200988.41295081        85674356.029982954        1555749856.7981851     
   349050069.62711829        62630389.012699895        1552074109.4285231     
   65336651.254702181        286625539.45711911        1667050972.3083563     
   43122525.228826076        214531070.16145438        1633652328.3834260     
   25103125.106450055        156419020.54412055        1609589921.3550165     
   11278450.887579300        112289390.60513967        1594863751.2231157     
   1648502.5722069740        82142180.344486207        1589473817.9877286     
   1315672989.8079646       -18579519.277835429        1417111541.0670078     
   1272334433.8422160       -13214174.160769701        1413887335.3388267     
   1228868297.2613733       -8274097.7606860995        1413749769.2309818     
   1185274580.0654309       -3759290.0775989294        1416698842.7434742     
   1141553282.2543938        330248.88850289583        1422734555.8763020     
   1006062313.2449939        12269539.201530755        1465892970.9681604     
   969625369.83778441        10466257.472048759        1458746362.9964626     
   933472965.29826665        9611438.6348751187        1455476346.6448116     
   897605099.62644863        9705082.6900326610        1456082921.9132109     
   862021772.82232857        10747189.637517333        1460566088.8016634     
   683854673.18471372        39339508.631712168        1510880493.7553339     
   656576348.04950428        31044701.769706815        1500292289.6033728     
   629994681.26478553        25072089.409334332        1494370629.0711763     
   604109672.83055818        21421671.550598532        1493115512.1587417     
   578921322.74681771        20093448.193489671        1496526938.8660753     
   349050069.62711829        62630389.012699895        1552074109.4285231     
   333187368.47737861        48521158.732214108        1538525115.1595607     
   318433445.16092247        38107854.562670454        1530432616.5100744     
   304788299.67775393        31390476.504086904        1527796613.4800658     
   292251932.02786499        28369024.556435272        1530617106.0695367     
   1648502.5722069740        82142180.344486207        1589473817.9877286     
  -541568.87859271839        62895628.359567709        1573444839.6650245     
  -1210743.0133169275        48718734.094901145        1563662308.9615092     
  -359019.83196130395        39611497.550500542        1560126225.8771861     
   2013600.6654664874        35573918.726340495        1562836590.4120545     
   1141553282.2543938        330248.88850289583        1422734555.8763020     
   1085436615.4403934        663906.83352559805        1417823527.2517107     
   1029422955.4039913        1340920.7038705945        1418027681.8437905     
   973512302.14518952        2361290.4995553493        1423347019.6525464     
   917704655.66398621        3725016.2205624580        1433781540.6779788     
   862021772.82232857        10747189.637517333        1460566088.8016634     
   819203840.65165317        10186590.556675434        1454621272.2208626     
   776475661.20558131        9925167.2245103121        1453997435.3088353     
   733837234.48410726        9962919.6410036385        1458694578.0655837     
   691288560.48722935        10299847.806154847        1468712700.4911020     
   578921322.74681771        20093448.193489671        1496526938.8660753     
   549990115.08261275        18814989.045745254        1489532871.2672329     
   521135406.09000665        17791525.469997346        1488065579.7892652     
   492357195.76899993        17023057.466247827        1492125064.4321713     
   463655484.11959350        16509585.034498513        1501711325.1959486     
   292251932.02786499        28369024.556435272        1530617106.0695367     
   277795438.73326957        26549102.300729237        1522558324.3908219     
   263402190.05726933        24939995.440340571        1520232115.2850783     
   249072185.99987054        23541703.975290321        1523638478.7523065     
   234805426.56106818        22354227.905561142        1532777414.7925096     
   2013600.6654664874        35573918.726340495        1562836590.4120545     
   2619811.6036166800        33388930.321603660        1553697631.5916274     
   3276013.1073686816        31370577.135538131        1550497041.7962773     
   3982205.1767147146        29518859.168120764        1553234821.0259957     
   4738387.8116631042        27833776.419376533        1561910969.2807839     
   917704655.66398621        3725016.2205624580        1433781540.6779788     
   867622939.75570941        7445352.9045841694        1430977080.1170611     
   817859424.84422028        12226359.577898145        1433039460.1672504     
   768414110.92950273        18068036.240453571        1439968680.8285463     
   719286998.01155961        24970382.892251074        1451764742.1009455     
   691288560.48722935        10299847.806154847        1468712700.4911020     
   653395304.29984045        12395044.631525308        1465763196.2389321     
   615650741.53117371        14985886.185972601        1467697621.8975699     
   578054872.18122303        18072372.469470978        1474515977.4670095     
   540607696.24998832        21654503.482023895        1486218262.9472523     
   463655484.11959350        16509585.034498513        1501711325.1959486     
   437999514.22365230        16994289.972369000        1498419018.4114556     
   412322730.16837573        17409614.379118681        1500027730.8374667     
   386625131.95375896        17755558.254736423        1506537462.4739797     
   360906719.57979870        18032121.599207819        1517948213.3209960     
   234805426.56106818        22354227.905561142        1532777414.7925096     
   221435569.52714691        21243088.927115008        1528944546.6346281     
   207875390.75582999        19497544.157348543        1530029786.9869416     
   194124890.24711317        17117593.596248999        1536033135.8494599     
   180184068.00099471        14103237.243812457        1546954593.2221785     
   4738387.8116631042        27833776.419376533        1561910969.2807839     
   3703470.2103239596        25141441.495769091        1557339780.9084382     
   2308723.2935292777        21249675.520641111        1557703790.3459966     
   554147.06128113903        16158478.494002996        1563002997.5934515     
  -1560258.4864310920        9867850.4158172105        1573237402.6508050     
   719286998.01155961        24970382.892251074        1451764742.1009455     
   661090135.91833067        28869133.620923758        1450947460.0128205     
   602388696.23234749        31085959.040418833        1455447161.8477380     
   543182678.95361030        31620859.150732189        1465263847.6056914     
   483472084.08212239        30473833.951870665        1480397517.2866862     
   540607696.24998832        21654503.482023895        1486218262.9472523     
   495746084.76312608        22889157.324156106        1484734310.2569902     
   450654584.36057895        23357514.780668914        1488806050.3147132     
   405333195.04233575        23059575.851529285        1498433483.1204231     
   359781916.80840999        21995340.536782190        1513616608.6741168     
   360906719.57979870        18032121.599207819        1517948213.3209960     
   330062383.91343480        16807286.119052440        1516118060.1518400     
   299262848.00844473        15731783.176809341        1520082308.5556145     
   268508111.86482722        14805612.772476181        1529840958.5323136     
   237798175.48258221        14028774.906049103        1545394010.0819459     
   180184068.00099471        14103237.243812457        1546954593.2221785     
   164039033.36925507        10623520.005610511        1545098709.6973715     
   148213487.17594469        8208764.2288400158        1549275936.5704322     
   132707429.42107536        6858969.9135367349        1559486273.8413663     
   117520860.10464263        6574137.0596941374        1575729721.5101740     
  -1560258.4864310920        9867850.4158172105        1573237402.6508050     
  -2323966.8694275767        4337858.9837811124        1571676258.8935840     
  -2493498.1369181392        788457.93676683609        1576386934.3591747     
  -2068852.2889118840       -780352.72525874223        1587369429.0475824     
  -1050029.3254127919       -368573.00230889022        1604623742.9588046     
   483472084.08212239        30473833.951870665        1480397517.2866862     
   425993474.01149601        25950721.381690294        1478795321.4706614     
   366351958.36115390        14217923.545785278        1482825692.4549971     
   304547537.13108581       -4724559.5558703691        1492488630.2396965     
   240580210.32130057       -30876727.923255265        1507784134.8247573     
   359781916.80840999        21995340.536782190        1513616608.6741168     
   317250837.57303077        18981170.239019409        1510327984.1896834     
   273066573.83626521        10456384.936634064        1512556676.0999086     
   227229125.59810984       -3579015.3703840524        1520302684.4047880     
   179738492.85856885       -23125030.682019532        1533566009.1043279     
   237798175.48258221        14028774.906049103        1545394010.0819459     
   209885340.20900467        12424760.818675257        1541013631.5204954     
   180829041.51237148        7009201.9877804965        1542035318.9479940     
   150629279.39268279       -2217901.5866332725        1548459072.3644445     
   119286053.84993464       -15256549.904577859        1560284891.7698441     
   117520860.10464263        6574137.0596941374        1575729721.5101740     
   103896981.91942334        6281493.1206770465        1570852263.4630926     
   89639361.389474005        3876374.6992262378        1571261620.9992571     
   74747998.514807120       -641218.20461697504        1576957794.1186643     
   59222893.295409359       -7271285.5908951871        1587940782.8213179     
  -1050029.3254127919       -368573.00230889022        1604623742.9588046     
  -714237.29572123964        551367.14499320101        1599843880.0174794     
  -502466.53242746042        1057903.0709707700        1600235582.2536926     
  -414717.03551747731        1151034.7756679780        1605798849.6674423     
  -450988.80500943039        830762.25902609190        1616533682.2587292     
   240580210.32130057       -30876727.923255265        1507784134.8247573     
   199821809.63465044       -60366266.461795881        1486556242.9562590     
   154435074.08282700       -105283587.88425031        1468099798.0286570     
   104420003.66582772       -165628692.19062847        1452414800.0419602     
   49776598.383651808       -241401579.38092309        1439501248.9961522     
   179738492.85856885       -23125030.682019532        1533566009.1043279     
   148508911.83642998       -45544258.778920501        1507835181.9255857     
   113821617.53513691       -79489197.806338370        1485031158.9844182     
   75676609.954697564       -124959847.76424241        1465153940.2808325     
   34073889.095111668       -181956208.65263772        1448203525.8148181     
   119286053.84993464       -15256549.904577859        1560284891.7698441     
   98029170.482818484       -30472304.162704065        1531416854.4645524     
   74485195.422585919       -53311697.397886336        1505630978.6935215     
   48654128.669230007       -83774729.610144645        1482927264.4567502     
   20535970.222748883       -121861400.79948916        1463305711.7542388     
   59222893.295409359       -7271285.5908951871        1587940782.8213179     
   48382585.573834084       -15150402.613085344        1557301260.5731764     
   36425807.745174088       -26751086.658895060        1529899257.1559780     
   23352559.809411608       -42073337.728378579        1505734772.5697246     
   9162841.7665592022       -61117155.821493633        1484807806.8144071     
  -450988.80500943039        830762.25902609190        1616533682.2587292     
  -430842.89052390400        421445.86993129080        1585488400.2514412     
  -356545.49710116605        192634.41062719451        1557835994.3717790     
  -228096.62474027873        144327.88111658243        1533576464.6197312     
  -45496.273455035975        276526.28135451576        1512709810.9953094     
   49776598.383651808       -241401579.38092309        1439501248.9961522     
   40461489.881960452       -322366906.89114374        1346476465.9700727     
   23385092.495521128       -429203197.35052979        1253310192.3856273     
  -1452593.7756638229       -561910450.75906932        1160002428.2428143     
  -34051568.931596249       -720488667.11675334        1066553173.5416136     
   34073889.095111668       -181956208.65263772        1448203525.8148181     
   29879951.071143821       -241807457.70959508        1347686500.0904698     
   19861843.016926363       -321072606.86738998        1246377847.1873691     
   4019564.9324536622       -419751656.12602943        1144277567.1055205     
  -17646883.182260036       -537844605.48547649        1041385659.8449358     
   20535970.222748883       -121861400.79948916        1463305711.7542388     
   19605669.475426383       -161155831.36352003        1357556415.3285315     
   14788317.552352220       -213407099.18005645        1250365355.1036937     
   6083914.4535292685       -278615204.24909204        1141732531.0797238     
  -6507539.8210430890       -356780146.57062209        1031657943.2566518     
   9162841.7665592022       -61117155.821493633        1484807806.8144071     
   9638645.0948092677       -80412027.852913156        1376086211.6842515     
   8164516.1018061340       -106206674.28850828        1265272716.1346023     
   4740454.7875521258       -138501095.12827545        1152367320.1654510     
  -633538.84795167297       -177295290.37220538        1037370023.7767892     
  -45496.273455035975        276526.28135451576        1512709810.9953094     
  -21122.070707772771        423952.82222370640        1403275889.1576333     
  -9561.3347177856485        528667.80723322835        1291099930.2800741     
  -10814.065476679360        590671.23641557642        1176181934.3626485     
  -24880.262986489746        609963.10976014752        1058521901.4053370     
   65336651.254702181        286625539.45711911        1667050972.3083563     
   43122525.228826076        214531070.16145438        1633652328.3834260     
   25103125.106450055        156419020.54412055        1609589921.3550165     
   11278450.887579300        112289390.60513967        1594863751.2231157     
   1648502.5722069740        82142180.344486207        1589473817.9877286     
  -424739759.82671762        107860318.23745227        1545540178.9216573     
  -412790534.01600790        77483211.844654799        1529859251.2358012     
  -398825934.23260140        53824018.694176584        1521494504.3193746     
  -382845960.47649658        36882738.786027357        1520445938.1723778     
  -364850612.74769378        26659372.120203897        1526713552.7948093     
  -871658496.50385702       -57957600.660927057        1437403888.5273671     
  -831317507.79108667       -48348820.831216544        1436898099.8279798     
  -791140497.03642488       -39286634.195198655        1441688435.7709379     
  -751127464.23986876       -30771040.752867103        1451774896.3562391     
  -711278409.40142107       -22802040.504228026        1467157481.5838881     
  -1275419558.7767105       -210828217.23802149        1342642101.1254952     
  -1212458396.0964131       -162965027.86616802        1354768874.1599691     
  -1151840563.3050206       -122912938.12400901        1370171715.7097049     
  -1093566060.4025409       -90671948.011553377        1388850625.7747014     
  -1037634887.3889730       -66242057.528803170        1410805604.3549588     
  -1636022946.6452851       -350751531.49383390        1261254816.7160337     
  -1556213198.9319813       -266365409.26018876        1283471574.2317657     
  -1480926133.0383873       -197054893.09224576        1306944344.1356776     
  -1410161748.9645126       -142819982.99003148        1331673126.4277647     
  -1343920046.7103534       -103660678.95353353        1357657921.1080267     
   1648502.5722069740        82142180.344486207        1589473817.9877286     
  -541568.87859271839        62895628.359567709        1573444839.6650245     
  -1210743.0133169275        48718734.094901145        1563662308.9615092     
  -359019.83196130395        39611497.550500542        1560126225.8771861     
   2013600.6654664874        35573918.726340495        1562836590.4120545     
  -364850612.74769378        26659372.120203897        1526713552.7948093     
  -348647050.20460624        19853167.070350319        1518334731.0101202     
  -331851368.99353665        15020690.913771138        1514987561.5395982     
  -314463569.11449474        12161943.650431633        1516672044.3832443     
  -296483650.56747031        11276925.280368820        1523388179.5410566     
  -711278409.40142107       -22802040.504228026        1467157481.5838881     
  -680152056.59307790       -18209151.737594545        1465345241.2477641     
  -649362363.76485765       -14738462.904699683        1467349857.9207835     
  -618909330.91675794       -12389974.005542964        1473171331.6029508     
  -588792958.04877806       -11163685.040119171        1482809662.2942638     
  -1037634887.3889730       -66242057.528803170        1410805604.3549588     
  -995056588.04401350       -51291328.064281881        1414476370.3779521     
  -953743727.32727480       -40558727.360494077        1420749198.1050677     
  -913696305.23875582       -34044255.417441279        1429624087.5363078     
  -874914321.77845597       -31747912.235115677        1441101038.6716692     
  -1343920046.7103534       -103660678.95353353        1357657921.1080267     
  -1293360644.5574131       -79393361.909715116        1365728118.4006867     
  -1244995459.6807899       -62440102.453619599        1375185582.0924509     
  -1198824492.0804904       -52800900.585267603        1386030312.1833134     
  -1154847741.7565014       -50475756.304622412        1398262308.6732776     
   2013600.6654664874        35573918.726340495        1562836590.4120545     
   2619811.6036166800        33388930.321603660        1553697631.5916274     
   3276013.1073686816        31370577.135538131        1550497041.7962773     
   3982205.1767147146        29518859.168120764        1553234821.0259957     
   4738387.8116631042        27833776.419376533        1561910969.2807839     
  -296483650.56747031        11276925.280368820        1523388179.5410566     
  -280396296.16443974        10699215.385474280        1516265789.7041559     
  -264324086.10958540        10071024.329991981        1514742692.3128958     
  -248267020.40290084        9392352.1139432192        1518818887.3672800     
  -232225099.04439321        8663198.7373061031        1528494374.8673067     
  -588792958.04877806       -11163685.040119171        1482809662.2942638     
  -558193250.40780807       -10424753.493263662        1477627850.7081501     
  -527673822.02878171       -9953419.4862235188        1477706254.9882503     
  -497234672.91169816       -9749683.0189922154        1483044875.1345694     
  -466875803.05656028       -9813544.0915792584        1493643711.1470962     
  -874914321.77845597       -31747912.235115677        1441101038.6716692     
  -830771051.12648332       -29982976.314596206        1437783814.6036129     
  -786773194.65022063       -28702754.313110173        1439387729.8223436     
  -742920752.34967637       -27907246.230686903        1445912784.3278606     
  -699213724.22484493       -27596452.067302406        1457358978.1201622     
  -1154847741.7565014       -50475756.304622412        1398262308.6732776     
  -1098129698.3204587       -47975453.078500450        1396733681.3905439     
  -1041622203.9739053       -46176980.150678754        1399787116.8151686     
  -985325258.71683311       -45080337.521127224        1407422614.9471529     
  -929238862.54924893       -44685525.189867973        1419640175.7864954     
   4738387.8116631042        27833776.419376533        1561910969.2807839     
   3703470.2103239596        25141441.495769091        1557339780.9084382     
   2308723.2935292777        21249675.520641111        1557703790.3459966     
   554147.06128113903        16158478.494002996        1563002997.5934515     
  -1560258.4864310920        9867850.4158172105        1573237402.6508050     
  -232225099.04439321        8663198.7373061031        1528494374.8673067     
  -220286730.39403537        6419171.0406141132        1524425237.0556560     
  -208520343.88405791        3601869.5426552296        1525296896.8830464     
  -196925939.51445064        211294.24346039444        1531109354.3494754     
  -185503517.28522366       -3752554.8570005223        1541862609.4549475     
  -466875803.05656028       -9813544.0915792584        1493643711.1470962     
  -441948148.64268458       -11604464.707839489        1490295778.9337382     
  -417004629.19410312       -13342501.875080943        1491894244.1885638     
  -392045244.71080917       -15027655.593283474        1498439106.9115698     
  -367069995.19280571       -16659925.862451777        1509930367.1027577     
  -699213724.22484493       -27596452.067302406        1457358978.1201622     
  -661280784.53562093       -28929465.749586701        1454951406.5426943     
  -623144132.63659751       -29583438.732542127        1457495832.2625463     
  -584803768.52778769       -29558371.016206682        1464992255.2797253     
  -546259692.20917940       -28854262.600545496        1477440675.5942223     
  -929238862.54924893       -44685525.189867973        1419640175.7864954     
  -878284638.07283676       -45555832.084601104        1418392119.8825161     
  -826938854.21154881       -45120941.029747009        1422101661.1049998     
  -775201510.96538687       -43380852.025312841        1430768799.4539478     
  -723072608.33434391       -40335565.071276486        1444393534.9293549     
  -1560258.4864310920        9867850.4158172105        1573237402.6508050     
  -2323966.8694275767        4337858.9837811124        1571676258.8935840     
  -2493498.1369181392        788457.93676683609        1576386934.3591747     
  -2068852.2889118840       -780352.72525874223        1587369429.0475824     
  -1050029.3254127919       -368573.00230889022        1604623742.9588046     
  -185503517.28522366       -3752554.8570005223        1541862609.4549475     
  -169458735.78831381       -6099991.8920740262        1541494379.8063092     
  -153090518.77625832       -7369310.5433300883        1547049502.9047041     
  -136398866.24906358       -7560510.8107897937        1558527978.7501538     
  -119383778.20671877       -6673592.6944124103        1575929807.3426464     
  -367069995.19280571       -16659925.862451777        1509930367.1027577     
  -335212342.31819755       -16123494.051243410        1510439186.3622792     
  -303301995.52879351       -15411415.857384667        1516522891.8930774     
  -271338954.82460463       -14523691.280907452        1528181483.6951458     
  -239323220.20562688       -13460320.321803227        1545414961.7684932     
  -546259692.20917940       -28854262.600545496        1477440675.5942223     
  -499584786.45907104       -25732647.493702203        1478510678.5614963     
  -453127928.39452767       -23337858.005409405        1484807101.3242757     
  -406889118.01554698       -21669894.135657296        1496329943.8825572     
  -360868355.32213300       -20728755.884463459        1513079206.2363384     
  -723072608.33434391       -40335565.071276486        1444393534.9293549     
  -662576068.21094191       -34927452.219473571        1445708856.4039667     
  -602568317.37344992       -31148636.987368882        1451902131.1983109     
  -543049355.82188511       -28999119.375022084        1462973359.3123901     
  -484019183.55624300       -28478899.382418171        1478922540.7461960     
  -1050029.3254127919       -368573.00230889022        1604623742.9588046     
  -714237.29572123964        551367.14499320101        1599843880.0174794     
  -502466.53242746042        1057903.0709707700        1600235582.2536926     
  -414717.03551747731        1151034.7756679780        1605798849.6674423     
  -450988.80500943039        830762.25902609190        1616533682.2587292     
  -119383778.20671877       -6673592.6944124103        1575929807.3426464     
  -105347480.39212228       -5427469.6224409491        1570869021.3041980     
  -90808568.406566530       -2505965.9806066751        1571100247.7093742     
  -75767042.250045300        2090918.2311147712        1576623486.5581686     
  -60222901.922563665        8363183.0127010457        1587438737.8505845     
  -239323220.20562688       -13460320.321803227        1545414961.7684932     
  -211242281.56017470       -11784773.811372183        1540804327.3098404     
  -182032093.30640730       -6345061.9398946241        1541606152.5608873     
  -151692655.44432262        2858815.2926433831        1547820437.5216384     
  -120223967.97391917        15826857.886242278        1559447182.1920922     
  -360868355.32213300       -20728755.884463459        1513079206.2363384     
  -318398640.79987681       -18520545.421797514        1509649798.0343962     
  -274173041.23194849       -10459384.806889385        1511753296.8082371     
  -228191556.61834875        3454725.9602573216        1519389702.5578604     
  -180454186.95907539        23221786.879646644        1532559015.2832694     
  -484019183.55624300       -28478899.382418171        1478922540.7461960     
  -426816558.11123049       -25634784.453718275        1477405433.4778690     
  -367231412.18319893       -14848934.581620231        1481541680.4514139     
  -305263745.77212924        3878650.2339374721        1491331281.6668231     
  -240913558.87803954        30547969.992895290        1506774237.1241045     
  -450988.80500943039        830762.25902609190        1616533682.2587292     
  -430842.89052390400        421445.86993129080        1585488400.2514412     
  -356545.49710116605        192634.41062719451        1557835994.3717790     
  -228096.62474027873        144327.88111658243        1533576464.6197312     
  -45496.273455035975        276526.28135451576        1512709810.9953094     
  -60222901.922563665        8363183.0127010457        1587438737.8505845     
  -49244744.428315841        15814366.999199346        1556946686.6141255     
  -37088730.299597040        27191739.767266512        1529677037.3016498     
  -23754859.536423415        42495301.316849418        1505629789.9131527     
  -9243132.1387940012        61725051.647953346        1484804944.4486434     
  -120223967.97391917        15826857.886242278        1559447182.1920922     
  -98774868.053162545        30992421.502365954        1530819351.0745776     
  -75024206.342418194        53829857.751783282        1505243447.6774025     
  -48971982.841688991        84339166.634481296        1482719472.0005727     
  -20618197.550971478        122520348.15047398        1463247424.0440810     
  -180454186.95907539        23221786.879646644        1532559015.2832694     
  -149021213.76506972        45955609.379410267        1507106393.6328084     
  -114162973.62555230        80106988.364218637        1484535225.4990551     
  -75879466.540522963        125675923.83406243        1464845510.8820002     
  -34170692.509974264        182662415.78897366        1448037249.7816439     
  -240913558.87803954        30547969.992895290        1506774237.1241045     
  -199983781.56404144        60703930.630328551        1485807814.2888105     
  -154505032.14900464        106023131.60455520        1467552370.7665884     
  -104477310.63293348        166505572.91556311        1452007906.5574236     
  -49900617.015820116        242151254.56338048        1439174421.6613233     
  -45496.273455035975        276526.28135451576        1512709810.9953094     
  -21122.070707772771        423952.82222370640        1403275889.1576333     
  -9561.3347177856485        528667.80723322835        1291099930.2800741     
  -10814.065476679360        590671.23641557642        1176181934.3626485     
  -24880.262986489746        609963.10976014752        1058521901.4053370     
  -9243132.1387940012        61725051.647953346        1484804944.4486434     
  -9700557.1206281707        81196986.129106373        1376061701.0954931     
  -8215225.6398505345        107144775.48563835        1265230378.1924782     
  -4787137.6964696199        139568419.71751094        1152310975.7395813     
   583706.70952738076        178467918.82476872        1037303493.7368331     
  -20618197.550971478        122520348.15047398        1463247424.0440810     
  -19688971.745923378        161877325.56339660        1357476357.4263854     
  -14861419.548910558        214228724.28286529        1250271168.7488286     
  -6135540.9599250853        279574544.30891085        1141631858.0114071     
   6488664.0210141242        357914785.64146912        1031558425.2141322     
  -34170692.509974264        182662415.78897366        1448037249.7816439     
  -29986365.946597964        242464971.12507632        1347519858.1503134     
  -19948143.061897069        321780514.19892758        1246222301.9491153     
  -4056023.8558744192        420609045.01052094        1144144581.1780829     
   17689991.671474129        538950563.55986166        1041286695.8371874     
  -49900617.015820116        242151254.56338048        1439174421.6613233     
  -40592739.722658440        322959922.81412029        1346192203.2672627     
  -23475396.178818583        429800145.23378950        1253083777.7933667     
   1451413.6157123148        562671921.82243013        1159849145.2396259     
   34187689.660907179        721575252.57994592        1066488305.6060367     
  -1636022946.6452851       -350751531.49383390        1261254816.7160337     
  -1556213198.9319813       -266365409.26018876        1283471574.2317657     
  -1480926133.0383873       -197054893.09224576        1306944344.1356776     
  -1410161748.9645126       -142819982.99003148        1331673126.4277647     
  -1343920046.7103534       -103660678.95353353        1357657921.1080267     
  -1906959797.1529725       -191006731.89789438        1284615024.0568638     
  -1832362006.3939600       -145066599.20532417        1288686860.7965744     
  -1760159154.3114483       -107109595.43441629        1296365638.9235203     
  -1690351240.9054296       -77135720.585163474        1307651358.4376972     
  -1622938266.1759129       -55144974.657575071        1322544019.3391049     
  -2221568380.9542632       -44363452.290035725        1292548508.4917943     
  -2145465607.1522384       -34854227.139359474        1280957791.4559031     
  -2069630028.8834991       -26235653.766279578        1275324944.8063037     
  -1994061646.1480365       -18507732.170807362        1275649968.5429897     
  -1918760458.9458561       -11670462.352928281        1281932862.6659653     
  -2579848698.0491471        89178307.329744816        1285055270.0208263     
  -2495524001.2068133        64271706.937721372        1260284366.2097523     
  -2409338756.7545400        45566931.912161231        1243822261.7840254     
  -2321292964.6923318        33063982.253048062        1235668956.7436447     
  -2231386625.0201869        26762857.960395336        1235824451.0886056     
  -2981800748.4376349        209618546.96144438        1262135308.6439571     
  -2882537188.5576849        152311203.02591300        1226666585.0581214     
  -2779285337.9245758        108298161.60089958        1201857589.8566883     
  -2672045196.5383177        77579422.686388731        1187708323.0396569     
  -2560816764.3989010        60154986.282410741        1184218784.6070287     
  -1343920046.7103534       -103660678.95353353        1357657921.1080267     
  -1293360644.5574131       -79393361.909715116        1365728118.4006867     
  -1244995459.6807899       -62440102.453619599        1375185582.0924509     
  -1198824492.0804904       -52800900.585267603        1386030312.1833134     
  -1154847741.7565014       -50475756.304622412        1398262308.6732776     
  -1622938266.1759129       -55144974.657575071        1322544019.3391049     
  -1571245245.4046910       -43540258.357720554        1323178937.5985007     
  -1520895776.1373525       -36414047.070815980        1326220742.4137738     
  -1471889858.3739078       -33766340.796883464        1331669433.7849224     
  -1424227492.1143436       -35597139.535892785        1339525011.7119486     
  -1918760458.9458561       -11670462.352928281        1281932862.6659653     
  -1863020619.1084211       -11854386.662661552        1276124945.2932644     
  -1807773665.0024385       -13681263.410575986        1273743534.6332171     
  -1753019596.6279130       -17151092.596675515        1274788630.6858230     
  -1698758413.9848442       -22263874.220960617        1279260233.4510808     
  -2231386625.0201869        26762857.960395336        1235824451.0886056     
  -2168686765.6686058        15664253.175457716        1224566141.4849787     
  -2105629126.2760437        5758248.5271134377        1217753958.7507811     
  -2042213706.8425081       -2955155.9846479893        1215387902.8860142     
  -1978440507.3679976       -10475960.359825969        1217467973.8906748     
  -2560816764.3989010        60154986.282410741        1184218784.6070287     
  -2488243685.0852375        39015661.156651139        1168502526.1736455     
  -2414462159.9581704        21904488.742245436        1158252014.7664676     
  -2339472189.0176945        8821469.0391994715        1153467250.3854954     
  -2263273772.2638102       -233397.95248568058        1154148233.0307302     
  -1154847741.7565014       -50475756.304622412        1398262308.6732776     
  -1098129698.3204587       -47975453.078500450        1396733681.3905439     
  -1041622203.9739053       -46176980.150678754        1399787116.8151686     
  -985325258.71683311       -45080337.521127224        1407422614.9471529     
  -929238862.54924893       -44685525.189867973        1419640175.7864954     
  -1424227492.1143436       -35597139.535892785        1339525011.7119486     
  -1355642730.0623822       -33526937.511512101        1335972341.6913865     
  -1287280823.9621234       -32199588.659473121        1337065108.1761122     
  -1219141773.8135772       -31615092.979809463        1342803311.1661246     
  -1151225579.6167367       -31773450.472499907        1353186950.6614251     
  -1698758413.9848442       -22263874.220960617        1279260233.4510808     
  -1618125865.3228765       -20569453.000077546        1273669162.6867647     
  -1537728479.4748416       -19658907.825633168        1272786902.2256644     
  -1457566256.4407325       -19532238.697614849        1276613452.0677793     
  -1377639196.2205594       -20189445.616042435        1285148812.2131097     
  -1978440507.3679976       -10475960.359825969        1217467973.8906748     
  -1885579104.1019480       -9102999.5442231894        1209824144.3766773     
  -1792965170.5120509       -8554937.6491343975        1206952498.9638233     
  -1700598706.5983052       -8831774.6745455265        1208853037.6521149     
  -1608479712.3607178       -9933510.6204838157        1215525760.4415479     
  -2263273772.2638102       -233397.95248568058        1154148233.0307302     
  -2158002446.3995967        872422.85605621338        1144437286.7611237     
  -2052990897.0737555        1112321.8700190783        1139561898.3905888     
  -1948239124.2862883        486299.08940231800        1139522067.9191291     
  -1843747128.0372059       -1005645.4858242273        1144317795.3467412     
  -929238862.54924893       -44685525.189867973        1419640175.7864954     
  -878284638.07283676       -45555832.084601104        1418392119.8825161     
  -826938854.21154881       -45120941.029747009        1422101661.1049998     
  -775201510.96538687       -43380852.025312841        1430768799.4539478     
  -723072608.33434391       -40335565.071276486        1444393534.9293549     
  -1151225579.6167367       -31773450.472499907        1353186950.6614251     
  -1087883727.9316871       -33414687.515570939        1350601187.6843386     
  -1024391928.0730643       -34556097.313397169        1352764678.5447373     
  -960750180.04086947       -35197679.865983188        1359677423.2426262     
  -896958483.83510041       -35339435.173322469        1371339421.7780087     
  -1377639196.2205594       -20189445.616042435        1285148812.2131097     
  -1302504983.8667948       -22780192.769419611        1280943462.4163930     
  -1227462434.5507591       -25676483.381887734        1281279023.1681871     
  -1152511548.2724576       -28878317.453478515        1286155494.4684975     
  -1077652325.0318894       -32385694.984174907        1295572876.3173258     
  -1608479712.3607178       -9933510.6204838157        1215525760.4415479     
  -1522148405.8781579       -13652347.846123874        1209418944.0786753     
  -1436150373.6446409       -18482099.235237658        1207644694.9753451     
  -1350485615.6601634       -24422764.787815750        1210203013.1315558     
  -1265154131.9247193       -31474344.503837943        1217093898.5473073     
  -1843747128.0372059       -1005645.4858242273        1144317795.3467412     
  -1746813993.9657857       -6031152.7457345724        1136027632.6711941     
  -1650455745.3547091       -12972944.873450339        1131861693.9662130     
  -1554672382.2039759       -21831021.868978441        1131819979.2317982     
  -1459463904.5135832       -32605383.732311189        1135902488.4679503     
  -723072608.33434391       -40335565.071276486        1444393534.9293549     
  -662576068.21094191       -34927452.219473571        1445708856.4039667     
  -602568317.37344992       -31148636.987368882        1451902131.1983109     
  -543049355.82188511       -28999119.375022084        1462973359.3123901     
  -484019183.55624300       -28478899.382418171        1478922540.7461960     
  -896958483.83510041       -35339435.173322469        1371339421.7780087     
  -824928678.46349430       -33198462.935517222        1369761675.1755173     
  -753173242.27948189       -31972054.656352520        1372931673.2782235     
  -681692175.28306973       -31660210.335862428        1380849416.0861187     
  -610485477.47424817       -32262929.973997831        1393514903.5992091     
  -1077652325.0318894       -32385694.984174907        1295572876.3173258     
  -994461279.02505970       -33623470.744284809        1291352218.4191167     
  -911330182.10749245       -35061076.801943898        1291749096.6115639     
  -828259034.27919257       -36698513.157154500        1296763510.8946614     
  -745247835.54016268       -38535779.809936941        1306395461.2684197     
  -1265154131.9247193       -31474344.503837943        1217093898.5473073     
  -1171173869.8956249       -36202475.645742297        1210480486.1347604     
  -1077039136.8574710       -40415703.424102008        1208354401.1983299     
  -982749932.81026578       -44114027.838969827        1210715643.7380126     
  -888306257.75398993       -47297448.890256554        1217564213.7538128     
  -1459463904.5135832       -32605383.732311189        1135902488.4679503     
  -1355066451.0752015       -40935477.639906585        1127146478.3224502     
  -1250300106.5294328       -48035934.522883415        1122747587.0385230     
  -1145164870.8762710       -53906754.381216884        1122705814.6161761     
  -1039660744.1157309       -58547937.214950323        1127021161.0553997     
  -484019183.55624300       -28478899.382418171        1478922540.7461960     
  -426816558.11123049       -25634784.453718275        1477405433.4778690     
  -367231412.18319893       -14848934.581620231        1481541680.4514139     
  -305263745.77212924        3878650.2339374721        1491331281.6668231     
  -240913558.87803954        30547969.992895290        1506774237.1241045     
  -610485477.47424817       -32262929.973997831        1393514903.5992091     
  -538556715.65739059       -29537390.926028967        1391865036.7988718     
  -464301954.22411716       -19058519.823343530        1395916976.6305568     
  -387721193.17444557       -826316.66599261761        1405670723.0942812     
  -308814432.50835735        25159218.546073437        1421126276.1900263     
  -745247835.54016268       -38535779.809936941        1306395461.2684197     
  -658454501.95099139       -35887286.022551894        1304546893.9250088     
  -569391689.61202514       -25673863.069188744        1308448585.6037874     
  -478059398.52327502       -7895510.9498762190        1318100536.3047550     
  -384457628.68472892        17447770.335422114        1333502746.0279262     
  -888306257.75398993       -47297448.890256554        1217564213.7538128     
  -786509916.99204350       -44684469.743333548        1215451004.8562737     
  -682500618.34691584       -34694964.319136232        1219136507.3710914     
  -576278361.81861854       -17328932.617707610        1228620721.2982655     
  -467843147.40714693        7413625.3609668911        1243903646.6377895     
  -1039660744.1157309       -58547937.214950323        1127021161.0553997     
  -922722960.78053534       -55928942.088317126        1124577369.5926771     
  -803628740.42878044       -46121823.573152661        1127980741.9324806     
  -682378083.06048298       -29126581.669512779        1137231278.0747993     
  -558970988.67561674       -4943216.3773105443        1152328978.0196352     
  -240913558.87803954        30547969.992895290        1506774237.1241045     
  -199983781.56404144        60703930.630328551        1485807814.2888105     
  -154505032.14900464        106023131.60455520        1467552370.7665884     
  -104477310.63293348        166505572.91556311        1452007906.5574236     
  -49900617.015820116        242151254.56338048        1439174421.6613233     
  -308814432.50835735        25159218.546073437        1421126276.1900263     
  -259162251.60770881        55637508.106829911        1404456884.7876210     
  -203087194.53553495        107525384.90599509        1391711671.6949630     
  -140589261.29185808        180822848.94350976        1382890636.9120531     
  -71668451.876669765        275529900.21939403        1377993780.4388969     
  -384457628.68472892        17447770.335422114        1333502746.0279262     
  -322616761.34973741        49288273.673842922        1323316607.4739506     
  -252479113.77276275        108784711.15220740        1318267846.2264109     
  -174044685.95380118        195937082.77053133        1318356462.2853088     
  -87313477.892852351        310745388.52880102        1323582455.6506462     
  -467843147.40714693        7413625.3609668911        1243903646.6377895     
  -390347310.79013872        41656227.331347391        1242386982.3478031     
  -302680789.86068094        109801110.34321512        1247220894.3609390     
  -204843584.61875156        211848274.39666045        1258405382.6771977     
  -96835695.064377233        347797719.49158877        1275940447.2965856     
  -558970988.67561674       -4943216.3773105443        1152328978.0196352     
  -462353899.92891568        32741369.079315871        1161668009.4091797     
  -353692222.79928696        110574582.47902644        1178570816.0985401     
  -232985957.28671482        228556423.82188159        1203037398.0877101     
  -100235103.39122429        386686893.10780638        1235067755.3766987     
  -49900617.015820116        242151254.56338048        1439174421.6613233     
  -40592739.722658440        322959922.81412029        1346192203.2672627     
  -23475396.178818583        429800145.23378950        1253083777.7933667     
   1451413.6157123148        562671921.82243013        1159849145.2396259     
   34187689.660907179        721575252.57994592        1066488305.6060367     
  -71668451.876669765        275529900.21939403        1377993780.4388969     
  -57484171.968060762        377201879.08581269        1296552402.5382564     
  -34303502.444711447        508861823.33470225        1214173700.5103488     
  -2126443.3066036999        670509732.96611989        1130857674.3551495     
   39047005.446239799        862145607.97999287        1046604324.0726931     
  -87313477.892852351        310745388.52880102        1323582455.6506462     
  -70570272.647183865        432585434.82736552        1255066662.1681778     
  -43643754.422697157        588369857.72199368        1184802427.5109913     
  -6533923.2193913758        778098657.21266484        1112789751.6791017     
   40759220.962725937        1001771833.2994125        1039028634.6725017     
  -96835695.064377233        347797719.49158877        1275940447.2965856     
  -79851041.760011554        489110590.03881866        1221734982.1570189     
  -51496152.112772375        668324248.39563501        1164969958.7953241     
  -11771026.122642457        885438694.56208575        1105645377.2114677     
   39324336.210381031        1140453928.5381763        1043761237.4054943     
  -100235103.39122429        386686893.10780638        1235067755.3766987     
  -85326479.306556046        546777344.72015011        1196557362.5047960     
  -57860695.514932781        748724995.35567415        1154676294.3633182     
  -17837752.016359210        992529845.01436603        1109424550.9522674     
   34742351.189176857        1278191893.6962690        1060802132.2716466     
  -2981800748.4376349        209618546.96144438        1262135308.6439571     
  -2882537188.5576849        152311203.02591300        1226666585.0581214     
  -2779285337.9245758        108298161.60089958        1201857589.8566883     
  -2672045196.5383177        77579422.686388731        1187708323.0396569     
  -2560816764.3989010        60154986.282410741        1184218784.6070287     
  -3454749344.7898641        92712111.270680904        1079114164.8297782     
  -3320622791.4609771        72572797.525134563        1060792645.9988102     
  -3184926780.8366852        57665008.097615361        1050051848.3157008     
  -3047661312.9169836        47988742.988125205        1046891771.7804507     
  -2908826387.7018743        43544002.196656466        1051312416.3930581     
  -3883570259.2045383       -10956019.838815689        907776750.33593738     
  -3723377875.9596992        3433547.5457303524        903780463.89247060     
  -3564034868.8771977        14991861.055814028        904285891.36031103     
  -3405541237.9570365        23718920.691434145        909293032.73947263     
  -3247896983.1992102        29614726.452594995        918801888.02994800     
  -4268263491.6816640       -101385846.36704874        748123065.16244566     
  -4090802442.0538464       -55106546.912303209        755630038.73909903     
  -3916609602.0461192       -19721279.524511576        764559718.99052322     
  -3745684971.6584740        4769955.7963349819        774912105.91672051     
  -3578028550.8909121        18367159.050224781        786687199.51769388     
  -4608829042.2212315       -178577368.31401300        600153109.30929053     
  -4422896489.7434244       -103047485.84896564        616341370.53869736     
  -4242650980.3434420       -46474413.643357992        630873331.20633435     
  -4068092514.0212946       -8858151.6971864700        643748991.31220150     
  -3899221090.7769809        9801299.9895441532        654968350.85629642     
  -2560816764.3989010        60154986.282410741        1184218784.6070287     
  -2488243685.0852375        39015661.156651139        1168502526.1736455     
  -2414462159.9581704        21904488.742245436        1158252014.7664676     
  -2339472189.0176945        8821469.0391994715        1153467250.3854954     
  -2263273772.2638102       -233397.95248568058        1154148233.0307302     
  -2908826387.7018743        43544002.196656466        1051312416.3930581     
  -2821382304.9090137        27355188.234020352        1039609645.8980360     
  -2733085802.7815475        14007772.053409576        1032737936.1693156     
  -2643936881.3194785        3501753.6548012495        1030697287.2068986     
  -2553935540.5228105       -4162866.9618028402        1033487699.0107828     
  -3247896983.1992102        29614726.452594995        918801888.02994800     
  -3147395286.2411561        17832406.858898759        910697241.24801111     
  -3046397196.4273047        7704730.1178636551        906788968.97247648     
  -2944902713.7576551       -768303.77051806450        907077071.20334160     
  -2842911838.2322063       -7586694.8062388897        911561547.94060302     
  -3578028550.8909121        18367159.050224781        786687199.51769388     
  -3466282629.0816727        10447317.031258583        781765312.22357321     
  -3354396340.8954415        2995362.9356000423        780405113.17594826     
  -3242369686.3322158       -3988703.2367459536        782606602.37482250     
  -3130202665.3919988       -10504881.485790253        788369779.82019174     
  -3899221090.7769809        9801299.9895441532        654968350.85629642     
  -3778044333.4305668        5199918.7510988712        652813858.82471871     
  -3657083236.1859603       -120329.49337387085        653586368.77973521     
  -3536337799.0431714       -6159444.7439038754        657285880.72134399     
  -3415808022.0021930       -12917427.000468969        663912394.64954746     
  -2263273772.2638102       -233397.95248568058        1154148233.0307302     
  -2158002446.3995967        872422.85605621338        1144437286.7611237     
  -2052990897.0737555        1112321.8700190783        1139561898.3905888     
  -1948239124.2862883        486299.08940231800        1139522067.9191291     
  -1843747128.0372059       -1005645.4858242273        1144317795.3467412     
  -2553935540.5228105       -4162866.9618028402        1033487699.0107828     
  -2436019328.6101551       -2493810.7717628479        1024049686.6492697     
  -2318323086.2704425       -1557986.4915322065        1019372974.4148290     
  -2200846813.5036745       -1355394.1211168766        1019457562.3074651     
  -2083590510.3098495       -1886033.6605101824        1024303450.3271720     
  -2842911838.2322063       -7586694.8062388897        911561547.94060302     
  -2712562905.3339634       -5418052.7535578012        902442910.94685066     
  -2582394135.0432305       -3849952.7259104252        898011316.30817497     
  -2452405527.3600140       -2882394.7233151197        898266764.02457595     
  -2322597082.2843046       -2515378.7457497120        903209254.09605074     
  -3130202665.3919988       -10504881.485790253        788369779.82019174     
  -2987633176.5710263       -7900303.0893319845        779616959.65387237     
  -2845204043.3921237       -5763576.8331185579        775476924.07063162     
  -2702915265.8553066       -4094702.7171928883        775949673.07046866     
  -2560766843.9605713       -2893680.7415308952        781035206.65338051     
  -3415808022.0021930       -12917427.000468969        663912394.64954746     
  -3261230142.3213334       -9940561.7790727615        655571832.77032840     
  -3106752811.3171182       -7298858.8131637573        651769797.70219433     
  -2952376028.9895558       -4992318.1027642488        652506289.44513416     
  -2798099795.3386393       -3020939.6478457451        657781307.99915957     
  -1843747128.0372059       -1005645.4858242273        1144317795.3467412     
  -1746813993.9657857       -6031152.7457345724        1136027632.6711941     
  -1650455745.3547091       -12972944.873450339        1131861693.9662130     
  -1554672382.2039759       -21831021.868978441        1131819979.2317982     
  -1459463904.5135832       -32605383.732311189        1135902488.4679503     
  -2083590510.3098495       -1886033.6605101824        1024303450.3271720     
  -1976213700.9681275       -6398301.5789533854        1015541037.3425674     
  -1869287985.9370172       -12414217.199452162        1010569556.9011391     
  -1762813365.2165279       -19933780.522002459        1009389009.0028833     
  -1656789838.8066537       -28956991.546622813        1011999393.6478077     
  -2322597082.2843046       -2515378.7457497120        903209254.09605074     
  -2205728858.8933873       -6800085.6890411377        894119013.81040418     
  -2089187938.6633670       -12175803.168653011        888486414.64053893     
  -1972974321.5942364       -18642531.184573412        886311456.58645868     
  -1857088007.6860011       -26200269.736807466        887594139.64816487     
  -2560766843.9605713       -2893680.7415308952        781035206.65338051     
  -2435359467.7415800       -7236505.0760120153        771761562.07469976     
  -2310155603.5337605       -12257702.781073809        765612267.18440926     
  -2185155251.3371129       -17957273.856704950        762587321.98251569     
  -2060358411.1516328       -24335218.302892447        762686726.46901488     
  -2798099795.3386393       -3020939.6478457451        657781307.99915957     
  -2665105527.5126920       -7707559.7398585081        648468682.13545525     
  -2532190980.5481997       -12659916.036713243        641947114.53275251     
  -2399356154.4451456       -17878008.538367867        638216605.19105685     
  -2266601049.2035384       -23361837.244839430        637277154.11035883     
  -1459463904.5135832       -32605383.732311189        1135902488.4679503     
  -1355066451.0752015       -40935477.639906585        1127146478.3224502     
  -1250300106.5294328       -48035934.522883415        1122747587.0385230     
  -1145164870.8762710       -53906754.381216884        1122705814.6161761     
  -1039660744.1157309       -58547937.214950323        1127021161.0553997     
  -1656789838.8066537       -28956991.546622813        1011999393.6478077     
  -1540917092.3869441       -35178407.782448173        1002435737.5417899     
  -1424694111.7978349       -40232376.786949635        996855493.09711540     
  -1308120897.0393181       -44118898.560083985        995258660.31379175     
  -1191197448.1113911       -46837973.101859629        997645239.19180691     
  -1857088007.6860011       -26200269.736807466        887594139.64816487     
  -1730807703.1427739       -30633328.758240938        877201071.15398574     
  -1604195821.3681183       -33961130.341586173        870417707.12092280     
  -1477252362.3620353       -36183674.486838520        867244047.54897213     
  -1349977326.1245220       -37300961.193996668        867680092.43814361     
  -2060358411.1516328       -24335218.302892447        762686726.46901488     
  -1924738283.3426821       -27300240.567251325        751442479.15902972     
  -1788805235.2402802       -29222195.186786532        743434229.10993636     
  -1652559266.8444293       -30101082.161486208        738661976.32172704     
  -1516000378.1551332       -29936901.491367877        737125720.79440260     
  -2266601049.2035384       -23361837.244839430        637277154.11035883     
  -2122708832.9866662       -25179143.209474444        625159961.55693138     
  -1978522353.4143224       -26015571.322549462        615905059.06416416     
  -1834041610.4865086       -25871121.584054112        609512446.63204741     
  -1689266604.2032325       -24745793.994012177        605982124.26058960     
  -1039660744.1157309       -58547937.214950323        1127021161.0553997     
  -922722960.78053534       -55928942.088317126        1124577369.5926771     
  -803628740.42878044       -46121823.573152661        1127980741.9324806     
  -682378083.06048298       -29126581.669512779        1137231278.0747993     
  -558970988.67561674       -4943216.3773105443        1152328978.0196352     
  -1191197448.1113911       -46837973.101859629        997645239.19180691     
  -1060977483.5395037       -42994398.752385914        993829907.37406635     
  -929410811.90754783       -34661800.869331747        994101879.03829455     
  -796497433.21551740       -21840179.452705264        998461154.18449807     
  -662237347.46340120       -4529534.5024597943        1006907732.8126721     
  -1349977326.1245220       -37300961.193996668        867680092.43814361     
  -1211503352.6603806       -33741259.325035632        861548535.31615424     
  -1072492402.0926378       -28391633.777412593        857744421.35558951     
  -932944474.42129183       -21252084.551112652        856267750.55644953     
  -792859569.64634824       -12322611.646144509        857118522.91873038     
  -1516000378.1551332       -29936901.491367877        737125720.79440260     
  -1374300568.1431541       -28169523.806253374        727733253.41894639     
  -1232873510.9840493       -27311322.297380865        718908368.88436460     
  -1091719206.6778142       -27362296.964748085        710651067.19066513     
  -950837655.22446251       -28322447.808392704        702961348.33783472     
  -1689266604.2032325       -24745793.994012177        605982124.26058960     
  -1549369129.9878302       -26279192.196032047        592384061.68243825     
  -1410554138.5817854       -31420866.429254651        577593721.62462044     
  -1272821629.9850872       -40170816.693627298        561611104.08713114     
  -1136171604.1977422       -52529042.989177227        544436209.06996500     
  -558970988.67561674       -4943216.3773105443        1152328978.0196352     
  -462353899.92891568        32741369.079315871        1161668009.4091797     
  -353692222.79928696        110574582.47902644        1178570816.0985401     
  -232985957.28671482        228556423.82188159        1203037398.0877101     
  -100235103.39122429        386686893.10780638        1235067755.3766987     
  -662237347.46340120       -4529534.5024597943        1006907732.8126721     
  -547131326.04967630        25613056.544610173        1020475673.7889299     
  -421122671.87292951        92097756.801763833        1042442555.6114488     
  -284211384.93316925        194924566.26895535        1072808378.2802250     
  -136397465.23039114        334093484.94620943        1111573141.7952464     
  -792859569.64634824       -12322611.646144509        857118522.91873038     
  -656878428.29004526        10993841.174060196        873583091.92514443     
  -511136609.79064018        66845884.471282423        899281767.32425225     
  -355634114.14812952        155233518.24551773        934214549.11606228     
  -190370941.36251760        276156742.49675781        978381437.30056369     
  -950837655.22446251       -28322447.808392704        702961348.33783472     
  -791595206.65003717       -11116277.032392412        720990263.81782830     
  -623734036.55242062        34818965.487572610        749088451.23696601     
  -447254144.93161595        109483279.75149548        787255910.59524143     
  -262155531.78762555        212876665.75938183        835492641.89265287     
  -1136171604.1977422       -52529042.989177227        544436209.06996500     
  -951281661.12964392       -40717298.074729443        562697189.46698141     
  -758914952.15826464       -3983000.1493462920        591862607.34957469     
  -559071477.28361106        57673850.786946356        631932462.71775448     
  -351751236.50568426        144253254.73416057        682906755.57150984     
  -100235103.39122429        386686893.10780638        1235067755.3766987     
  -85326479.306556046        546777344.72015011        1196557362.5047960     
  -57860695.514932781        748724995.35567415        1154676294.3633182     
  -17837752.016359210        992529845.01436603        1109424550.9522674     
   34742351.189176857        1278191893.6962690        1060802132.2716466     
  -136397465.23039114        334093484.94620943        1111573141.7952464     
  -127292867.00300959        483247682.77485496        1090039646.3968377     
  -95070192.355779409        709462135.33631539        1069935941.8663371     
  -39729441.288709402        1012736842.6305640        1051262028.2037441     
   38729386.198210120        1393071804.6576695        1034017905.4090322     
  -190370941.36251760        276156742.49675781        978381437.30056369     
  -173354751.45677632        418489371.80238903        986145908.87403035     
  -122659568.41830093        673085311.55046237        1000140637.4528738     
  -38285392.247088432        1039944561.7409736        1020365623.0370787     
   79767777.056843221        1519067122.3739364        1046820865.6266887     
  -262155531.78762555        212876665.75938183        835492641.89265287     
  -223512132.66788021        352502411.80269706        884876149.93635416     
  -140628823.70251101        639594523.99809206        945290381.12290561     
  -13505604.891519666        1074153002.3455772        1016735335.4523138     
   157857523.76508623        1656177846.8450997        1099211012.9245687     
  -351751236.50568426        144253254.73416057        682906755.57150984     
  -277765010.63629711        285286802.77585113        786230369.58382392     
  -148977958.20839342        608989772.67924666        905385172.87646055     
   34609920.778018415        1115362164.4443250        1040371165.4494338     
   272998626.32293725        1804403978.0711322        1191188347.3027220     
  -4608829042.2212315       -178577368.31401300        600153109.30929053     
  -4422896489.7434244       -103047485.84896564        616341370.53869736     
  -4242650980.3434420       -46474413.643357992        630873331.20633435     
  -4068092514.0212946       -8858151.6971864700        643748991.31220150     
  -3899221090.7769809        9801299.9895441532        654968350.85629642     
  -4895584504.2498627       -54957956.101791382        499333091.92208928     
  -4724438916.1961060       -36215637.840861559        493944113.62140948     
  -4553958330.1453075       -19689992.923123121        491941670.37263858     
  -4384142746.0974569       -5381021.3485436440        493325762.17577881     
  -4214992164.0525723        6711276.8828330040        498096389.03082466     
  -5240606531.1541119        51181486.647741318        375448367.92957675     
  -5069839805.7710419        17458671.230563164        354341198.01950467     
  -4894716041.3160591       -1740680.6135451794        341663398.77501810     
  -4715235237.7891455       -6416568.8845770359        337414970.19611919     
  -4531397395.1903067        3431006.4174773693        341595912.28280717     
  -5643895122.9339705        139840959.93459797        228498937.33175579     
  -5459099158.4682302        57975441.365310431        197532623.73298368     
  -5264924113.8556881        7373523.2853553295        180038516.41347229     
  -5061369989.0963440       -11964794.305250645        176016615.37322241     
  -4848436784.1901932       -39511.406509876251        185466920.61224276     
  -6105450279.5894470        211020463.75876236        58484800.128629692     
  -5892216974.2876577        85334672.563385963        23518390.761839274     
  -5664582547.7642002        7652618.7736120224        7067023.2879981566     
  -5422547000.0190525       -22025697.610573530        9130697.7070914432     
  -5166110331.0522327       -3700276.5891628265        29709414.019135628     
  -3899221090.7769809        9801299.9895441532        654968350.85629642     
  -3778044333.4305668        5199918.7510988712        652813858.82471871     
  -3657083236.1859603       -120329.49337387085        653586368.77973521     
  -3536337799.0431714       -6159444.7439038754        657285880.72134399     
  -3415808022.0021930       -12917427.000468969        663912394.64954746     
  -4214992164.0525723        6711276.8828330040        498096389.03082466     
  -4085138303.8312130        5064021.5391118526        495301335.90008503     
  -3955905509.9770341        1346544.9714639187        495572253.94161695     
  -3827293782.4900379       -4441152.8201265335        498909143.15542328     
  -3699303121.3702221       -12299071.835658312        505312003.54149771     
  -4531397395.1903067        3431006.4174773693        341595912.28280717     
  -4392469377.2777853        4856993.4133503437        337687324.07664263     
  -4254567831.9978151        2861404.9673888683        336983676.22842747     
  -4117692759.3503900       -2555758.9203884602        339484968.73816675     
  -3981844159.3355165       -11394498.250020504        345191201.60585266     
  -4848436784.1901932       -39511.406509876251        185466920.61224276     
  -4700037553.7702875        4578834.3738064766        179971823.35439491     
  -4553070202.2482977        4424250.4944205284        177820635.64017355     
  -4407534729.6242294       -503263.04471135139        179013357.46957392     
  -4263431135.8980789       -10203706.243567944        183549988.84260720     
  -5166110331.0522327       -3700276.5891628265        29709414.019135628     
  -5007842833.3087187        4229544.4204807281        22154833.733335230     
  -4851412620.7284946        6035081.5525093079        18083132.176838320     
  -4696819693.3115501        1716334.8069357872        17494309.349648651     
  -4544064051.0578995       -8726695.8162961006        20388365.251768392     
  -3415808022.0021930       -12917427.000468969        663912394.64954746     
  -3261230142.3213334       -9940561.7790727615        655571832.77032840     
  -3106752811.3171182       -7298858.8131637573        651769797.70219433     
  -2952376028.9895558       -4992318.1027642488        652506289.44513416     
  -2798099795.3386393       -3020939.6478457451        657781307.99915957     
  -3699303121.3702221       -12299071.835658312        505312003.54149771     
  -3533143580.3909521       -9603882.6395246983        497212244.10772127     
  -3366954768.0419745       -6811122.2110269070        493547930.25208682     
  -3200736684.3232951       -3920790.5501999855        494319061.97459567     
  -3034489329.2349129       -932887.65701699257        499525639.27524966     
  -3981844159.3355165       -11394498.250020504        345191201.60585266     
  -3804397474.8662271       -9069340.4216632843        337483701.33826369     
  -3626791698.9808779       -6213877.8731205463        334108565.41587478     
  -3449026831.6794653       -2828110.6043612957        335065793.83869845     
  -3271102872.9620037        1087961.3845598698        340355386.60672534     
  -4263431135.8980789       -10203706.243567944        183549988.84260720     
  -4074991825.7471552       -8336935.1255114079        176386204.46194524     
  -3886263604.1338177       -5507125.7994005680        173451703.19355834     
  -3697246471.0580673       -1714278.2652473450        174746485.03743386     
  -3507940426.5199170        3041607.4769005775        180270549.99358588     
  -4544064051.0578995       -8726695.8162961006        20388365.251768392     
  -4344926633.0337334       -7406666.7510437965        13919753.478785619     
  -4145370483.5008111       -4690865.9899330139        11577343.585126597     
  -3945395602.4591055       -579293.53288531303        13361135.570812944     
  -3745001989.9086580        4928050.6199789047        19271129.435829766     
  -2798099795.3386393       -3020939.6478457451        657781307.99915957     
  -2665105527.5126920       -7707559.7398585081        648468682.13545525     
  -2532190980.5481997       -12659916.036713243        641947114.53275251     
  -2399356154.4451456       -17878008.538367867        638216605.19105685     
  -2266601049.2035384       -23361837.244839430        637277154.11035883     
  -3034489329.2349129       -932887.65701699257        499525639.27524966     
  -2893505024.1249442       -5383155.6310844421        490379925.12937456     
  -2752457192.0596542       -9621667.0874006748        484534792.45221829     
  -2611345833.0390549       -13648422.026013732        481990241.24378175     
  -2470170947.0631261       -17463420.446882725        482746271.50406212     
  -3271102872.9620037        1087961.3845598698        340355386.60672534     
  -3120672749.9745359       -2689220.2934889793        331543706.63156819     
  -2970035852.2149806       -5777152.7312504053        326542131.33285195     
  -2819192179.6833606       -8175835.9287853241        325350660.71056652     
  -2668141732.3796406       -9885269.8860042095        327969294.76471728     
  -3507940426.5199170        3041607.4769005775        180270549.99358588     
  -3346608705.0614729        374246.27291440964        171960026.64203671     
  -3184926961.0141826       -1126372.9682755470        167969131.17465216     
  -3022895194.3780489       -1460250.2466450930        168297863.59140491     
  -2860513405.1530752       -627385.56220841408        172946223.89231610     
  -3745001989.9086580        4928050.6199789047        19271129.435829766     
  -3571312889.3857641        3807244.0680654049        11628885.160788536     
  -3397130518.4572501        4330672.2015495300        8815791.9776155911     
  -3222454877.1231489        6498335.0203309059        10831849.886309013     
  -3047285965.3834152        10310232.524542570        17677058.886866882     
  -2266601049.2035384       -23361837.244839430        637277154.11035883     
  -2122708832.9866662       -25179143.209474444        625159961.55693138     
  -1978522353.4143224       -26015571.322549462        615905059.06416416     
  -1834041610.4865086       -25871121.584054112        609512446.63204741     
  -1689266604.2032325       -24745793.994012177        605982124.26058960     
  -2470170947.0631261       -17463420.446882725        482746271.50406212     
  -2319090386.3764615       -18100153.490221381        472569049.72799224     
  -2167937157.2840204       -18494658.514335275        464786593.73234141     
  -2016711259.7858129       -18646935.519210339        459398903.51712018     
  -1865412693.8818381       -18556984.504865408        456405979.08232749     
  -2668141732.3796406       -9885269.8860042095        327969294.76471728     
  -2511208610.8809752       -9742165.1053953171        319473516.32468301     
  -2354424415.9262371       -10095482.137877703        312904979.38483912     
  -2197789147.5154362       -10945220.983482480        308263683.94519860     
  -2041302805.6485553       -12291381.642142057        305549630.00575233     
  -2860513405.1530752       -627385.56220841408        172946223.89231610     
  -2699063506.5001979       -105178.05495274067        165873361.34700245     
  -2537984129.3409681       -818042.19316720963        160260216.02165878     
  -2377275273.6753573       -2765977.9767805338        156106787.91627151     
  -2216936939.5033851       -5948985.4058707952        153413077.03086293     
  -3047285965.3834152        10310232.524542570        17677058.886866882     
  -2882655073.2341533        10810807.661030054        11768584.794959500     
  -2718616297.5282168        9337661.3197780848        6852303.6427815715     
  -2555169638.2656183        5890793.5007269382        2928215.4303524685     
  -2392315095.4463296        470204.20397949219       -3679.8423410986038     
  -1689266604.2032325       -24745793.994012177        605982124.26058960     
  -1549369129.9878302       -26279192.196032047        592384061.68243825     
  -1410554138.5817854       -31420866.429254651        577593721.62462044     
  -1272821629.9850872       -40170816.693627298        561611104.08713114     
  -1136171604.1977422       -52529042.989177227        544436209.06996500     
  -1865412693.8818381       -18556984.504865408        456405979.08232749     
  -1728311602.8490384       -22620164.941723585        442673125.92803192     
  -1591213216.9186168       -26692362.386509538        428565282.16713536     
  -1454117536.0905788       -30773576.839235723        414082447.79963934     
  -1317024560.3649290       -34863808.299930990        399224622.82554299     
  -2041302805.6485553       -12291381.642142057        305549630.00575233     
  -1904662992.4467149       -18183812.708323836        292941726.93343610     
  -1766946106.6403029       -20486001.759246469        280776120.12759864     
  -1628152148.2292852       -19197948.794821620        269052809.58823162     
  -1488281117.2136819       -14319653.815121412        257771795.31533733     
  -2216936939.5033851       -5948985.4058707952        153413077.03086293     
  -2078423298.7808859       -12970135.495905042        143189864.69866991     
  -1937752807.7468226       -12801784.547404051        134226235.50601420     
  -1794925466.4012051       -5443932.5603851080        126522189.45291743     
  -1649941274.7440202        9103420.4651960135        120077726.53935085     
  -2392315095.4463296        470204.20397949219       -3679.8423410986038     
  -2249592521.8515282       -6979133.3044275045       -6582460.7762883408     
  -2103633320.2381947       -3639710.7510372400       -11084371.697614022     
  -1954437490.6063237        10488471.864138484       -13509412.606327906     
  -1802005032.9559355        35405414.541026950       -13857583.502417348     
  -1136171604.1977422       -52529042.989177227        544436209.06996500     
  -951281661.12964392       -40717298.074729443        562697189.46698141     
  -758914952.15826464       -3983000.1493462920        591862607.34957469     
  -559071477.28361106        57673850.786946356        631932462.71775448     
  -351751236.50568426        144253254.73416057        682906755.57150984     
  -1317024560.3649290       -34863808.299930990        399224622.82554299     
  -1117435049.6174996       -14754533.733019233        421095566.52274531     
  -914249067.49006271        17342978.767250538        441454617.95250934     
  -707466613.98263121        61428729.200837046        460301777.11484015     
  -497087689.09519821        117502717.56778151        477637044.00974029     
  -1488281117.2136819       -14319653.815121412        257771795.31533733     
  -1309467266.6526823        3444582.0445228815        278725692.03556836     
  -1130937239.2349560        20262740.759920478        285751366.73534650     
  -952691034.96049774        36134822.331080914        278848819.41468579     
  -774728653.82930696        51060826.758017331        258018050.07356840     
  -1649941274.7440202        9103420.4651960135        120077726.53935085     
  -1527378312.2351966        13880049.257873893        135587566.00545382     
  -1408979467.3929257        4776285.8287132382        124752853.69810231     
  -1294744740.2172196       -18207869.822335362        87573589.617278129     
  -1184674130.7080443       -55072417.695145428        24049773.762990352     
  -1802005032.9559355        35405414.541026950       -13857583.502417348     
  -1771168186.3650625        16551867.906979442       -8318811.5675929366     
  -1748375751.9640207       -29116386.026528001       -41540921.159240931     
  -1733627729.7527852       -101599347.25937885       -113523912.27737415     
  -1726924119.7313702       -200897015.79163152       -224267784.92197719     
  -351751236.50568426        144253254.73416057        682906755.57150984     
  -277765010.63629711        285286802.77585113        786230369.58382392     
  -148977958.20839342        608989772.67924666        905385172.87646055     
   34609920.778018415        1115362164.4443250        1040371165.4494338     
   272998626.32293725        1804403978.0711322        1191188347.3027220     
  -497087689.09519821        117502717.56778151        477637044.00974029     
  -388248623.49127531        223094819.67674133        596947998.61758971     
  -230271916.17256218        492479060.83502442        735416435.87923002     
  -23157567.139054656        925655441.04263186        893042355.79464960     
   233094423.60924816        1522623960.2995372        1069825758.3638549     
  -774728653.82930696        51060826.758017331        258018050.07356840     
  -621533053.13813949        124062591.54006582        386709296.29262340     
  -424862995.57588744        341979212.55906177        537884318.53891957     
  -184718481.14255002        704810689.81500864        711543116.81245351     
   98900490.161856413        1212557023.3078318        907685691.11322808     
  -1184674130.7080443       -55072417.695145428        24049773.762990352     
  -977618299.57686472       -11809881.634114742        155514262.60891375     
  -732751196.41833997        157490227.85138422        312788820.85554254     
  -450072821.23244345        452827910.76145446        495873448.50284332     
  -129583174.01919609        874203167.09604788        704768145.55087221     
  -1726924119.7313702       -200897015.79163152       -224267784.92197719     
  -1456504362.8074911       -184522599.84595889       -96637102.433529884     
  -1153936518.6999519       -60987893.288074255        60129942.829079345     
  -819220587.40876031        169707103.88197815        246033350.86584133     
  -452356568.93394327        507562391.66411567        461073121.67675143     
 </DataArray>
 <DataArray  type="Float64" Name="VM" NumberOfComponents="1" format="ascii">
   6060751321.8881359     
   5851802763.2075529     
   5638059764.0512104     
   5417967169.6881361     
   5190554566.1203556     
   5657941405.8731222     
   5467832310.9915009     
   5274761348.7294216     
   5078186852.5215406     
   4877880628.8428841     
   5293927696.7041149     
   5117213987.0242109     
   4939983182.9240189     
   4762282505.9625292     
   4584282371.3978186     
   4974099208.2962513     
   4805205679.8079720     
   4638494325.7215261     
   4474139318.3798704     
   4312369834.1751890     
   4705104380.4232559     
   4538105648.8723726     
   4375871363.2549391     
   4218231553.5484180     
   4065172747.1818061     
   5190554566.1203556     
   5022816024.4360876     
   4856767144.9063282     
   4692363471.2282925     
   4529619843.5256519     
   4877880628.8428841     
   4722294518.6663857     
   4568244796.6919403     
   4415741031.7433434     
   4264841888.9934983     
   4584282371.3978186     
   4440658970.7857742     
   4298460539.1557827     
   4157751538.2993865     
   4018641646.6517453     
   4312369834.1751890     
   4180835189.0724330     
   4050676294.5615854     
   3922012055.2549577     
   3795010002.7493196     
   4065172747.1818061     
   3946215350.7405515     
   3828669941.3566456     
   3712706980.7810764     
   3598557007.2965770     
   4529619843.5256519     
   4335510137.0347691     
   4141080522.7898974     
   3946310787.7143292     
   3751208163.0492411     
   4264841888.9934983     
   4079649603.2149768     
   3894715633.0586171     
   3710087110.9597754     
   3525858677.1852880     
   4018641646.6517453     
   3843792396.6802030     
   3669982019.9809079     
   3497351856.0083885     
   3326116578.9373741     
   3795010002.7493196     
   3631966551.4266953     
   3470957668.8595119     
   3312240232.0562062     
   3156172247.0685019     
   3598557007.2965770     
   3448743000.0116334     
   3302165017.4706192     
   3159202595.9562407     
   3020359437.4640465     
   3751208163.0492411     
   3575729374.7981596     
   3400747274.7163420     
   3226231332.2149153     
   3052221660.5559020     
   3525858677.1852880     
   3361953227.7326918     
   3199001071.1043673     
   3037055256.4958525     
   2876243072.0593748     
   3326116578.9373741     
   3173312459.1124315     
   3021904026.9940968     
   2872030923.2611480     
   2723910880.2164326     
   3156172247.0685019     
   3014280344.9078836     
   2874203053.3991523     
   2736164866.5179381     
   2600471284.1801338     
   3020359437.4640465     
   2889494239.5954704     
   2760824022.8441296     
   2634649048.8410296     
   2511350930.7087417     
   3052221660.5559020     
   2887758194.4921446     
   2723012339.6509261     
   2557978256.5135942     
   2392653303.9126334     
   2876243072.0593748     
   2714387547.2415009     
   2552647682.3764367     
   2391051747.7082329     
   2229644606.4277873     
   2723910880.2164326     
   2567079348.7355957     
   2411146169.6198702     
   2256248608.0987587     
   2102579182.6032901     
   2600471284.1801338     
   2451199310.4767575     
   2304031469.1451039     
   2159284083.1168013     
   2017384837.0209947     
   2511350930.7087417     
   2372064450.8357592     
   2236467179.8408766     
   2105082358.7011473     
   1978592632.0790706     
   2392653303.9126334     
   2246352838.6828661     
   2102168994.8486907     
   1960103993.2411346     
   1820319975.1778355     
   2229644606.4277873     
   2086780720.9446976     
   1945538918.0760067     
   1805921898.5279605     
   1668005916.6262963     
   2102579182.6032901     
   1962377411.2086041     
   1823127653.9456563     
   1684862201.7333610     
   1547641526.6875212     
   2017384837.0209947     
   1880698159.5110123     
   1744332385.8799262     
   1608414198.4535170     
   1473117930.6842237     
   1978592632.0790706     
   1847996516.8082223     
   1717418382.5764616     
   1587197315.9940836     
   1457826842.7508557     
   1820319975.1778355     
   1779700822.1270094     
   1735602370.4653978     
   1696645514.8823266     
   1681315428.6277993     
   1668005916.6262963     
   1552569216.7792344     
   1428030920.7867792     
   1294746456.4062972     
   1158839319.7186985     
   1547641526.6875212     
   1397696793.2154951     
   1244190354.2640204     
   1084850885.0000885     
   917648031.29101527     
   1473117930.6842237     
   1328785568.9345593     
   1198914533.6587236     
   1087995173.4423807     
   1001945334.3344409     
   1457826842.7508557     
   1348721450.7905164     
   1274605419.5604703     
   1243622996.4937606     
   1262828433.0357504     
   1681315428.6277993     
   1383782706.0813220     
   1129476955.8382995     
   1010123171.7597774     
   1153006633.1331868     
   1158839319.7186985     
   1008408789.0586299     
   985208156.90378773     
   1161492312.7088096     
   1544144818.1504145     
   917648031.29101527     
   963077948.19892979     
   1144913674.9776173     
   1476495940.7154629     
   1957503302.0581076     
   1001945334.3344409     
   1164666732.8780107     
   1425412419.2328944     
   1808763810.0994289     
   2334810297.8263297     
   1262828433.0357504     
   1446658909.5691493     
   1715684589.5339479     
   2110496009.7944188     
   2663553121.3659081     
   4705104380.4232559     
   4538105648.8723726     
   4375871363.2549391     
   4218231553.5484180     
   4065172747.1818061     
   4440043180.8208876     
   4280288213.0938196     
   4124379224.8061128     
   3972486657.2355928     
   3824868835.8162384     
   4175655248.9500427     
   4027538812.5130134     
   3883444846.8014836     
   3743715383.0228443     
   3608794698.6559386     
   3914537281.4927707     
   3782929321.3491068     
   3656654093.9387894     
   3536053116.1626668     
   3421683460.0529714     
   3660900062.8981938     
   3550844648.0224361     
   3448622843.2848306     
   3354369123.5174317     
   3268659331.6132030     
   4065172747.1818061     
   3946215350.7405515     
   3828669941.3566456     
   3712706980.7810764     
   3598557007.2965770     
   3824868835.8162384     
   3716920137.4842100     
   3611251230.0919476     
   3508088769.3953485     
   3407721165.7220531     
   3608794698.6559386     
   3512389659.3240643     
   3419196210.6103687     
   3329484226.1411324     
   3243583353.4508739     
   3421683460.0529714     
   3337141490.9499788     
   3256770654.5209961     
   3180861564.9382682     
   3109758186.5371814     
   3268659331.6132030     
   3195955833.1817408     
   3128360644.9309764     
   3066154745.5192151     
   3009662393.5887122     
   3598557007.2965770     
   3448743000.0116334     
   3302165017.4706192     
   3159202595.9562407     
   3020359437.4640465     
   3407721165.7220531     
   3272531352.4149628     
   3141351284.6160660     
   3014645152.9861550     
   2893004894.2884312     
   3243583353.4508739     
   3123685911.3563437     
   3008625811.7807393     
   2898933484.6757741     
   2795260706.4840765     
   3109758186.5371814     
   3005732407.7186408     
   2907372624.9962487     
   2815242690.3933487     
   2730010437.6274543     
   3009662393.5887122     
   2921861636.1137185     
   2840487126.2014761     
   2766092911.6622095     
   2699311396.7823815     
   3020359437.4640465     
   2889494239.5954704     
   2760824022.8441296     
   2634649048.8410296     
   2511350930.7087417     
   2893004894.2884312     
   2773579525.7384667     
   2657517359.4173713     
   2545246924.1443558     
   2437295432.1971483     
   2795260706.4840765     
   2688983528.8104229     
   2587369582.8507600     
   2490949927.3177543     
   2400354827.9029136     
   2730010437.6274543     
   2638139811.0981722     
   2552251300.8956628     
   2472922736.5300198     
   2400812824.2135324     
   2699311396.7823815     
   2622431486.2803874     
   2552751497.9176474     
   2490826451.8451734     
   2437262427.5659313     
   2511350930.7087417     
   2372064450.8357592     
   2236467179.8408766     
   2105082358.7011473     
   1978592632.0790706     
   2437295432.1971483     
   2312501329.9967451     
   2192774336.1891084     
   2078832101.3843560     
   1971561653.5575018     
   2400354827.9029136     
   2292019920.0585194     
   2190161177.1147485     
   2095603505.8929782     
   2009308649.2607148     
   2400812824.2135324     
   2310157605.1280770     
   2227211921.5513115     
   2152790464.7007847     
   2087786182.0404584     
   2437262427.5659313     
   2364586230.6336842     
   2300534937.3873138     
   2245815458.4440536     
   2201156521.5423188     
   1978592632.0790706     
   1847996516.8082223     
   1717418382.5764616     
   1587197315.9940836     
   1457826842.7508557     
   1971561653.5575018     
   1855434607.7563381     
   1743662894.4650154     
   1637160321.2675631     
   1537048229.6666887     
   2009308649.2607148     
   1912819206.9866984     
   1825103118.5440896     
   1747359050.9921782     
   1680877530.7246878     
   2087786182.0404584     
   2012557967.2960687     
   1949709272.0792184     
   1900323668.4297774     
   1865434888.1343658     
   2201156521.5423188     
   2145802344.1687844     
   2105438430.1716902     
   2080839713.3019168     
   2072690593.6009424     
   1457826842.7508557     
   1348721450.7905164     
   1274605419.5604703     
   1243622996.4937606     
   1262828433.0357504     
   1537048229.6666887     
   1476167053.5042646     
   1447983873.1146922     
   1456469878.5381253     
   1504919151.8781612     
   1680877530.7246878     
   1652417490.5904808     
   1651671658.2047312     
   1681007637.1036820     
   1743030284.2224061     
   1865434888.1343658     
   1854990185.1667786     
   1867494876.7555456     
   1905155149.1566753     
   1970999284.4946690     
   2072690593.6009424     
   2069263132.6196303     
   2085032234.1635661     
   2122627307.7863772     
   2185859999.6925817     
   1262828433.0357504     
   1446658909.5691493     
   1715684589.5339479     
   2110496009.7944188     
   2663553121.3659081     
   1504919151.8781612     
   1613309634.4246001     
   1788883850.9543178     
   2066404121.2620595     
   2476094825.6355314     
   1743030284.2224061     
   1787790635.9278076     
   1884693716.5753665     
   2060658985.3018689     
   2340930225.6248055     
   1970999284.4946690     
   1969062909.6192834     
   2003679306.4563675     
   2093528671.8590629     
   2257278159.1988778     
   2185859999.6925817     
   2156412591.4718490     
   2146581634.7811320     
   2166891561.4833269     
   2228413459.3976321     
   3660900062.8981938     
   3550844648.0224361     
   3448622843.2848306     
   3354369123.5174317     
   3268659331.6132030     
   3368679191.2199602     
   3289304727.0123477     
   3217678549.4564605     
   3154249666.2720289     
   3099684917.6067805     
   3130848777.1156573     
   3076863094.4021053     
   3030328842.1826944     
   2991691789.2624011     
   2961457695.9132996     
   2952166533.1750674     
   2918126435.8855152     
   2890849397.9261041     
   2870476954.9513502     
   2857168374.5262117     
   2835992014.3109641     
   2816366187.0665836     
   2802304831.8272371     
   2793393676.7212729     
   2789336936.5855064     
   3268659331.6132030     
   3195955833.1817408     
   3128360644.9309764     
   3066154745.5192151     
   3009662393.5887122     
   3099684917.6067805     
   3039504456.4526095     
   2984653604.0204043     
   2935386299.8081131     
   2891986765.9207940     
   2961457695.9132996     
   2913289470.6604657     
   2870577699.9695039     
   2833536917.3417683     
   2802399799.5799794     
   2857168374.5262117     
   2820296980.5580759     
   2788892010.1057010     
   2763120317.0873919     
   2743157126.9989820     
   2789336936.5855064     
   2762798321.5995808     
   2741608790.3157029     
   2725885651.7600551     
   2715748121.2441430     
   3009662393.5887122     
   2921861636.1137185     
   2840487126.2014761     
   2766092911.6622095     
   2699311396.7823815     
   2891986765.9207940     
   2819532822.2647491     
   2754362909.7315660     
   2696995720.6460161     
   2648003180.0434909     
   2802399799.5799794     
   2744939589.2486534     
   2695494799.0818892     
   2654508977.6830535     
   2622454009.5831065     
   2743157126.9989820     
   2699743457.0812941     
   2664917976.3794518     
   2639022266.2081089     
   2622407095.5335183     
   2715748121.2441430     
   2684794800.6151376     
   2662844449.8417296     
   2650128911.5497670     
   2646878494.6067924     
   2699311396.7823815     
   2622431486.2803874     
   2552751497.9176474     
   2490826451.8451734     
   2437262427.5659313     
   2648003180.0434909     
   2586153649.7852983     
   2532133231.0882678     
   2486426563.8721766     
   2449543271.3200092     
   2622454009.5831065     
   2575067514.0399852     
   2535977517.2879157     
   2505571716.2723117     
   2484243210.7046971     
   2622407095.5335183     
   2588415770.1297226     
   2563034821.4957190     
   2546547059.2666707     
   2539230110.0900621     
   2646878494.6067924     
   2624776457.4067388     
   2611484321.6937108     
   2607188595.2317538     
   2612067961.0229850     
   2437262427.5659313     
   2364586230.6336842     
   2300534937.3873138     
   2245815458.4440536     
   2201156521.5423188     
   2449543271.3200092     
   2393190392.1632991     
   2346223698.7026572     
   2309200491.8675246     
   2282661888.0038605     
   2484243210.7046971     
   2442942115.9852509     
   2411510336.0593629     
   2390342718.1614957     
   2379800387.1988616     
   2539230110.0900621     
   2511173859.4562402     
   2493267711.2889085     
   2485761025.4127684     
   2488868679.9151015     
   2612067961.0229850     
   2595098088.7758760     
   2588453586.7294178     
   2592270400.2023106     
   2606658990.0095305     
   2201156521.5423188     
   2145802344.1687844     
   2105438430.1716902     
   2080839713.3019168     
   2072690593.6009424     
   2282661888.0038605     
   2242248216.4677720     
   2215750190.8677249     
   2203619388.5851741     
   2206244279.7930717     
   2379800387.1988616     
   2351353203.9924436     
   2335723166.0046878     
   2333159424.7773848     
   2343881171.6885810     
   2488868679.9151015     
   2469723539.9053636     
   2462389385.9519787     
   2467000498.3831182     
   2483688499.4215975     
   2606658990.0095305     
   2594531913.5244169     
   2593361379.6044903     
   2603224406.5767117     
   2624214078.7883568     
   2072690593.6009424     
   2069263132.6196303     
   2085032234.1635661     
   2122627307.7863772     
   2185859999.6925817     
   2206244279.7930717     
   2191913232.6277475     
   2192559705.7793279     
   2210152278.4226813     
   2247611839.7988763     
   2343881171.6885810     
   2319460117.8934646     
   2306579813.9934158     
   2306645661.7553577     
   2321747810.2170048     
   2483688499.4215975     
   2450938043.0835195     
   2426777034.4311833     
   2412150873.0223455     
   2408438224.0143905     
   2624214078.7883568     
   2585572224.6253672     
   2552870023.2473078     
   2526689059.5462756     
   2507839731.5866737     
   2185859999.6925817     
   2156412591.4718490     
   2146581634.7811320     
   2166891561.4833269     
   2228413459.3976321     
   2247611839.7988763     
   2182816490.4759941     
   2134468215.8450208     
   2112234378.6208854     
   2127050023.2580268     
   2321747810.2170048     
   2224943552.1264658     
   2141466599.9332595     
   2079682222.1248550     
   2049762877.8361013     
   2408438224.0143905     
   2283087128.2351699     
   2168223921.1265340     
   2070587923.4626703     
   1998947835.1182623     
   2507839731.5866737     
   2357455751.5247784     
   2215210716.5345359     
   2086083923.9266863     
   1976951358.8484368     
   2835992014.3109641     
   2816366187.0665836     
   2802304831.8272371     
   2793393676.7212729     
   2789336936.5855064     
   2797687790.4125032     
   2770641024.4028358     
   2750125084.2056594     
   2736168978.3713937     
   2728826598.6929479     
   2789731761.9717093     
   2753523865.8777490     
   2726454949.9779010     
   2708617884.8804321     
   2700107757.7364302     
   2820722360.5702982     
   2772912667.6461620     
   2738198930.8747954     
   2716440098.2845588     
   2707526453.8991952     
   2899115857.9430337     
   2836387103.4925914     
   2791685801.7010598     
   2764460311.7455249     
   2754250478.4355316     
   2789336936.5855064     
   2762798321.5995808     
   2741608790.3157029     
   2725885651.7600551     
   2715748121.2441430     
   2728826598.6929479     
   2704432917.6876621     
   2686582648.1795931     
   2675371039.3611755     
   2670897344.8473887     
   2700107757.7364302     
   2676621736.4696393     
   2661044410.7915487     
   2653421968.6613617     
   2653808537.7886829     
   2707526453.8991952     
   2682979701.3943949     
   2667843554.8573604     
   2662104674.1552687     
   2665762792.7611995     
   2754250478.4355316     
   2726018379.6306286     
   2708791873.9205294     
   2702510858.9894705     
   2707133641.2536221     
   2715748121.2441430     
   2684794800.6151376     
   2662844449.8417296     
   2650128911.5497670     
   2646878494.6067924     
   2670897344.8473887     
   2647758097.3062353     
   2633938483.7653031     
   2629576924.3967953     
   2634808680.6282115     
   2653808537.7886829     
   2636023443.8008418     
   2627859274.2513943     
   2629379316.7958198     
   2640644793.8667779     
   2665762792.7611995     
   2650481370.3566642     
   2645137145.9175715     
   2649745313.0060358     
   2664320591.7687531     
   2707133641.2536221     
   2691275385.8745236     
   2685705736.8235326     
   2690424668.8197455     
   2705432111.8965068     
   2646878494.6067924     
   2624776457.4067388     
   2611484321.6937108     
   2607188595.2317538     
   2612067961.0229850     
   2634808680.6282115     
   2619993404.4190617     
   2613892359.7503233     
   2616604541.4540091     
   2628222437.8615222     
   2640644793.8667779     
   2630678154.7370629     
   2629331536.4553318     
   2636644626.2184563     
   2652653622.0861931     
   2664320591.7687531     
   2656651140.9733853     
   2657538846.3579392     
   2666992297.9507065     
   2685019471.3404136     
   2705432111.8965068     
   2697494073.5416427     
   2698097684.4189644     
   2707247229.3440766     
   2724948252.8250113     
   2612067961.0229850     
   2595098088.7758760     
   2588453586.7294178     
   2592270400.2023106     
   2606658990.0095305     
   2628222437.8615222     
   2616915894.7350411     
   2615863016.8928661     
   2625145451.4930539     
   2644828730.0033040     
   2652653622.0861931     
   2645660243.9038677     
   2648971211.1145344     
   2662626609.2686462     
   2686659022.0760741     
   2685019471.3404136     
   2680908252.7790418     
   2687300830.7459416     
   2704207903.6059728     
   2731639478.2891293     
   2724948252.8250113     
   2722229433.2389274     
   2730383875.1487350     
   2749405097.0146599     
   2779290003.0037441     
   2606658990.0095305     
   2594531913.5244169     
   2593361379.6044903     
   2603224406.5767117     
   2624214078.7883568     
   2644828730.0033040     
   2634057411.3119488     
   2633496249.4308724     
   2643183667.1009889     
   2663169402.0211587     
   2686659022.0760741     
   2676895121.8082047     
   2676770363.4302845     
   2686299439.0385509     
   2705503400.3022919     
   2731639478.2891293     
   2722666324.1594567     
   2722919758.3686185     
   2732402469.8998814     
   2751119524.5747929     
   2779290003.0037441     
   2771011102.3299365     
   2771689675.8700919     
   2781325549.2669044     
   2799918696.2931995     
   2624214078.7883568     
   2585572224.6253672     
   2552870023.2473078     
   2526689059.5462756     
   2507839731.5866737     
   2663169402.0211587     
   2617554911.0327959     
   2577648950.4431963     
   2543781959.3408747     
   2516415983.8958497     
   2705503400.3022919     
   2655040150.4874868     
   2610198277.0702324     
   2571124507.1056046     
   2538023894.1612945     
   2751119524.5747929     
   2697937188.5730519     
   2650432436.6386275     
   2608641340.6042891     
   2572613834.3645735     
   2799918696.2931995     
   2746146563.2436295     
   2698251135.2719870     
   2656232373.9247608     
   2620090267.1400471     
   2507839731.5866737     
   2357455751.5247784     
   2215210716.5345359     
   2086083923.9266863     
   1976951358.8484368     
   2516415983.8958497     
   2348481543.6071224     
   2184086174.8753295     
   2026328769.1050732     
   1879773717.4470448     
   2538023894.1612945     
   2357624527.9137974     
   2176960674.8854775     
   1997502949.8599203     
   1821528752.3681710     
   2572613834.3645735     
   2384989276.0058804     
   2194301433.6396108     
   2000928010.9985754     
   1805472624.1617720     
   2620090267.1400471     
   2430545175.9657416     
   2236250740.5350313     
   2037206956.4872873     
   1833413819.9311075     
   2899115857.9430337     
   2836387103.4925914     
   2791685801.7010598     
   2764460311.7455249     
   2754250478.4355316     
   2721017017.8583074     
   2688827252.7741375     
   2669880548.8948255     
   2664079451.9202533     
   2671351005.9256129     
   2628881549.1020985     
   2616727275.4082503     
   2613763974.7843170     
   2620110188.4734187     
   2635881548.3502951     
   2609657562.1009355     
   2608681803.7935743     
   2613882123.8417578     
   2625199144.4057846     
   2642623026.3974738     
   2645383016.2697592     
   2649552137.9534569     
   2657905125.7689662     
   2669759235.5366640     
   2684634063.7136960     
   2754250478.4355316     
   2726018379.6306286     
   2708791873.9205294     
   2702510858.9894705     
   2707133641.2536221     
   2671351005.9256129     
   2654221491.9200158     
   2645920921.7133589     
   2646458389.6260710     
   2655844081.4114327     
   2635881548.3502951     
   2625312063.2477312     
   2621386067.5744524     
   2624163736.8122201     
   2633705025.2360635     
   2642623026.3974738     
   2635139625.6967592     
   2632142535.6012464     
   2633698717.4193678     
   2639890700.0603204     
   2684634063.7136960     
   2678066596.1179914     
   2673870036.5852299     
   2672060845.8570051     
   2672703078.7204447     
   2707133641.2536221     
   2691275385.8745236     
   2685705736.8235326     
   2690424668.8197455     
   2705432111.8965068     
   2655844081.4114327     
   2641765018.2330856     
   2637416716.0456262     
   2642818377.9523363     
   2657988059.0074797     
   2633705025.2360635     
   2618400570.7328830     
   2612304328.0225945     
   2615483855.9636273     
   2628003466.9681411     
   2639890700.0603204     
   2620655914.4836345     
   2610127288.1812577     
   2608441781.2070332     
   2615731475.4400992     
   2672703078.7204447     
   2647282028.5734444     
   2630061230.9744902     
   2621258201.3718929     
   2621086190.7527575     
   2705432111.8965068     
   2697494073.5416427     
   2698097684.4189644     
   2707247229.3440766     
   2724948252.8250113     
   2657988059.0074797     
   2649829884.6645794     
   2650252184.4678369     
   2659268516.8191867     
   2676891937.2612009     
   2628003466.9681411     
   2617874860.2863708     
   2616438859.5202370     
   2623736468.2422504     
   2639805242.0759287     
   2615731475.4400992     
   2601855006.7940397     
   2596850274.2371073     
   2600805687.1493382     
   2613802431.1138220     
   2621086190.7527575     
   2601721904.6338482     
   2591461153.9054241     
   2590461049.9602470     
   2598867727.2469015     
   2724948252.8250113     
   2722229433.2389274     
   2730383875.1487350     
   2749405097.0146599     
   2779290003.0037441     
   2676891937.2612009     
   2675132621.9544744     
   2683737940.8981128     
   2702713256.8173070     
   2732062330.4824839     
   2639805242.0759287     
   2636570138.3410673     
   2643308597.9420252     
   2660058432.4648709     
   2686849014.9098597     
   2613802431.1138220     
   2606793618.3492455     
   2609454142.9742036     
   2621873566.2570963     
   2644125820.0365357     
   2598867727.2469015     
   2585982825.0734391     
   2582508282.3962207     
   2588603629.1522932     
   2604407212.5369296     
   2779290003.0037441     
   2771011102.3299365     
   2771689675.8700919     
   2781325549.2669044     
   2799918696.2931995     
   2732062330.4824839     
   2722764078.1164770     
   2722699557.0271320     
   2731872671.7072363     
   2750288282.1955924     
   2686849014.9098597     
   2676659609.4899960     
   2676129579.5865717     
   2685274067.2513900     
   2704114199.0866728     
   2644125820.0365357     
   2633049814.7001767     
   2632224660.8446469     
   2641686367.7686110     
   2661485457.3388376     
   2604407212.5369296     
   2592309512.8848400     
   2591239791.7755218     
   2601267380.4788790     
   2622486939.2376842     
   2799918696.2931995     
   2746146563.2436295     
   2698251135.2719870     
   2656232373.9247608     
   2620090267.1400471     
   2750288282.1955924     
   2697351083.6364403     
   2650067732.5444479     
   2608475188.0593224     
   2572625724.7175989     
   2704114199.0866728     
   2654053867.9475245     
   2609566695.4123821     
   2570800012.5062866     
   2537960119.1583490     
   2661485457.3388376     
   2616347959.6684289     
   2576844984.3508730     
   2543306010.9992623     
   2516189684.0018024     
   2622486939.2376842     
   2584316711.3747802     
   2551984267.1105175     
   2526067408.2115188     
   2507365120.3148813     
   2620090267.1400471     
   2430545175.9657416     
   2236250740.5350313     
   2037206956.4872873     
   1833413819.9311075     
   2572625724.7175989     
   2384976335.9480815     
   2194276974.5536160     
   2000907830.9964085     
   1805475721.2982495     
   2537960119.1583490     
   2357542217.0438676     
   2176885972.4991460     
   1997469601.6300471     
   1821582021.6614339     
   2516189684.0018024     
   2348273491.7481561     
   2183934437.9096117     
   2026285983.8414354     
   1879915041.5826511     
   2507365120.3148813     
   2357066196.5168986     
   2214955044.7497807     
   2086033376.4490902     
   1977210805.7668698     
   2645383016.2697592     
   2649552137.9534569     
   2657905125.7689662     
   2669759235.5366640     
   2684634063.7136960     
   2873924905.2421341     
   2845157603.9772677     
   2821842374.8265591     
   2804051889.9769521     
   2791924200.9334507     
   3138602027.1277475     
   3074413364.1242828     
   3018131841.6627164     
   2970112346.8045664     
   2930774755.9227576     
   3442054583.5892615     
   3340226419.1685743     
   3249316423.7873712     
   3169681175.8000264     
   3101823177.7312341     
   3786696844.3231421     
   3644913549.8164916     
   3517176704.8242836     
   3403688147.4013238     
   3304931074.9217935     
   2684634063.7136960     
   2678066596.1179914     
   2673870036.5852299     
   2672060845.8570051     
   2672703078.7204447     
   2791924200.9334507     
   2766713294.5228233     
   2745114268.5032382     
   2727256868.9092364     
   2713295865.1565242     
   2930774755.9227576     
   2886933669.9907155     
   2847941001.7075534     
   2813994282.7750568     
   2785314186.9790587     
   3101823177.7312341     
   3039096118.8458042     
   2982382608.3892622     
   2931912986.5583658     
   2887956946.5210061     
   3304931074.9217935     
   3222755620.8464036     
   3147640080.5730724     
   3079822335.1554494     
   3019611632.4208598     
   2672703078.7204447     
   2647282028.5734444     
   2630061230.9744902     
   2621258201.3718929     
   2621086190.7527575     
   2713295865.1565242     
   2673556996.0829811     
   2641951576.1526799     
   2618802225.3814578     
   2604437798.9699221     
   2785314186.9790587     
   2729866271.8943348     
   2682298414.0914798     
   2643035581.7177410     
   2612528661.2102823     
   2887956946.5210061     
   2815910221.8734975     
   2751301798.9038830     
   2694637574.2317309     
   2646476229.3084569     
   3019611632.4208598     
   2930540585.0172825     
   2848308341.4883471     
   2773466238.9549203     
   2706647368.5601630     
   2621086190.7527575     
   2601721904.6338482     
   2591461153.9054241     
   2590461049.9602470     
   2598867727.2469015     
   2604437798.9699221     
   2573057899.9589639     
   2550507946.5792637     
   2537051771.9737945     
   2532943114.3191528     
   2612528661.2102823     
   2567063559.2611899     
   2529986995.3938446     
   2501683852.8509202     
   2482541053.2227302     
   2646476229.3084569     
   2585425265.5023293     
   2532102592.2927456     
   2487006086.8406386     
   2450660806.5035710     
   2706647368.5601630     
   2629170315.6851025     
   2558533540.1508222     
   2495314032.1196933     
   2440150611.9293723     
   2598867727.2469015     
   2585982825.0734391     
   2582508282.3962207     
   2588603629.1522932     
   2604407212.5369296     
   2532943114.3191528     
   2506584177.4565063     
   2489786293.5538268     
   2482812800.5999618     
   2485897971.4193645     
   2482541053.2227302     
   2441191960.8239226     
   2409491014.3451796     
   2387833901.9348822     
   2376587456.8121471     
   2450660806.5035710     
   2392978997.2347198     
   2344883475.5187073     
   2306921656.6610737     
   2279626785.2991266     
   2440150611.9293723     
   2365119036.8636155     
   2299387941.5932126     
   2243653591.0776362     
   2198631943.7859645     
   2604407212.5369296     
   2592309512.8848400     
   2591239791.7755218     
   2601267380.4788790     
   2622486939.2376842     
   2485897971.4193645     
   2467158907.5666680     
   2460252678.2450166     
   2465306993.3063850     
   2482452124.0970912     
   2376587456.8121471     
   2348775825.5613508     
   2333743915.4024491     
   2331736622.3084698     
   2342970068.5976791     
   2279626785.2991266     
   2239958305.0567675     
   2214094164.8463473     
   2202484366.2817297     
   2205513417.0065169     
   2198631943.7859645     
   2144052604.4100723     
   2104258352.6221626     
   2080023510.5715098     
   2072027052.8578572     
   2622486939.2376842     
   2584316711.3747802     
   2551984267.1105175     
   2526067408.2115188     
   2507365120.3148813     
   2482452124.0970912     
   2449934115.5475121     
   2425948737.5337043     
   2411440137.1017628     
   2407779157.4578876     
   2342970068.5976791     
   2318601445.4191589     
   2305761485.2622862     
   2305856887.6014810     
   2320976120.3519225     
   2205513417.0065169     
   2191105406.4911780     
   2191708582.1753435     
   2209295966.3430891     
   2246795877.3714085     
   2072027052.8578572     
   2068429094.2562082     
   2084111753.7931495     
   2121713429.2722394     
   2185065333.3659434     
   2507365120.3148813     
   2357066196.5168986     
   2214955044.7497807     
   2086033376.4490902     
   1977210805.7668698     
   2407779157.4578876     
   2282632958.4232197     
   2168000496.6238489     
   2070635376.7964373     
   1999324222.6428010     
   2320976120.3519225     
   2224458355.0480685     
   2141268995.9610066     
   2079775791.6944408     
   2050150772.8911250     
   2246795877.3714085     
   2182331424.9186277     
   2134289178.2789850     
   2112325226.2222183     
   2127356701.3900156     
   2185065333.3659434     
   2155956684.1318793     
   2146413464.8362446     
   2166934858.8853245     
   2228559545.5170741     
   3786696844.3231421     
   3644913549.8164916     
   3517176704.8242836     
   3403688147.4013238     
   3304931074.9217935     
   3969590384.2559800     
   3827353202.0220227     
   3693043370.1096101     
   3567175770.6384068     
   3450449589.1289954     
   4184718079.5239792     
   4040643064.1846857     
   3899897400.9533434     
   3762909902.1003504     
   3630218747.4783440     
   4413012030.2950172     
   4269098455.3039842     
   4125122282.1468225     
   3981144524.7336988     
   3837313400.3697858     
   4640120011.3108711     
   4500721479.3851423     
   4358792949.3851748     
   4213864933.8020587     
   4065610561.4960256     
   3304931074.9217935     
   3222755620.8464036     
   3147640080.5730724     
   3079822335.1554494     
   3019611632.4208598     
   3450449589.1289954     
   3358644147.3220491     
   3272289962.7602534     
   3191658440.9808378     
   3117092050.7329378     
   3630218747.4783440     
   3528547734.0582595     
   3430869512.5648718     
   3337447594.0810804     
   3248610524.5893664     
   3837313400.3697858     
   3726245935.9039264     
   3617889970.7559056     
   3512472565.6407585     
   3410275267.5021663     
   4065610561.4960256     
   3946110661.2606015     
   3828229771.0903625     
   3712144296.4166913     
   3598072658.4702134     
   3019611632.4208598     
   2930540585.0172825     
   2848308341.4883471     
   2773466238.9549203     
   2706647368.5601630     
   3117092050.7329378     
   3012333762.9472485     
   2913481804.7324419     
   2821103805.7483172     
   2735875714.4642940     
   3248610524.5893664     
   3128344559.7193584     
   3012989407.2423663     
   2903081451.8589292     
   2799282442.4277582     
   3410275267.5021663     
   3275029620.6694026     
   3143710243.4131799     
   3016785334.0791531     
   2894852870.6848583     
   3598072658.4702134     
   3448568642.2070436     
   3302075432.4242601     
   3158971875.9103980     
   3019759501.6158786     
   2706647368.5601630     
   2629170315.6851025     
   2558533540.1508222     
   2495314032.1196933     
   2440150611.9293723     
   2735875714.4642940     
   2643253282.3198080     
   2556352563.3404894     
   2475755903.9525499     
   2402133165.7937174     
   2799282442.4277582     
   2692328606.8838449     
   2589911442.3312240     
   2492556514.2142220     
   2400890706.7820425     
   2894852870.6848583     
   2774932853.0726619     
   2658408996.7571783     
   2545703198.6875930     
   2437335192.7323456     
   3019759501.6158786     
   2888570635.1621380     
   2759779412.1653686     
   2633684714.3635345     
   2510665378.0088964     
   2440150611.9293723     
   2365119036.8636155     
   2299387941.5932126     
   2243653591.0776362     
   2198631943.7859645     
   2402133165.7937174     
   2309997450.1830659     
   2226031389.8000245     
   2151053999.3475552     
   2085962596.0030942     
   2400890706.7820425     
   2291736996.7783403     
   2189291721.7435946     
   2094389671.4356508     
   2008004212.9791861     
   2437335192.7323456     
   2312317958.8434019     
   2192370554.8141460     
   2078215323.0845065     
   1970744020.7763431     
   2510665378.0088964     
   2371824977.0580001     
   2236464229.2814283     
   2105099878.4454398     
   1978402076.3682663     
   2198631943.7859645     
   2144052604.4100723     
   2104258352.6221626     
   2080023510.5715098     
   2072027052.8578572     
   2085962596.0030942     
   2011218363.1522293     
   1948719190.3823426     
   1899542981.0690539     
   1864716799.2319596     
   2008004212.9791861     
   1911752817.0266025     
   1824218381.3912249     
   1746594804.3344512     
   1680168006.5880470     
   1970744020.7763431     
   1854607571.8312984     
   1742853787.6589971     
   1636399216.0493352     
   1536368552.6425953     
   1978402076.3682663     
   1847505279.3857777     
   1716733216.6991746     
   1586436071.3851068     
   1457118926.0805271     
   2072027052.8578572     
   2068429094.2562082     
   2084111753.7931495     
   2121713429.2722394     
   2185065333.3659434     
   1864716799.2319596     
   1854220651.5371313     
   1866727135.9897139     
   1904448720.3183777     
   1970425532.3110018     
   1680168006.5880470     
   1651748772.2714777     
   1651066163.4324703     
   1680490962.3144455     
   1742632081.4610684     
   1536368552.6425953     
   1475611003.1956406     
   1447540951.3839438     
   1456126819.9146142     
   1504656989.8682244     
   1457118926.0805271     
   1348237909.0193841     
   1274303358.1010816     
   1243441557.5515985     
   1262681315.7020280     
   2185065333.3659434     
   2155956684.1318793     
   2146413464.8362446     
   2166934858.8853245     
   2228559545.5170741     
   1970425532.3110018     
   1968706446.3908565     
   2003524974.5681515     
   2093538957.2887793     
   2257382397.4866304     
   1742632081.4610684     
   1787507652.0024374     
   1884540645.4165287     
   2060631738.6285100     
   2340994871.2281170     
   1504656989.8682244     
   1613078296.8559244     
   1788721543.6370137     
   2066336465.0816696     
   2476125698.9854379     
   1262681315.7020280     
   1446464391.1783755     
   1715504579.4042711     
   2110389654.5509818     
   2663567381.3435702     
   4640120011.3108711     
   4500721479.3851423     
   4358792949.3851748     
   4213864933.8020587     
   4065610561.4960256     
   4944564420.3487234     
   4783563362.0394268     
   4623340413.8539762     
   4463995556.7537060     
   4305669750.6927481     
   5306381330.3506460     
   5115541631.3020039     
   4929495882.1314888     
   4748133893.9284134     
   4571562608.1626120     
   5728786141.7232008     
   5498970437.2069273     
   5277835061.4841099     
   5064582571.0188513     
   4859047398.3299589     
   6214474162.6027460     
   5935484194.9676218     
   5668425947.4930964     
   5411590877.6616859     
   5164517553.0131073     
   4065610561.4960256     
   3946110661.2606015     
   3828229771.0903625     
   3712144296.4166913     
   3598072658.4702134     
   4305669750.6927481     
   4176725759.9867854     
   4048616133.7366114     
   3921470492.5731559     
   3795460119.5224338     
   4571562608.1626120     
   4433648971.4532003     
   4295835618.4066010     
   4158199910.3345933     
   4020859674.8105512     
   4859047398.3299589     
   4712649386.2464581     
   4565684209.3015642     
   4418176302.8683357     
   4270189476.1799817     
   5164517553.0131073     
   5010105900.6626816     
   4854534015.5973787     
   4697775818.9365292     
   4539844341.7044783     
   3598072658.4702134     
   3448568642.2070436     
   3302075432.4242601     
   3158971875.9103980     
   3019759501.6158786     
   3795460119.5224338     
   3631931159.1764503     
   3470485087.0433922     
   3311379664.4178658     
   3154975929.3470659     
   4020859674.8105512     
   3844568216.3166585     
   3669605673.6165638     
   3496118864.2692556     
   3324334428.1746974     
   4270189476.1799817     
   4082277700.1667409     
   3895116104.3946280     
   3708760614.9943838     
   3523324776.2310491     
   4539844341.7044783     
   4341294986.5380411     
   4143075569.7839041     
   3945173863.4892492     
   3747617093.4035015     
   3019759501.6158786     
   2888570635.1621380     
   2759779412.1653686     
   2633684714.3635345     
   2510665378.0088964     
   3154975929.3470659     
   3013012035.8283215     
   2872969167.7973642     
   2735071546.9858851     
   2599623767.5666509     
   3324334428.1746974     
   3171746704.2738214     
   3020575653.5479650     
   2870961736.9171872     
   2723122159.6603527     
   3523324776.2310491     
   3360022793.5203753     
   3197626383.2973022     
   3036191004.8183408     
   2875843159.6556206     
   3747617093.4035015     
   3573274800.7568431     
   3399332217.8659205     
   3225763512.9916344     
   3052607691.4372721     
   2510665378.0088964     
   2371824977.0580001     
   2236464229.2814283     
   2105099878.4454398     
   1978402076.3682663     
   2599623767.5666509     
   2450815469.2002897     
   2303970061.8848567     
   2159400052.4190145     
   2017526133.3970766     
   2723122159.6603527     
   2566707807.9011989     
   2411094311.2629819     
   2256417767.9283476     
   2102869353.9470994     
   2875843159.6556206     
   2714258988.5542278     
   2552711880.0197954     
   2391229364.5970664     
   2229857164.7698388     
   3052607691.4372721     
   2888147585.0653720     
   2723322996.9185328     
   2558125149.7527809     
   2392550232.2099991     
   1978402076.3682663     
   1847505279.3857777     
   1716733216.6991746     
   1586436071.3851068     
   1457118926.0805271     
   2017526133.3970766     
   1880520264.2178969     
   1743904626.7852666     
   1607808833.4110730     
   1472410806.9235759     
   2102869353.9470994     
   1962366504.2111247     
   1822862103.3671198     
   1684386844.0746157     
   1547001280.3299112     
   2229857164.7698388     
   2086759261.0515087     
   1945325983.6237571     
   1805557865.7077649     
   1667532660.1801665     
   2392550232.2099991     
   2246140023.0063500     
   2101903510.2940867     
   1959842465.1096153     
   1820124313.1269207     
   1457118926.0805271     
   1348237909.0193841     
   1274303358.1010816     
   1243441557.5515985     
   1262681315.7020280     
   1472410806.9235759     
   1328290623.9526947     
   1198605221.7553606     
   1087830157.5914741     
   1001860095.5498129     
   1547001280.3299112     
   1397244069.3082328     
   1243907969.5135012     
   1084721737.1430364     
   917654577.25787640     
   1667532660.1801665     
   1552233621.2145782     
   1427818428.4500909     
   1294653747.5155125     
   1158869308.1857054     
   1820124313.1269207     
   1779560186.8052580     
   1735493040.9165201     
   1696559790.5685401     
   1681243808.0697157     
   1262681315.7020280     
   1446464391.1783755     
   1715504579.4042711     
   2110389654.5509818     
   2663567381.3435702     
   1001860095.5498129     
   1164545099.1772001     
   1425298874.0036263     
   1808696808.2575302     
   2334819701.8555231     
   917654577.25787640     
   963034840.27338779     
   1144862996.1244237     
   1476465850.3054931     
   1957506909.1393151     
   1158869308.1857054     
   1008407414.7857143     
   985210221.20159233     
   1161505758.6151786     
   1544150062.1472108     
   1681243808.0697157     
   1383731103.1118703     
   1129495323.1984992     
   1010221586.8248010     
   1153087377.2185721     
 </DataArray>
 <DataArray  type="Float64" Name="strain" NumberOfComponents="3" format="ascii">
  0.10160478927539374       -2.7403191516360281E-002   4.3598559977395812E-003
   9.7786532279700911E-002  -2.8068396019983788E-002   2.5363876579291844E-003
   9.3968275284008307E-002  -2.8171583037597092E-002   1.2242843413917681E-003
   9.0150018288315481E-002  -2.7712752569200291E-002   4.2354604812799845E-004
   8.6331761292622766E-002  -2.6691904614793538E-002   1.3417277813698725E-004
   9.4483743066577697E-002  -2.6539009921270895E-002   9.1341573723847658E-003
   9.1114311086461175E-002  -2.6654593448376229E-002   8.1860477502339601E-003
   8.7744879106344265E-002  -2.6418660544236028E-002   7.6242231359620050E-003
   8.4375447126227521E-002  -2.5831211208850374E-002   7.4486835295693166E-003
   8.1006015146110777E-002  -2.4892245442219574E-002   7.6594289310548125E-003
   8.7843828624490528E-002  -2.5674828326181731E-002   1.4563330250930984E-002
   8.4798141644555680E-002  -2.5240790876768504E-002   1.4280078291674769E-002
   8.1752454664620833E-002  -2.4665738050874825E-002   1.4258031324903137E-002
   7.8706767684685958E-002  -2.3949669848500464E-002   1.4497189350616821E-002
   7.5661080704751055E-002  -2.3092586269645610E-002   1.4997552368814865E-002
   8.1685045949131951E-002  -2.4810646731092401E-002   2.0647374633377472E-002
   7.8838023953984968E-002  -2.3826988305161029E-002   2.0818479282251140E-002
   7.5991001958837776E-002  -2.2912815557513747E-002   2.1125708908215780E-002
   7.3143979963690639E-002  -2.2068128488150606E-002   2.1569063511270834E-002
   7.0296957968543600E-002  -2.1292927097071646E-002   2.2148543091416638E-002
   7.6007395040502190E-002  -2.3946465136003126E-002   2.7386290519725021E-002
   7.3233958014748635E-002  -2.2413185733553331E-002   2.7801250721963877E-002
   7.0460520988995273E-002  -2.1159893064152516E-002   2.8227255885899277E-002
   6.7687083963241843E-002  -2.0186587127800585E-002   2.8664306011531235E-002
   6.4913646937488356E-002  -1.9493267924497681E-002   2.9112401098859930E-002
   8.6331761292622766E-002  -2.6691904614793538E-002   1.3417277813698725E-004
   8.3633908534812562E-002  -2.5449545918697580E-002   6.1693877974167144E-005
   8.0936055777002414E-002  -2.4326183225233750E-002   1.7203825240991177E-004
   7.8238203019192237E-002  -2.3321816534401914E-002   4.6520590144416563E-004
   7.5540350261382061E-002  -2.2436445846201969E-002   9.4119682507665114E-004
   8.1006015146110777E-002  -2.4892245442219574E-002   7.6594289310548125E-003
   7.8487882028326489E-002  -2.3816052095071399E-002   7.4666294650504172E-003
   7.5969748910542201E-002  -2.2816920018134540E-002   7.4504460044993170E-003
   7.3451615792757885E-002  -2.1894849211408531E-002   7.6108785494013870E-003
   7.0933482674973625E-002  -2.1049839674893822E-002   7.9479270997567797E-003
   7.5661080704751055E-002  -2.3092586269645610E-002   1.4997552368814865E-002
   7.3316459957847496E-002  -2.2182558271445413E-002   1.4726367069389373E-002
   7.0971839210943924E-002  -2.1307656811035317E-002   1.4625590506272074E-002
   6.8627218464040352E-002  -2.0467881888415588E-002   1.4695222679463181E-002
   6.6282597717136793E-002  -1.9663233503585620E-002   1.4935263588961994E-002
   7.0296957968543600E-002  -2.1292927097071646E-002   2.2148543091416638E-002
   6.8119642323375584E-002  -2.0549064447819385E-002   2.1840906690991140E-002
   6.5942326678207625E-002  -1.9798393603936211E-002   2.1697471757728615E-002
   6.3765011033039595E-002  -1.9040914565422201E-002   2.1718238291629131E-002
   6.1587695387871635E-002  -1.8276627332277334E-002   2.1903206292692705E-002
   6.4913646937488356E-002  -1.9493267924497681E-002   2.9112401098859930E-002
   6.2897429124910781E-002  -1.8915570624193190E-002   2.8810248329855237E-002
   6.0881211312333233E-002  -1.8289130396837036E-002   2.8666089758868668E-002
   5.8864993499755700E-002  -1.7613947242429023E-002   2.8679925385899890E-002
   5.6848775687178166E-002  -1.6890021160969326E-002   2.8851755210949126E-002
   7.5540350261382061E-002  -2.2436445846201969E-002   9.4119682507665114E-004
   7.2276129251955867E-002  -2.1596094024259715E-002   6.7294526299521706E-004
   6.9011908242529618E-002  -2.0726783932201426E-002   5.5645681845561956E-004
   6.5747687233103369E-002  -1.9828515570026413E-002   5.9173149145871906E-004
   6.2483466223677175E-002  -1.8901288937734684E-002   7.7876928200448781E-004
   7.0933482674973625E-002  -2.1049839674893822E-002   7.9479270997567797E-003
   6.7827187075577888E-002  -2.0233629906678929E-002   7.6660304605983276E-003
   6.4720891476182152E-002  -1.9397958404853838E-002   7.5482215239584260E-003
   6.1614595876786471E-002  -1.8542825169418305E-002   7.5945002898374359E-003
   5.8508300277390735E-002  -1.7668230200371671E-002   7.8048667582349962E-003
   6.6282597717136793E-002  -1.9663233503585620E-002   1.4935263588961994E-002
   6.3346552112747825E-002  -1.8871165789098338E-002   1.4630225336221020E-002
   6.0410506508358913E-002  -1.8069132877506680E-002   1.4501599370975352E-002
   5.7474460903969946E-002  -1.7257134768809638E-002   1.4549385693224413E-002
   5.4538415299581006E-002  -1.6435171463008214E-002   1.4773584302968101E-002
   6.1587695387871635E-002  -1.8276627332277334E-002   2.1903206292692705E-002
   5.8834224363465776E-002  -1.7508701671517704E-002   2.1565529889863620E-002
   5.6080753339059840E-002  -1.6740307350159085E-002   2.1416590359505643E-002
   5.3327282314653904E-002  -1.5971444368201360E-002   2.1456387701618937E-002
   5.0573811290247989E-002  -1.5202112725644756E-002   2.1684921916203179E-002
   5.6848775687178166E-002  -1.6890021160969326E-002   2.8851755210949126E-002
   5.4290203827731559E-002  -1.6146237553936960E-002   2.8471944121525761E-002
   5.1731631968284980E-002  -1.5411481822811671E-002   2.8293194489549978E-002
   4.9173060108838373E-002  -1.4685753967593047E-002   2.8315506315021735E-002
   4.6614488249391794E-002  -1.3969053988281410E-002   2.8538879597940658E-002
   6.2483466223677175E-002  -1.8901288937734684E-002   7.7876928200448781E-004
   5.9571797853557817E-002  -1.7975726212982268E-002   4.3699645358308281E-004
   5.6660129483438348E-002  -1.7082449573423031E-002   3.1278972659731785E-004
   5.3748461113318935E-002  -1.6221459019057985E-002   4.0614910104727620E-004
   5.0836792743199521E-002  -1.5392754549886423E-002   7.1707457693315213E-004
   5.8508300277390735E-002  -1.7668230200371671E-002   7.8048667582349962E-003
   5.5801776212206167E-002  -1.6793852570472723E-002   7.4298618532399607E-003
   5.3095252147021599E-002  -1.5939371352479581E-002   7.2475794566787544E-003
   5.0388728081837059E-002  -1.5104786546392301E-002   7.2580195685511273E-003
   4.7682204016652574E-002  -1.4290098152211161E-002   7.4611821888579399E-003
   5.4538415299581006E-002  -1.6435171463008214E-002   1.4773584302968101E-002
   5.2012191946329639E-002  -1.5611978927963288E-002   1.4377736994686918E-002
   4.9485968593078217E-002  -1.4796293131535881E-002   1.4149768601837948E-002
   4.6959745239826808E-002  -1.3988114073726944E-002   1.4089679124421356E-002
   4.4433521886575428E-002  -1.3187441754535678E-002   1.4197468562436533E-002
   5.0573811290247989E-002  -1.5202112725644756E-002   2.1684921916203179E-002
   4.8203045055928061E-002  -1.4430105285453687E-002   2.1280621877923872E-002
   4.5832278821608105E-002  -1.3653214910592529E-002   2.1019357162075085E-002
   4.3461512587288149E-002  -1.2871441601061424E-002   2.0901127768657126E-002
   4.1090746352968228E-002  -1.2084785356860195E-002   2.0925933697669416E-002
   4.6614488249391794E-002  -1.3969053988281410E-002   2.8538879597940658E-002
   4.4374335541001564E-002  -1.3248231642944308E-002   2.8138516502951016E-002
   4.2134182832611305E-002  -1.2510136689648788E-002   2.7856345137390437E-002
   3.9894030124221061E-002  -1.1754769128396139E-002   2.7692365501258698E-002
   3.7653877415830816E-002  -1.0982128959184934E-002   2.7646577594555910E-002
   5.0836792743199521E-002  -1.5392754549886423E-002   7.1707457693315213E-004
   4.8097383073434807E-002  -1.4568564332036460E-002   4.9094073373856517E-004
   4.5357973403670038E-002  -1.3721116531637267E-002   3.0071581583845930E-004
   4.2618563733905296E-002  -1.2850411148688054E-002   1.4639982323300105E-004
   3.9879154064140554E-002  -1.1956448183188195E-002   2.7992755922356949E-005
   4.7682204016652574E-002  -1.4290098152211161E-002   7.4611821888579399E-003
   4.4990805025324432E-002  -1.3479409118143493E-002   7.1706343323888477E-003
   4.2299406033996317E-002  -1.2656822392398293E-002   6.9401989074986958E-003
   3.9608007042668189E-002  -1.1822337974975644E-002   6.7698759141865406E-003
   3.6916608051340116E-002  -1.0975955865874409E-002   6.6596653524537697E-003
   4.4433521886575428E-002  -1.3187441754535678E-002   1.4197468562436533E-002
   4.1814337079967789E-002  -1.2390253904250470E-002   1.3831146801821265E-002
   3.9195152273360220E-002  -1.1592528253159790E-002   1.3549140979068480E-002
   3.6575967466752630E-002  -1.0794264801263019E-002   1.3351451094177721E-002
   3.3956782660145013E-002  -9.9954635485609566E-003   1.3238077147149696E-002
   4.1090746352968228E-002  -1.2084785356860195E-002   2.0925933697669416E-002
   3.8567979237364942E-002  -1.1301098690357253E-002   2.0472478142035275E-002
   3.6045212121761747E-002  -1.0528234113920829E-002   2.0127542030547549E-002
   3.3522445006158447E-002  -9.7661916275509457E-003   1.9891125363205971E-002
   3.0999677890555272E-002  -9.0149712312472263E-003   1.9763228140010872E-002
   3.7653877415830816E-002  -1.0982128959184934E-002   2.7646577594555910E-002
   3.5251731497515815E-002  -1.0211943476464203E-002   2.7094628353031003E-002
   3.2849585579200813E-002  -9.4639399746818953E-003   2.6675402061936304E-002
   3.0447439660885839E-002  -8.7381184538383241E-003   2.6388898721272064E-002
   2.8045293742570865E-002  -8.0344789139337180E-003   2.6235118331037310E-002
   3.9879154064140554E-002  -1.1956448183188195E-002   2.7992755922356949E-005
   3.7462446162658258E-002  -1.1130356092460270E-002  -2.7402156662303945E-004
   3.5045738261175963E-002  -1.0463263333825690E-002  -4.8151561295750600E-004
   3.2629030359693667E-002  -9.9551699072829986E-003  -5.9448938308154231E-004
   3.0212322458211371E-002  -9.6060758128340140E-003  -6.1294287699498184E-004
   3.6916608051340116E-002  -1.0975955865874409E-002   6.6596653524537697E-003
   3.4575490578572510E-002  -1.0176150084492686E-002   6.2094169644123509E-003
   3.2234373105804903E-002  -9.4813946502270152E-003   5.8158291575910459E-003
   2.9893255633037352E-002  -8.8916895630771209E-003   5.4789019319875232E-003
   2.7552138160269801E-002  -8.4070348230433911E-003   5.1986352876026709E-003
   3.3956782660145013E-002  -9.9954635485609566E-003   1.3238077147149696E-002
   3.1653395921100058E-002  -9.2219440765254346E-003   1.2693543678590768E-002
   2.9350009182055076E-002  -8.4995259666288125E-003   1.2167811096258335E-002
   2.7046622443010121E-002  -7.8282092188712502E-003   1.1660879400152660E-002
   2.4743235703965138E-002  -7.2079938332525462E-003   1.1172748590273507E-002
   3.0999677890555272E-002  -9.0149712312472263E-003   1.9763228140010872E-002
   2.8696162190240834E-002  -8.2677380685582391E-003   1.9178358575910853E-002
   2.6392646489926341E-002  -7.5176572830305960E-003   1.8574430203045479E-002
   2.4089130789611932E-002  -6.7647288746653760E-003   1.7951443021414149E-002
   2.1785615089297466E-002  -6.0089528434615902E-003   1.7309397031017915E-002
   2.8045293742570865E-002  -8.0344789139337180E-003   2.6235118331037310E-002
   2.5703789385994824E-002  -7.3135320605907106E-003   2.5663861656373688E-002
   2.3362285029418811E-002  -6.5357885994322407E-003   2.5035686477951957E-002
   2.1020780672842812E-002  -5.7012485304590230E-003   2.4350592795772424E-002
   1.8679276316266757E-002  -4.8099118536707453E-003   2.3608580609835506E-002
   3.0212322458211371E-002  -9.6060758128340140E-003  -6.1294287699498184E-004
   2.9604204555216396E-002  -9.1338234964675191E-003  -3.6447095549241304E-004
   2.8996086652221420E-002  -8.2562554041725189E-003  -1.7983468078696108E-003
   2.8387968749226444E-002  -6.9733715359491799E-003  -4.9145704341267971E-003
   2.7779850846231469E-002  -5.2851718917974466E-003  -9.7131418342639719E-003
   2.7552138160269801E-002  -8.4070348230433911E-003   5.1986352876026709E-003
   2.5531295970102397E-002  -7.8702736758932135E-003   5.8753020060884342E-003
   2.3510453779935048E-002  -7.1242493673944751E-003   5.4088679241092175E-003
   2.1489611589767615E-002  -6.1689618975458022E-003   3.7993330416652427E-003
   1.9468769399600294E-002  -5.0044112663494289E-003   1.0466973587561768E-003
   2.4743235703965138E-002  -7.2079938332525462E-003   1.1172748590273507E-002
   2.1848916200040397E-002  -6.6067238553183527E-003   1.2081557491162798E-002
   1.8954596696115683E-002  -5.9922433306153211E-003   1.2386512565002505E-002
   1.6060277192190969E-002  -5.3645522591430905E-003   1.2087613811792228E-002
   1.3165957688266228E-002  -4.7236506409014112E-003   1.1184861231531951E-002
   2.1785615089297466E-002  -6.0089528434615902E-003   1.7309397031017915E-002
   1.8557065245030431E-002  -5.3431740347439916E-003   1.8254295499730969E-002
   1.5328515400763423E-002  -4.8602372938371663E-003   1.9134587114809254E-002
   1.2099965556496374E-002  -4.5601426207402679E-003   1.9950271876252958E-002
   8.8714157122293802E-003  -4.4428900154542816E-003   2.0701349784061573E-002
   1.8679276316266757E-002  -4.8099118536707453E-003   2.3608580609835506E-002
   1.5655743105072450E-002  -4.0796242141697414E-003   2.4393516031793072E-002
   1.2632209893878171E-002  -3.7282312570586507E-003   2.5653091573530962E-002
   9.6086766826838782E-003  -3.7557329823378546E-003   2.7387307235048591E-002
   6.5851434714895851E-003  -4.1621293900064860E-003   2.9596163016347043E-002
   2.7779850846231469E-002  -5.2851718917974466E-003  -9.7131418342639719E-003
   2.3353461248045715E-002  -4.2068228596900958E-003  -4.1868520841816803E-003
   1.8927071649859850E-002  -4.7534908276016807E-003   2.6039259107801804E-003
   1.4500682051673985E-002  -6.9251757955316462E-003   1.0659192150621277E-002
   1.0074292453488232E-002  -1.0721877763479881E-002   1.9978946635341721E-002
   1.9468769399600294E-002  -5.0044112663494289E-003   1.0466973587561768E-003
   1.6234373531315571E-002  -4.6908930520699332E-003   6.7405898315570090E-003
   1.2999977663030793E-002  -6.2887028329742245E-003   1.3553981519281222E-002
   9.7655817947462087E-003  -9.7978406090608872E-003   2.1486872421927483E-002
   6.5311859264614025E-003  -1.5218306380331725E-002   3.0539262539497791E-002
   1.3165957688266228E-002  -4.7236506409014112E-003   1.1184861231531951E-002
   1.0978566519926458E-002  -5.1749632444499927E-003   1.6760045431885529E-002
   8.7911753515867164E-003  -7.8239148383461021E-003   2.3309739817206632E-002
   6.6037841832468080E-003  -1.2670505422589906E-002   3.0833944387494372E-002
   4.4163930149072050E-003  -1.9714734997183125E-002   3.9332659142748749E-002
   8.8714157122293802E-003  -4.4428900154542816E-003   2.0701349784061573E-002
   7.5860402138783478E-003  -5.6590334368297190E-003   2.5871514716804406E-002
   6.3006647155273710E-003  -9.3591268437180908E-003   3.1871200804557298E-002
   5.0152892171762969E-003  -1.5543170236120146E-002   3.8700408047321361E-002
   3.7299137188253478E-003  -2.4211163614034303E-002   4.6359136445096039E-002
   6.5851434714895851E-003  -4.1621293900064860E-003   2.9596163016347043E-002
   6.0567946131711015E-003  -6.1431036292092234E-003   3.4074997686313169E-002
   5.5284457548526733E-003  -1.0894338849090190E-002   3.9238364481333665E-002
   5.0000968965342452E-003  -1.8415835049649193E-002   4.5086263401409199E-002
   4.4717480382158170E-003  -2.8707592230885925E-002   5.1618694446537550E-002
   7.6007395040502190E-002  -2.3946465136003126E-002   2.7386290519725021E-002
   7.3233958014748635E-002  -2.2413185733553331E-002   2.7801250721963877E-002
   7.0460520988995273E-002  -2.1159893064152516E-002   2.8227255885899277E-002
   6.7687083963241843E-002  -2.0186587127800585E-002   2.8664306011531235E-002
   6.4913646937488356E-002  -1.9493267924497681E-002   2.9112401098859930E-002
   7.0358692696790598E-002  -2.1338161619504081E-002   3.4183815843320919E-002
   6.7648442129666253E-002  -2.0272258065544640E-002   3.4015311735298315E-002
   6.4938191562541950E-002  -1.9351110119139883E-002   3.3962135582837338E-002
   6.2227940995417626E-002  -1.8574717780289827E-002   3.4024287385938115E-002
   5.9517690428293302E-002  -1.7943081048994336E-002   3.4201767144600492E-002
   6.4286755716186764E-002  -1.8729858103005009E-002   4.0446349755679470E-002
   6.1743974601556700E-002  -1.8131330397535922E-002   3.9829612462889616E-002
   5.9201193486926672E-002  -1.7542327174127216E-002   3.9432486119526704E-002
   5.6658412372296629E-002  -1.6962848432778871E-002   3.9254970725590463E-002
   5.4115631257666594E-002  -1.6392894173490991E-002   3.9297066281081025E-002
   5.7791584098690715E-002  -1.6121554586505951E-002   4.6173892256800589E-002
   5.5520555430419984E-002  -1.5990402729527203E-002   4.5244152904737794E-002
   5.3249526762149370E-002  -1.5733544229114538E-002   4.4638307495966895E-002
   5.0978498093878687E-002  -1.5350979085268071E-002   4.4356356030488035E-002
   4.8707469425607983E-002  -1.4842707297987590E-002   4.4398298508301001E-002
   5.0873177844302453E-002  -1.3513251070006893E-002   5.1366443346684054E-002
   4.8978184616256248E-002  -1.3849475061518457E-002   5.0258933060842670E-002
   4.7083191388210072E-002  -1.3924761284101861E-002   4.9579599712158251E-002
   4.5188198160163881E-002  -1.3739109737757105E-002   4.9328443300631020E-002
   4.3293204932117718E-002  -1.3292520422484300E-002   4.9505463826260754E-002
   6.4913646937488356E-002  -1.9493267924497681E-002   2.9112401098859930E-002
   6.2897429124910781E-002  -1.8915570624193190E-002   2.8810248329855237E-002
   6.0881211312333233E-002  -1.8289130396837036E-002   2.8666089758868668E-002
   5.8864993499755700E-002  -1.7613947242429023E-002   2.8679925385899890E-002
   5.6848775687178166E-002  -1.6890021160969326E-002   2.8851755210949126E-002
   5.9517690428293302E-002  -1.7943081048994336E-002   3.4201767144600492E-002
   5.7661079559536574E-002  -1.7368169706901387E-002   3.3935148338068072E-002
   5.5804468690779790E-002  -1.6761953535658458E-002   3.3829749221159305E-002
   5.3947857822023063E-002  -1.6124432535265756E-002   3.3885569793874290E-002
   5.2091246953266279E-002  -1.5455606705723157E-002   3.4102610056212707E-002
   5.4115631257666594E-002  -1.6392894173490991E-002   3.9297066281081025E-002
   5.2421852824336437E-002  -1.5820768789609280E-002   3.9048543339118585E-002
   5.0728074391006288E-002  -1.5234776674479776E-002   3.8964465578385545E-002
   4.9034295957676166E-002  -1.4634917828102270E-002   3.9044832998882076E-002
   4.7340517524345996E-002  -1.4021192250476960E-002   3.9289645600608311E-002
   4.8707469425607983E-002  -1.4842707297987590E-002   4.4398298508301001E-002
   4.7179748919310316E-002  -1.4273367872317186E-002   4.4150433333006667E-002
   4.5652028413012642E-002  -1.3707599813301035E-002   4.4070238830547510E-002
   4.4124307906714975E-002  -1.3145403120938867E-002   4.4157715000923754E-002
   4.2596587400417295E-002  -1.2586777795230666E-002   4.4412861844135329E-002
   4.3293204932117718E-002  -1.3292520422484300E-002   4.9505463826260754E-002
   4.1934767844458307E-002  -1.2725966955025370E-002   4.9240818319732316E-002
   4.0576330756798923E-002  -1.2180422952122405E-002   4.9147068977645259E-002
   3.9217893669139539E-002  -1.1655888413775517E-002   4.9224215799999277E-002
   3.7859456581480155E-002  -1.1152363339984650E-002   4.9472258786794510E-002
   5.6848775687178166E-002  -1.6890021160969326E-002   2.8851755210949126E-002
   5.4290203827731559E-002  -1.6146237553936960E-002   2.8471944121525761E-002
   5.1731631968284980E-002  -1.5411481822811671E-002   2.8293194489549978E-002
   4.9173060108838373E-002  -1.4685753967593047E-002   2.8315506315021735E-002
   4.6614488249391794E-002  -1.3969053988281410E-002   2.8538879597940658E-002
   5.2091246953266279E-002  -1.5455606705723157E-002   3.4102610056212707E-002
   4.9732859712705427E-002  -1.4771786022212685E-002   3.3723549934658870E-002
   4.7374472472144560E-002  -1.4089280459916198E-002   3.3543797593428792E-002
   4.5016085231583729E-002  -1.3408090018833752E-002   3.3563353032523058E-002
   4.2657697991022842E-002  -1.2728214698965623E-002   3.3782216251941055E-002
   4.7340517524345996E-002  -1.4021192250476960E-002   3.9289645600608311E-002
   4.5180561225547429E-002  -1.3397334490488300E-002   3.8919049201616443E-002
   4.3020604926748848E-002  -1.2767079097020774E-002   3.8746006905825366E-002
   4.0860648627950247E-002  -1.2130426070074621E-002   3.8770518713234808E-002
   3.8700692329151701E-002  -1.1487375409649669E-002   3.8992584623844778E-002
   4.2596587400417295E-002  -1.2586777795230666E-002   4.4412861844135329E-002
   4.0633308366257559E-002  -1.2022882958763997E-002   4.4058441922398835E-002
   3.8670029332097830E-002  -1.1444877734125464E-002   4.3899822426739246E-002
   3.6706750297938136E-002  -1.0852762121315297E-002   4.3937003357156897E-002
   3.4743471263778428E-002  -1.0246536120333744E-002   4.4169984713651578E-002
   3.7859456581480155E-002  -1.1152363339984650E-002   4.9472258786794510E-002
   3.6091101134835851E-002  -1.0648431427039584E-002   4.9141728097005732E-002
   3.4322745688191519E-002  -1.0122676371229933E-002   4.9005244156170497E-002
   3.2554390241547174E-002  -9.5750981725560153E-003   4.9062806964289218E-002
   3.0786034794902883E-002  -9.0056968310178731E-003   4.9314416521361426E-002
   4.6614488249391794E-002  -1.3969053988281410E-002   2.8538879597940658E-002
   4.4374335541001564E-002  -1.3248231642944308E-002   2.8138516502951016E-002
   4.2134182832611305E-002  -1.2510136689648788E-002   2.7856345137390437E-002
   3.9894030124221061E-002  -1.1754769128396139E-002   2.7692365501258698E-002
   3.7653877415830816E-002  -1.0982128959184934E-002   2.7646577594555910E-002
   4.2657697991022842E-002  -1.2728214698965623E-002   3.3782216251941055E-002
   4.0543734278633226E-002  -1.2042321909736947E-002   3.3404946353967485E-002
   3.8429770566243623E-002  -1.1343079060573566E-002   3.3161862718566470E-002
   3.6315806853853903E-002  -1.0630486151476003E-002   3.3052965345737748E-002
   3.4201843141464322E-002  -9.9045431824432706E-003   3.3078254235481164E-002
   3.8700692329151701E-002  -1.1487375409649669E-002   3.8992584623844778E-002
   3.6728912145906206E-002  -1.0836412176529642E-002   3.8634485374863817E-002
   3.4757131962660760E-002  -1.0176021431498233E-002   3.8426566921598765E-002
   3.2785351779415328E-002  -9.5062031745556455E-003   3.8368829264049387E-002
   3.0813571596169834E-002  -8.8269574057018296E-003   3.8461272402216223E-002
   3.4743471263778428E-002  -1.0246536120333744E-002   4.4169984713651578E-002
   3.2929869142820617E-002  -9.6305024433223085E-003   4.3827133565639873E-002
   3.1116267021862841E-002  -9.0089638024229840E-003   4.3650457746487563E-002
   2.9302664900905037E-002  -8.3819201976355097E-003   4.3639957256194864E-002
   2.7489062779947254E-002  -7.7493716289602221E-003   4.3795632094761276E-002
   3.0786034794902883E-002  -9.0056968310178731E-003   4.9314416521361426E-002
   2.9146605269376319E-002  -8.4245927101150864E-003   4.8982890926295430E-002
   2.7507175743849796E-002  -7.8419061733475820E-003   4.8833535193232552E-002
   2.5867746218323211E-002  -7.2576372207153496E-003   4.8866349322172806E-002
   2.4228316692796681E-002  -6.6717858522188367E-003   4.9081333313115816E-002
   3.7653877415830816E-002  -1.0982128959184934E-002   2.7646577594555910E-002
   3.5251731497515815E-002  -1.0211943476464203E-002   2.7094628353031003E-002
   3.2849585579200813E-002  -9.4639399746818953E-003   2.6675402061936304E-002
   3.0447439660885839E-002  -8.7381184538383241E-003   2.6388898721272064E-002
   2.8045293742570865E-002  -8.0344789139337180E-003   2.6235118331037310E-002
   3.4201843141464322E-002  -9.9045431824432706E-003   3.3078254235481164E-002
   3.1937281470054757E-002  -9.1792177441227807E-003   3.2576545468355200E-002
   2.9672719798645109E-002  -8.4684774271606422E-003   3.2217282244609319E-002
   2.7408158127235502E-002  -7.7723222315574172E-003   3.2000464564244130E-002
   2.5143596455825867E-002  -7.0907521573126964E-003   3.1926092427259523E-002
   3.0813571596169834E-002  -8.8269574057018296E-003   3.8461272402216223E-002
   2.8696316764616023E-002  -8.1464920117816086E-003   3.8017400969068832E-002
   2.6579061933062226E-002  -7.4730148796395973E-003   3.7725697672252104E-002
   2.4461807101508436E-002  -6.8065260092763959E-003   3.7586162511766268E-002
   2.2344552269954632E-002  -6.1470254006915637E-003   3.7598795487611858E-002
   2.7489062779947254E-002  -7.7493716289602221E-003   4.3795632094761276E-002
   2.5528837381199636E-002  -7.1137662794402007E-003   4.3417194855172349E-002
   2.3568611982452102E-002  -6.4775523321185038E-003   4.3200648344864770E-002
   2.1608386583704526E-002  -5.8407297869954317E-003   4.3145992563838567E-002
   1.9648161184956891E-002  -5.2032986440704865E-003   4.3253227512093866E-002
   2.4228316692796681E-002  -6.6717858522188367E-003   4.9081333313115816E-002
   2.2434843319805775E-002  -6.0810405470990148E-003   4.8775927126665508E-002
   2.0641369946814786E-002  -5.4820897845973271E-003   4.8642134262447234E-002
   1.8847896573823825E-002  -4.8749335647141970E-003   4.8679954720460827E-002
   1.7054423200832863E-002  -4.2595718874494093E-003   4.8889388500706121E-002
   2.8045293742570865E-002  -8.0344789139337180E-003   2.6235118331037310E-002
   2.5703789385994824E-002  -7.3135320605907106E-003   2.5663861656373688E-002
   2.3362285029418811E-002  -6.5357885994322407E-003   2.5035686477951957E-002
   2.1020780672842812E-002  -5.7012485304590230E-003   2.4350592795772424E-002
   1.8679276316266757E-002  -4.8099118536707453E-003   2.3608580609835506E-002
   2.5143596455825867E-002  -7.0907521573126964E-003   3.1926092427259523E-002
   2.2784532917932837E-002  -6.4096928707771395E-003   3.1532028252787059E-002
   2.0425469380039724E-002  -5.7150700383018505E-003   3.1159764219438141E-002
   1.8066405842146645E-002  -5.0068836598866906E-003   3.0809300327212880E-002
   1.5707342304253580E-002  -4.2851337355317431E-003   3.0480636576110887E-002
   2.2344552269954632E-002  -6.1470254006915637E-003   3.7598795487611858E-002
   2.0046648195625516E-002  -5.5058536809637348E-003   3.7338690751455961E-002
   1.7748744121296532E-002  -4.8943514771712521E-003   3.7179104801304305E-002
   1.5450840046967482E-002  -4.3125187893142507E-003   3.7120037637157481E-002
   1.3152935972638433E-002  -3.7603556173925745E-003   3.7161489259015329E-002
   1.9648161184956891E-002  -5.2032986440704865E-003   4.3253227512093866E-002
   1.7490135219073014E-002  -4.6020144911502470E-003   4.3083849152379006E-002
   1.5332109253189110E-002  -4.0736329160405357E-003   4.3093708223549854E-002
   1.3174083287305193E-002  -3.6181539187418645E-003   4.3282804725606493E-002
   1.1016057321421271E-002  -3.2355774992537112E-003   4.3651138658548465E-002
   1.7054423200832863E-002  -4.2595718874494093E-003   4.8889388500706121E-002
   1.5114993988275205E-002  -3.6981753013366481E-003   4.8767503455557248E-002
   1.3175564775717533E-002  -3.2529143549103745E-003   4.8903574486174939E-002
   1.1236135563159839E-002  -2.9237890481693951E-003   4.9297601592559387E-002
   9.2967063506021463E-003  -2.7107993811144038E-003   4.9949584774710787E-002
   1.8679276316266757E-002  -4.8099118536707453E-003   2.3608580609835506E-002
   1.5655743105072450E-002  -4.0796242141697414E-003   2.4393516031793072E-002
   1.2632209893878171E-002  -3.7282312570586507E-003   2.5653091573530962E-002
   9.6086766826838782E-003  -3.7557329823378546E-003   2.7387307235048591E-002
   6.5851434714895851E-003  -4.1621293900064860E-003   2.9596163016347043E-002
   1.5707342304253580E-002  -4.2851337355317431E-003   3.0480636576110887E-002
   1.3139813007804646E-002  -3.7745229178897666E-003   3.1257095252553657E-002
   1.0572283711355726E-002  -3.6997538596140744E-003   3.2470921638706574E-002
   8.0047544149067854E-003  -4.0608265607046390E-003   3.4122115734570080E-002
   5.4372251184578169E-003  -4.8577410211613214E-003   3.6210677540144065E-002
   1.3152935972638433E-002  -3.7603556173925745E-003   3.7161489259015329E-002
   1.1004138180865083E-002  -3.4694216216098472E-003   3.7872524112966877E-002
   8.8553403890917412E-003  -3.6712764621697341E-003   3.8983654266558657E-002
   6.7065425973184371E-003  -4.3659201390719819E-003   4.0494879719791300E-002
   4.5577448055450498E-003  -5.5533526523164900E-003   4.2406200472664912E-002
   1.1016057321421271E-002  -3.2355774992537112E-003   4.3651138658548465E-002
   9.2487186242537177E-003  -3.1643203253301222E-003   4.4239802613032286E-002
   7.4813799270861941E-003  -3.6427990647249428E-003   4.5191289457087322E-002
   5.7140412299186557E-003  -4.6710137174388235E-003   4.6505599190712892E-002
   3.9467025327511174E-003  -6.2489642834713810E-003   4.8182731813909779E-002
   9.2967063506021463E-003  -2.7107993811144038E-003   4.9949584774710787E-002
   7.8735543379706563E-003  -2.8592190290498976E-003   5.0358930752750997E-002
   6.4504023253391385E-003  -3.6143216672806511E-003   5.1093827210292431E-002
   5.0272503127076484E-003  -4.9761072958061786E-003   5.2154274147335145E-002
   3.6040983000761306E-003  -6.9445759146264940E-003   5.3540271563879083E-002
   6.5851434714895851E-003  -4.1621293900064860E-003   2.9596163016347043E-002
   6.0567946131711015E-003  -6.1431036292092234E-003   3.4074997686313169E-002
   5.5284457548526733E-003  -1.0894338849090190E-002   3.9238364481333665E-002
   5.0000968965342452E-003  -1.8415835049649193E-002   4.5086263401409199E-002
   4.4717480382158170E-003  -2.8707592230885925E-002   5.1618694446537550E-002
   5.4372251184578169E-003  -4.8577410211613214E-003   3.6210677540144065E-002
   5.4897519305764086E-003  -6.9909893783151600E-003   3.8350750288258573E-002
   5.5422787426949865E-003  -1.1361063769496832E-002   4.0968042252192860E-002
   5.5948055548134465E-003  -1.7967964194705831E-002   4.4062553431946011E-002
   5.6473323669321562E-003  -2.6811690653943065E-002   4.7634283827518775E-002
   4.5577448055450498E-003  -5.5533526523164900E-003   4.2406200472664912E-002
   4.9838343788655842E-003  -7.8388751274210966E-003   4.2740946245578088E-002
   5.4099239521861187E-003  -1.1827788689903251E-002   4.3345598325075813E-002
   5.8360135255066947E-003  -1.7520093339762857E-002   4.4220156711158379E-002
   6.2621030988271875E-003  -2.4915789076999983E-002   4.5364621403824912E-002
   3.9467025327511174E-003  -6.2489642834713810E-003   4.8182731813909779E-002
   4.5390419580386317E-003  -8.6867608765272553E-003   4.7245585558272164E-002
   5.1313813833261460E-003  -1.2294513610309782E-002   4.6371032699983925E-002
   5.7237208086137123E-003  -1.7072222484819467E-002   4.5559073239045053E-002
   6.3160602339012856E-003  -2.3019887500057012E-002   4.4809707175455515E-002
   3.6040983000761306E-003  -6.9445759146264940E-003   5.3540271563879083E-002
   4.1553746680956238E-003  -9.5346466256328588E-003   5.1864668226340283E-002
   4.7066510361150893E-003  -1.2761238530716201E-002   5.0044345376916377E-002
   5.2579274041346519E-003  -1.6624351629876494E-002   4.8079303015606700E-002
   5.8092037721541034E-003  -2.1123985923114041E-002   4.5969541142412140E-002
   5.0873177844302453E-002  -1.3513251070006893E-002   5.1366443346684054E-002
   4.8978184616256248E-002  -1.3849475061518457E-002   5.0258933060842670E-002
   4.7083191388210072E-002  -1.3924761284101861E-002   4.9579599712158251E-002
   4.5188198160163881E-002  -1.3739109737757105E-002   4.9328443300631020E-002
   4.3293204932117718E-002  -1.3292520422484300E-002   4.9505463826260754E-002
   4.3954578218404872E-002  -1.2567584529570075E-002   5.2684650635760888E-002
   4.2441106552102800E-002  -1.2566848659179952E-002   5.2156572155363429E-002
   4.0927634885800770E-002  -1.2420571983751794E-002   5.1963359861297159E-002
   3.9414163219498713E-002  -1.2128754503285405E-002   5.2105013753562066E-002
   3.7900691553196669E-002  -1.1691396217780758E-002   5.2581533832158189E-002
   3.7458826486381075E-002  -1.1621917989133229E-002   5.4397516268684387E-002
   3.6233565630997222E-002  -1.1284222256841531E-002   5.4333472629840868E-002
   3.5008304775613480E-002  -1.0916382683401643E-002   5.4510984426502596E-002
   3.3783043920229697E-002  -1.0518399268813622E-002   5.4930051658669654E-002
   3.2557783064845899E-002  -1.0090272013077328E-002   5.5590674326342099E-002
   3.1385922648230875E-002  -1.0676251448696383E-002   5.6505040245454441E-002
   3.0355561852939472E-002  -1.0001595854503012E-002   5.6789634484274806E-002
   2.9325201057648159E-002  -9.4121933830515342E-003   5.7222473407774602E-002
   2.8294840262356784E-002  -8.9080440343417971E-003   5.7803557015954021E-002
   2.7264479467065440E-002  -8.4891478083739258E-003   5.8532885308812843E-002
   2.5735866703954363E-002  -9.7305849082595652E-003   5.9007222566071160E-002
   2.4807095217929620E-002  -8.7189694521646044E-003   5.9525057718665453E-002
   2.3878323731904821E-002  -7.9080040827014253E-003   6.0097826805113386E-002
   2.2949552245880037E-002  -7.2976887998700973E-003   6.0725529825415098E-002
   2.2020780759855252E-002  -6.8880236036704123E-003   6.1408166779570339E-002
   4.3293204932117718E-002  -1.3292520422484300E-002   4.9505463826260754E-002
   4.1934767844458307E-002  -1.2725966955025370E-002   4.9240818319732316E-002
   4.0576330756798923E-002  -1.2180422952122405E-002   4.9147068977645259E-002
   3.9217893669139539E-002  -1.1655888413775517E-002   4.9224215799999277E-002
   3.7859456581480155E-002  -1.1152363339984650E-002   4.9472258786794510E-002
   3.7900691553196669E-002  -1.1691396217780758E-002   5.2581533832158189E-002
   3.6708507907366822E-002  -1.1189952317574942E-002   5.2342660973492522E-002
   3.5516324261536975E-002  -1.0705877993004764E-002   5.2265398834044879E-002
   3.4324140615707113E-002  -1.0239173244069949E-002   5.2349747413815137E-002
   3.3131956969877280E-002  -9.7898380707710508E-003   5.2595706712803170E-002
   3.2557783064845899E-002  -1.0090272013077328E-002   5.5590674326342099E-002
   3.1522567415622288E-002  -9.6539376801246246E-003   5.5381214004459889E-002
   3.0487351766398656E-002  -9.2313330338870125E-003   5.5324078956572181E-002
   2.9452136117175048E-002  -8.8224580743646586E-003   5.5419269182679018E-002
   2.8416920467951412E-002  -8.4273128015574239E-003   5.5666784682780468E-002
   2.7264479467065440E-002  -8.4891478083739258E-003   5.8532885308812843E-002
   2.6376946369224722E-002  -8.1179230426742244E-003   5.8356477412634333E-002
   2.5489413271383987E-002  -7.7567880747693718E-003   5.8323109345226928E-002
   2.4601880173543259E-002  -7.4057429046591738E-003   5.8432781106590725E-002
   2.3714347075702538E-002  -7.0647875323438108E-003   5.8685492696726002E-002
   2.2020780759855252E-002  -6.8880236036704123E-003   6.1408166779570339E-002
   2.1271644768174114E-002  -6.5819084052239074E-003   6.1268451198015828E-002
   2.0522508776492983E-002  -6.2822431156516340E-003   6.1262490000009218E-002
   1.9773372784811841E-002  -5.9890277349538036E-003   6.1390283185550551E-002
   1.9024236793130714E-002  -5.7022622631302533E-003   6.1651830754639758E-002
   3.7859456581480155E-002  -1.1152363339984650E-002   4.9472258786794510E-002
   3.6091101134835851E-002  -1.0648431427039584E-002   4.9141728097005732E-002
   3.4322745688191519E-002  -1.0122676371229933E-002   4.9005244156170497E-002
   3.2554390241547174E-002  -9.5750981725560153E-003   4.9062806964289218E-002
   3.0786034794902883E-002  -9.0056968310178731E-003   4.9314416521361426E-002
   3.3131956969877280E-002  -9.7898380707710508E-003   5.2595706712803170E-002
   3.1561099670991105E-002  -9.3403530611071151E-003   5.2300836727110639E-002
   2.9990242372104903E-002  -8.8731988030780334E-003   5.2206916287980770E-002
   2.8419385073218763E-002  -8.3883752966837401E-003   5.2313945395413411E-002
   2.6848527774332553E-002  -7.8858825419244050E-003   5.2621924049408575E-002
   2.8416920467951412E-002  -8.4273128015574239E-003   5.5666784682780468E-002
   2.7050464114432259E-002  -8.0322746951747293E-003   5.5403421506684855E-002
   2.5684007760913112E-002  -7.6237212349260786E-003   5.5347910674760789E-002
   2.4317551407393938E-002  -7.2016524208114094E-003   5.5500252187008159E-002
   2.2951095053874777E-002  -6.7660682528308536E-003   5.5860446043427089E-002
   2.3714347075702538E-002  -7.0647875323438108E-003   5.8685492696726002E-002
   2.2559194465159318E-002  -6.7241963292424128E-003   5.8449482435728228E-002
   2.1404041854616081E-002  -6.3742436667742070E-003   5.8428227316510990E-002
   2.0248889244072851E-002  -6.0149295449391620E-003   5.8621727339073892E-002
   1.9093736633529597E-002  -5.6462539637373438E-003   5.9029982503417316E-002
   1.9024236793130714E-002  -5.7022622631302533E-003   6.1651830754639758E-002
   1.8087290723172264E-002  -5.4161179633098744E-003   6.1439019514240800E-002
   1.7150344653213835E-002  -5.1247660986221133E-003   6.1447866213230923E-002
   1.6213398583255382E-002  -4.8282066690666925E-003   6.1678370851610348E-002
   1.5276452513296956E-002  -4.5264396746438895E-003   6.2130533429379076E-002
   3.0786034794902883E-002  -9.0056968310178731E-003   4.9314416521361426E-002
   2.9146605269376319E-002  -8.4245927101150864E-003   4.8982890926295430E-002
   2.7507175743849796E-002  -7.8419061733475820E-003   4.8833535193232552E-002
   2.5867746218323211E-002  -7.2576372207153496E-003   4.8866349322172806E-002
   2.4228316692796681E-002  -6.6717858522188367E-003   4.9081333313115816E-002
   2.6848527774332553E-002  -7.8858825419244050E-003   5.2621924049408575E-002
   2.5394858931368780E-002  -7.3719509035117536E-003   5.2337459042417850E-002
   2.3941190088405034E-002  -6.8528107461579973E-003   5.2242345538549700E-002
   2.2487521245441254E-002  -6.3284620698633269E-003   5.2336583537804043E-002
   2.1033852402477515E-002  -5.7989048746275307E-003   5.2620173040180962E-002
   2.2951095053874777E-002  -6.7660682528308536E-003   5.5860446043427089E-002
   2.1690368534593357E-002  -6.3193090969085319E-003   5.5626667727588078E-002
   2.0429642015311941E-002  -5.8637153189685168E-003   5.5589422555991176E-002
   1.9168915496030510E-002  -5.3992869190110249E-003   5.5748710528636378E-002
   1.7908188976749104E-002  -4.9260238970361692E-003   5.6104531645523592E-002
   1.9093736633529597E-002  -5.6462539637373438E-003   5.9029982503417316E-002
   1.8033134079050085E-002  -5.2666672903053102E-003   5.8850516981806364E-002
   1.6972531524570553E-002  -4.8746198917789842E-003   5.8874766245557153E-002
   1.5911928970091017E-002  -4.4701117681588071E-003   5.9102730294669524E-002
   1.4851326415611512E-002  -4.0531429194448354E-003   5.9534409129143658E-002
   1.5276452513296956E-002  -4.5264396746438895E-003   6.2130533429379076E-002
   1.4423155564738901E-002  -4.2140254837021440E-003   6.2009006805072653E-002
   1.3569858616180847E-002  -3.8855244645894654E-003   6.2098376607247513E-002
   1.2716561667622778E-002  -3.5409366173066205E-003   6.2398642835903670E-002
   1.1863264719064737E-002  -3.1802619418536127E-003   6.2909805491040971E-002
   2.4228316692796681E-002  -6.6717858522188367E-003   4.9081333313115816E-002
   2.2434843319805775E-002  -6.0810405470990148E-003   4.8775927126665508E-002
   2.0641369946814786E-002  -5.4820897845973271E-003   4.8642134262447234E-002
   1.8847896573823825E-002  -4.8749335647141970E-003   4.8679954720460827E-002
   1.7054423200832863E-002  -4.2595718874494093E-003   4.8889388500706121E-002
   2.1033852402477515E-002  -5.7989048746275307E-003   5.2620173040180962E-002
   1.9419341016022523E-002  -5.2668550234682976E-003   5.2394907507769539E-002
   1.7804829629567587E-002  -4.7350283794032888E-003   5.2355952626197966E-002
   1.6190318243112609E-002  -4.2034249424328859E-003   5.2503308395466797E-002
   1.4575806856657686E-002  -3.6720447125567768E-003   5.2836974815575644E-002
   1.7908188976749104E-002  -4.9260238970361692E-003   5.6104531645523592E-002
   1.6487336905438438E-002  -4.4526694998375804E-003   5.5950978102674659E-002
   1.5066484834127765E-002  -3.9879669742093476E-003   5.5998432539274015E-002
   1.3645632762817106E-002  -3.5319163201516825E-003   5.6246894955322015E-002
   1.2224780691506433E-002  -3.0845175376643663E-003   5.6696365350818068E-002
   1.4851326415611512E-002  -4.0531429194448354E-003   5.9534409129143658E-002
   1.3638830988053439E-002  -3.6384839762069743E-003   5.9444138911381166E-002
   1.2426335560495374E-002  -3.2409055690153024E-003   5.9569574001675327E-002
   1.1213840132937282E-002  -2.8604076978702587E-003   5.9910714400026335E-002
   1.0001344705379238E-002  -2.4969903627718448E-003   6.0467560106434004E-002
   1.1863264719064737E-002  -3.1802619418536127E-003   6.2909805491040971E-002
   1.0873823263867557E-002  -2.8242984525762571E-003   6.2874389933888886E-002
   9.8843818086703644E-003  -2.4938441638214237E-003   6.3069377013401984E-002
   8.8949403534731783E-003  -2.1888990755891818E-003   6.3494766729579960E-002
   7.9054988982760199E-003  -1.9094631878794344E-003   6.4150559082423064E-002
   1.7054423200832863E-002  -4.2595718874494093E-003   4.8889388500706121E-002
   1.5114993988275205E-002  -3.6981753013366481E-003   4.8767503455557248E-002
   1.3175564775717533E-002  -3.2529143549103745E-003   4.8903574486174939E-002
   1.1236135563159839E-002  -2.9237890481693951E-003   4.9297601592559387E-002
   9.2967063506021463E-003  -2.7107993811144038E-003   4.9949584774710787E-002
   1.4575806856657686E-002  -3.6720447125567768E-003   5.2836974815575644E-002
   1.2892598947231229E-002  -3.1979953127598271E-003   5.2725658130440112E-002
   1.1209391037804745E-002  -2.8383843660265418E-003   5.2868827975800392E-002
   9.5261831283782392E-003  -2.5932118723568306E-003   5.3266484351656485E-002
   7.8429752189518032E-003  -2.4624778317511309E-003   5.3918627258007834E-002
   1.2224780691506433E-002  -3.0845175376643663E-003   5.6696365350818068E-002
   1.0794324539940073E-002  -2.6978153241829506E-003   5.6597314212318589E-002
   9.3638683883737160E-003  -2.4238543771431531E-003   5.6749280059043755E-002
   7.9334122368073679E-003  -2.2626346965445993E-003   5.7152262890993386E-002
   6.5029560852409990E-003  -2.2141562823876360E-003   5.7806262708167244E-002
   1.0001344705379238E-002  -2.4969903627718448E-003   6.0467560106434004E-002
   8.8201707664018573E-003  -2.1976353356062128E-003   6.0382471701192521E-002
   7.6389968274244635E-003  -2.0093243882597644E-003   6.0544930735904667E-002
   6.4578228884470488E-003  -1.9320575207324234E-003   6.0954937210570236E-002
   5.2766489494696887E-003  -1.9658347330240855E-003   6.1612491125188809E-002
   7.9054988982760199E-003  -1.9094631878794344E-003   6.4150559082423064E-002
   6.9701376266164822E-003  -1.6974553470293086E-003   6.4081130597061997E-002
   6.0347763549569722E-003  -1.5947943993760150E-003   6.4255780006383212E-002
   5.0994150832974483E-003  -1.6014803449199352E-003   6.4674507310386847E-002
   4.1640538116379522E-003  -1.7175131836607571E-003   6.5337312509072820E-002
   9.2967063506021463E-003  -2.7107993811144038E-003   4.9949584774710787E-002
   7.8735543379706563E-003  -2.8592190290498976E-003   5.0358930752750997E-002
   6.4504023253391385E-003  -3.6143216672806511E-003   5.1093827210292431E-002
   5.0272503127076484E-003  -4.9761072958061786E-003   5.2154274147335145E-002
   3.6040983000761306E-003  -6.9445759146264940E-003   5.3540271563879083E-002
   7.8429752189518032E-003  -2.4624778317511309E-003   5.3918627258007834E-002
   6.7196918801469968E-003  -2.6457176440885521E-003   5.3855907306754436E-002
   5.5964085413421766E-003  -3.3424667092485372E-003   5.4067374223653236E-002
   4.4731252025373425E-003  -4.5527250272312525E-003   5.4553028008704194E-002
   3.3498418637325222E-003  -6.2764925980367536E-003   5.5312868661907544E-002
   6.5029560852409990E-003  -2.2141562823876360E-003   5.7806262708167244E-002
   5.6281778089139617E-003  -2.4322162591265684E-003   5.7364650565092351E-002
   4.7533995325869521E-003  -3.0706117512162845E-003   5.7145861678820659E-002
   3.8786212562599287E-003  -4.1293427586562084E-003   5.7149896049352431E-002
   3.0038429799329330E-003  -5.6084092814467912E-003   5.7376753676687597E-002
   5.2766489494696887E-003  -1.9658347330240855E-003   6.1612491125188809E-002
   4.5990121242715908E-003  -2.2187148741649038E-003   6.0885160527764701E-002
   3.9213752990734478E-003  -2.7987567931838792E-003   6.0329289575794497E-002
   3.2437384738753343E-003  -3.7059604900811123E-003   5.9944878269279078E-002
   2.5661016486772069E-003  -4.9403259648568287E-003   5.9731926608218175E-002
   4.1640538116379522E-003  -1.7175131836607571E-003   6.5337312509072820E-002
   3.6321948262198200E-003  -2.0052134892031837E-003   6.4417437194771221E-002
   3.1003358408017018E-003  -2.5269018351516404E-003   6.3617657914575132E-002
   2.5684768553836043E-003  -3.2825782215062799E-003   6.2937974668484942E-002
   2.0366178699654791E-003  -4.2722426482669773E-003   6.2378387456499929E-002
   3.6040983000761306E-003  -6.9445759146264940E-003   5.3540271563879083E-002
   4.1553746680956238E-003  -9.5346466256328588E-003   5.1864668226340283E-002
   4.7066510361150893E-003  -1.2761238530716201E-002   5.0044345376916377E-002
   5.2579274041346519E-003  -1.6624351629876494E-002   4.8079303015606700E-002
   5.8092037721541034E-003  -2.1123985923114041E-002   4.5969541142412140E-002
   3.3498418637325222E-003  -6.2764925980367536E-003   5.5312868661907544E-002
   3.7737222516610602E-003  -8.5447572769568603E-003   5.2956843329965808E-002
   4.1976026395895288E-003  -1.1388506919283864E-002   5.0490745549727267E-002
   4.6214830275179627E-003  -1.4807741525017300E-002   4.7914575321192504E-002
   5.0453634154464799E-003  -1.8802461094157508E-002   4.5228332644361435E-002
   3.0038429799329330E-003  -5.6084092814467912E-003   5.7376753676687597E-002
   3.3349744513594057E-003  -7.5548679282808062E-003   5.4401342581012729E-002
   3.6661059227859408E-003  -1.0015775307851305E-002   5.1350506100629884E-002
   3.9972373942124655E-003  -1.2991131420158050E-002   4.8224244235540475E-002
   4.3283688656389485E-003  -1.6480936265200974E-002   4.5022556985742757E-002
   2.5661016486772069E-003  -4.9403259648568287E-003   5.9731926608218175E-002
   2.8391312671907625E-003  -6.5649785796045579E-003   5.6198165979480456E-002
   3.1121608857043060E-003  -8.6430436964187451E-003   5.2623627029624712E-002
   3.3851905042177879E-003  -1.1174521315298606E-002   4.9008309758650372E-002
   3.6582201227313774E-003  -1.4159411436244440E-002   4.5352214166557242E-002
   2.0366178699654791E-003  -4.2722426482669773E-003   6.2378387456499929E-002
   2.2861926991550596E-003  -5.5750892309288647E-003   5.8347313525369815E-002
   2.5357675283446679E-003  -7.2703120849864356E-003   5.4310108336710516E-002
   2.7853423575342831E-003  -9.3579112104395026E-003   5.0266771890521950E-002
   3.0349171867238289E-003  -1.1837886607287906E-002   4.6217304186803254E-002
   2.5735866703954363E-002  -9.7305849082595652E-003   5.9007222566071160E-002
   2.4807095217929620E-002  -8.7189694521646044E-003   5.9525057718665453E-002
   2.3878323731904821E-002  -7.9080040827014253E-003   6.0097826805113386E-002
   2.2949552245880037E-002  -7.2976887998700973E-003   6.0725529825415098E-002
   2.2020780759855252E-002  -6.8880236036704123E-003   6.1408166779570339E-002
   2.0026889567595796E-002  -6.1853364141917222E-003   6.3180814931266094E-002
   1.9196756556882397E-002  -5.6992507866533704E-003   6.3052603858784168E-002
   1.8366623546169018E-002  -5.3106360494752786E-003   6.3066735803071539E-002
   1.7536490535455643E-002  -5.0194922026573045E-003   6.3223210764128041E-002
   1.6706357524742248E-002  -4.8258192461994587E-003   6.3522028741953618E-002
   1.3777222153199327E-002  -2.6400879201238792E-003   6.6777287869768193E-002
   1.3133136700712839E-002  -2.6795321211422474E-003   6.6106209768482097E-002
   1.2489051248226329E-002  -2.7132680162491596E-003   6.5664883766880427E-002
   1.1844965795739827E-002  -2.7412956054444840E-003   6.5453309864963477E-002
   1.1200880343253335E-002  -2.7636148887283662E-003   6.5471488062731134E-002
   6.9868644607649875E-003   9.0516057394399163E-004   6.9796641381578095E-002
   6.6162356494208607E-003   3.4018654436886175E-004   6.8685875447759115E-002
   6.2456068380767303E-003  -1.1589998302297122E-004   6.7892270696540163E-002
   5.8749780267325991E-003  -4.6309900823170505E-004   6.7415827127921352E-002
   5.5043492153884722E-003  -7.0141053125725994E-004   6.7256544741902666E-002
  -3.4418350970722572E-004   4.4504090680118069E-003   7.2238875466695440E-002
  -3.5394659699350406E-004   3.3599052098801097E-003   7.0791600896615126E-002
  -3.6370968427976852E-004   2.4814680502030922E-003   6.9748896592050719E-002
  -3.7347277156604339E-004   1.8150975889810982E-003   6.9110762553001678E-002
  -3.8323585885231479E-004   1.3607938262137353E-003   6.8877198779468241E-002
   2.2020780759855252E-002  -6.8880236036704123E-003   6.1408166779570339E-002
   2.1271644768174114E-002  -6.5819084052239074E-003   6.1268451198015828E-002
   2.0522508776492983E-002  -6.2822431156516340E-003   6.1262490000009218E-002
   1.9773372784811841E-002  -5.9890277349538036E-003   6.1390283185550551E-002
   1.9024236793130714E-002  -5.7022622631302533E-003   6.1651830754639758E-002
   1.6706357524742248E-002  -4.8258192461994587E-003   6.3522028741953618E-002
   1.6108091543269497E-002  -4.6736892246547757E-003   6.3212342396513382E-002
   1.5509825561796736E-002  -4.5071741825767481E-003   6.3070641687941839E-002
   1.4911559580323979E-002  -4.3262741199650324E-003   6.3096926616239141E-002
   1.4313293598851223E-002  -4.1309890368196878E-003   6.3291197181405412E-002
   1.1200880343253335E-002  -2.7636148887283662E-003   6.5471488062731134E-002
   1.0787715625309870E-002  -2.7654700440857410E-003   6.5012665882812820E-002
   1.0374550907366420E-002  -2.7321052495016887E-003   6.4756060593084308E-002
   9.9613861894229765E-003  -2.6635205049761485E-003   6.4701672193545473E-002
   9.5482214714795142E-003  -2.5597158105092610E-003   6.4849500684196593E-002
   5.5043492153884722E-003  -7.0141053125725994E-004   6.7256544741902666E-002
   5.3105170142952393E-003  -8.5725086351665786E-004   6.6669421656914293E-002
   5.1166848132020229E-003  -9.5703631642677159E-004   6.6318746715436555E-002
   4.9228526121087969E-003  -1.0007668899873210E-003   6.6204519917469520E-002
   4.7290204110155736E-003  -9.8844258419873710E-004   6.6326741263013259E-002
  -3.8323585885231479E-004   1.3607938262137353E-003   6.8877198779468241E-002
  -3.2350428977438381E-004   1.0509683170524253E-003   6.8182609718817733E-002
  -2.6377272069645456E-004   8.1803261664827043E-004   6.7758700054998733E-002
  -2.0404115161852445E-004   6.6198672500148228E-004   6.7605469788011394E-002
  -1.4430958254059434E-004   5.8283064211167579E-004   6.7722918917855701E-002
   1.9024236793130714E-002  -5.7022622631302533E-003   6.1651830754639758E-002
   1.8087290723172264E-002  -5.4161179633098744E-003   6.1439019514240800E-002
   1.7150344653213835E-002  -5.1247660986221133E-003   6.1447866213230923E-002
   1.6213398583255382E-002  -4.8282066690666925E-003   6.1678370851610348E-002
   1.5276452513296956E-002  -4.5264396746438895E-003   6.2130533429379076E-002
   1.4313293598851223E-002  -4.1309890368196878E-003   6.3291197181405412E-002
   1.3602464391410843E-002  -3.9262426939803419E-003   6.3033588462904050E-002
   1.2891635183970469E-002  -3.7169588522860675E-003   6.3006555530049524E-002
   1.2180805976530103E-002  -3.5031375117371422E-003   6.3210098382841959E-002
   1.1469976769089715E-002  -3.2847786723335659E-003   6.3644217021281091E-002
   9.5482214714795142E-003  -2.5597158105092610E-003   6.4849500684196593E-002
   9.0724269728148198E-003  -2.4363674246506428E-003   6.4546424421580095E-002
   8.5966324741501236E-003  -2.3091516059500772E-003   6.4482841790868162E-002
   8.1208379754854274E-003  -2.1780683544075363E-003   6.4658752792060764E-002
   7.6450434768207329E-003  -2.0431176700229925E-003   6.5074157425157778E-002
   4.7290204110155736E-003  -9.8844258419873710E-004   6.6326741263013259E-002
   4.4971784673841801E-003  -9.4649215532086051E-004   6.5977527390268950E-002
   4.2653365237527857E-003  -9.0134435961400361E-004   6.5876724995686725E-002
   4.0334945801213905E-003  -8.5299919707784722E-004   6.6024334079266611E-002
   3.8016526364899970E-003  -8.0145666771265500E-004   6.6420354641008747E-002
  -1.4430958254059434E-004   5.8283064211167579E-004   6.7722918917855701E-002
  -1.2328112488107362E-004   5.4338311400864425E-004   6.7326897368970517E-002
  -1.0225266722154597E-004   5.0646288672212547E-004   6.7188205144505353E-002
  -8.1224209562025251E-005   4.7206996025177250E-004   6.7306842244459819E-002
  -6.0195751902497596E-005   4.4020433459796005E-004   6.7682808668833971E-002
   1.5276452513296956E-002  -4.5264396746438895E-003   6.2130533429379076E-002
   1.4423155564738901E-002  -4.2140254837021440E-003   6.2009006805072653E-002
   1.3569858616180847E-002  -3.8855244645894654E-003   6.2098376607247513E-002
   1.2716561667622778E-002  -3.5409366173066205E-003   6.2398642835903670E-002
   1.1863264719064737E-002  -3.1802619418536127E-003   6.2909805491040971E-002
   1.1469976769089715E-002  -3.2847786723335659E-003   6.3644217021281091E-002
   1.0827946515173048E-002  -3.0603924443071140E-003   6.3516405170353729E-002
   1.0185916261256367E-002  -2.8284889378896588E-003   6.3600230282228026E-002
   9.5438860073396962E-003  -2.5890681530815994E-003   6.3895692356903747E-002
   8.9018557534230186E-003  -2.3421300898828767E-003   6.4402791394380932E-002
   7.6450434768207329E-003  -2.0431176700229925E-003   6.5074157425157778E-002
   7.2150204538656941E-003  -1.9067594049121117E-003   6.4931490797829741E-002
   6.7849974309106692E-003  -1.7714534111899008E-003   6.5001201669623559E-002
   6.3549744079556339E-003  -1.6371996888565211E-003   6.5283290040539121E-002
   5.9249513850006055E-003  -1.5039982379121963E-003   6.5777755910576496E-002
   3.8016526364899970E-003  -8.0145666771265500E-004   6.6420354641008747E-002
   3.5843773808168734E-003  -7.5312636551715106E-004   6.6254263687500550E-002
   3.3671021251437568E-003  -7.1441788449000745E-004   6.6301290769434140E-002
   3.1498268694706410E-003  -6.8533122463141586E-004   6.6561435886809933E-002
   2.9325516137975165E-003  -6.6586638594143266E-004   6.7034699039627735E-002
  -6.0195751902497596E-005   4.4020433459796005E-004   6.7682808668833971E-002
  -6.3982703973446131E-005   4.0050667387786509E-004   6.7484723839365657E-002
  -6.7769656044384258E-005   3.4261764220970548E-004   6.7500497581659852E-002
  -7.1556608115329323E-005   2.6653723959364425E-004   6.7730129895716237E-002
  -7.5343560186270919E-005   1.7226546602910897E-004   6.8173620781534883E-002
   1.1863264719064737E-002  -3.1802619418536127E-003   6.2909805491040971E-002
   1.0873823263867557E-002  -2.8242984525762571E-003   6.2874389933888886E-002
   9.8843818086703644E-003  -2.4938441638214237E-003   6.3069377013401984E-002
   8.8949403534731783E-003  -2.1888990755891818E-003   6.3494766729579960E-002
   7.9054988982760199E-003  -1.9094631878794344E-003   6.4150559082423064E-002
   8.9018557534230186E-003  -2.3421300898828767E-003   6.4402791394380932E-002
   8.1479889594313210E-003  -2.0972444684130287E-003   6.4338486777802906E-002
   7.3941221654396372E-003  -1.8639810087917458E-003   6.4514928846970909E-002
   6.6402553714479499E-003  -1.6423397110195241E-003   6.4932117601884998E-002
   5.8863885774562558E-003  -1.4323205750956802E-003   6.5590053042545060E-002
   5.9249513850006055E-003  -1.5039982379121963E-003   6.5777755910576496E-002
   5.4170033012953187E-003  -1.3701904842496337E-003   6.5698449273246404E-002
   4.9090552175900318E-003  -1.2341178537620678E-003   6.5870233370743297E-002
   4.4011071338847397E-003  -1.0957803464495333E-003   6.6293108203066928E-002
   3.8931590501794580E-003  -9.5517796231209262E-004   6.6967073770217656E-002
   2.9325516137975165E-003  -6.6586638594143266E-004   6.7034699039627735E-002
   2.6808662894595315E-003  -6.4313650008610002E-004   6.6954277420219435E-002
   2.4291809651215447E-003  -6.0425469873238991E-004   6.7135290584718732E-002
   2.1774956407835722E-003  -5.4922098187976456E-004   6.7577738533125875E-002
   1.9258103164455729E-003  -4.7803534952831073E-004   6.8281621265440878E-002
  -7.5343560186270919E-005   1.7226546602910897E-004   6.8173620781534883E-002
  -6.0422076076031839E-005   8.3917484076823090E-005   6.8105971218721972E-002
  -4.5500591965803167E-005   2.5608456297371296E-005   6.8310100488897574E-002
  -3.0579107855571025E-005  -2.6616173097529505E-006   6.8786008592061909E-002
  -1.5657623745335414E-005  -8.9273674475087716E-007   6.9533695528214867E-002
   7.9054988982760199E-003  -1.9094631878794344E-003   6.4150559082423064E-002
   6.9701376266164822E-003  -1.6974553470293086E-003   6.4081130597061997E-002
   6.0347763549569722E-003  -1.5947943993760150E-003   6.4255780006383212E-002
   5.0994150832974483E-003  -1.6014803449199352E-003   6.4674507310386847E-002
   4.1640538116379522E-003  -1.7175131836607571E-003   6.5337312509072820E-002
   5.8863885774562558E-003  -1.4323205750956802E-003   6.5590053042545060E-002
   5.1926081083554163E-003  -1.2699013505481638E-003   6.5447545981552946E-002
   4.4988276392545837E-003  -1.1910597869040918E-003   6.5544122630996043E-002
   3.8050471701537511E-003  -1.1957958841636168E-003   6.5879782990874144E-002
   3.1112667010529116E-003  -1.2841096423265030E-003   6.6454527061187540E-002
   3.8931590501794580E-003  -9.5517796231209262E-004   6.6967073770217656E-002
   3.4359651993900349E-003  -8.4234735406710226E-004   6.6777257365888132E-002
   2.9787713486006222E-003  -7.8732517443218242E-004   6.6821530487746403E-002
   2.5215774978112129E-003  -7.9011142340730187E-004   6.7099893135792593E-002
   2.0643836470218002E-003  -8.5070610099263755E-004   6.7612345310026578E-002
   1.9258103164455729E-003  -4.7803534952831073E-004   6.8281621265440878E-002
   1.7002088997203372E-003  -4.1479335758583258E-004   6.8070264750067347E-002
   1.4746074829951024E-003  -3.8359056196026614E-004   6.8088003576634470E-002
   1.2490060662698702E-003  -3.8442696265098518E-004   6.8334837745142124E-002
   1.0234046495446320E-003  -4.1730255965863328E-004   6.8810767255590446E-002
  -1.5657623745335414E-005  -8.9273674475087716E-007   6.9533695528214867E-002
  -1.4660790653653333E-005   1.2760638895159548E-005   6.9326568134090771E-002
  -1.3663957561978191E-005   2.0144050511650136E-005   6.9343541897660010E-002
  -1.2667124470297844E-005   2.1257498105387018E-005   6.9584616818922501E-002
  -1.1670291378620967E-005   1.6100981675482018E-005   7.0049792897878271E-002
   4.1640538116379522E-003  -1.7175131836607571E-003   6.5337312509072820E-002
   3.6321948262198200E-003  -2.0052134892031837E-003   6.4417437194771221E-002
   3.1003358408017018E-003  -2.5269018351516404E-003   6.3617657914575132E-002
   2.5684768553836043E-003  -3.2825782215062799E-003   6.2937974668484942E-002
   2.0366178699654791E-003  -4.2722426482669773E-003   6.2378387456499929E-002
   3.1112667010529116E-003  -1.2841096423265030E-003   6.6454527061187540E-002
   2.7028698245017690E-003  -1.5016155388308250E-003   6.5339524550108719E-002
   2.2944729479506404E-003  -1.8939280511146572E-003   6.4351350222658116E-002
   1.8860760713995048E-003  -2.4610471791775279E-003   6.3490004078836079E-002
   1.4776791948483831E-003  -3.2029729230195203E-003   6.2755486118642123E-002
   2.0643836470218002E-003  -8.5070610099263755E-004   6.7612345310026578E-002
   1.7861810288604951E-003  -9.9801758845916022E-004   6.6361397026797275E-002
   1.5079784106991970E-003  -1.2609542670777019E-003   6.5244009076719262E-002
   1.2297757925378901E-003  -1.6395161368485608E-003   6.4260181459792509E-002
   9.5157317437659372E-004  -2.1337031977718968E-003   6.3409914176017018E-002
   1.0234046495446320E-003  -4.1730255965863328E-004   6.8810767255590446E-002
   8.8212843929599480E-004  -4.9441963808725953E-004   6.7483054624837641E-002
   7.4085222904737673E-004  -6.2798048304078813E-004   6.6295634476759041E-002
   5.9957601879875302E-004  -8.1798509452003440E-004   6.5248506811354731E-002
   4.5829980855012151E-004  -1.0644334725243565E-003   6.4341671628624308E-002
  -1.1670291378620967E-005   1.6100981675482018E-005   7.0049792897878271E-002
  -9.2879441917215200E-006   9.1783122848076992E-006   6.8704497344229121E-002
  -6.9055970048220727E-006   4.9933009959590713E-006   6.7506226422777094E-002
  -4.5232498179208908E-006   3.5459478089777674E-006   6.6454980133521691E-002
  -2.1409026310231782E-006   4.8362527231837760E-006   6.5550758476463411E-002
   2.0366178699654791E-003  -4.2722426482669773E-003   6.2378387456499929E-002
   2.2861926991550596E-003  -5.5750892309288647E-003   5.8347313525369815E-002
   2.5357675283446679E-003  -7.2703120849864356E-003   5.4310108336710516E-002
   2.7853423575342831E-003  -9.3579112104395026E-003   5.0266771890521950E-002
   3.0349171867238289E-003  -1.1837886607287906E-002   4.6217304186803254E-002
   1.4776791948483831E-003  -3.2029729230195203E-003   6.2755486118642123E-002
   1.7070364730670390E-003  -4.1795240505156372E-003   5.8399748337253699E-002
   1.9363937512857227E-003  -5.4505193295411314E-003   5.4009706711452665E-002
   2.1657510295043751E-003  -7.0159587600960929E-003   4.9585361241239218E-002
   2.3951083077230484E-003  -8.8758423421799737E-003   4.5126711926613883E-002
   9.5157317437659372E-004  -2.1337031977718968E-003   6.3409914176017018E-002
   1.1325403147413732E-003  -2.7839588701024653E-003   5.8827444664236367E-002
   1.3135074551061526E-003  -3.6307265740960354E-003   5.4182498721160058E-002
   1.4944745954709477E-003  -4.6740063097525132E-003   4.9475076346788029E-002
   1.6754417358357254E-003  -5.9137980770718190E-003   4.4705177541121577E-002
   4.5829980855012151E-004  -1.0644334725243565E-003   6.4341671628624308E-002
   5.6270422417805353E-004  -1.3883936896892657E-003   5.9630402506317563E-002
   6.6710863980597689E-004  -1.8109338186508353E-003   5.4828484365832764E-002
   7.7151305543391282E-004  -2.3320538594090185E-003   4.9935917207169542E-002
   8.7591747106183226E-004  -2.9517538119636644E-003   4.4952701030327530E-002
  -2.1409026310231782E-006   4.8362527231837760E-006   6.5550758476463411E-002
  -2.4717986229147448E-006   7.1714907239339709E-006   6.0808621863497447E-002
  -2.8026946147959031E-006   8.8589367941427355E-006   5.5947663645469881E-002
  -3.1335906066892044E-006   9.8985909343096701E-006   5.0967883822381432E-002
  -3.4644865985755668E-006   1.0290453144268241E-005   4.5869282394231270E-002
  -3.4418350970722572E-004   4.4504090680118069E-003   7.2238875466695440E-002
  -3.5394659699350406E-004   3.3599052098801097E-003   7.0791600896615126E-002
  -3.6370968427976852E-004   2.4814680502030922E-003   6.9748896592050719E-002
  -3.7347277156604339E-004   1.8150975889810982E-003   6.9110762553001678E-002
  -3.8323585885231479E-004   1.3607938262137353E-003   6.8877198779468241E-002
  -7.6182975882992214E-003   3.9213707697577926E-003   6.6973407753271819E-002
  -7.2672582928234065E-003   3.3553395341576198E-003   6.6293900886884721E-002
  -6.9162189973475726E-003   2.8911966493992830E-003   6.5931428520506236E-002
  -6.5651797018717456E-003   2.5289421154829385E-003   6.5885990654136375E-002
  -6.2141404063959169E-003   2.2685759324085342E-003   6.6157587287775071E-002
  -1.4237853605092983E-002   3.3923324715038339E-003   6.2287501836185907E-002
  -1.3613547692362029E-002   3.3507738584351576E-003   6.2265584325879128E-002
  -1.2989241779631089E-002   3.3009252485954807E-003   6.2473165550073977E-002
  -1.2364935866900142E-002   3.2427866419848916E-003   6.2910245508770363E-002
  -1.1740629954169211E-002   3.1763580386033052E-003   6.3576824201968488E-002
  -2.0202851560088404E-002   2.8632941732498612E-003   5.8181157715438123E-002
  -1.9392814795609378E-002   3.3462081827125983E-003   5.8706651213598665E-002
  -1.8582778031130297E-002   3.7106538477916194E-003   5.9374107680753879E-002
  -1.7772741266651251E-002   3.9566311684868160E-003   6.0183527116903730E-002
  -1.6962704502172202E-002   4.0841401447981457E-003   6.1134909522048211E-002
  -2.5513291453285583E-002   2.3342558749958608E-003   5.4654375391028132E-002
  -2.4605059602565413E-002   3.3416425069900946E-003   5.5617101550043180E-002
  -2.3696827751845229E-002   4.1203824469878414E-003   5.6634254912546034E-002
  -2.2788595901125055E-002   4.6704756949887058E-003   5.7705835478536471E-002
  -2.1880364050404888E-002   4.9919222509928751E-003   5.8831843248014493E-002
  -3.8323585885231479E-004   1.3607938262137353E-003   6.8877198779468241E-002
  -3.2350428977438381E-004   1.0509683170524253E-003   6.8182609718817733E-002
  -2.6377272069645456E-004   8.1803261664827043E-004   6.7758700054998733E-002
  -2.0404115161852445E-004   6.6198672500148228E-004   6.7605469788011394E-002
  -1.4430958254059434E-004   5.8283064211167579E-004   6.7722918917855701E-002
  -6.2141404063959169E-003   2.2685759324085342E-003   6.6157587287775071E-002
  -5.9100500054285222E-003   2.0741213688622029E-003   6.5794505010438542E-002
  -5.6059596044611328E-003   1.9096016935305354E-003   6.5649461000049258E-002
  -5.3018692034937373E-003   1.7750169064130010E-003   6.5722455256607248E-002
  -4.9977788025263488E-003   1.6703670075101651E-003   6.6013487780112456E-002
  -1.1740629954169211E-002   3.1763580386033052E-003   6.3576824201968488E-002
  -1.1244821851196659E-002   3.0972744206721470E-003   6.3498293787403112E-002
  -1.0749013748224128E-002   3.0011707704126270E-003   6.3585160509900623E-002
  -1.0253205645251583E-002   2.8880470878247400E-003   6.3837424369461201E-002
  -9.7573975422790386E-003   2.7579033729085711E-003   6.4255085366084763E-002
  -1.6962704502172202E-002   4.0841401447981457E-003   6.1134909522048211E-002
  -1.6327819827078816E-002   4.1204274724820356E-003   6.1293976049711263E-002
  -1.5692935151985443E-002   4.0927398472948052E-003   6.1565798584552939E-002
  -1.5058050476892057E-002   4.0010772692364244E-003   6.1950377126573343E-002
  -1.4423165801798688E-002   3.8454397383070188E-003   6.2447711675772330E-002
  -2.1880364050404888E-002   4.9919222509928751E-003   5.8831843248014493E-002
  -2.1159043933074974E-002   5.1435805242918131E-003   5.9181551797363091E-002
  -2.0437723815745067E-002   5.1843089241769558E-003   5.9591375224006204E-002
  -1.9716403698415166E-002   5.1141074506479908E-003   6.0061313527943583E-002
  -1.8995083581085245E-002   4.9329761037054665E-003   6.0591366709175365E-002
  -1.4430958254059434E-004   5.8283064211167579E-004   6.7722918917855701E-002
  -1.2328112488107362E-004   5.4338311400864425E-004   6.7326897368970517E-002
  -1.0225266722154597E-004   5.0646288672212547E-004   6.7188205144505353E-002
  -8.1224209562025251E-005   4.7206996025177250E-004   6.7306842244459819E-002
  -6.0195751902497596E-005   4.4020433459796005E-004   6.7682808668833971E-002
  -4.9977788025263488E-003   1.6703670075101651E-003   6.6013487780112456E-002
  -4.7267676796680334E-003   1.5803017372467698E-003   6.5704850887180088E-002
  -4.4557565568097163E-003   1.4894708360477932E-003   6.5638850000225485E-002
  -4.1847454339513966E-003   1.3978743039135579E-003   6.5815485119248798E-002
  -3.9137343110930839E-003   1.3055121408437342E-003   6.6234756244249959E-002
  -9.7573975422790386E-003   2.7579033729085711E-003   6.4255085366084763E-002
  -9.2510970726638157E-003   2.6172203604846456E-003   6.4030540197353172E-002
  -8.7447966030485772E-003   2.4724787853735164E-003   6.4033937716157507E-002
  -8.2384961334333422E-003   2.3236786475752877E-003   6.4265277922498004E-002
  -7.7321956638181089E-003   2.1708199470898137E-003   6.4724560816374163E-002
  -1.4423165801798688E-002   3.8454397383070188E-003   6.2447711675772330E-002
  -1.3696269303868408E-002   3.6541389837224797E-003   6.2303965299489894E-002
  -1.2969372805938127E-002   3.4554867346992674E-003   6.2373468292301552E-002
  -1.2242476308007840E-002   3.2494829912369343E-003   6.2656220654207298E-002
  -1.1515579810077571E-002   3.0361277533358516E-003   6.3152222385207027E-002
  -1.8995083581085245E-002   4.9329761037054665E-003   6.0591366709175365E-002
  -1.8062284373281810E-002   4.6910576069606191E-003   6.0525126193590240E-002
  -1.7129485165478360E-002   4.4384946840248796E-003   6.0657441728657308E-002
  -1.6196685957674917E-002   4.1752873348987127E-003   6.0988313314376624E-002
  -1.5263886749871475E-002   3.9014355595817785E-003   6.1517740950748134E-002
  -6.0195751902497596E-005   4.4020433459796005E-004   6.7682808668833971E-002
  -6.3982703973446131E-005   4.0050667387786509E-004   6.7484723839365657E-002
  -6.7769656044384258E-005   3.4261764220970548E-004   6.7500497581659852E-002
  -7.1556608115329323E-005   2.6653723959364425E-004   6.7730129895716237E-002
  -7.5343560186270919E-005   1.7226546602910897E-004   6.8173620781534883E-002
  -3.9137343110930839E-003   1.3055121408437342E-003   6.6234756244249959E-002
  -3.7035413617703267E-003   1.2084198359804121E-003   6.6058426939078430E-002
  -3.4933484124475746E-003   1.1026328784645434E-003   6.6096198864932010E-002
  -3.2831554631248122E-003   9.8815126829659289E-004   6.6348072021810603E-002
  -3.0729625138020585E-003   8.6497500547610962E-004   6.6814046409714389E-002
  -7.7321956638181089E-003   2.1708199470898137E-003   6.4724560816374163E-002
  -7.3077801538388790E-003   2.0163329980827649E-003   6.4579483753795325E-002
  -6.8833646438596465E-003   1.8626481147191662E-003   6.4648750581504433E-002
  -6.4589491338804018E-003   1.7097652969993212E-003   6.4932361299501362E-002
  -6.0345336239011702E-003   1.5576845449231658E-003   6.5430315907786168E-002
  -1.1515579810077571E-002   3.0361277533358516E-003   6.3152222385207027E-002
  -1.0876699080179080E-002   2.8242461601849927E-003   6.3047894283516759E-002
  -1.0237818350280582E-002   2.6226633509739521E-003   6.3158152731377010E-002
  -9.5989376203820930E-003   2.4313793257021597E-003   6.3482997728788099E-002
  -8.9600568904835958E-003   2.2503940843701387E-003   6.4022429275749637E-002
  -1.5263886749871475E-002   3.9014355595817785E-003   6.1517740950748134E-002
  -1.4410298140790940E-002   3.6321593222874982E-003   6.1463658528242371E-002
  -1.3556709531710412E-002   3.3826785872286269E-003   6.1624405314549990E-002
  -1.2703120922629884E-002   3.1529933544050537E-003   6.1999981309671076E-002
  -1.1849532313549349E-002   2.9431036238171115E-003   6.2590386513605378E-002
  -7.5343560186270919E-005   1.7226546602910897E-004   6.8173620781534883E-002
  -6.0422076076031839E-005   8.3917484076823090E-005   6.8105971218721972E-002
  -4.5500591965803167E-005   2.5608456297371296E-005   6.8310100488897574E-002
  -3.0579107855571025E-005  -2.6616173097529505E-006   6.8786008592061909E-002
  -1.5657623745335414E-005  -8.9273674475087716E-007   6.9533695528214867E-002
  -3.0729625138020585E-003   8.6497500547610962E-004   6.6814046409714389E-002
  -2.7938123036781934E-003   7.4562714740700198E-004   6.6798089791606730E-002
  -2.5146620935543214E-003   6.4263075149245674E-004   6.7038811792537178E-002
  -2.2355118834304442E-003   5.5598581773215472E-004   6.7536212412506666E-002
  -1.9563616733065843E-003   4.8569234612672041E-004   6.8290291651514679E-002
  -6.0345336239011702E-003   1.5576845449231658E-003   6.5430315907786168E-002
  -5.5062549017137422E-003   1.4073368107369311E-003   6.5452364742365432E-002
  -4.9779761795263012E-003   1.2596530466875561E-003   6.5715991982033359E-002
  -4.4496974573388732E-003   1.1146332527745655E-003   6.6221197626789657E-002
  -3.9214187351514322E-003   9.7227742899808067E-004   6.6967981676634702E-002
  -8.9600568904835958E-003   2.2503940843701387E-003   6.4022429275749637E-002
  -8.1977498701826731E-003   2.0690464740669851E-003   6.4068796070998177E-002
  -7.4354428498817479E-003   1.8766753418824819E-003   6.4341641057385282E-002
  -6.6731358295808304E-003   1.6732806878167802E-003   6.4840964234910814E-002
  -5.9108288092798991E-003   1.4588625118696075E-003   6.5566765603574662E-002
  -1.1849532313549349E-002   2.9431036238171115E-003   6.2590386513605378E-002
  -1.0868297209084998E-002   2.7307561373968170E-003   6.2647383777505228E-002
  -9.8870621046206544E-003   2.4936976370777686E-003   6.2915759018593476E-002
  -8.9058270001563071E-003   2.2319281228590573E-003   6.3395512236870233E-002
  -7.9245918956919598E-003   1.9454475947409122E-003   6.4086643432335166E-002
  -1.5657623745335414E-005  -8.9273674475087716E-007   6.9533695528214867E-002
  -1.4660790653653333E-005   1.2760638895159548E-005   6.9326568134090771E-002
  -1.3663957561978191E-005   2.0144050511650136E-005   6.9343541897660010E-002
  -1.2667124470297844E-005   2.1257498105387018E-005   6.9584616818922501E-002
  -1.1670291378620967E-005   1.6100981675482018E-005   7.0049792897878271E-002
  -1.9563616733065843E-003   4.8569234612672041E-004   6.8290291651514679E-002
  -1.7286539917565000E-003   4.3627957491992886E-004   6.8070990923181918E-002
  -1.5009463102064087E-003   4.1227674235605472E-004   6.8081010734072883E-002
  -1.2732386286563287E-003   4.1368384843547268E-004   6.8320351084187311E-002
  -1.0455309471062331E-003   4.4050089315783580E-004   6.8789011973525327E-002
  -3.9214187351514322E-003   9.7227742899808067E-004   6.6967981676634702E-002
  -3.4617808236127173E-003   8.5979851094467041E-004   6.6768187516759753E-002
  -3.0021429120739816E-003   8.0440943420045929E-004   6.6802933277638449E-002
  -2.5425050005352602E-003   8.0611019876566936E-004   6.7072218959270999E-002
  -2.0828670889965310E-003   8.6490080464030061E-004   6.7576044561657334E-002
  -5.9108288092798991E-003   1.4588625118696075E-003   6.5566765603574662E-002
  -5.2140412862222933E-003   1.2833174469694258E-003   6.5418157914823832E-002
  -4.5172537631646944E-003   1.1965421260449194E-003   6.5509309528356943E-002
  -3.8204662401070994E-003   1.1985365490960326E-003   6.5840220444173952E-002
  -3.1236787170494896E-003   1.2893007161228209E-003   6.6410890662275013E-002
  -7.9245918956919598E-003   1.9454475947409122E-003   6.4086643432335166E-002
  -6.9854353795852503E-003   1.7068363829941813E-003   6.4020902117374323E-002
  -6.0462788634785478E-003   1.5886748178889909E-003   6.4200139486227936E-002
  -5.1071223473718418E-003   1.5909628994262709E-003   6.4624355538895673E-002
  -4.1679658312651358E-003   1.7137006276051192E-003   6.5293550275377865E-002
  -1.1670291378620967E-005   1.6100981675482018E-005   7.0049792897878271E-002
  -9.2879441917215200E-006   9.1783122848076992E-006   6.8704497344229121E-002
  -6.9055970048220727E-006   4.9933009959590713E-006   6.7506226422777094E-002
  -4.5232498179208908E-006   3.5459478089777674E-006   6.6454980133521691E-002
  -2.1409026310231782E-006   4.8362527231837760E-006   6.5550758476463411E-002
  -1.0455309471062331E-003   4.4050089315783580E-004   6.8789011973525327E-002
  -8.9981757546792746E-004   5.0979650546156829E-004   6.7467689753278770E-002
  -7.5410420382961661E-004   6.3863931428576048E-004   6.6286004949738159E-002
  -6.0839083219130403E-004   8.2702931962960746E-004   6.5243957562903285E-002
  -4.6267746055300013E-004   1.0749665214931925E-003   6.4341547592774551E-002
  -2.0828670889965310E-003   8.6490080464030061E-004   6.7576044561657334E-002
  -1.8012099083978723E-003   1.0104146986385787E-003   6.6335505213231699E-002
  -1.5195527277992197E-003   1.2722853275751456E-003   6.5227216066020777E-002
  -1.2378955472005563E-003   1.6505126914498000E-003   6.4251177120024816E-002
  -9.5623836660189455E-004   2.1450967902627571E-003   6.3407388375243512E-002
  -3.1236787170494896E-003   1.2893007161228209E-003   6.6410890662275013E-002
  -2.7134649429815466E-003   1.5110328918155197E-003   6.5307943724088366E-002
  -2.3032511689136314E-003   1.9059313408647388E-003   6.4329859771625725E-002
  -1.8930373948456950E-003   2.4739960632703221E-003   6.3476638804886673E-002
  -1.4828236207777728E-003   3.2152270590327658E-003   6.2748280823871239E-002
  -4.1679658312651358E-003   1.7137006276051192E-003   6.5293550275377865E-002
  -3.6365826792189998E-003   2.0116510849923497E-003   6.4385005285848451E-002
  -3.1051995271728534E-003   2.5395773541542765E-003   6.3593936066552170E-002
  -2.5738163751267071E-003   3.2974794350907194E-003   6.2920342617488356E-002
  -2.0424332230805711E-003   4.2853573278021084E-003   6.2364224938657342E-002
  -2.1409026310231782E-006   4.8362527231837760E-006   6.5550758476463411E-002
  -2.4717986229147448E-006   7.1714907239339709E-006   6.0808621863497447E-002
  -2.8026946147959031E-006   8.8589367941427355E-006   5.5947663645469881E-002
  -3.1335906066892044E-006   9.8985909343096701E-006   5.0967883822381432E-002
  -3.4644865985755668E-006   1.0290453144268241E-005   4.5869282394231270E-002
  -4.6267746055300013E-004   1.0749665214931925E-003   6.4341547592774551E-002
  -5.6766088265600145E-004   1.4017858877549139E-003   5.9629340380804696E-002
  -6.7264430475903400E-004   1.8268223862932254E-003   5.4826649721674059E-002
  -7.7762772686204833E-004   2.3500760171075302E-003   4.9933475615381862E-002
  -8.8261114896505399E-004   2.9715467801985085E-003   4.4949818061929436E-002
  -9.5623836660189455E-004   2.1450967902627571E-003   6.3407388375243512E-002
  -1.1375361569157059E-003   2.7964002847862268E-003   5.8823975488476704E-002
  -1.3188339472295025E-003   3.6447858357923080E-003   5.4178417312449240E-002
  -1.5001317375433055E-003   4.6902534432814724E-003   4.9470713847160980E-002
  -1.6814295278571104E-003   5.9328031072527487E-003   4.4700865092612396E-002
  -1.4828236207777728E-003   3.2152270590327658E-003   6.2748280823871239E-002
  -1.7120976214020144E-003   4.1910146818175953E-003   5.8392527186513582E-002
  -1.9413716220262561E-003   5.4627492852916126E-003   5.4002966417794993E-002
  -2.1706456226505116E-003   7.0304308694547207E-003   4.9579598517716927E-002
  -2.3999196232747395E-003   8.8940594343069890E-003   4.5122423486278124E-002
  -2.0424332230805711E-003   4.2853573278021084E-003   6.2364224938657342E-002
  -2.2913452761149089E-003   5.5856290788486307E-003   5.8334995474914719E-002
  -2.5402573291492571E-003   7.2807127347905842E-003   5.4300297037712553E-002
  -2.7891693821836122E-003   9.3706082956286074E-003   5.0260129627050454E-002
  -3.0380814352179430E-003   1.1855315761361229E-002   4.6214493242928256E-002
  -2.5513291453285583E-002   2.3342558749958608E-003   5.4654375391028132E-002
  -2.4605059602565413E-002   3.3416425069900946E-003   5.5617101550043180E-002
  -2.3696827751845229E-002   4.1203824469878414E-003   5.6634254912546034E-002
  -2.2788595901125055E-002   4.6704756949887058E-003   5.7705835478536471E-002
  -2.1880364050404888E-002   4.9919222509928751E-003   5.8831843248014493E-002
  -3.0827629626393405E-002   6.3513534541332906E-003   5.5666651042464099E-002
  -2.9814033777206046E-002   6.7440333785477313E-003   5.5843097301184891E-002
  -2.8800437928018723E-002   7.0156358476503033E-003   5.6175844353352544E-002
  -2.7786842078831343E-002   7.1661608614410899E-003   5.6664892198966879E-002
  -2.6773246229644006E-002   7.1956084199199799E-003   5.7310240838027882E-002
  -3.6804322421120875E-002   1.0368451033270720E-002   5.6010435367977757E-002
  -3.5583488983507175E-002   1.0146424250105202E-002   5.5508170963089132E-002
  -3.4362655545893586E-002   9.9108892483128347E-003   5.5264080941606494E-002
  -3.3141822108279907E-002   9.6618460278933942E-003   5.5278165303529560E-002
  -3.1920988670666291E-002   9.3992945888471402E-003   5.5550424048858502E-002
  -4.3443369837467848E-002   1.4385548612408150E-002   5.5685728367569139E-002
  -4.1913425221468827E-002   1.3548815121662755E-002   5.4612322535755931E-002
  -4.0383480605469806E-002   1.2806142648975387E-002   5.3898964677307773E-002
  -3.8853535989470771E-002   1.2157531194345794E-002   5.3545654792224603E-002
  -3.7323591373471757E-002   1.1602980757774189E-002   5.3552392880506249E-002
  -5.0744771875434469E-002   1.8402646191545580E-002   5.4692530041238141E-002
  -4.8803842491090987E-002   1.6951205993220309E-002   5.3155552019185259E-002
  -4.6862913106747422E-002   1.5701396049637870E-002   5.2080495560456491E-002
  -4.4921983722403899E-002   1.4653216360798065E-002   5.1467360665051795E-002
  -4.2981054338060404E-002   1.3806666926701350E-002   5.1316147332971240E-002
  -2.1880364050404888E-002   4.9919222509928751E-003   5.8831843248014493E-002
  -2.1159043933074974E-002   5.1435805242918131E-003   5.9181551797363091E-002
  -2.0437723815745067E-002   5.1843089241769558E-003   5.9591375224006204E-002
  -1.9716403698415166E-002   5.1141074506479908E-003   6.0061313527943583E-002
  -1.8995083581085245E-002   4.9329761037054665E-003   6.0591366709175365E-002
  -2.6773246229644006E-002   7.1956084199199799E-003   5.7310240838027882E-002
  -2.5969719464956249E-002   7.1305552543947798E-003   5.7337753962601698E-002
  -2.5166192700268465E-002   6.9975780961731640E-003   5.7469565504596865E-002
  -2.4362665935580716E-002   6.7966769452548152E-003   5.7705675464013298E-002
  -2.3559139170892932E-002   6.5278518016401721E-003   5.8046083840851109E-002
  -3.1920988670666291E-002   9.3992945888471402E-003   5.5550424048858502E-002
  -3.0991071718493711E-002   9.1175299844977464E-003   5.5298747629374791E-002
  -3.0061154766321100E-002   8.8108472681692612E-003   5.5195553167439404E-002
  -2.9131237814148503E-002   8.4792464398616395E-003   5.5240840663052328E-002
  -2.8201320861975934E-002   8.1227274995748777E-003   5.5434610116213506E-002
  -3.7323591373471757E-002   1.1602980757774189E-002   5.3552392880506249E-002
  -3.6223100693687386E-002   1.1104504714600658E-002   5.3064532797682411E-002
  -3.5122610013902961E-002   1.0624116440165442E-002   5.2769338212533851E-002
  -3.4022119334118563E-002   1.0161815934468408E-002   5.2666809125060617E-002
  -3.2921628654334165E-002   9.7176031975095556E-003   5.2756945535262577E-002
  -4.2981054338060404E-002   1.3806666926701350E-002   5.1316147332971240E-002
  -4.1665806390537213E-002   1.3091479444703708E-002   5.0635109467524642E-002
  -4.0350558443014065E-002   1.2437385612161608E-002   5.0190920639880260E-002
  -3.9035310495490909E-002   1.1844385429075132E-002   4.9983580850038137E-002
  -3.7720062547967739E-002   1.1312478895444289E-002   5.0013090097998314E-002
  -1.8995083581085245E-002   4.9329761037054665E-003   6.0591366709175365E-002
  -1.8062284373281810E-002   4.6910576069606191E-003   6.0525126193590240E-002
  -1.7129485165478360E-002   4.4384946840248796E-003   6.0657441728657308E-002
  -1.6196685957674917E-002   4.1752873348987127E-003   6.0988313314376624E-002
  -1.5263886749871475E-002   3.9014355595817785E-003   6.1517740950748134E-002
  -2.3559139170892932E-002   6.5278518016401721E-003   5.8046083840851109E-002
  -2.2426410813482144E-002   6.2194313584533756E-003   5.7892134806626749E-002
  -2.1293682456071359E-002   5.8997443088193990E-003   5.7939488020964866E-002
  -2.0160954098660575E-002   5.5687906527377290E-003   5.8188143483865397E-002
  -1.9028225741249780E-002   5.2265703902086846E-003   5.8638101195328418E-002
  -2.8201320861975934E-002   8.1227274995748777E-003   5.5434610116213506E-002
  -2.6865917157047555E-002   7.7478051099464235E-003   5.5192330383093138E-002
  -2.5530513452119194E-002   7.3609939336136548E-003   5.5154099096445461E-002
  -2.4195109747190802E-002   6.9622939705767488E-003   5.5319916256270439E-002
  -2.2859706042262447E-002   6.5517052208354243E-003   5.5689781862568094E-002
  -3.2921628654334165E-002   9.7176031975095556E-003   5.2756945535262577E-002
  -3.1380803403978016E-002   9.2761788614393534E-003   5.2425712922989351E-002
  -2.9839978153621841E-002   8.8222435584080147E-003   5.2301274955099009E-002
  -2.8299152903265692E-002   8.3557972884157668E-003   5.2383631631591647E-002
  -2.6758327652909544E-002   7.8768400514621917E-003   5.2672782952467079E-002
  -3.7720062547967739E-002   1.1312478895444289E-002   5.0013090097998314E-002
  -3.5971069554273566E-002   1.0804552612932256E-002   4.9592282426315359E-002
  -3.4222076560579358E-002   1.0283493183202430E-002   4.9381015596925509E-002
  -3.2473083566885150E-002   9.7493006062548127E-003   4.9379289609828930E-002
  -3.0724090573190976E-002   9.2019748820889591E-003   4.9587104465025456E-002
  -1.5263886749871475E-002   3.9014355595817785E-003   6.1517740950748134E-002
  -1.4410298140790940E-002   3.6321593222874982E-003   6.1463658528242371E-002
  -1.3556709531710412E-002   3.3826785872286269E-003   6.1624405314549990E-002
  -1.2703120922629884E-002   3.1529933544050537E-003   6.1999981309671076E-002
  -1.1849532313549349E-002   2.9431036238171115E-003   6.2590386513605378E-002
  -1.9028225741249780E-002   5.2265703902086846E-003   5.8638101195328418E-002
  -1.7964322027950265E-002   4.8825071810655873E-003   5.8526051466321338E-002
  -1.6900418314650754E-002   4.5460246851420361E-003   5.8619802736938620E-002
  -1.5836514601351243E-002   4.2171229024379614E-003   5.8919355007180471E-002
  -1.4772610888051728E-002   3.8958018329534605E-003   5.9424708277047045E-002
  -2.2859706042262447E-002   6.5517052208354243E-003   5.5689781862568094E-002
  -2.1594515433932818E-002   6.1328550398436488E-003   5.5507550038043696E-002
  -2.0329324825603214E-002   5.7093707830556673E-003   5.5522091003954777E-002
  -1.9064134217273571E-002   5.2812524504709801E-003   5.5733404760301558E-002
  -1.7798943608943948E-002   4.8485000420898650E-003   5.6141491307084124E-002
  -2.6758327652909544E-002   7.8768400514621917E-003   5.2672782952467079E-002
  -2.5300878358738677E-002   7.3832028986220571E-003   5.2408154243409263E-002
  -2.3843429064567826E-002   6.8727168809692429E-003   5.2331270115598294E-002
  -2.2385979770396979E-002   6.3453819985038878E-003   5.2442130569034080E-002
  -2.0928530476226132E-002   5.8011982512262972E-003   5.2740735603716650E-002
  -3.0724090573190976E-002   9.2019748820889591E-003   4.9587104465025456E-002
  -2.9083410802367760E-002   8.6335507574000214E-003   4.9227864082418415E-002
  -2.7442731031544570E-002   8.0360629788827076E-003   4.9047340071869228E-002
  -2.5802051260721375E-002   7.4095115465369066E-003   4.9045532433377920E-002
  -2.4161371489898165E-002   6.7538964603627294E-003   4.9222441166944519E-002
  -1.1849532313549349E-002   2.9431036238171115E-003   6.2590386513605378E-002
  -1.0868297209084998E-002   2.7307561373968170E-003   6.2647383777505228E-002
  -9.8870621046206544E-003   2.4936976370777686E-003   6.2915759018593476E-002
  -8.9058270001563071E-003   2.2319281228590573E-003   6.3395512236870233E-002
  -7.9245918956919598E-003   1.9454475947409122E-003   6.4086643432335166E-002
  -1.4772610888051728E-002   3.8958018329534605E-003   5.9424708277047045E-002
  -1.3582818993047318E-002   3.5713356767255178E-003   5.9356339257605750E-002
  -1.2393027098042936E-002   3.2329986337915340E-003   5.9493705842056349E-002
  -1.1203235203038517E-002   2.8807907041509748E-003   5.9836808030398481E-002
  -1.0013443308034147E-002   2.5147118878046104E-003   6.0385645822632394E-002
  -1.7798943608943948E-002   4.8485000420898650E-003   5.6141491307084124E-002
  -1.6406237296696238E-002   4.4119152160538855E-003   5.5958596131495064E-002
  -1.5013530984448487E-002   3.9722996305050634E-003   5.5975794186501102E-002
  -1.3620824672200771E-002   3.5296532854433883E-003   5.6193085472101993E-002
  -1.2228118359953025E-002   3.0839761808685306E-003   5.6610469988298190E-002
  -2.0928530476226132E-002   5.8011982512262972E-003   5.2740735603716650E-002
  -1.9338552120031702E-002   5.2524947553824197E-003   5.2454154399172954E-002
  -1.7748573763837341E-002   4.7116006272189884E-003   5.2362024051927636E-002
  -1.6158595407642914E-002   4.1785158667351652E-003   5.2464344561980542E-002
  -1.4568617051448549E-002   3.6532404739323399E-003   5.2761115929331887E-002
  -2.4161371489898165E-002   6.7538964603627294E-003   4.9222441166944519E-002
  -2.2379763463053828E-002   6.0930742947108985E-003   4.8843014060639511E-002
  -2.0598155436209464E-002   5.4509016239324415E-003   4.8652395438335994E-002
  -1.8816547409365100E-002   4.8273784480277401E-003   4.8650585300034299E-002
  -1.7034939382520764E-002   4.2225047669961491E-003   4.8837583645733984E-002
  -7.9245918956919598E-003   1.9454475947409122E-003   6.4086643432335166E-002
  -6.9854353795852503E-003   1.7068363829941813E-003   6.4020902117374323E-002
  -6.0462788634785478E-003   1.5886748178889909E-003   6.4200139486227936E-002
  -5.1071223473718418E-003   1.5909628994262709E-003   6.4624355538895673E-002
  -4.1679658312651358E-003   1.7137006276051192E-003   6.5293550275377865E-002
  -1.0013443308034147E-002   2.5147118878046104E-003   6.0385645822632394E-002
  -8.8282583063263656E-003   2.2004937295198035E-003   6.0314151594617782E-002
  -7.6430733046185684E-003   2.0038677740648603E-003   6.0489735653990795E-002
  -6.4578883029107964E-003   1.9248340214390175E-003   6.0912398000752183E-002
  -5.2727033012029897E-003   1.9633924716430107E-003   6.1582138634901140E-002
  -1.2228118359953025E-002   3.0839761808685306E-003   5.6610469988298190E-002
  -1.0794805269070430E-002   2.6941510760457588E-003   5.6530365403417049E-002
  -9.3614921781878090E-003   2.4190607302403133E-003   5.6699438709497452E-002
  -7.9281790873052017E-003   2.2587051434517710E-003   5.7117689906539384E-002
  -6.4948659964225927E-003   2.2130843156806801E-003   5.7785118994543472E-002
  -1.4568617051448549E-002   3.6532404739323399E-003   5.2761115929331887E-002
  -1.2885076267817392E-002   3.1878084225713255E-003   5.2669543543771860E-002
  -1.1201535484186249E-002   2.8342536864156415E-003   5.2829248652747289E-002
  -9.5179947005551036E-003   2.5925762654646321E-003   5.3240231256258166E-002
  -7.8344539169239499E-003   2.4627761597185160E-003   5.3902491354304208E-002
  -1.7034939382520764E-002   4.2225047669961491E-003   4.8837583645733984E-002
  -1.5099071302567338E-002   3.6814657690973918E-003   4.8731686015682674E-002
  -1.3163203222613912E-002   3.2494466425913582E-003   4.8879165483740827E-002
  -1.1227335142660486E-002   2.9264473874772018E-003   4.9280022049907973E-002
  -9.2914670627070595E-003   2.7124680037562410E-003   4.9934255714184195E-002
  -4.1679658312651358E-003   1.7137006276051192E-003   6.5293550275377865E-002
  -3.6365826792189998E-003   2.0116510849923497E-003   6.4385005285848451E-002
  -3.1051995271728534E-003   2.5395773541542765E-003   6.3593936066552170E-002
  -2.5738163751267071E-003   3.2974794350907194E-003   6.2920342617488356E-002
  -2.0424332230805711E-003   4.2853573278021084E-003   6.2364224938657342E-002
  -5.2727033012029897E-003   1.9633924716430107E-003   6.1582138634901140E-002
  -4.5975584006626297E-003   2.2231030598190427E-003   6.0859798340796911E-002
  -3.9224135001222245E-003   2.8075257211109261E-003   6.0307505773448400E-002
  -3.2472685995818505E-003   3.7166604555177868E-003   5.9925260932855634E-002
  -2.5721236990414661E-003   4.9505072630399161E-003   5.9713063819018863E-002
  -6.4948659964225927E-003   2.2130843156806801E-003   5.7785118994543472E-002
  -5.6233873908648375E-003   2.4345550346460687E-003   5.7343719657204528E-002
  -4.7519087853070824E-003   3.0754740880672704E-003   5.7124940003144470E-002
  -3.8804301797493428E-003   4.1358414759445281E-003   5.7128780032363380E-002
  -3.0089515741915443E-003   5.6156571982776127E-003   5.7355239744861342E-002
  -7.8344539169239499E-003   2.4627761597185160E-003   5.3902491354304208E-002
  -6.7140696498257154E-003   2.6460070094731503E-003   5.3836769235071469E-002
  -5.5936853827274237E-003   3.3434224550236563E-003   5.4046238755640692E-002
  -4.4733011156291615E-003   4.5550224963714324E-003   5.4530899916011899E-002
  -3.3529168485308975E-003   6.2808071335150317E-003   5.5290752716185373E-002
  -9.2914670627070595E-003   2.7124680037562410E-003   4.9934255714184195E-002
  -7.8696051775451747E-003   2.8574589842998432E-003   5.0338947074397788E-002
  -6.4477432923832484E-003   3.6113708219802088E-003   5.1071402030936741E-002
  -5.0258814072213220E-003   4.9742035167982673E-003   5.2131620583800775E-002
  -3.6040195220594373E-003   6.9459570687528949E-003   5.3519602732990279E-002
  -2.0424332230805711E-003   4.2853573278021084E-003   6.2364224938657342E-002
  -2.2913452761149089E-003   5.5856290788486307E-003   5.8334995474914719E-002
  -2.5402573291492571E-003   7.2807127347905842E-003   5.4300297037712553E-002
  -2.7891693821836122E-003   9.3706082956286074E-003   5.0260129627050454E-002
  -3.0380814352179430E-003   1.1855315761361229E-002   4.6214493242928256E-002
  -2.5721236990414661E-003   4.9505072630399161E-003   5.9713063819018863E-002
  -2.8440789282300760E-003   6.5741188446038490E-003   5.6183937443324450E-002
  -3.1160341574187015E-003   8.6525479011352602E-003   5.2614193688781785E-002
  -3.3879893866073279E-003   1.1185794432635017E-002   4.9003832555389815E-002
  -3.6599446157959681E-003   1.4173858439102016E-002   4.5352854043150037E-002
  -3.0089515741915443E-003   5.6156571982776127E-003   5.7355239744861342E-002
  -3.3390983849232257E-003   7.5626086103586787E-003   5.4386222027287712E-002
  -3.6692451956549209E-003   1.0024383067480047E-002   5.1341438525476291E-002
  -3.9993920063865138E-003   1.3000980569641371E-002   4.8220889239427744E-002
  -4.3295388171182975E-003   1.6492401116843247E-002   4.5024574169141740E-002
  -3.3529168485308975E-003   6.2808071335150317E-003   5.5290752716185373E-002
  -3.7764036461942858E-003   8.5510983761137027E-003   5.2941849226804151E-002
  -4.1998904438577149E-003   1.1396218233824446E-002   5.0482031547797374E-002
  -4.6233772415211370E-003   1.4816166706647975E-002   4.7911299679163598E-002
  -5.0468640391845314E-003   1.8810943794584367E-002   4.5229653620904753E-002
  -3.6040195220594373E-003   6.9459570687528949E-003   5.3519602732990279E-002
  -4.1559947120433510E-003   9.5395881418686157E-003   5.1850819041874496E-002
  -4.7079699020272509E-003   1.2768053400169233E-002   5.0035972755743785E-002
  -5.2599450920111507E-003   1.6631352843654565E-002   4.8075063874598256E-002
  -5.8119202819950644E-003   2.1129486472325265E-002   4.5968092398438021E-002
  -5.0744771875434469E-002   1.8402646191545580E-002   5.4692530041238141E-002
  -4.8803842491090987E-002   1.6951205993220309E-002   5.3155552019185259E-002
  -4.6862913106747422E-002   1.5701396049637870E-002   5.2080495560456491E-002
  -4.4921983722403899E-002   1.4653216360798065E-002   5.1467360665051795E-002
  -4.2981054338060404E-002   1.3806666926701350E-002   5.1316147332971240E-002
  -5.8042716302851141E-002   1.8818948578460670E-002   4.6761613809290392E-002
  -5.5706577178641956E-002   1.7812660582723794E-002   4.5967681326615106E-002
  -5.3370438054432832E-002   1.6885717372477016E-002   4.5502246760347032E-002
  -5.1034298930223682E-002   1.6038118947720337E-002   4.5365310110486196E-002
  -4.8698159806014517E-002   1.5269865308453645E-002   4.5556871377032515E-002
  -6.4671390887548225E-002   1.9235250965375761E-002   3.9336992514557287E-002
  -6.2073465670390307E-002   1.8674115172227335E-002   3.9163820102007058E-002
  -5.9475540453232369E-002   1.8070038695316225E-002   3.9185721958946811E-002
  -5.6877615236074444E-002   1.7423021534642417E-002   3.9402698085377150E-002
  -5.4279690018916478E-002   1.6733063690205968E-002   3.9814748481297749E-002
  -7.0630795629525817E-002   1.9651553352290838E-002   3.2418666157039311E-002
  -6.7904507966335931E-002   1.9535569761730848E-002   3.2743968345360960E-002
  -6.5178220303146100E-002   1.9254360018155402E-002   3.3130921156256009E-002
  -6.2451932639956242E-002   1.8807924121564620E-002   3.3579524589724553E-002
  -5.9725644976766322E-002   1.8196262071958305E-002   3.4089778645766733E-002
  -7.5920930528783792E-002   2.0067855739205942E-002   2.6006634736735923E-002
  -7.3199704066478910E-002   2.0397024351234361E-002   2.6708126056676884E-002
  -7.0478477604173917E-002   2.0438681340994580E-002   2.7337844352274487E-002
  -6.7757251141868979E-002   2.0192826708486697E-002   2.7895789623528733E-002
  -6.5036024679564070E-002   1.9659460453710642E-002   2.8381961870439509E-002
  -4.2981054338060404E-002   1.3806666926701350E-002   5.1316147332971240E-002
  -4.1665806390537213E-002   1.3091479444703708E-002   5.0635109467524642E-002
  -4.0350558443014065E-002   1.2437385612161608E-002   5.0190920639880260E-002
  -3.9035310495490909E-002   1.1844385429075132E-002   4.9983580850038137E-002
  -3.7720062547967739E-002   1.1312478895444289E-002   5.0013090097998314E-002
  -4.8698159806014517E-002   1.5269865308453645E-002   4.5556871377032515E-002
  -4.7159814356320329E-002   1.4562831328445408E-002   4.5049751322248227E-002
  -4.5621468906626175E-002   1.3898891881464565E-002   4.4751977234003676E-002
  -4.4083123456931987E-002   1.3278046967510747E-002   4.4663549112298938E-002
  -4.2544778007237827E-002   1.2700296586584003E-002   4.4784466957133923E-002
  -5.4279690018916478E-002   1.6733063690205968E-002   3.9814748481297749E-002
  -5.2545750138313765E-002   1.6034183212187428E-002   3.9463547120747150E-002
  -5.0811810257711060E-002   1.5360398150767583E-002   3.9294188655473981E-002
  -4.9077870377108326E-002   1.4711708505946308E-002   3.9306673085478139E-002
  -4.7343930496505579E-002   1.4088114277723718E-002   3.9501000410759463E-002
  -5.9725644976766322E-002   1.8196262071958305E-002   3.4089778645766733E-002
  -5.7823613736517510E-002   1.7505535095929343E-002   3.3876496863021507E-002
  -5.5921582496268697E-002   1.6821904420070543E-002   3.3817554904291093E-002
  -5.4019551256019871E-002   1.6145370044381980E-002   3.3912952769575642E-002
  -5.2117520015771024E-002   1.5475931968863488E-002   3.4162690458874975E-002
  -6.5036024679564070E-002   1.9659460453710642E-002   2.8381961870439509E-002
  -6.2993405150931603E-002   1.8976886979671148E-002   2.8288600549071147E-002
  -6.0950785622299136E-002   1.8283410689373572E-002   2.8322075980455191E-002
  -5.8908166093666670E-002   1.7579031582817459E-002   2.8482388164591574E-002
  -5.6865546565034203E-002   1.6863749660003147E-002   2.8769537101480391E-002
  -3.7720062547967739E-002   1.1312478895444289E-002   5.0013090097998314E-002
  -3.5971069554273566E-002   1.0804552612932256E-002   4.9592282426315359E-002
  -3.4222076560579358E-002   1.0283493183202430E-002   4.9381015596925509E-002
  -3.2473083566885150E-002   9.7493006062548127E-003   4.9379289609828930E-002
  -3.0724090573190976E-002   9.2019748820889591E-003   4.9587104465025456E-002
  -4.2544778007237827E-002   1.2700296586584003E-002   4.4784466957133923E-002
  -4.0587853089643772E-002   1.2138533130188062E-002   4.4375486421468352E-002
  -3.8630928172049717E-002   1.1565648989826677E-002   4.4172828891309260E-002
  -3.6674003254455662E-002   1.0981644165499758E-002   4.4176494366656820E-002
  -3.4717078336861606E-002   1.0386518657207411E-002   4.4386482847510789E-002
  -4.7343930496505579E-002   1.4088114277723718E-002   3.9501000410759463E-002
  -4.5182291491798268E-002   1.3472513647443854E-002   3.9105859474363527E-002
  -4.3020652487090957E-002   1.2847804796450979E-002   3.8913823706687584E-002
  -4.0859013482383653E-002   1.2213987724744815E-002   3.8924893107731624E-002
  -3.8697374477676329E-002   1.1571062432325696E-002   3.9139067677495532E-002
  -5.2117520015771024E-002   1.5475931968863488E-002   3.4162690458874975E-002
  -4.9754384760737111E-002   1.4806494164699598E-002   3.3783401585001135E-002
  -4.7391249505703135E-002   1.4129960603075309E-002   3.3604000043060703E-002
  -4.5028114250669139E-002   1.3446331283989983E-002   3.3624485833053643E-002
  -4.2664978995635199E-002   1.2755606207444009E-002   3.3844858954979823E-002
  -5.6865546565034203E-002   1.6863749660003147E-002   2.8769537101480391E-002
  -5.4304132896460189E-002   1.6140474681955452E-002   2.8408112753380899E-002
  -5.1742719227886147E-002   1.5412116409699528E-002   2.8243357900428423E-002
  -4.9181305559312105E-002   1.4678674843235040E-002   2.8275272542622479E-002
  -4.6619891890738091E-002   1.3940149982562433E-002   2.8503856679963580E-002
  -3.0724090573190976E-002   9.2019748820889591E-003   4.9587104465025456E-002
  -2.9083410802367760E-002   8.6335507574000214E-003   4.9227864082418415E-002
  -2.7442731031544570E-002   8.0360629788827076E-003   4.9047340071869228E-002
  -2.5802051260721375E-002   7.4095115465369066E-003   4.9045532433377920E-002
  -2.4161371489898165E-002   6.7538964603627294E-003   4.9222441166944519E-002
  -3.4717078336861606E-002   1.0386518657207411E-002   4.4386482847510789E-002
  -3.2904903508240692E-002   9.7744301451914151E-003   4.4006778284844589E-002
  -3.1092728679619694E-002   9.1395363096942184E-003   4.3791347465716030E-002
  -2.9280553850998786E-002   8.4818371507159318E-003   4.3740190390124944E-002
  -2.7468379022377781E-002   7.8013326682562223E-003   4.3853307058071667E-002
  -3.8697374477676329E-002   1.1571062432325696E-002   3.9139067677495532E-002
  -3.6728147219777921E-002   1.0915309532982920E-002   3.8745157265117514E-002
  -3.4758919961879520E-002   1.0243009640505951E-002   3.8501077967756689E-002
  -3.2789692703981070E-002   9.5541627548949570E-003   3.8406829785413210E-002
  -3.0820465446082648E-002   8.8487688761498817E-003   3.8462412718087147E-002
  -4.2664978995635199E-002   1.2755606207444009E-002   3.3844858954979823E-002
  -4.0553141936979613E-002   1.2056188920774369E-002   3.3443001023236989E-002
  -3.8441304878323972E-002   1.1346482971317573E-002   3.3176531577991067E-002
  -3.6329467819668358E-002   1.0626488359073816E-002   3.3045450619242349E-002
  -3.4217630761012752E-002   9.8962050840432914E-003   3.3049758146990647E-002
  -4.6619891890738091E-002   1.3940149982562433E-002   2.8503856679963580E-002
  -4.4379887659845574E-002   1.3197068308565818E-002   2.8100309559203063E-002
  -4.2139883428953098E-002   1.2449956302129112E-002   2.7817708296419275E-002
  -3.9899879198060588E-002   1.1698813963252931E-002   2.7656052891612465E-002
  -3.7659874967168105E-002   1.0943641291937034E-002   2.7615343344782217E-002
  -2.4161371489898165E-002   6.7538964603627294E-003   4.9222441166944519E-002
  -2.2379763463053828E-002   6.0930742947108985E-003   4.8843014060639511E-002
  -2.0598155436209464E-002   5.4509016239324415E-003   4.8652395438335994E-002
  -1.8816547409365100E-002   4.8273784480277401E-003   4.8650585300034299E-002
  -1.7034939382520764E-002   4.2225047669961491E-003   4.8837583645733984E-002
  -2.7468379022377781E-002   7.8013326682562223E-003   4.3853307058071667E-002
  -2.5506059500870162E-002   7.1182786655605845E-003   4.3438881960144227E-002
  -2.3543739979362502E-002   6.4529309458733475E-003   4.3197071367541667E-002
  -2.1581420457854883E-002   5.8052895091951912E-003   4.3127875280264308E-002
  -1.9619100936347222E-002   5.1753543555259629E-003   4.3231293698311635E-002
  -3.0820465446082648E-002   8.8487688761498817E-003   3.8462412718087147E-002
  -2.8693628408588360E-002   8.1434830364098543E-003   3.8012046416672718E-002
  -2.6566791371094044E-002   7.4549602678141563E-003   3.7718100641906657E-002
  -2.4439954333599728E-002   6.7832005703628677E-003   3.7580575393788791E-002
  -2.2313117296105384E-002   6.1282039440559988E-003   3.7599470672319557E-002
  -3.4217630761012752E-002   9.8962050840432914E-003   3.3049758146990647E-002
  -3.1942470186208445E-002   9.1686874072592212E-003   3.2562507430224624E-002
  -2.9667309611404069E-002   8.4569895897549582E-003   3.2215483261430575E-002
  -2.7392149036599724E-002   7.7611116315307090E-003   3.2008685640608173E-002
  -2.5116988461795380E-002   7.0810535325862012E-003   3.1942114567757446E-002
  -3.7659874967168105E-002   1.0943641291937034E-002   2.7615343344782217E-002
  -3.5252584833730394E-002   1.0193891778108755E-002   2.7090265000800362E-002
  -3.2845294700292627E-002   9.4590189116957879E-003   2.6689219226113781E-002
  -3.0438004566854873E-002   8.7390226926983075E-003   2.6412206020722057E-002
  -2.8030714433417148E-002   8.0339031211159595E-003   2.6259225384625551E-002
  -1.7034939382520764E-002   4.2225047669961491E-003   4.8837583645733984E-002
  -1.5099071302567338E-002   3.6814657690973918E-003   4.8731686015682674E-002
  -1.3163203222613912E-002   3.2494466425913582E-003   4.8879165483740827E-002
  -1.1227335142660486E-002   2.9264473874772018E-003   4.9280022049907973E-002
  -9.2914670627070595E-003   2.7124680037562410E-003   4.9934255714184195E-002
  -1.9619100936347222E-002   5.1753543555259629E-003   4.3231293698311635E-002
  -1.7467986065229799E-002   4.5883141051577536E-003   4.3065962652876211E-002
  -1.5316871194112472E-002   4.0693573783822101E-003   4.3077748091659429E-002
  -1.3165756322995097E-002   3.6184841751991659E-003   4.3266650014661581E-002
  -1.1014641451877721E-002   3.2356944956093425E-003   4.3632668421882459E-002
  -2.2313117296105384E-002   6.1282039440559988E-003   3.7599470672319557E-002
  -2.0023016247714499E-002   5.4951624412179767E-003   3.7333769863700017E-002
  -1.7732915199323566E-002   4.8892681141729788E-003   3.7168924925408880E-002
  -1.5442814150932634E-002   4.3105209629212479E-003   3.7104935857446147E-002
  -1.3152713102541749E-002   3.7589209874626661E-003   3.7141802659811651E-002
  -2.5116988461795380E-002   7.0810535325862012E-003   3.1942114567757446E-002
  -2.2764161850021301E-002   6.4020107772782137E-003   3.1535107648154342E-002
  -2.0411335238247254E-002   5.7091788499639001E-003   3.1152695984989133E-002
  -1.8058508626473166E-002   5.0025577506432710E-003   3.0794879578262154E-002
  -1.5705682014699077E-002   4.2821474793157677E-003   3.0461658427972840E-002
  -2.8030714433417148E-002   8.0339031211159595E-003   2.6259225384625551E-002
  -2.5691422872150343E-002   7.3088591133386172E-003   2.5669976006238993E-002
  -2.3352131310883484E-002   6.5290895857546827E-003   2.5029061270400221E-002
  -2.1012839749616652E-002   5.6945945383649818E-003   2.4336481177109015E-002
  -1.8673548188349820E-002   4.8053739711690913E-003   2.3592235726365152E-002
  -9.2914670627070595E-003   2.7124680037562410E-003   4.9934255714184195E-002
  -7.8696051775451747E-003   2.8574589842998432E-003   5.0338947074397788E-002
  -6.4477432923832484E-003   3.6113708219802088E-003   5.1071402030936741E-002
  -5.0258814072213220E-003   4.9742035167982673E-003   5.2131620583800775E-002
  -3.6040195220594373E-003   6.9459570687528949E-003   5.3519602732990279E-002
  -1.1014641451877721E-002   3.2356944956093425E-003   4.3632668421882459E-002
  -9.2469207168843215E-003   3.1625409059918841E-003   4.4220612530853631E-002
  -7.4791999818909771E-003   3.6405759727273779E-003   4.5172510743162780E-002
  -5.7114792468975981E-003   4.6697996958151022E-003   4.6488363058809754E-002
  -3.9437585119042329E-003   6.2502120752554458E-003   4.8168169477794009E-002
  -1.3152713102541749E-002   3.7589209874626661E-003   3.7141802659811651E-002
  -1.1002943010704390E-002   3.4676228276845633E-003   3.7855267316756258E-002
  -8.8531729188670825E-003   3.6697811234745747E-003   3.8968876584050932E-002
  -6.7034028270297474E-003   4.3653958748326102E-003   4.0482630461696034E-002
  -4.5536327351924158E-003   5.5544670817585517E-003   4.2396528949691092E-002
  -1.5705682014699077E-002   4.2821474793157677E-003   3.0461658427972840E-002
  -1.3137672059005324E-002   3.7727047493769789E-003   3.1242911432105891E-002
  -1.0569662103311540E-002   3.6989862742216467E-003   3.2460499553601863E-002
  -8.0016521476177424E-003   4.0609920538496706E-003   3.4114422792460464E-002
  -5.4336421919240017E-003   4.8587220882611581E-003   3.6204681148681625E-002
  -1.8673548188349820E-002   4.8053739711690913E-003   2.3592235726365152E-002
  -1.5651107861787084E-002   4.0777866710693944E-003   2.4383544876902530E-002
  -1.2628667535224347E-002   3.7281914249688852E-003   2.5647379651814906E-002
  -9.6062272086615830E-003   3.7565882328671613E-003   2.7383740051102695E-002
  -6.5837868820988743E-003   4.1629770947644307E-003   2.9592626074765427E-002
  -3.6040195220594373E-003   6.9459570687528949E-003   5.3519602732990279E-002
  -4.1559947120433510E-003   9.5395881418686157E-003   5.1850819041874496E-002
  -4.7079699020272509E-003   1.2768053400169233E-002   5.0035972755743785E-002
  -5.2599450920111507E-003   1.6631352843654565E-002   4.8075063874598256E-002
  -5.8119202819950644E-003   2.1129486472325265E-002   4.5968092398438021E-002
  -3.9437585119042329E-003   6.2502120752554458E-003   4.8168169477794009E-002
  -4.5377861972577677E-003   8.6905923812626296E-003   4.7235051343862966E-002
  -5.1318138826112331E-003   1.2299719884050819E-002   4.6363890814207942E-002
  -5.7258415679646429E-003   1.7077594583619612E-002   4.5554687888828910E-002
  -6.3198692533181777E-003   2.3024216479970105E-002   4.4807442567724731E-002
  -4.5536327351924158E-003   5.5544670817585517E-003   4.2396528949691092E-002
  -4.9816927166248838E-003   7.8415966206570320E-003   4.2732989384541314E-002
  -5.4097526980573275E-003   1.1831386367932545E-002   4.3339427622957866E-002
  -5.8378126794896741E-003   1.7523836323585000E-002   4.4215843664940080E-002
  -6.2658726609222948E-003   2.4918946487614724E-002   4.5362237510489845E-002
  -5.4336421919240017E-003   4.8587220882611581E-003   3.6204681148681625E-002
  -5.4877142701448218E-003   6.9926008600510181E-003   3.8344633163908681E-002
  -5.5417863483656436E-003   1.1363052851814090E-002   4.0962583181992578E-002
  -5.5958584265865469E-003   1.7970078063550551E-002   4.4058531202933598E-002
  -5.6499305048073947E-003   2.6813676495259564E-002   4.7632477226731307E-002
  -6.5837868820988743E-003   4.1629770947644307E-003   2.9592626074765427E-002
  -6.0558508578175407E-003   6.1436050994456703E-003   3.4069982681965705E-002
  -5.5279148335361239E-003   1.0894719335696079E-002   3.9233357491313292E-002
  -4.9999788092546515E-003   1.8416319803515324E-002   4.5082750502808799E-002
  -4.4720427849733735E-003   2.8708406502904182E-002   5.1618161716451283E-002
  -7.5920930528783792E-002   2.0067855739205942E-002   2.6006634736735923E-002
  -7.3199704066478910E-002   2.0397024351234361E-002   2.6708126056676884E-002
  -7.0478477604173917E-002   2.0438681340994580E-002   2.7337844352274487E-002
  -6.7757251141868979E-002   2.0192826708486697E-002   2.7895789623528733E-002
  -6.5036024679564070E-002   1.9659460453710642E-002   2.8381961870439509E-002
  -8.1318285290322090E-002   2.3561956586219457E-002   2.1637767316623868E-002
  -7.8559570414064125E-002   2.3018600616966173E-002   2.1404244923594412E-002
  -7.5800855537806189E-002   2.2441625102007826E-002   2.1317472382814340E-002
  -7.3042140661548238E-002   2.1831030041344891E-002   2.1377449694283748E-002
  -7.0283425785290371E-002   2.1186815434976747E-002   2.1584176858002402E-002
  -8.7599349619140565E-002   2.7056057433232916E-002   1.6269429276948327E-002
  -8.4584623452336846E-002   2.5640176882697929E-002   1.5354785247511868E-002
  -8.1569897285533266E-002   2.4444568863021210E-002   1.4805413946917451E-002
  -7.8555171118729547E-002   2.3469233374202779E-002   1.4621315375165166E-002
  -7.5540444951925842E-002   2.2714170416242824E-002   1.4802489532254978E-002
  -9.4764123515239176E-002   3.0550158280246487E-002   9.9016206177094182E-003
  -9.1274863181297058E-002   2.8261753148429658E-002   8.5597470284292931E-003
  -8.7785602847354899E-002   2.6447512624034358E-002   7.8016690445837991E-003
  -8.4296342513412809E-002   2.5107436707060875E-002   7.6273866661729708E-003
  -8.0807082179470677E-002   2.4241525397509137E-002   8.0368998931971865E-003
 -0.10281260697861794        3.4044259127259946E-002   2.5343413389072866E-003
  -9.8630289600944554E-002   3.0883329414161387E-002   1.0191302663463686E-003
  -9.4447972223271393E-002   2.8450456385047868E-002   3.0623767581325345E-004
  -9.0265654845598009E-002   2.6745640039919034E-002   3.9566356730729585E-004
  -8.6083337467924737E-002   2.5768880378775116E-002   1.2874079408292105E-003
  -6.5036024679564070E-002   1.9659460453710642E-002   2.8381961870439509E-002
  -6.2993405150931603E-002   1.8976886979671148E-002   2.8288600549071147E-002
  -6.0950785622299136E-002   1.8283410689373572E-002   2.8322075980455191E-002
  -5.8908166093666670E-002   1.7579031582817459E-002   2.8482388164591574E-002
  -5.6865546565034203E-002   1.6863749660003147E-002   2.8769537101480391E-002
  -7.0283425785290371E-002   2.1186815434976747E-002   2.1584176858002402E-002
  -6.8110958504882441E-002   2.0510091878141262E-002   2.1463057889003684E-002
  -6.5938491224474552E-002   1.9801969966076235E-002   2.1474797670803403E-002
  -6.3766023944066663E-002   1.9062449698781413E-002   2.1619396203401677E-002
  -6.1593556663658747E-002   1.8291531076256806E-002   2.1896853486798235E-002
  -7.5540444951925842E-002   2.2714170416242824E-002   1.4802489532254978E-002
  -7.3232107921696515E-002   2.2043296776611432E-002   1.4633117376654514E-002
  -7.0923770891467203E-002   2.1320529242778892E-002   1.4602625969898524E-002
  -6.8615433861237890E-002   2.0545867814745475E-002   1.4711015311987225E-002
  -6.6307096831008508E-002   1.9719312492510577E-002   1.4958285402920282E-002
  -8.0807082179470677E-002   2.4241525397509137E-002   8.0368998931971865E-003
  -7.8356853401373827E-002   2.3576501675081546E-002   7.7987790120237800E-003
  -7.5906624623277061E-002   2.2839088519481830E-002   7.7055608777408541E-003
  -7.3456395845180267E-002   2.2029285930709290E-002   7.7572454903482033E-003
  -7.1006167067083473E-002   2.1147093908764264E-002   7.9538328498463123E-003
  -8.6083337467924737E-002   2.5768880378775116E-002   1.2874079408292105E-003
  -8.3485194943914376E-002   2.5109706573551605E-002   9.6004279511119339E-004
  -8.0887052419904126E-002   2.4357647796184295E-002   7.8360239432966050E-004
  -7.8288909895893849E-002   2.3512704046673348E-002   7.5808673848477490E-004
  -7.5690767371883516E-002   2.2574875325017896E-002   8.8349582757663025E-004
  -5.6865546565034203E-002   1.6863749660003147E-002   2.8769537101480391E-002
  -5.4304132896460189E-002   1.6140474681955452E-002   2.8408112753380899E-002
  -5.1742719227886147E-002   1.5412116409699528E-002   2.8243357900428423E-002
  -4.9181305559312105E-002   1.4678674843235040E-002   2.8275272542622479E-002
  -4.6619891890738091E-002   1.3940149982562433E-002   2.8503856679963580E-002
  -6.1593556663658747E-002   1.8291531076256806E-002   2.1896853486798235E-002
  -5.8837706926651578E-002   1.7505653191296017E-002   2.1545863911334590E-002
  -5.6081857189644445E-002   1.6721255136692759E-002   2.1387076977590430E-002
  -5.3326007452637256E-002   1.5938336912446477E-002   2.1420492685565812E-002
  -5.0570157715630129E-002   1.5156898518557615E-002   2.1646111035260818E-002
  -6.6307096831008508E-002   1.9719312492510577E-002   1.4958285402920282E-002
  -6.3361277878995467E-002   1.8870831700636748E-002   1.4624293724658094E-002
  -6.0415458926982364E-002   1.8030393863685712E-002   1.4478037834687908E-002
  -5.7469639974969275E-002   1.7197998981657969E-002   1.4519517733010266E-002
  -5.4523821022956200E-002   1.6373647054552687E-002   1.4748733419624765E-002
  -7.1006167067083473E-002   2.1147093908764264E-002   7.9538328498463123E-003
  -6.7874845753491703E-002   2.0236010209977257E-002   7.6434021933509608E-003
  -6.4743524439899960E-002   1.9339532590679082E-002   7.5162404717208607E-003
  -6.1612203126308218E-002   1.8457661050869545E-002   7.5723476849554675E-003
  -5.8480881812716448E-002   1.7590395590547925E-002   7.8117238330553881E-003
  -7.5690767371883516E-002   2.2574875325017896E-002   8.8349582757663025E-004
  -7.2378410550140326E-002   2.1601188719317932E-002   6.0318931741404347E-004
  -6.9066053728397192E-002   2.0648671317671841E-002   5.0168488868881922E-004
  -6.5753696906654002E-002   1.9717323120080774E-002   5.7898254140189426E-004
  -6.2441340084910868E-002   1.8807144126542941E-002   8.3508227555262327E-004
  -4.6619891890738091E-002   1.3940149982562433E-002   2.8503856679963580E-002
  -4.4379887659845574E-002   1.3197068308565818E-002   2.8100309559203063E-002
  -4.2139883428953098E-002   1.2449956302129112E-002   2.7817708296419275E-002
  -3.9899879198060588E-002   1.1698813963252931E-002   2.7656052891612465E-002
  -3.7659874967168105E-002   1.0943641291937034E-002   2.7615343344782217E-002
  -5.0570157715630129E-002   1.5156898518557615E-002   2.1646111035260818E-002
  -4.8198167957260313E-002   1.4377805860106646E-002   2.1249796755606232E-002
  -4.5826178198890573E-002   1.3601924842174928E-002   2.0996507672929460E-002
  -4.3454188440520847E-002   1.2829255464761713E-002   2.0886243787230543E-002
  -4.1082198682151017E-002   1.2059797727867583E-002   2.0919005098509358E-002
  -5.4523821022956200E-002   1.6373647054552687E-002   1.4748733419624765E-002
  -5.1997766398108151E-002   1.5558543411647863E-002   1.4366893954034621E-002
  -4.9471711773260096E-002   1.4753893382220731E-002   1.4150159024423584E-002
  -4.6945657148412083E-002   1.3959696966270380E-002   1.4098528630791217E-002
  -4.4419602523563986E-002   1.3175954163798131E-002   1.4212002773137750E-002
  -5.8480881812716448E-002   1.7590395590547925E-002   7.8117238330553881E-003
  -5.5778682982389124E-002   1.6739280963189274E-002   7.4516011544882577E-003
  -5.3076484152061662E-002   1.5905861922266319E-002   7.2786623509015942E-003
  -5.0374285321734255E-002   1.5090138467779493E-002   7.2929074222942130E-003
  -4.7672086491406876E-002   1.4292110599728569E-002   7.4943363686670317E-003
  -6.2441340084910868E-002   1.8807144126542941E-002   8.3508227555262327E-004
  -5.9540917710103058E-002   1.7920018514729907E-002   5.0391835696750320E-004
  -5.6640495335295249E-002   1.7057830462312074E-002   3.8201765236334229E-004
  -5.3740072960487467E-002   1.6220579969287927E-002   4.6938016174005726E-004
  -5.0839650585679630E-002   1.5408267035659451E-002   7.6600588509756484E-004
  -3.7659874967168105E-002   1.0943641291937034E-002   2.7615343344782217E-002
  -3.5252584833730394E-002   1.0193891778108755E-002   2.7090265000800362E-002
  -3.2845294700292627E-002   9.4590189116957879E-003   2.6689219226113781E-002
  -3.0438004566854873E-002   8.7390226926983075E-003   2.6412206020722057E-002
  -2.8030714433417148E-002   8.0339031211159595E-003   2.6259225384625551E-002
  -4.1082198682151017E-002   1.2059797727867583E-002   2.0919005098509358E-002
  -3.8561005672156590E-002   1.1293782707045286E-002   2.0477992154879665E-002
  -3.6039812662161996E-002   1.0531441477847847E-002   2.0140752395068129E-002
  -3.3518619652167493E-002   9.7727740402755586E-003   1.9907285819075207E-002
  -3.0997426642172976E-002   9.0177803943281010E-003   1.9777592426900859E-002
  -4.4419602523563986E-002   1.3175954163798131E-002   1.4212002773137750E-002
  -4.1804766022489281E-002   1.2393673635981622E-002   1.3843852374069598E-002
  -3.9189929521414570E-002   1.1603864043999892E-002   1.3559215773343028E-002
  -3.6575093020339858E-002   1.0806525387852473E-002   1.3358092970958607E-002
  -3.3960256519265208E-002   1.0001657667540409E-002   1.3240483966915934E-002
  -4.7672086491406876E-002   1.4292110599728569E-002   7.4943363686670317E-003
  -4.4983865884728538E-002   1.3493564564918445E-002   7.1878456583701067E-003
  -4.2295645278050305E-002   1.2676286610152056E-002   6.9446093609385473E-003
  -3.9607424671372050E-002   1.1840276735430444E-002   6.7646274763717654E-003
  -3.6919204064693734E-002   1.0985534940752412E-002   6.6479000046707273E-003
  -5.0839650585679630E-002   1.5408267035659451E-002   7.6600588509756484E-004
  -4.8098305258874374E-002   1.4593455493854601E-002   5.0997200778157836E-004
  -4.5356959932069174E-002   1.3748709176304053E-002   2.9693315785386809E-004
  -4.2615614605263946E-002   1.2874028083006875E-002   1.2688933531527363E-004
  -3.9874269278458718E-002   1.1969412213964636E-002  -1.5945983478093950E-007
  -2.8030714433417148E-002   8.0339031211159595E-003   2.6259225384625551E-002
  -2.5691422872150343E-002   7.3088591133386172E-003   2.5669976006238993E-002
  -2.3352131310883484E-002   6.5290895857546827E-003   2.5029061270400221E-002
  -2.1012839749616652E-002   5.6945945383649818E-003   2.4336481177109015E-002
  -1.8673548188349820E-002   4.8053739711690913E-003   2.3592235726365152E-002
  -3.0997426642172976E-002   9.0177803943281010E-003   1.9777592426900859E-002
  -2.8692092556108689E-002   8.2645552652164667E-003   1.9182502123548051E-002
  -2.6386758470044402E-002   7.5111933781512596E-003   1.8571162227242533E-002
  -2.4081424383980136E-002   6.7576947331322995E-003   1.7943572737984373E-002
  -2.1776090297915829E-002   6.0040593301591283E-003   1.7299733655773530E-002
  -3.3960256519265208E-002   1.0001657667540409E-002   1.3240483966915934E-002
  -3.1653464143903631E-002   9.2202514170948435E-003   1.2694141500448897E-002
  -2.9346671768542151E-002   8.4932971705474064E-003   1.2166965205529276E-002
  -2.7039879393180644E-002   7.8207949278993986E-003   1.1658955082156704E-002
  -2.4733087017819094E-002   7.2027446891497204E-003   1.1170111130331284E-002
  -3.6919204064693734E-002   1.0985534940752412E-002   6.6479000046707273E-003
  -3.4575537635535239E-002   1.0175947568972679E-002   6.2048941369423627E-003
  -3.2231871206376689E-002   9.4754009629440458E-003   5.8164702052606147E-003
  -2.9888204777218159E-002   8.8838951226662740E-003   5.4826282096264219E-003
  -2.7544538348059651E-002   8.4014300481400350E-003   5.2033681500385370E-003
  -3.9874269278458718E-002   1.1969412213964636E-002  -1.5945983478093950E-007
  -3.7458313031003332E-002   1.1131643720850515E-002  -2.8523996697249476E-004
  -3.5042356783548056E-002   1.0457504755340352E-002  -4.8032277356327424E-004
  -3.2626400536092753E-002   9.9469953174339265E-003  -5.8540787960754265E-004
  -3.0210444288637395E-002   9.6001154071301276E-003  -6.0049528510475181E-004
  -1.8673548188349820E-002   4.8053739711690913E-003   2.3592235726365152E-002
  -1.5651107861787084E-002   4.0777866710693944E-003   2.4383544876902530E-002
  -1.2628667535224347E-002   3.7281914249688852E-003   2.5647379651814906E-002
  -9.6062272086615830E-003   3.7565882328671613E-003   2.7383740051102695E-002
  -6.5837868820988743E-003   4.1629770947644307E-003   2.9592626074765427E-002
  -2.1776090297915829E-002   6.0040593301591283E-003   1.7299733655773530E-002
  -1.8550144824959897E-002   5.3412663525371773E-003   1.8247474549318965E-002
  -1.5324199352003964E-002   4.8602949835711562E-003   1.9129700111275405E-002
  -1.2098253879048039E-002   4.5611452232604405E-003   1.9946410341643073E-002
  -8.8723084060922108E-003   4.4438170716056824E-003   2.0697605240422079E-002
  -2.4733087017819094E-002   7.2027446891497204E-003   1.1170111130331284E-002
  -2.1841677354433986E-002   6.6047460340054598E-003   1.2078113321541295E-002
  -1.8950267691048871E-002   5.9923985421734549E-003   1.2382559225198347E-002
  -1.6058858027663700E-002   5.3657022136538376E-003   1.2083448841303052E-002
  -1.3167448364278536E-002   4.7246570484468231E-003   1.1180782169854631E-002
  -2.7544538348059651E-002   8.4014300481400350E-003   5.2033681500385370E-003
  -2.5525705450209310E-002   7.8682257154738811E-003   5.8754611935696657E-003
  -2.3506872552358997E-002   7.1245021007765169E-003   5.4059569935844334E-003
  -2.1488039654508653E-002   6.1702592040471758E-003   3.7948555500820526E-003
  -1.9469206756658343E-002   5.0054970252877973E-003   1.0421568630629152E-003
  -3.0210444288637395E-002   9.6001154071301276E-003  -6.0049528510475181E-004
  -2.9602229112285938E-002   9.1317053969416362E-003  -3.6048183459569394E-004
  -2.8994013935934371E-002   8.2566056593779691E-003  -1.8001065835671071E-003
  -2.8385798759582859E-002   6.9748161944409443E-003  -4.9193695320195463E-003
  -2.7777583583231347E-002   5.2863370021296596E-003  -9.7182706799523455E-003
  -6.5837868820988743E-003   4.1629770947644307E-003   2.9592626074765427E-002
  -6.0558508578175407E-003   6.1436050994456703E-003   3.4069982681965705E-002
  -5.5279148335361239E-003   1.0894719335696079E-002   3.9233357491313292E-002
  -4.9999788092546515E-003   1.8416319803515324E-002   4.5082750502808799E-002
  -4.4720427849733735E-003   2.8708406502904182E-002   5.1618161716451283E-002
  -8.8723084060922108E-003   4.4438170716056824E-003   2.0697605240422079E-002
  -7.5862844899049625E-003   5.6594901120687324E-003   2.5867746606762221E-002
  -6.3002605737178252E-003   9.3593439281132174E-003   3.1868045554766633E-002
  -5.0142366575307365E-003   1.5543378519739137E-002   3.8698502084434816E-002
  -3.7282127413435506E-003   2.4211593886946048E-002   4.6359116195767047E-002
  -1.3167448364278536E-002   4.7246570484468231E-003   1.1180782169854631E-002
  -1.0979197176669321E-002   5.1753751246917945E-003   1.6757402839347013E-002
  -8.7909459890600991E-003   7.8239685205304665E-003   2.3308320470019850E-002
  -6.6026948014508771E-003   1.2670437235962895E-002   3.0833535061872988E-002
  -4.4144436138415510E-003   1.9714781270987913E-002   3.9333046614906553E-002
  -1.9469206756658343E-002   5.0054970252877973E-003   1.0421568630629152E-003
  -1.6234588918110505E-002   4.6912601373157448E-003   6.7389513797195960E-003
  -1.2999971079562588E-002   6.2885931129481043E-003   1.3554182237073512E-002
  -9.7653532410146623E-003   9.7974959521864580E-003   2.1487849435123212E-002
  -6.5307354024668404E-003   1.5217968655030112E-002   3.0539952973871132E-002
  -2.7777583583231347E-002   5.2863370021296596E-003  -9.7182706799523455E-003
  -2.3352459714228391E-002   4.2071451499381407E-003  -4.1876077721196281E-003
  -1.8927335845225490E-002   4.7532177053651870E-003   2.6056308559267716E-003
  -1.4502211976222562E-002   6.9245546684101045E-003   1.0661445204186458E-002
  -1.0077088107219634E-002   1.0721156039071644E-002   1.9979835272659230E-002
 </DataArray>
 </PointData>
 </Piece>
 </UnstructuredGrid>
 </VTKFile>
